84
Image 0  Energy = -386.2051118608
O   10.7329800175 -5.5518595260  5.0366410038
O   11.2063767332 -0.8508486987  3.9657547953
O   17.7517755608 -3.3428484807 -2.7657353613
O   14.4831421530 -3.1027572791  0.8392849736
C   12.7825966420 -3.8430342025  2.4709100392
C   12.5127209926 -2.4819783878  2.7584456590
C   12.1592841359 -4.8584744246  3.2285310381
C   11.5550309988 -2.1740365678  3.7162194759
C   11.2717927712 -4.5194449100  4.2518083593
C   10.8872528743 -3.1767719093  4.4731561017
C   9.8529746079 -2.6098658632  5.3868441864
C   10.3669625294 -1.7551748448  6.4704170713
C   9.6170415880 -1.2558441893  7.5077959165
C   8.2689462603 -1.7470599308  7.7494009435
C   10.2666519855 -0.2515917090  8.4223605262
C   14.8954349354 -5.0968241869 -0.2568805973
C   15.2479070113 -3.7117640693 -0.1816455286
C   16.1797527886 -3.1142060150 -0.9852892170
C   16.8019234153 -3.9336206655 -1.9510488944
C   16.4664405547 -5.3120910519 -2.0834281710
C   15.5224936562 -5.8888092801 -1.2398378404
C   13.9253128310 -5.3441759462  0.7430986597
C   13.6689972386 -4.1563854124  1.4130974873
H   13.0509505927 -1.7101832437  2.2154045067
H   12.3837719025 -5.8977764726  3.0238852465
H   11.2234982076 -6.3833828858  4.8642151131
H   11.6540493702 -0.2533034715  3.3406355805
H   9.1445700245 -2.0433288199  4.7766028992
H   11.4163944009 -1.4726509118  6.4386771651
H   7.5399369169 -1.5074404310  6.9759737557
H   7.8916489383 -1.5794825607  8.7550866045
H   10.8071317594  0.4945331374  7.8319973546
H   11.0137602080 -0.7354981626  9.0646776675
H   9.5368092858  0.2560082554  9.0580951346
H   16.4604549581 -2.0654637601 -0.9125971093
H   16.9473601613 -5.9202841619 -2.8477115489
H   15.2606976903 -6.9404953302 -1.3321472403
H   13.4553533309 -6.3007329372  0.9187024943
H   18.1274382220 -3.9950867730 -3.3921836217
C   9.8060621910 -4.7878108651  10.8176664546
O   12.0364275284 -5.6219107518  11.3338552455
C   11.1003234274 -5.1610560215  10.4205379892
O   7.6419614243 -3.9013841212  10.1701663076
C   11.5013344667 -5.0698783370  9.0703052725
O   6.2387383647 -2.9687800519  5.8482660325
C   10.6144638643 -4.5867034983  8.1237934726
O   4.5402958701 -4.2991154833  4.4173503585
C   9.3003035378 -4.2172129409  8.4805030445
O   6.2581249227 -6.1507003417  0.3040074515
C   8.9272627554 -4.3126705166  9.8465708315
C   8.3102126169 -3.6372596286  7.5614829442
C   8.4432548240 -3.8538202944  6.0690727877
C   7.1568348356 -3.6849046138  5.3437214654
C   6.9400842647 -4.3676046467  4.0531493357
C   7.9890348882 -4.7399723362  3.1899928364
C   5.5943462771 -4.6437211321  3.6250790918
C   7.7454812500 -5.3231261004  1.9578064852
C   5.3468680200 -5.2689426888  2.3996125029
C   6.4261418980 -5.5813451145  1.5483961894
C   3.9039092324 -5.6007659723  1.9902032459
C   3.5206914680 -7.0766554460  1.8343722720
C   3.4802047649 -7.9919667468  2.8286683103
C   3.0176623732 -9.3986258796  2.5522908379
C   4.0070543232 -7.7076316894  4.2181417608
H   9.5010245646 -4.8602058501  11.8630669351
H   12.5123791707 -5.3755995681  8.8256269317
H   10.9283074729 -4.4840129804  7.0900894436
H   11.6728971996 -5.6133492244  12.2421230219
H   7.4714166529 -4.0022438444  11.1263933631
H   7.3020982892 -3.8165704578  7.9333470378
H   8.9699856458 -4.7516040011  5.8073906767
H   9.0065911925 -4.5244819758  3.4734446052
H   8.5366140301 -5.5958444910  1.2705771492
H   4.9142249793 -3.6964020781  5.1282921622
H   5.3154601293 -6.2310488753  0.0679836309
H   3.2717455355 -5.1337713310  2.7544033424
H   3.6729097621 -5.1159108595  1.0309368203
H   3.1953561335 -7.3808746939  0.8383859976
H   2.3402646309 -9.7417985217  3.3418192472
H   3.8684719649 -10.0924876940  2.5569046087
H   2.5075691407 -9.4780044579  1.5878361544
H   5.1052978635 -7.7130849955  4.2253463666
H   3.6708526485 -8.4737268287  4.9229517927
H   3.6855683808 -6.7271680514  4.5868363670
