84
Scanning combination 1/256: [3.0000, 3.0000]  Energy = -386.2560023066
O   10.7676529538 -5.2122334724  4.8342693696
O   12.0203843351 -0.5742033283  4.3058459874
O   18.0423561066 -3.7268296032 -2.7811145708
O   14.5832607388 -2.9638546578  0.5697114321
C   12.8742958279 -3.5568562727  2.2708697538
C   12.8465176451 -2.2163748051  2.7326166906
C   12.1511417147 -4.5559684127  2.9637068660
C   12.0575957524 -1.8836922652  3.8324548939
C   11.3903544131 -4.2087962287  4.0690366626
C   11.2403993524 -2.8574640824  4.4871952842
C   10.2719064442 -2.5077080715  5.4928067481
C   10.5317777337 -1.5939596539  6.4764774464
C   9.5803028228 -1.0666835645  7.4226647097
C   8.2354896924 -1.1574771540  7.2434131094
C   10.1816438666 -0.2561731031  8.5734872282
C   14.7876710961 -5.0101079854 -0.4939318794
C   15.3020416709 -3.6762517730 -0.4236089716
C   16.3405841006 -3.2186195160 -1.1869875711
C   16.9483494981 -4.1556749260 -2.0510810127
C   16.4608571164 -5.4907585775 -2.1691633236
C   15.3739566897 -5.9077676632 -1.4087379661
C   13.7601691816 -5.1226661831  0.4671803800
C   13.6551980762 -3.9166539768  1.1464737380
H   13.4273441575 -1.4636714314  2.2045822049
H   12.2016985907 -5.5858810566  2.6333264594
H   11.2362302107 -6.0647975641  4.7077547810
H   12.4776228866  0.0254215425  3.6848786603
H   9.3081982301 -2.9803131698  5.4135595643
H   11.5524321246 -1.2255123495  6.5581962166
H   7.8146010953 -1.6017016178  6.3481385982
H   7.5261459790 -0.7742731763  7.9707966805
H   10.5155635153  0.7264239217  8.2164263073
H   11.0686953015 -0.7548518489  8.9777262198
H   9.4639986905 -0.0987042797  9.3821866098
H   16.7168353151 -2.1972333723 -1.1550486855
H   16.9416457342 -6.1919373641 -2.8503365548
H   14.9777393540 -6.9176327242 -1.4980273514
H   13.1602011945 -6.0086180512  0.6134319577
H   18.4131285440 -4.4646734661 -3.3072755914
C   9.7832221413 -4.8360349854  10.9704046755
O   12.0885132249 -5.4609918418  11.4377003915
C   11.0995164918 -5.0795517442  10.5451714459
O   7.5104863644 -4.2634668120  10.3636397774
C   11.4628092101 -4.9456426495  9.1855356320
O   5.9408985360 -3.2923984912  6.1200869686
C   10.5101318933 -4.6061078899  8.2422637176
O   4.3092279474 -4.2925736115  4.3809000756
C   9.1523656587 -4.3931388552  8.6182699073
O   6.2427566945 -6.2223750034  0.4005108502
C   8.8299060227 -4.5013074926  10.0149495396
C   8.0827620192 -4.1144188127  7.7260792205
C   8.0571771439 -4.3321135245  6.3684615943
C   6.8688146424 -3.9961210086  5.6015856242
C   6.7189274746 -4.5285167325  4.2206174306
C   7.8143591694 -4.8868553680  3.4101158344
C   5.4004866455 -4.6942688181  3.6728785949
C   7.6366498092 -5.4435376012  2.1552903330
C   5.2149811867 -5.2871049462  2.4189118209
C   6.3396075839 -5.6476387746  1.6505478173
C   3.7940925529 -5.6028936553  1.9298017605
C   3.3745071351 -7.0776944061  1.8223281073
C   3.4720941817 -8.0276076129  2.7805351807
C   3.1276086193 -9.4549841589  2.4481501282
C   4.0310911853 -7.7531220337  4.1567479465
H   9.5200018761 -4.9142869705  12.0276425256
H   12.5000313336 -5.1311513731  8.9264627208
H   10.7963584095 -4.5043950003  7.2018577504
H   11.7260388306 -5.5558584986  12.3418688487
H   7.3644106568 -4.4044348619  11.3201817271
H   7.1925693079 -3.7211940773  8.1994584217
H   8.8327549370 -4.9158063708  5.8952969175
H   8.8200149478 -4.6724673208  3.7410733245
H   8.4660193611 -5.7460864024  1.5270842106
H   4.6648273609 -3.7866645714  5.1769469610
H   5.3222491083 -6.2387162155  0.0820610549
H   3.1233715791 -5.0687432427  2.6132319517
H   3.6451478896 -5.1725454175  0.9286547593
H   2.8928968046 -7.3530822240  0.8823154636
H   2.6446554829 -9.9454953069  3.2986050674
H   4.0340323046 -10.0360727626  2.2287221403
H   2.4617055067 -9.5161376286  1.5818888318
H   5.1282318725 -7.6990878542  4.1238500704
H   3.7675666420 -8.5543573475  4.8535951407
H   3.6618357052 -6.8040189131  4.5618168968
84
Scanning combination 2/256: [2.9000, 3.0000]  Energy = -386.2519673105
O   10.7791150394 -5.2457014000  4.8531515392
O   11.9883920795 -0.5977799040  4.3215682777
O   18.0302656359 -3.7103085479 -2.7936743249
O   14.5972308674 -2.9725694875  0.6001884664
C   12.8736020216 -3.5723215194  2.2902446310
C   12.8302817845 -2.2324460510  2.7534754796
C   12.1447859852 -4.5739632982  2.9738351478
C   12.0251203442 -1.9057389085  3.8439291449
C   11.3746500175 -4.2349058595  4.0767317291
C   11.2024387771 -2.8829430496  4.4896160592
C   10.2295709894 -2.5354609892  5.4942222797
C   10.4955166120 -1.6136844906  6.4730115910
C   9.5627046118 -1.0627339743  7.4255127172
C   8.2184895969 -1.1266865768  7.2379967886
C   10.1732486315 -0.2583458193  8.5784282668
C   14.7898085881 -5.0071587157 -0.4889578180
C   15.3039431223 -3.6741491549 -0.4122529240
C   16.3407340344 -3.2156561634 -1.1791581158
C   16.9437253442 -4.1458567700 -2.0550205502
C   16.4581421990 -5.4800503448 -2.1751562539
C   15.3801689044 -5.9022830787 -1.4053793091
C   13.7693360460 -5.1267268380  0.4792634558
C   13.6663703153 -3.9274806700  1.1708115505
H   13.4214232505 -1.4753027296  2.2425789416
H   12.2067009552 -5.6028323464  2.6418993485
H   11.2219163103 -6.1032679123  4.6770412001
H   12.4606948344  0.0007116658  3.7100113865
H   9.2721122820 -3.0196829526  5.4111028625
H   11.5202738687 -1.2519443389  6.5376664062
H   7.8109946336 -1.5523613954  6.3280948722
H   7.5081276153 -0.7398194825  7.9630596995
H   10.5138927606  0.7217094455  8.2197691357
H   11.0572157263 -0.7599358654  8.9874528417
H   9.4544676931 -0.0918746565  9.3863317773
H   16.7273293291 -2.1993876782 -1.1384982964
H   16.9312106593 -6.1769258577 -2.8656973680
H   14.9952937121 -6.9159649054 -1.4941845319
H   13.1659653884 -6.0110538738  0.6181860770
H   18.4088462667 -4.4433890757 -3.3211750094
C   9.7874818825 -4.8340054197  10.9562409420
O   12.0981757286 -5.4438651286  11.4290372688
C   11.1052684337 -5.0788301893  10.5343491356
O   7.5190881700 -4.2505803031  10.3469233060
C   11.4706259111 -4.9550569981  9.1744961030
O   5.9687597290 -3.2675407911  6.1053533898
C   10.5212567268 -4.6182150138  8.2280797213
O   4.3276748713 -4.3046726964  4.3972984449
C   9.1675219192 -4.3768750493  8.6045193735
O   6.2408181212 -6.2103215771  0.3953526902
C   8.8394061316 -4.4884645207  10.0003037362
C   8.1048830288 -4.0866893057  7.7126268363
C   8.0888762964 -4.2944249594  6.3507945797
C   6.8957730674 -3.9704914823  5.5860200480
C   6.7391544769 -4.5144426710  4.2131986895
C   7.8302571687 -4.8802302601  3.4003547266
C   5.4169401838 -4.6955400480  3.6792688768
C   7.6454769068 -5.4401141365  2.1481270501
C   5.2265403249 -5.2967885534  2.4306903213
C   6.3460639163 -5.6497188456  1.6512016605
C   3.8025851751 -5.6041262892  1.9451360929
C   3.3752345184 -7.0750785086  1.8250182433
C   3.4664083139 -8.0289520159  2.7804789100
C   3.1204557032 -9.4571552050  2.4479681274
C   4.0218334607 -7.7551200973  4.1596231595
H   9.5164207500 -4.9102938042  12.0116608841
H   12.5103338411 -5.1359037405  8.9221850702
H   10.8078567151 -4.5420973767  7.1852332527
H   11.7367856668 -5.5445909270  12.3331158367
H   7.3708831092 -4.3938220824  11.3029364594
H   7.2131091534 -3.6964479978  8.1836390416
H   8.8635300257 -4.8817910032  5.8811736117
H   8.8391672143 -4.6832456954  3.7331756073
H   8.4709420232 -5.7330010723  1.5103890879
H   4.6861633729 -3.7934431646  5.1880340712
H   5.3153590736 -6.2369132110  0.0883712561
H   3.1340934205 -5.0771758273  2.6363377428
H   3.6493529891 -5.1645938506  0.9487493069
H   2.8873952493 -7.3361256139  0.8840254520
H   2.6321360239 -9.9477011113  3.2967010829
H   4.0302156432 -10.0352896360  2.2342617498
H   2.4615653370 -9.5215564399  1.5762748056
H   5.1191931966 -7.7013433285  4.1344839786
H   3.7540727042 -8.5532900941  4.8583653559
H   3.6544573040 -6.8036021679  4.5603981441
84
Scanning combination 3/256: [2.8000, 3.0000]  Energy = -386.2463859316
O   10.7749202976 -5.2588038632  4.8498959857
O   11.9767272821 -0.6036159311  4.3268730355
O   18.0250853050 -3.7043477226 -2.7950840745
O   14.5976980855 -2.9738936696  0.6065191730
C   12.8717544624 -3.5756309597  2.2957338924
C   12.8243922139 -2.2381018906  2.7617666146
C   12.1445991224 -4.5788628039  2.9768942710
C   12.0174886397 -1.9129345437  3.8530323415
C   11.3736982948 -4.2438905009  4.0806676609
C   11.1971762835 -2.8946032102  4.4999873194
C   10.2149752345 -2.5557092873  5.5025434710
C   10.4827278541 -1.6353718243  6.4823802970
C   9.5533328638 -1.0640902618  7.4240130306
C   8.2105987860 -1.1073274964  7.2287780174
C   10.1693277090 -0.2609834884  8.5740217560
C   14.7922668023 -5.0080419381 -0.4832419799
C   15.3058527990 -3.6750724787 -0.4054106862
C   16.3414171675 -3.2144223921 -1.1728252144
C   16.9422104022 -4.1421897036 -2.0527536597
C   16.4567979431 -5.4763139552 -2.1745202575
C   15.3812392985 -5.9011620511 -1.4026405685
C   13.7708949566 -5.1282720015  0.4839766149
C   13.6664674088 -3.9291153832  1.1761040740
H   13.4176451356 -1.4836143933  2.2512474069
H   12.2088351835 -5.6062789128  2.6427656818
H   11.2218511994 -6.1139573621  4.6730860780
H   12.4518720031 -0.0089832351  3.7136515751
H   9.2481811931 -3.0246569907  5.4107030289
H   11.5065392930 -1.2698782885  6.5418856257
H   7.8002608145 -1.5493037900  6.3269946006
H   7.5053317661 -0.7276712634  7.9610180266
H   10.5153261572  0.7179906521  8.2174445746
H   11.0509734696 -0.7671697741  8.9813763267
H   9.4516600548 -0.0933983444  9.3823280379
H   16.7255863486 -2.1972195000 -1.1312730473
H   16.9276805087 -6.1699591708 -2.8696795685
H   14.9948866777 -6.9142701518 -1.4934216773
H   13.1691758037 -6.0143857411  0.6190943611
H   18.4032369112 -4.4368575151 -3.3241311716
C   9.7904996818 -4.8298080287  10.9522190407
O   12.1000700194 -5.4427744881  11.4283720089
C   11.1088319115 -5.0759939506  10.5327300707
O   7.5230253475 -4.2443599633  10.3418981500
C   11.4758792424 -4.9567089847  9.1735185884
O   5.9768044662 -3.2698064471  6.1056360541
C   10.5278852039 -4.6228142656  8.2266651402
O   4.3314245083 -4.3082497218  4.3995317733
C   9.1752571239 -4.3736202676  8.5986169238
O   6.2393480511 -6.2093123607  0.3946523111
C   8.8428622379 -4.4852563715  9.9951523659
C   8.1241459063 -4.0684302684  7.7022677887
C   8.1304881588 -4.2332494314  6.3277758022
C   6.9126951600 -3.9478644661  5.5734196868
C   6.7450093214 -4.5160922666  4.2127440763
C   7.8334835632 -4.8818607096  3.3973442896
C   5.4208000523 -4.7019892670  3.6829706033
C   7.6456513307 -5.4381053938  2.1444852030
C   5.2277418113 -5.2969620426  2.4314782376
C   6.3459276803 -5.6473077673  1.6497698559
C   3.8032782632 -5.6029387763  1.9467507032
C   3.3766167383 -7.0742050013  1.8259575761
C   3.4659158919 -8.0283755249  2.7814247549
C   3.1193118821 -9.4564166083  2.4483860317
C   4.0194653929 -7.7555764387  4.1614716750
H   9.5197226368 -4.9096020196  12.0075405478
H   12.5139944769 -5.1406726240  8.9189315208
H   10.8141886091 -4.5485677984  7.1845487146
H   11.7370951215 -5.5397127595  12.3317579077
H   7.3731654019 -4.3902760637  11.2978785805
H   7.2267255558 -3.6955121016  8.1765385068
H   8.8701364589 -4.8826390478  5.8811713627
H   8.8411694469 -4.6801630176  3.7285833721
H   8.4706342275 -5.7306232276  1.5077606749
H   4.6880976311 -3.7934012297  5.1871370365
H   5.3142714973 -6.2373578503  0.0888797569
H   3.1366703030 -5.0777220971  2.6407730658
H   3.6459153183 -5.1612861749  0.9516796970
H   2.8888727348 -7.3348882338  0.8848058222
H   2.6287814996 -9.9467571075  3.2961374227
H   4.0284506586 -10.0358250712  2.2356183979
H   2.4630337108 -9.5196140891  1.5747422755
H   5.1167808027 -7.7028055069  4.1368040000
H   3.7505053331 -8.5540193531  4.8596181495
H   3.6523768265 -6.8039059544  4.5620541273
84
Scanning combination 4/256: [2.7000, 3.0000]  Energy = -386.2415777441
O   10.7620851695 -5.3427607876  4.8685086223
O   11.9151541482 -0.6667286234  4.3698551098
O   17.9766350001 -3.6351877618 -2.7835330203
O   14.5978271675 -2.9971444176  0.6833209260
C   12.8698598827 -3.6255304005  2.3510600266
C   12.8142971024 -2.2892261957  2.8211833975
C   12.1437960245 -4.6382398933  3.0187849513
C   11.9922393512 -1.9760510786  3.9010294995
C   11.3640669827 -4.3150706832  4.1190540769
C   11.1783329321 -2.9657828357  4.5389760537
C   10.1728968787 -2.5982325546  5.5070151923
C   10.4452401379 -1.6867606506  6.4988643535
C   9.5131496524 -1.0602020287  7.4012191545
C   8.1725821006 -1.0509089955  7.1834869232
C   10.1359587169 -0.2702987289  8.5552916542
C   14.7988504888 -5.0119956058 -0.4394050617
C   15.3065147149 -3.6777503057 -0.3405861617
C   16.3291513066 -3.1953055461 -1.1100928310
C   16.9152100694 -4.0976737418 -2.0253118607
C   16.4359236720 -5.4323424706 -2.1667972528
C   15.3803411388 -5.8829178440 -1.3825130232
C   13.7805522713 -5.1540757629  0.5271248703
C   13.6703157934 -3.9650591295  1.2346338180
H   13.3983138564 -1.5230144097  2.3166938362
H   12.2070306352 -5.6612415717  2.6691662677
H   11.1946019296 -6.2003773300  4.6637785849
H   12.3591338616 -0.0565326011  3.7511363699
H   9.1838638866 -2.9926266507  5.3369600805
H   11.4892611207 -1.3971446835  6.6124796501
H   7.7438450720 -1.5204617432  6.3041394042
H   7.4846839270 -0.5515986074  7.8611337489
H   10.5233620916  0.6910891210  8.1939288009
H   10.9898139054 -0.8072368225  8.9822175839
H   9.4122045342 -0.0718708975  9.3514548039
H   16.7113017946 -2.1780076748 -1.0483502286
H   16.8942015916 -6.1061886983 -2.8887072412
H   15.0025119220 -6.8985478408 -1.4820880714
H   13.1857528364 -6.0461177881  0.6520137044
H   18.3410722411 -4.3512724330 -3.3435812616
C   9.8293926764 -4.7995838997  10.9091491865
O   12.1226541556 -5.4351752460  11.4223152901
C   11.1478539015 -5.0727687969  10.5074594074
O   7.5832391835 -4.1695441002  10.2711092399
C   11.5268651044 -4.9890344541  9.1482559761
O   6.0172883283 -3.2373946414  6.0738473134
C   10.5931762362 -4.6492372861  8.1867564818
O   4.3597223982 -4.3371176888  4.4229649726
C   9.2464469651 -4.3412081967  8.5467612461
O   6.2235959044 -6.2014250885  0.3794771711
C   8.9019683867 -4.4385024699  9.9414011557
C   8.1928349990 -4.0126476586  7.6604462519
C   8.1657962387 -4.2246077109  6.2923037752
C   6.9422385084 -3.9362959730  5.5492310812
C   6.7709510856 -4.5029804575  4.1890329770
C   7.8523338748 -4.8582876963  3.3581641697
C   5.4422902910 -4.7095732641  3.6836873591
C   7.6526373445 -5.4241429675  2.1104250062
C   5.2372264935 -5.3030308651  2.4344660433
C   6.3465927031 -5.6408361568  1.6339025322
C   3.8048711116 -5.5992459882  1.9678156867
C   3.3811313070 -7.0681347003  1.8334727422
C   3.4588106744 -8.0228223173  2.7891956998
C   3.1072003750 -9.4481536701  2.4499548899
C   4.0022176213 -7.7569281776  4.1753464115
H   9.5407858569 -4.8748740495  11.9597301153
H   12.5633939892 -5.2016793916  8.9071366489
H   10.8942433035 -4.6134226926  7.1457642002
H   11.7496631210 -5.4927997934  12.3255059206
H   7.4074039714 -4.3486545835  11.2159529768
H   7.3206661527 -3.5907255085  8.1398048545
H   8.8842970145 -4.8986953866  5.8465162616
H   8.8623360356 -4.6360414404  3.6701199559
H   8.4697518661 -5.7124583563  1.4606433230
H   4.7207902720 -3.7999975356  5.1932219049
H   5.2923755496 -6.2424453599  0.0933171670
H   3.1520661862 -5.0889933768  2.6864035245
H   3.6271781877 -5.1375134430  0.9852357260
H   2.9084262594 -7.3281996718  0.8848203701
H   2.5943724644 -9.9329871627  3.2875449443
H   4.0155242976 -10.0354821887  2.2566742293
H   2.4692614662 -9.5047084157  1.5623744675
H   5.1001256495 -7.7101461144  4.1620613218
H   3.7213962084 -8.5565049148  4.8678271276
H   3.6383686369 -6.8043913598  4.5768571868
84
Scanning combination 5/256: [2.6000, 3.0000]  Energy = -386.2340759035
O   10.7580698794 -5.3478273402  4.8671981616
O   11.9127478021 -0.6710046765  4.3751071418
O   17.9756026903 -3.6314507940 -2.7837830822
O   14.5995792751 -2.9977096733  0.6854251613
C   12.8698574466 -3.6276185001  2.3548799553
C   12.8080551435 -2.2927939252  2.8262311762
C   12.1420758252 -4.6398433423  3.0201803844
C   11.9825181978 -1.9805982034  3.9048765678
C   11.3593961788 -4.3193514064  4.1187856755
C   11.1690211773 -2.9729801557  4.5430648025
C   10.1576761811 -2.6177625630  5.5149372694
C   10.4346534507 -1.7007195807  6.5036773006
C   9.5108808847 -1.0599154753  7.4009754079
C   8.1699495212 -1.0447174671  7.1774862160
C   10.1349261120 -0.2689772898  8.5529699978
C   14.7999557225 -5.0122056796 -0.4387198331
C   15.3065278338 -3.6777887530 -0.3402811868
C   16.3294408157 -3.1945730199 -1.1093953419
C   16.9150613619 -4.0959194246 -2.0257245977
C   16.4364595756 -5.4306296545 -2.1681717033
C   15.3817686123 -5.8824022491 -1.3831626829
C   13.7835587388 -5.1548899169  0.5301719746
C   13.6731748139 -3.9661688078  1.2388410555
H   13.4003260748 -1.5306291905  2.3250324628
H   12.2117926777 -5.6633595101  2.6742316992
H   11.1949026391 -6.2022739782  4.6613907464
H   12.3596834917 -0.0644901255  3.7528771772
H   9.1636664159 -3.0073067964  5.3401996557
H   11.4773052700 -1.4078669982  6.6060006885
H   7.7470962034 -1.5218423748  6.3004469933
H   7.4802165908 -0.5500207427  7.8531777823
H   10.5269016563  0.6923435934  8.1963848428
H   10.9875413757 -0.8076464248  8.9801929196
H   9.4109621887 -0.0679042455  9.3482297456
H   16.7116095323 -2.1777166459 -1.0451777407
H   16.8949693833 -6.1031838777 -2.8913884288
H   15.0043478553 -6.8978300878 -1.4842742705
H   13.1881236243 -6.0469969413  0.6539713562
H   18.3394023794 -4.3457118936 -3.3464463938
C   9.8313870781 -4.7964937435  10.9098891715
O   12.1253424434 -5.4360805127  11.4200646834
C   11.1487934229 -5.0732523866  10.5076357669
O   7.5847949658 -4.1663377641  10.2744612011
C   11.5264879258 -4.9912389849  9.1486173344
O   6.0201349412 -3.2479299282  6.0806816864
C   10.5931962057 -4.6532902537  8.1885539950
O   4.3614040277 -4.3342300421  4.4235066790
C   9.2460333248 -4.3438246853  8.5452258060
O   6.2222435810 -6.2002662369  0.3800834514
C   8.9019679249 -4.4379402454  9.9419370819
C   8.2014223735 -4.0062342576  7.6552142233
C   8.2057852051 -4.1602197470  6.2706927334
C   6.9558798199 -3.9164741161  5.5404765201
C   6.7745859242 -4.5040975864  4.1913038148
C   7.8525938849 -4.8576172887  3.3557513833
C   5.4438476475 -4.7096620520  3.6863077772
C   7.6503366971 -5.4205094598  2.1085604286
C   5.2365358951 -5.2994264844  2.4352236628
C   6.3445804291 -5.6393913032  1.6342838142
C   3.8050082602 -5.5996812974  1.9682478871
C   3.3816693036 -7.0691150207  1.8330146410
C   3.4572436244 -8.0235837357  2.7889869346
C   3.1058173261 -9.4490469491  2.4504201182
C   4.0004299683 -7.7568821949  4.1748473140
H   9.5445051072 -4.8704362561  11.9611454591
H   12.5619173843 -5.2058410533  8.9057126546
H   10.8937537240 -4.6205517191  7.1475953565
H   11.7547456684 -5.4909008872  12.3241199892
H   7.4109322872 -4.3439110092  11.2204172653
H   7.3185650938 -3.6093643162  8.1372089586
H   8.8994600927 -4.8704276542  5.8411482954
H   8.8628600555 -4.6398198238  3.6676561744
H   8.4671210111 -5.7096912089  1.4599075456
H   4.7224498602 -3.8036304388  5.1974818249
H   5.2912578203 -6.2426987132  0.0935854764
H   3.1506914056 -5.0899386398  2.6852594066
H   3.6288110382 -5.1395053887  0.9848827911
H   2.9090397306 -7.3290466059  0.8841482254
H   2.5920464434 -9.9333701181  3.2877342186
H   4.0145792307 -10.0363245770  2.2590858774
H   2.4689972796 -9.5066915902  1.5621197586
H   5.0982190770 -7.7102651001  4.1609098683
H   3.7197045629 -8.5561184544  4.8676557465
H   3.6367141104 -6.8041527995  4.5758177586
84
Scanning combination 6/256: [2.5000, 3.0000]  Energy = -386.2276290651
O   10.7551563651 -5.4356695602  4.8851246249
O   11.8729937444 -0.7418379720  4.4083621927
O   17.9351433407 -3.5525101481 -2.7716264701
O   14.6035628162 -3.0275900143  0.7530307245
C   12.8830129530 -3.6905280898  2.4111673848
C   12.8123940088 -2.3563876101  2.8820983670
C   12.1523489440 -4.7071161878  3.0648471018
C   11.9559813696 -2.0497435174  3.9366944456
C   11.3432528929 -4.3903215391  4.1481926491
C   11.1312303594 -3.0443220122  4.5502823343
C   10.0666608539 -2.6211663334  5.4639097437
C   10.3806064214 -1.7706772208  6.5102828143
C   9.4738760198 -1.0753435020  7.3764036133
C   8.1351753857 -1.0377936703  7.1505071957
C   10.1098946080 -0.2695376226  8.5129156304
C   14.8135693753 -5.0200651178 -0.4057599395
C   15.3083324539 -3.6824034742 -0.2879934207
C   16.3166790354 -3.1722310158 -1.0583991198
C   16.8942043595 -4.0459119227 -2.0049488698
C   16.4270692679 -5.3824127381 -2.1674235669
C   15.3901772051 -5.8632501428 -1.3761463985
C   13.8081979554 -5.1910214099  0.5702649852
C   13.6908693934 -4.0138654555  1.2956011213
H   13.4132877122 -1.5897877697  2.3990168551
H   12.2355577803 -5.7308271240  2.7234301344
H   11.1890426635 -6.2851794020  4.6530598987
H   12.3285389564 -0.1300846437  3.7999548210
H   9.0682540569 -2.7068373897  5.0553425696
H   11.4392328502 -1.6271282396  6.6997750346
H   7.6939760691 -1.5346337489  6.2941601130
H   7.4592234111 -0.4810440300  7.7930951305
H   10.5406721324  0.6656555552  8.1323307783
H   10.9339556776 -0.8231170790  8.9746761612
H   9.3831299422 -0.0175696265  9.2907105288
H   16.6916860840 -2.1540544285 -0.9744313088
H   16.8806501891 -6.0350588408 -2.9111630495
H   15.0213574566 -6.8800453863 -1.4932765629
H   13.2246936020 -6.0915849022  0.6915688324
H   18.2846335826 -4.2461429186 -3.3679653884
C   9.8688170519 -4.7630634494  10.8882105980
O   12.1509047051 -5.4413031091  11.3990638000
C   11.1761963515 -5.0791892676  10.4837657155
O   7.6320845631 -4.0987705591  10.2509617185
C   11.5459212152 -5.0337076946  9.1205780911
O   6.0429533298 -3.2478979423  6.0788782636
C   10.6170907989 -4.6786946932  8.1603938735
O   4.3885285333 -4.3670876858  4.4578470356
C   9.2787100092 -4.3396558387  8.5216488131
O   6.2117482509 -6.1775264186  0.3736888119
C   8.9416073035 -4.4030205755  9.9184004041
C   8.2329025269 -3.9976555889  7.6295302835
C   8.2387825106 -4.1344345786  6.2507327420
C   6.9866589358 -3.9011999141  5.5291769041
C   6.7996767130 -4.4827624883  4.1784184204
C   7.8705357580 -4.8211076089  3.3288642916
C   5.4638716937 -4.7137350467  3.6974921548
C   7.6568247425 -5.3892260289  2.0850394307
C   5.2458390828 -5.2992893997  2.4467241761
C   6.3467018485 -5.6233018545  1.6293954124
C   3.8095594462 -5.5971899973  1.9919628589
C   3.3915507457 -7.0655029009  1.8400631163
C   3.4496615376 -8.0194349014  2.7971910566
C   3.0887891294 -9.4422271128  2.4591124611
C   3.9840157773 -7.7572854287  4.1873920133
H   9.5891174259 -4.7999246207  11.9428632262
H   12.5718996741 -5.2873486649  8.8760431189
H   10.9127176494 -4.6513972548  7.1167553732
H   11.7888828844 -5.4523610056  12.3084144809
H   7.4608027783 -4.2517911135  11.2011517959
H   7.3401286242 -3.6147387335  8.1048887902
H   8.9822956422 -4.7451444938  5.7672727243
H   8.8817738629 -4.5886652358  3.6278893090
H   8.4661221901 -5.6671144437  1.4220739116
H   4.7554745288 -3.8313361111  5.2277974937
H   5.2754568526 -6.2442777693  0.1096564575
H   3.1635861837 -5.1018185857  2.7266743357
H   3.6211093302 -5.1210930039  1.0186962020
H   2.9409700541 -7.3253748907  0.8806604155
H   2.5483132629 -9.9124664463  3.2874538956
H   3.9946457086 -10.0422235502  2.2968196100
H   2.4738222942 -9.4988537421  1.5556717275
H   5.0820365770 -7.7185734805  4.1822198168
H   3.6910525983 -8.5556055777  4.8759962210
H   3.6252687587 -6.8022894187  4.5868016094
84
Scanning combination 7/256: [2.4000, 3.0000]  Energy = -386.2195883986
O   10.7516915509 -5.4402035479  4.8840558126
O   11.8635947914 -0.7460617367  4.4127234143
O   17.9348710591 -3.5522722533 -2.7724303648
O   14.6044425297 -3.0274196622  0.7554502316
C   12.8793141016 -3.6905886046  2.4122762346
C   12.8046220884 -2.3581541094  2.8864143046
C   12.1515716221 -4.7081656156  3.0658578764
C   11.9431443816 -2.0540580422  3.9403248721
C   11.3410870470 -4.3946562843  4.1499274136
C   11.1232906700 -3.0528495419  4.5547991042
C   10.0509292468 -2.6455816831  5.4771229808
C   10.3725992325 -1.7794237849  6.5156138671
C   9.4717932922 -1.0718227687  7.3748651567
C   8.1333052081 -1.0303012535  7.1493960929
C   10.1102413216 -0.2704348570  8.5120413008
C   14.8141284330 -5.0195788399 -0.4051639187
C   15.3082423223 -3.6819793945 -0.2872213539
C   16.3163672321 -3.1719885066 -1.0583782756
C   16.8940005187 -4.0459915450 -2.0054141329
C   16.4275939211 -5.3824891334 -2.1685388570
C   15.3906925769 -5.8631680490 -1.3766323644
C   13.8098382738 -5.1906134585  0.5720046305
C   13.6902879938 -4.0131849383  1.2971470996
H   13.4106921125 -1.5946902930  2.4050949093
H   12.2387478826 -5.7309024694  2.7239818216
H   11.1900800967 -6.2871219145  4.6530991446
H   12.3267032397 -0.1372488202  3.8051692733
H   9.0581907063 -2.7108965922  5.0523598985
H   11.4311529255 -1.6306122921  6.6974977377
H   7.6919975862 -1.5297922503  6.2944740253
H   7.4567351976 -0.4765804252  7.7930828880
H   10.5418491660  0.6631961859  8.1306948561
H   10.9353516061 -0.8252150958  8.9709433249
H   9.3821687590 -0.0160246071  9.2884477120
H   16.6914519373 -2.1540247147 -0.9735829075
H   16.8818268849 -6.0343139763 -2.9131441591
H   15.0225871967 -6.8799655550 -1.4940107296
H   13.2269199974 -6.0920355020  0.6911728915
H   18.2853173303 -4.2442026852 -3.3695605043
C   9.8684199237 -4.7608030772  10.8879146011
O   12.1505826638 -5.4421437440  11.3984078757
C   11.1763787249 -5.0777912453  10.4835058759
O   7.6320471532 -4.0971198521  10.2517619695
C   11.5469614825 -5.0345070941  9.1204104845
O   6.0489230236 -3.2525610068  6.0837398129
C   10.6190829229 -4.6827072168  8.1603021437
O   4.3893559855 -4.3662160128  4.4578927043
C   9.2792665985 -4.3436386965  8.5188779787
O   6.2107569002 -6.1774929028  0.3741846094
C   8.9405884448 -4.4043231466  9.9171269898
C   8.2435042221 -3.9907019202  7.6223446737
C   8.2780126552 -4.0767255227  6.2313087021
C   6.9984078394 -3.8847661933  5.5226864858
C   6.8029433173 -4.4833679870  4.1809957533
C   7.8718538572 -4.8197555029  3.3276011467
C   5.4661960979 -4.7139759963  3.6991443874
C   7.6573884027 -5.3871304357  2.0839894133
C   5.2470809518 -5.2974005292  2.4476440342
C   6.3470243648 -5.6222131296  1.6295194032
C   3.8109903278 -5.5972369943  1.9922543017
C   3.3922735863 -7.0655091072  1.8401396164
C   3.4492062598 -8.0196275437  2.7971949059
C   3.0882097683 -9.4426091741  2.4593083810
C   3.9834598014 -7.7573836288  4.1874545399
H   9.5891627220 -4.7991994600  11.9428732574
H   12.5729606007 -5.2881912560  8.8753455664
H   10.9147488085 -4.6522584629  7.1162603157
H   11.7904605362 -5.4523171759  12.3077656002
H   7.4611228321 -4.2497963678  11.2028644725
H   7.3441366859 -3.6253637392  8.1015105607
H   8.9862443204 -4.7442039787  5.7662766270
H   8.8829911857 -4.5884843302  3.6265898121
H   8.4666664262 -5.6664197242  1.4217917498
H   4.7542626986 -3.8338078531  5.2288353541
H   5.2748804072 -6.2446114843  0.1090365589
H   3.1631987084 -5.1022940361  2.7251389352
H   3.6212842081 -5.1215566751  1.0192709657
H   2.9417084411 -7.3252019636  0.8806291875
H   2.5471638303 -9.9131804847  3.2871841870
H   3.9940057173 -10.0429494089  2.2979324930
H   2.4736039032 -9.4998027552  1.5555973099
H   5.0814487491 -7.7191891425  4.1820665536
H   3.6908424381 -8.5553819791  4.8764777813
H   3.6244598883 -6.8024800018  4.5868863820
84
Scanning combination 8/256: [2.3000, 3.0000]  Energy = -386.2134591337
O   10.7136226980 -5.5432136242  4.8937587089
O   11.7066509593 -0.8283997013  4.3928913301
O   17.8857449377 -3.4709351954 -2.7490934624
O   14.5929593384 -3.0621522520  0.8285429908
C   12.8566297404 -3.7606620621  2.4572639357
C   12.7448458526 -2.4252786157  2.9152108331
C   12.1439181300 -4.7894974576  3.1115928637
C   11.8451697136 -2.1341187430  3.9378548460
C   11.3000464574 -4.4857535741  4.1764435138
C   11.0384098655 -3.1428999739  4.5480775322
C   9.9542137184 -2.6464287238  5.4331063636
C   10.3247779127 -1.8338445594  6.5206554519
C   9.4491177112 -1.0751482846  7.3513328387
C   8.1064420090 -1.0119298538  7.1399565025
C   10.1165594098 -0.2673424722  8.4681088808
C   14.8263475198 -5.0328733534 -0.3623566878
C   15.3008756158 -3.6896355167 -0.2270228918
C   16.2899471543 -3.1489181907 -1.0028099238
C   16.8641250982 -3.9948360748 -1.9767517814
C   16.4151922315 -5.3350033180 -2.1580333305
C   15.4006555437 -5.8482054968 -1.3579099779
C   13.8302855085 -5.2342936714  0.6181202302
C   13.6900660148 -4.0669296514  1.3542275123
H   13.3541277579 -1.6519794831  2.4538449634
H   12.2791911485 -5.8161238006  2.7962640072
H   11.1593326174 -6.3865701787  4.6638895171
H   12.2450696434 -0.2172269452  3.8572109361
H   9.0719849324 -2.3601643116  4.8567079662
H   11.3763331409 -1.8136853195  6.7878830029
H   7.6318247427 -1.5161187490  6.3056915000
H   7.4594079128 -0.4114453429  7.7719927989
H   10.6141528071  0.6229246498  8.0641040165
H   10.8962571588 -0.8577305621  8.9597893513
H   9.3978370954  0.0583200974  9.2248610214
H   16.6542457452 -2.1285557929 -0.9026656648
H   16.8661075811 -5.9659392219 -2.9217779346
H   15.0466852516 -6.8687199635 -1.4874577218
H   13.2649458318 -6.1469752551  0.7351790236
H   18.2327636863 -4.1450111938 -3.3692049093
C   9.9018337778 -4.7514879679  10.8582290306
O   12.1766860545 -5.4610795876  11.3612991683
C   11.2021414961 -5.0909017808  10.4485344288
O   7.6764911492 -4.0413144036  10.2285661385
C   11.5668803160 -5.0631569833  9.0829610036
O   6.0896791306 -3.2180279872  6.0653973121
C   10.6422061913 -4.6917241885  8.1259316158
O   4.4262390140 -4.3877908649  4.4816336168
C   9.3073508584 -4.3375995408  8.4909217323
O   6.2379765324 -6.1584971548  0.3712466222
C   8.9745810812 -4.3831341924  9.8901429432
C   8.2759266549 -3.9720528127  7.5968408565
C   8.3137324964 -4.0636692358  6.2015101027
C   7.0318682107 -3.8613933852  5.5025763544
C   6.8347797317 -4.4487265876  4.1634975943
C   7.9034428689 -4.7535286814  3.2983342400
C   5.4983181014 -4.7089711052  3.7032816277
C   7.6879508098 -5.3290063464  2.0590118299
C   5.2782936474 -5.2962016491  2.4545436178
C   6.3768686606 -5.5968689715  1.6234587047
C   3.8404094044 -5.5998717752  2.0078904096
C   3.4279329786 -7.0671186371  1.8432287345
C   3.4530184234 -8.0163971684  2.8059022238
C   3.0697077427 -9.4337757563  2.4707517404
C   3.9756088764 -7.7594853078  4.2015600910
H   9.6307268012 -4.7671484507  11.9161741701
H   12.5870278413 -5.3377550826  8.8356057492
H   10.9312463552 -4.6495727386  7.0796423788
H   11.8261996098 -5.4439206288  12.2747278494
H   7.5144175411 -4.1621980682  11.1854266454
H   7.3720941707 -3.6125709133  8.0713596409
H   9.0078570299 -4.7438075755  5.7357446451
H   8.9081873335 -4.4832894554  3.5864178270
H   8.4972518962 -5.5901217909  1.3885724454
H   4.7899898626 -3.8449823682  5.2462753963
H   5.3000180254 -6.2554672574  0.1209903043
H   3.1962692169 -5.1197171269  2.7543305757
H   3.6420984541 -5.1124340705  1.0426177365
H   3.0078059422 -7.3310611823  0.8711987520
H   2.4941642437 -9.8836273132  3.2866344459
H   3.9664539305 -10.0549877635  2.3430723644
H   2.4812365315 -9.4860818704  1.5497923667
H   5.0737200789 -7.7386408621  4.2081720357
H   3.6626484248 -8.5536861079  4.8862842865
H   3.6275254862 -6.7996275032  4.5982139889
84
Scanning combination 9/256: [2.2000, 3.0000]  Energy = -386.2088321444
O   10.6995960062 -5.5717989860  4.8964799200
O   11.6562477748 -0.8548935908  4.3956326059
O   17.8785900924 -3.4604752846 -2.7492532313
O   14.5817611378 -3.0642365778  0.8365836321
C   12.8487018885 -3.7761967071  2.4724107896
C   12.7166540570 -2.4426556241  2.9281083547
C   12.1404907458 -4.8067080925  3.1283931408
C   11.8039798297 -2.1597475713  3.9426827414
C   11.2825555817 -4.5083718586  4.1878645354
C   10.9979877652 -3.1690919954  4.5525017792
C   9.9127109198 -2.6518225108  5.4372748410
C   10.3184295401 -1.8313250674  6.5248794639
C   9.4502603993 -1.0712795834  7.3558289966
C   8.1045881938 -1.0005699377  7.1494330999
C   10.1235105462 -0.2629785191  8.4685416278
C   14.8278181958 -5.0335551494 -0.3552922513
C   15.2962267517 -3.6888537181 -0.2193021146
C   16.2866573970 -3.1481619182 -0.9948250635
C   16.8628856311 -3.9903887408 -1.9721800258
C   16.4173873629 -5.3310181367 -2.1557878845
C   15.4048950568 -5.8463553927 -1.3537691712
C   13.8338264737 -5.2398830229  0.6274523035
C   13.6861953212 -4.0751203520  1.3670910342
H   13.3205287825 -1.6620087173  2.4726672464
H   12.2826298844 -5.8295371496  2.8048567026
H   11.1573322762 -6.4074627409  4.6641215714
H   12.2061801197 -0.2471334537  3.8682241685
H   9.0863737219 -2.2591164751  4.8367780516
H   11.3732289890 -1.8136948793  6.7823787616
H   7.6288896301 -1.5032731762  6.3154002448
H   7.4583357385 -0.3877343268  7.7709628741
H   10.6322872497  0.6132356223  8.0490258504
H   10.8946308114 -0.8581785855  8.9686505327
H   9.4022437629  0.0812737619  9.2149274854
H   16.6489335895 -2.1271518076 -0.8959449737
H   16.8667630492 -5.9566811872 -2.9259296145
H   15.0550467361 -6.8676312903 -1.4886380576
H   13.2743144506 -6.1561360649  0.7404580350
H   18.2276910292 -4.1307187090 -3.3724901025
C   9.9086457720 -4.7499313138  10.8535043950
O   12.1805084689 -5.4670746910  11.3567863808
C   11.2083900741 -5.0927254115  10.4439965236
O   7.6812723871 -4.0474869428  10.2263801827
C   11.5740674061 -5.0683098090  9.0782649607
O   6.1101140856 -3.2065032731  6.0594183671
C   10.6507372594 -4.6969255604  8.1213761008
O   4.4406191501 -4.3896964678  4.4849030435
C   9.3153185291 -4.3397107835  8.4858071343
O   6.2348315661 -6.1567914150  0.3689897654
C   8.9803916009 -4.3856955748  9.8864312764
C   8.2934927312 -3.9618608508  7.5908710842
C   8.3552052153 -4.0155774567  6.1819449858
C   7.0528141760 -3.8372853141  5.4892868728
C   6.8487634197 -4.4323307638  4.1546555250
C   7.9133251792 -4.7454941673  3.2867484417
C   5.5103171296 -4.7032532180  3.7006699023
C   7.6928743352 -5.3239235844  2.0492102040
C   5.2848181717 -5.2932458545  2.4536411308
C   6.3806156245 -5.5943589692  1.6195335006
C   3.8467392032 -5.6011536579  2.0066014609
C   3.4361080423 -7.0701748917  1.8408389915
C   3.4526471782 -8.0196091604  2.8039036459
C   3.0654957213 -9.4375815049  2.4724536259
C   3.9743432593 -7.7593360932  4.1993467254
H   9.6355973978 -4.7698264507  11.9111700970
H   12.5940045206 -5.3454990044  8.8317140484
H   10.9375426984 -4.6514827074  7.0743814513
H   11.8291894850 -5.4464065149  12.2700925035
H   7.5238071233 -4.1527794684  11.1860101340
H   7.3820178682 -3.6250188386  8.0680939379
H   9.0169119443 -4.7436407867  5.7393286056
H   8.9191234647 -4.4837770921  3.5759853308
H   8.4996102767 -5.5816300099  1.3742864938
H   4.8028520347 -3.8493410083  5.2505834608
H   5.2953100519 -6.2577638043  0.1270760567
H   3.2012760557 -5.1170474839  2.7489670134
H   3.6472275371 -5.1174304654  1.0393871276
H   3.0241497761 -7.3335307032  0.8650761296
H   2.4852493931 -9.8825188450  3.2879232195
H   3.9599679638 -10.0638088978  2.3526109763
H   2.4802504431 -9.4940137641  1.5495412792
H   5.0724436131 -7.7391924250  4.2057034643
H   3.6604747386 -8.5503756960  4.8871635899
H   3.6269042330 -6.7972238540  4.5911264741
84
Scanning combination 10/256: [2.1000, 3.0000]  Energy = -386.2065769430
O   10.6834533014 -5.6032194875  4.9076096494
O   11.5759825744 -0.8802654615  4.3795099564
O   17.8588596571 -3.4407996615 -2.7321377642
O   14.5672426338 -3.0749577973  0.8629731054
C   12.8246610740 -3.7962058472  2.4848888886
C   12.6801936308 -2.4619138205  2.9368890118
C   12.1213568590 -4.8299291137  3.1420777238
C   11.7548061126 -2.1859531775  3.9411584995
C   11.2590525131 -4.5365872640  4.2001851601
C   10.9569527703 -3.1983728801  4.5545521118
C   9.8722414750 -2.6589152101  5.4395416232
C   10.3046611211 -1.8327107721  6.5317329107
C   9.4499181788 -1.0582244892  7.3566627372
C   8.1016718226 -0.9857415506  7.1680040279
C   10.1350688265 -0.2498062908  8.4652002995
C   14.8232303269 -5.0378478733 -0.3363374376
C   15.2845147511 -3.6909891000 -0.1959579027
C   16.2688472854 -3.1417971384 -0.9733421021
C   16.8461826281 -3.9773541651 -1.9558057307
C   16.4074558379 -5.3195877598 -2.1430052546
C   15.4012266537 -5.8434677757 -1.3392610128
C   13.8303789152 -5.2538053094  0.6456861366
C   13.6729597818 -4.0910534960  1.3861069486
H   13.2852313234 -1.6787258890  2.4841755065
H   12.2787788423 -5.8562606357  2.8338679800
H   11.1443255257 -6.4366161243  4.6731644839
H   12.1323564716 -0.2639958989  3.8679351019
H   9.1110814516 -2.1781686999  4.8160771758
H   11.3559443063 -1.8401577715  6.7980800846
H   7.6088095491 -1.4929101982  6.3467285105
H   7.4679077208 -0.3570712009  7.7861611398
H   10.6661271808  0.6106489380  8.0421159841
H   10.8889863420 -0.8573691451  8.9758094721
H   9.4189745036  0.1187787276  9.2054529320
H   16.6282174555 -2.1198182915 -0.8719315929
H   16.8594147914 -5.9411561586 -2.9147281889
H   15.0571858105 -6.8665361467 -1.4745836730
H   13.2782734557 -6.1744638508  0.7602696629
H   18.2070410929 -4.1064558668 -3.3607041507
C   9.9151759003 -4.7571728034  10.8385587723
O   12.1863857196 -5.4733078977  11.3507481093
C   11.2158356586 -5.1020339321  10.4348402065
O   7.6919193333 -4.0481185196  10.2046125927
C   11.5862159851 -5.0757343533  9.0701715022
O   6.1558103946 -3.1710485047  6.0266234049
C   10.6696423246 -4.6957783208  8.1111710486
O   4.4676467610 -4.3944220132  4.4934867142
C   9.3321714186 -4.3374649315  8.4680992460
O   6.2373638721 -6.1546486510  0.3607238027
C   8.9913090210 -4.3875518565  9.8685202911
C   8.3227777449 -3.9505886770  7.5687408223
C   8.4075037793 -3.9873751485  6.1465879112
C   7.0898119370 -3.8107743070  5.4571684834
C   6.8734471567 -4.4251833921  4.1382997650
C   7.9321068808 -4.7368808072  3.2627508649
C   5.5314083744 -4.7029582808  3.6978092655
C   7.7042516355 -5.3194043882  2.0296280291
C   5.2986243946 -5.2950376617  2.4534057158
C   6.3897955215 -5.5935241074  1.6112627460
C   3.8587724512 -5.6027108664  2.0128475268
C   3.4494076834 -7.0707385460  1.8405110736
C   3.4558670832 -8.0182018698  2.8051566360
C   3.0614004535 -9.4341483987  2.4756122939
C   3.9752757643 -7.7581512753  4.2013304773
H   9.6393900806 -4.7735676203  11.8956822700
H   12.6058932601 -5.3563624993  8.8275334721
H   10.9599008961 -4.6508409042  7.0653765658
H   11.8337954909 -5.4507032470  12.2639661434
H   7.5353234672 -4.1442811452  11.1652772534
H   7.4046318277 -3.6189127969  8.0333774303
H   9.0222277560 -4.7692055290  5.7220756256
H   8.9398319194 -4.4724537243  3.5422754985
H   8.5063581584 -5.5773507305  1.3495087665
H   4.8310039849 -3.8426694095  5.2485992255
H   5.2974081878 -6.2634752515  0.1261574031
H   3.2158073716 -5.1252023008  2.7616442955
H   3.6571245129 -5.1128536930  1.0494460825
H   3.0472849708 -7.3349030574  0.8608493022
H   2.4723888082 -9.8713182319  3.2888564925
H   3.9527675437 -10.0663188720  2.3646665684
H   2.4823812817 -9.4894408773  1.5487572210
H   5.0733932778 -7.7414757321  4.2104443385
H   3.6564225748 -8.5475027349  4.8885565344
H   3.6308958906 -6.7942008752  4.5914432706
84
Scanning combination 11/256: [2.0000, 3.0000]  Energy = -386.2057760950
O   10.6816461182 -5.6062929473  4.9101646577
O   11.5673792636 -0.8785128346  4.3790390307
O   17.8558282321 -3.4372459531 -2.7297395520
O   14.5648037563 -3.0758847012  0.8640555727
C   12.8226963569 -3.7976418919  2.4892815302
C   12.6727830255 -2.4647795615  2.9418515734
C   12.1202866969 -4.8312687575  3.1462913838
C   11.7424784435 -2.1877906701  3.9453697023
C   11.2551979976 -4.5372908782  4.2035880786
C   10.9474033302 -3.2038168411  4.5573054402
C   9.8455077168 -2.6866347403  5.4558581078
C   10.2955466430 -1.8430290595  6.5432976691
C   9.4498214169 -1.0612053803  7.3594210358
C   8.1016150175 -0.9775200014  7.1660391391
C   10.1386094625 -0.2488308425  8.4637569382
C   14.8220676462 -5.0396138872 -0.3337264285
C   15.2825742919 -3.6926932517 -0.1939980809
C   16.2670397485 -3.1410764828 -0.9703171751
C   16.8446663436 -3.9757443867 -1.9530625658
C   16.4068630218 -5.3184008253 -2.1407477975
C   15.4009270041 -5.8443270556 -1.3372628401
C   13.8293855317 -5.2552324247  0.6486814489
C   13.6712723916 -4.0920855954  1.3888746399
H   13.2779667458 -1.6844133387  2.4858386805
H   12.2769096624 -5.8562745153  2.8359236882
H   11.1430563430 -6.4385276669  4.6744625781
H   12.1254982763 -0.2688064339  3.8615631930
H   9.1098723288 -2.1820062232  4.8224764200
H   11.3483163530 -1.8399211678  6.7865804479
H   7.6092903481 -1.4942032714  6.3503375710
H   7.4699851125 -0.3555930068  7.7904020858
H   10.6705994925  0.6104900839  8.0394605917
H   10.8894617796 -0.8564021538  8.9783072190
H   9.4217939452  0.1213940905  9.2015858128
H   16.6245683751 -2.1186876432 -0.8679030803
H   16.8581603277 -5.9389742270 -2.9135541926
H   15.0569504088 -6.8672209079 -1.4731212621
H   13.2785691410 -6.1774209150  0.7618834057
H   18.2038741642 -4.1030145055 -3.3584153645
C   9.9151388248 -4.7561626135  10.8361514383
O   12.1852792831 -5.4750081552  11.3490813275
C   11.2162512439 -5.1007776457  10.4331027273
O   7.6923949790 -4.0471696266  10.2017593558
C   11.5875004389 -5.0754211857  9.0696159794
O   6.1656978653 -3.1739594769  6.0270597210
C   10.6725311503 -4.6981903987  8.1095386439
O   4.4711925897 -4.3946422149  4.4915910345
C   9.3342484070 -4.3390850255  8.4640771950
O   6.2376468433 -6.1557915649  0.3602643254
C   8.9907363004 -4.3888764037  9.8654934951
C   8.3361549394 -3.9415684863  7.5650427661
C   8.4464570892 -3.9470783739  6.1297331322
C   7.1024249883 -3.7929782635  5.4449121989
C   6.8795718234 -4.4245597587  4.1370933336
C   7.9344159629 -4.7383153120  3.2593481104
C   5.5356538081 -4.7061882351  3.6982515929
C   7.7048837274 -5.3183033121  2.0257186131
C   5.3007440148 -5.2942678550  2.4526610852
C   6.3899819949 -5.5919274791  1.6087048607
C   3.8602993764 -5.6019581403  2.0129999688
C   3.4512335603 -7.0703356277  1.8406940198
C   3.4563411669 -8.0179352769  2.8054537567
C   3.0607966594 -9.4339331240  2.4761267645
C   3.9755611444 -7.7581653120  4.2018888773
H   9.6398170464 -4.7751911210  11.8926973205
H   12.6060222093 -5.3573140798  8.8259762980
H   10.9632774328 -4.6510585553  7.0647605817
H   11.8333490265 -5.4511547732  12.2619409537
H   7.5357589560 -4.1435742919  11.1626068799
H   7.4122851526 -3.6248307282  8.0242767219
H   9.0193978094 -4.7677438456  5.7250023073
H   8.9411967106 -4.4699994396  3.5358514478
H   8.5066119627 -5.5768677420  1.3469653326
H   4.8331892061 -3.8431679377  5.2450224817
H   5.2967527483 -6.2637899413  0.1265684268
H   3.2187371557 -5.1255805545  2.7634640232
H   3.6562605159 -5.1118070851  1.0500669571
H   3.0504858649 -7.3348326561  0.8605698185
H   2.4705738477 -9.8705899703  3.2889372755
H   3.9516564976 -10.0670917823  2.3661995777
H   2.4826142032 -9.4891799590  1.5487271121
H   5.0737110384 -7.7418612243  4.2110682868
H   3.6561037515 -8.5471263808  4.8894568713
H   3.6315226444 -6.7939213046  4.5916109934
84
Scanning combination 12/256: [1.9000, 3.0000]  Energy = -386.2096217867
O   10.6436307482 -5.6604615810  4.9564127325
O   11.3640269321 -0.9141967708  4.2934776778
O   17.7817079900 -3.3733614778 -2.6629540559
O   14.4954095448 -3.1035409311  0.9323735101
C   12.7593794942 -3.8464849731  2.5328915332
C   12.5796824913 -2.5049646089  2.9472854817
C   12.0752515261 -4.8826634197  3.2007750325
C   11.6331687644 -2.2282935763  3.9284398200
C   11.2110267395 -4.5858076481  4.2561808484
C   10.8916308188 -3.2465559361  4.5816296443
C   9.8147919544 -2.6774337239  5.4733604610
C   10.3025839935 -1.8240268149  6.5547809564
C   9.4725456540 -1.0441295820  7.3805544662
C   8.1156869659 -0.9698864064  7.2315120478
C   10.1907950778 -0.2178127709  8.4554844604
C   14.7938148844 -5.0584000826 -0.2683497380
C   15.2269562146 -3.7026464096 -0.1216245242
C   16.1991702329 -3.1256901148 -0.8919742807
C   16.7864681918 -3.9395264010 -1.8855975751
C   16.3730720196 -5.2890574004 -2.0839859155
C   15.3830885062 -5.8432857304 -1.2796035105
C   13.8051967227 -5.2989912614  0.7116701625
C   13.6202337578 -4.1376064049  1.4479527373
H   13.1733087793 -1.7261549627  2.4776292137
H   12.2473761460 -5.9069231404  2.8987889913
H   11.1046812213 -6.4926255650  4.7181856467
H   11.8936963891 -0.2950784586  3.7610960943
H   9.1315193802 -2.1081266389  4.8347136819
H   11.3611791059 -1.8188383731  6.7670785477
H   7.5911004996 -1.4989506135  6.4449480698
H   7.5066521530 -0.3285638372  7.8604255464
H   10.7658777936  0.5944258619  7.9968193093
H   10.9107832948 -0.8397008864  8.9958269332
H   9.4892509307  0.2132043554  9.1740107765
H   16.5361949084 -2.0977894201 -0.7740146181
H   16.8299407995 -5.8923993079 -2.8669590871
H   15.0568731702 -6.8717325192 -1.4197190238
H   13.2758355957 -6.2333924285  0.8252810209
H   18.1335815672 -4.0245682959 -3.3042007170
C   9.9239983247 -4.7711208479  10.7931133273
O   12.1821961502 -5.5026677614  11.3384564328
C   11.2298188435 -5.1205503710  10.4086040282
O   7.7158975772 -4.0416387809  10.1267573678
C   11.6216988380 -5.0928053865  9.0510644349
O   6.2720474581 -3.0712888390  5.9196728438
C   10.7233117162 -4.7039059690  8.0799541123
O   4.5644054447 -4.4062965020  4.4936974747
C   9.3768685389 -4.3425267973  8.4155496313
O   6.2323400492 -6.1733672738  0.3233616488
C   9.0170866786 -4.3943865097  9.8120829171
C   8.3823997539 -3.9442410568  7.5176501132
C   8.5167414763 -3.9278793169  6.0747012280
C   7.1860020927 -3.7443414996  5.3646539885
C   6.9571403766 -4.3957388738  4.0679304128
C   7.9929843815 -4.7155974725  3.1673766003
C   5.6078685885 -4.7029182588  3.6672606326
C   7.7366571599 -5.3144257119  1.9469852701
C   5.3454324918 -5.3008925315  2.4329984385
C   6.4142795327 -5.5998395832  1.5638190207
C   3.8936804183 -5.6012384156  2.0281115900
C   3.4858768034 -7.0667694272  1.8459149021
C   3.4683675199 -8.0093819346  2.8152038052
C   3.0500549738 -9.4194540650  2.4892095867
C   3.9856744384 -7.7528768585  4.2135440506
H   9.6288543476 -4.7984834270  11.8440834844
H   12.6423373056 -5.3817493189  8.8213061829
H   11.0408723438 -4.6584693547  7.0447048395
H   11.8172942407 -5.4655787004  12.2457985813
H   7.5434466766 -4.1280171992  11.0853779803
H   7.4499951953 -3.6460279619  7.9662210986
H   9.0540713940 -4.7778512345  5.6764809886
H   9.0071101748 -4.4386341322  3.4089492946
H   8.5209567667 -5.5737164597  1.2470957300
H   4.9359385811 -3.8180969501  5.2142861034
H   5.2865356257 -6.2759137675  0.1097357371
H   3.2761812897 -5.1411453540  2.8081214612
H   3.6600485791 -5.0902372225  1.0829651903
H   3.1165771185 -7.3365868777  0.8552096129
H   2.4345477196 -9.8362890345  3.2934508700
H   3.9292611484 -10.0720506983  2.4028622281
H   2.4896171824 -9.4688953892  1.5507282513
H   5.0838903810 -7.7475594945  4.2288675289
H   3.6543941655 -8.5375281352  4.9004713513
H   3.6518047688 -6.7847469087  4.6029961861
84
Scanning combination 13/256: [1.8000, 3.0000]  Energy = -386.2122746702
O   10.6428006186 -5.6621467805  4.9566155833
O   11.3607486259 -0.9149706776  4.2963807220
O   17.7815843148 -3.3735898821 -2.6628591183
O   14.4955077204 -3.1033110364  0.9322625304
C   12.7590801158 -3.8463084586  2.5333598958
C   12.5774804082 -2.5055221534  2.9496481494
C   12.0755361578 -4.8830317214  3.2006972080
C   11.6274870093 -2.2308547374  3.9330930293
C   11.2095445532 -4.5862423652  4.2567451567
C   10.8842653028 -3.2514683724  4.5824157466
C   9.7817602397 -2.7058831888  5.4856303312
C   10.2959336698 -1.8285162015  6.5589195079
C   9.4723567360 -1.0448697277  7.3797598723
C   8.1150067916 -0.9662277749  7.2304303763
C   10.1915930732 -0.2178293434  8.4551089968
C   14.7936630530 -5.0583782160 -0.2682252940
C   15.2270084390 -3.7027687333 -0.1216326518
C   16.1992205409 -3.1256443236 -0.8919785844
C   16.7863126038 -3.9396267958 -1.8854951541
C   16.3730107102 -5.2890058223 -2.0839457743
C   15.3830406828 -5.8431994199 -1.2794982099
C   13.8048558142 -5.2988194662  0.7118642657
C   13.6202945561 -4.1371951356  1.4480283917
H   13.1716205063 -1.7263197995  2.4794175456
H   12.2474782241 -5.9070036000  2.8985675894
H   11.1048681946 -6.4932564660  4.7181083152
H   11.8926433919 -0.2977067384  3.7625623257
H   9.1339012240 -2.1083398326  4.8352233096
H   11.3553126474 -1.8205024278  6.7601985334
H   7.5906879898 -1.4969840647  6.4452535862
H   7.5062575430 -0.3275478987  7.8605679114
H   10.7656682423  0.5945359030  7.9964376439
H   10.9108583799 -0.8399403904  8.9956844505
H   9.4892952056  0.2128325294  9.1734010325
H   16.5362442380 -2.0977908808 -0.7740097685
H   16.8298301229 -5.8923294561 -2.8668312724
H   15.0568670572 -6.8715028748 -1.4197321129
H   13.2757601149 -6.2333459866  0.8252949703
H   18.1335901340 -4.0245305821 -3.3041358056
C   9.9235578057 -4.7712858443  10.7927481277
O   12.1818726578 -5.5025424873  11.3384430260
C   11.2296582609 -5.1204038589  10.4084905664
O   7.7158236289 -4.0416476149  10.1263812521
C   11.6218773335 -5.0930612746  9.0511667003
O   6.2782379411 -3.0744578183  5.9217095301
C   10.7249698248 -4.7044699503  8.0797102210
O   4.5647376602 -4.4063111750  4.4939257756
C   9.3773811436 -4.3421817233  8.4138022263
O   6.2322777313 -6.1732771925  0.3235810521
C   9.0163674748 -4.3949829325  9.8119316231
C   8.3917115255 -3.9397395687  7.5158395432
C   8.5554658381 -3.8910566004  6.0615795910
C   7.1937097220 -3.7353427162  5.3591462106
C   6.9598747219 -4.3956719166  4.0694017196
C   7.9939287849 -4.7158377163  3.1669284672
C   5.6087142391 -4.7031743936  3.6681158582
C   7.7368521500 -5.3142999584  1.9470644277
C   5.3458058838 -5.3006255685  2.4337228420
C   6.4144819721 -5.5998923063  1.5641331706
C   3.8939403159 -5.6011801341  2.0284171051
C   3.4858643614 -7.0664997995  1.8458572263
C   3.4684105419 -8.0094668509  2.8153081630
C   3.0500910726 -9.4193935627  2.4891646898
C   3.9856626004 -7.7528327465  4.2135577757
H   9.6288865032 -4.7983601815  11.8436452628
H   12.6424904387 -5.3818355770  8.8214506586
H   11.0410238578 -4.6584761760  7.0441909699
H   11.8173177064 -5.4655464573  12.2459525403
H   7.5434759749 -4.1280411416  11.0854029666
H   7.4532909818 -3.6500926667  7.9589909395
H   9.0504379658 -4.7765805925  5.6785760538
H   9.0076279928 -4.4384088735  3.4091534012
H   8.5209906380 -5.5738454350  1.2470347710
H   4.9347440597 -3.8188662003  5.2143341300
H   5.2866071480 -6.2758867630  0.1098186195
H   3.2762746563 -5.1411381280  2.8082081779
H   3.6602322834 -5.0903106532  1.0832376254
H   3.1165617063 -7.3365598162  0.8553039623
H   2.4345956061 -9.8363069379  3.2934231923
H   3.9292885305 -10.0720008250  2.4027951254
H   2.4896152876 -9.4688894282  1.5507015788
H   5.0838900465 -7.7475398892  4.2288663746
H   3.6543451736 -8.5375767256  4.9004367910
H   3.6517895482 -6.7847249632  4.6030055353
84
Scanning combination 14/256: [1.7000, 3.0000]  Energy = -386.2140957113
O   10.6421975980 -5.6802924352  4.9669289926
O   11.3196641428 -0.9288586924  4.2924336573
O   17.7772225030 -3.3651441587 -2.6642006197
O   14.4881497490 -3.1038004723  0.9354699696
C   12.7479537535 -3.8540541913  2.5389285231
C   12.5478962373 -2.5147730085  2.9515550508
C   12.0718444460 -4.8921642292  3.2125757286
C   11.5918215927 -2.2446376503  3.9317757026
C   11.1976772999 -4.5993706219  4.2647303056
C   10.8554311722 -3.2666959083  4.5833537929
C   9.7427363013 -2.7255060901  5.4977112139
C   10.2881690456 -1.8321574885  6.5616079276
C   9.4766946669 -1.0467940474  7.3874193267
C   8.1178552114 -0.9583170685  7.2472774318
C   10.2089825802 -0.2142853085  8.4529974703
C   14.7966825602 -5.0595754198 -0.2633785272
C   15.2233928911 -3.7017321697 -0.1195666785
C   16.1938593501 -3.1237315718 -0.8924453941
C   16.7846514247 -3.9355474050 -1.8860726069
C   16.3772131400 -5.2868099916 -2.0829670603
C   15.3903123136 -5.8429320218 -1.2756831001
C   13.8099860270 -5.3016249451  0.7200331655
C   13.6173584926 -4.1407306059  1.4553530482
H   13.1384876003 -1.7280495074  2.4912666992
H   12.2610415592 -5.9169203635  2.9209305070
H   11.1144302208 -6.5057837069  4.7281757569
H   11.8384877576 -0.3142812492  3.7430054792
H   9.1344022476 -2.0833165036  4.8439282884
H   11.3527995026 -1.8143206446  6.7314644606
H   7.5846419536 -1.4713424795  6.4563469890
H   7.5185914682 -0.3073178157  7.8746822661
H   10.7829017147  0.5890552456  7.9779489007
H   10.9299946109 -0.8332907751  8.9954698506
H   9.5136937037  0.2276633487  9.1714394919
H   16.5300515951 -2.0953339676 -0.7766456183
H   16.8366761800 -5.8882941150 -2.8666049706
H   15.0717266619 -6.8734450349 -1.4169163850
H   13.2844263282 -6.2377085033  0.8359185712
H   18.1321099150 -4.0125662210 -3.3077465752
C   9.9191004845 -4.7787666036  10.7889503654
O   12.1781873983 -5.5092469990  11.3372106772
C   11.2262980497 -5.1264769427  10.4077098676
O   7.7121596700 -4.0509891458  10.1225264218
C   11.6216656341 -5.0966155922  9.0514124810
O   6.2967047035 -3.0540859925  5.9132168622
C   10.7282600438 -4.7035737610  8.0792968260
O   4.5740353500 -4.3959688831  4.4929471104
C   9.3806956497 -4.3369711351  8.4088266790
O   6.2339633349 -6.1686729412  0.3226829522
C   9.0139575160 -4.3991767332  9.8071376132
C   8.4024428533 -3.9334994399  7.5063064279
C   8.5938515119 -3.8547949658  6.0407705870
C   7.2083480402 -3.7122809983  5.3459866949
C   6.9694893401 -4.3793757443  4.0610167346
C   8.0019783212 -4.7145349838  3.1619188111
C   5.6167546327 -4.6917123496  3.6648187933
C   7.7420514712 -5.3124193218  1.9436942925
C   5.3519217410 -5.2971483214  2.4348891011
C   6.4191772137 -5.5969786657  1.5634129451
C   3.9005554936 -5.6022047654  2.0293782491
C   3.4929322140 -7.0683913976  1.8467764396
C   3.4697524834 -8.0103450588  2.8163837477
C   3.0459374845 -9.4199192470  2.4944260300
C   3.9885863173 -7.7520816478  4.2137233303
H   9.6233943278 -4.8052780857  11.8401994787
H   12.6430424845 -5.3842462147  8.8239629654
H   11.0456213606 -4.6618401841  7.0443960046
H   11.8142431238 -5.4746011467  12.2452655939
H   7.5456740813 -4.1267497589  11.0834203920
H   7.4427101269 -3.6998152025  7.9336593501
H   9.0515674150 -4.7668688721  5.6672601109
H   9.0183628967 -4.4517164920  3.4079869929
H   8.5239161033 -5.5707423890  1.2403427964
H   4.9416026109 -3.8141384178  5.2171873789
H   5.2881809064 -6.2720231174  0.1115079535
H   3.2804134867 -5.1396652942  2.8056287404
H   3.6693174564 -5.0949375412  1.0816781024
H   3.1266105480 -7.3376932760  0.8546132513
H   2.4257300022 -9.8312353275  3.2980500161
H   3.9223422897 -10.0770753977  2.4150516517
H   2.4887138280 -9.4723146567  1.5541723494
H   5.0868315665 -7.7465446207  4.2258070950
H   3.6581365506 -8.5348841515  4.9030981591
H   3.6563027502 -6.7823757936  4.6007793842
84
Scanning combination 15/256: [1.6000, 3.0000]  Energy = -386.2118788954
O   10.6427223566 -5.6836988194  4.9685546805
O   11.3114740962 -0.9282912526  4.2890918113
O   17.7740924318 -3.3619558935 -2.6620670022
O   14.4857782027 -3.1040149338  0.9349964737
C   12.7493239452 -3.8540176793  2.5408900974
C   12.5456714821 -2.5146597735  2.9540250896
C   12.0745022488 -4.8944114625  3.2136970096
C   11.5821967090 -2.2468790669  3.9325767447
C   11.1951544911 -4.6020748370  4.2634290655
C   10.8423765632 -3.2728975399  4.5806393963
C   9.7134952026 -2.7573146878  5.5133244738
C   10.2770614799 -1.8439061899  6.5658337158
C   9.4762339960 -1.0492930239  7.3885646612
C   8.1174273509 -0.9524634587  7.2475386056
C   10.2136739600 -0.2144354387  8.4500993241
C   14.7963728838 -5.0609580221 -0.2605524666
C   15.2225912682 -3.7026350687 -0.1177313122
C   16.1917807915 -3.1218150395 -0.8901071337
C   16.7823618793 -3.9328077118 -1.8835907249
C   16.3757739924 -5.2842653564 -2.0790772221
C   15.3905120218 -5.8432553451 -1.2722096986
C   13.8084887555 -5.3033405014  0.7213227676
C   13.6159642034 -4.1409996904  1.4550509291
H   13.1303381351 -1.7244427370  2.4889086259
H   12.2600396406 -5.9210852086  2.9262875500
H   11.1126484913 -6.5103848627  4.7334519858
H   11.8284847471 -0.3145810067  3.7358030796
H   9.1394292231 -2.0930139172  4.8512029158
H   11.3421931161 -1.8151466584  6.7222012294
H   7.5844246500 -1.4734253516  6.4625157895
H   7.5202576133 -0.3089441497  7.8815889517
H   10.7872165309  0.5901455344  7.9774933564
H   10.9340694531 -0.8329367195  8.9933714218
H   9.5211626814  0.2307691169  9.1686967437
H   16.5270418074 -2.0930537945 -0.7757172296
H   16.8347027273 -5.8858447557 -2.8619220798
H   15.0726455580 -6.8738609734 -1.4138131446
H   13.2849105014 -6.2408030208  0.8396716825
H   18.1282305969 -4.0102759004 -3.3049939643
C   9.9180590145 -4.7801712934  10.7868906302
O   12.1763226991 -5.5108771512  11.3392211084
C   11.2259829692 -5.1275335990  10.4078090578
O   7.7123634656 -4.0507314383  10.1185731633
C   11.6224993982 -5.0963993767  9.0516988775
O   6.3062038069 -3.0531346067  5.9077994196
C   10.7311574942 -4.7039689774  8.0782514212
O   4.5763114093 -4.3934184629  4.4934850418
C   9.3824812409 -4.3377267993  8.4047046805
O   6.2355646912 -6.1690810107  0.3234561946
C   9.0133695806 -4.4009299538  9.8043528587
C   8.4140279151 -3.9270615223  7.4997106801
C   8.6308436340 -3.8179326766  6.0262472281
C   7.2199294777 -3.7004232763  5.3355227776
C   6.9747598871 -4.3841690217  4.0611488096
C   8.0051687474 -4.7159725886  3.1591595340
C   5.6192030996 -4.6926357014  3.6664036816
C   7.7438249963 -5.3106515224  1.9396020754
C   5.3532034971 -5.2941259326  2.4349371551
C   6.4198375178 -5.5933668856  1.5620100847
C   3.9016681279 -5.6016583254  2.0310085057
C   3.4948847641 -7.0681051141  1.8476755525
C   3.4705432948 -8.0099082899  2.8173925603
C   3.0453646760 -9.4188722218  2.4955784901
C   3.9897042648 -7.7513820894  4.2140973949
H   9.6234137578 -4.8074494728  11.8384653432
H   12.6433742151 -5.3851494037  8.8243359233
H   11.0459836523 -4.6609407136  7.0429604128
H   11.8125199847 -5.4766974538  12.2471912755
H   7.5454774152 -4.1266748529  11.0796697687
H   7.4486831783 -3.7019077524  7.9191873661
H   9.0423034554 -4.7602338920  5.6745126118
H   9.0199446806 -4.4499398057  3.4041853533
H   8.5252691936 -5.5732036062  1.2381502930
H   4.9427220496 -3.8104266935  5.2159286438
H   5.2897469118 -6.2715100247  0.1106718309
H   3.2807753282 -5.1405081062  2.8076169360
H   3.6707644760 -5.0957191715  1.0827396922
H   3.1288537619 -7.3391151247  0.8560563743
H   2.4237435057 -9.8281495990  3.2991221335
H   3.9211902575 -10.0769794341  2.4174826921
H   2.4889340879 -9.4714235385  1.5548575088
H   5.0879800610 -7.7459780678  4.2257181975
H   3.6584405917 -8.5346982086  4.9023226895
H   3.6575101908 -6.7815473030  4.6010297998
84
Scanning combination 16/256: [1.5000, 3.0000]  Energy = -386.2040659185
O   10.6297142782 -5.7038360518  4.9731234807
O   11.2688650388 -0.9401315409  4.2910430773
O   17.7656697138 -3.3564193662 -2.6580032088
O   14.4737309834 -3.1010658515  0.9450691519
C   12.7313677179 -3.8588116448  2.5514526749
C   12.5117069028 -2.5230593946  2.9625451245
C   12.0642263605 -4.9017677770  3.2258725532
C   11.5482912905 -2.2600776182  3.9422168247
C   11.1799890533 -4.6158123629  4.2754785912
C   10.8201697717 -3.2888760339  4.5944841122
C   9.6813465109 -2.7841813692  5.5318047642
C   10.2643175244 -1.8515206592  6.5671844433
C   9.4724605867 -1.0487190626  7.3885303909
C   8.1128078125 -0.9384065590  7.2560677522
C   10.2233837979 -0.2158782179  8.4414425913
C   14.7933095137 -5.0581764889 -0.2513642030
C   15.2135658277 -3.6985449091 -0.1094911754
C   16.1829963357 -3.1192149300 -0.8836587231
C   16.7767023449 -3.9299966561 -1.8773454005
C   16.3747801872 -5.2829433217 -2.0729538652
C   15.3903753952 -5.8412964875 -1.2637565016
C   13.8079590741 -5.3019167752  0.7337125532
C   13.6074682669 -4.1410704756  1.4686285765
H   13.0950786138 -1.7311966645  2.5036625136
H   12.2683046523 -5.9230162718  2.9350852605
H   11.1166463507 -6.5206962347  4.7395554833
H   11.7882544071 -0.3340612882  3.7320441966
H   9.1327806585 -2.0970921485  4.8686988634
H   11.3334078237 -1.8175955005  6.6876259055
H   7.5676111474 -1.4493915300  6.4736720092
H   7.5212300056 -0.2908255368  7.8927662149
H   10.7965218570  0.5801919022  7.9550154500
H   10.9443490738 -0.8362960020  8.9813754032
H   9.5370284010  0.2332490475  9.1630221347
H   16.5155163799 -2.0896303355 -0.7699300856
H   16.8357951976 -5.8827921794 -2.8576722144
H   15.0769266931 -6.8735756859 -1.4048641183
H   13.2875157435 -6.2409660197  0.8488171313
H   18.1225196839 -4.0026195525 -3.3019678610
C   9.9147006573 -4.7859405419  10.7786158416
O   12.1720089016 -5.5144016580  11.3410887274
C   11.2250755193 -5.1333154706  10.4059756477
O   7.7135050416 -4.0536674019  10.1015981251
C   11.6306402045 -5.1036589489  9.0531997137
O   6.3423153785 -3.0205601898  5.8936837706
C   10.7472690390 -4.7070526873  8.0756550892
O   4.5963923511 -4.3919868740  4.4975720287
C   9.3991758141 -4.3314341866  8.3947867981
O   6.2339113989 -6.1675710729  0.3189585069
C   9.0164684676 -4.4024713353  9.7922035064
C   8.4423357986 -3.9114614845  7.4844358896
C   8.6735142519 -3.7880078627  6.0079694201
C   7.2461098886 -3.6735717625  5.3184182809
C   6.9921209028 -4.3662245203  4.0485565877
C   8.0171514579 -4.7128242744  3.1464674406
C   5.6356902754 -4.6860654359  3.6631679382
C   7.7495145972 -5.3167756997  1.9330856987
C   5.3624218457 -5.2961674098  2.4368322475
C   6.4243672454 -5.5985051064  1.5598153551
C   3.9087502483 -5.6007101745  2.0346700606
C   3.5001443249 -7.0665656489  1.8494672080
C   3.4731225073 -8.0081967242  2.8194658804
C   3.0437424618 -9.4162786801  2.4990971043
C   3.9927171219 -7.7502643270  4.2164196745
H   9.6142933091 -4.8111736558  11.8288929160
H   12.6531822699 -5.3903160933  8.8307863338
H   11.0718550147 -4.6708254149  7.0438551746
H   11.8031702554 -5.4805177106  12.2465888006
H   7.5444075249 -4.1260852740  11.0631007879
H   7.4644552134 -3.7237750463  7.8868325218
H   9.0472985270 -4.7515516237  5.6613087136
H   9.0346118522 -4.4530679892  3.3874096708
H   8.5270926123 -5.5770270744  1.2273172790
H   4.9582801242 -3.8044420877  5.2154577544
H   5.2871578033 -6.2694413294  0.1095956687
H   3.2890583861 -5.1394364942  2.8118096070
H   3.6740366496 -5.0931246584  1.0877367713
H   3.1370630642 -7.3363616916  0.8561949695
H   2.4186175928 -9.8222961313  3.3016599053
H   3.9172509004 -10.0778782410  2.4251365102
H   2.4896365718 -9.4685030576  1.5570548428
H   5.0909976620 -7.7450551011  4.2277603688
H   3.6618633911 -8.5329969590  4.9055962510
H   3.6615577090 -6.7801718899  4.6036959297
84
Scanning combination 17/256: [3.0000, 2.9000]  Energy = -386.2551084753
O   10.7773804653 -5.2144218793  4.8532240639
O   12.0159407029 -0.5795826705  4.3071862581
O   18.0348260205 -3.7147276757 -2.7922437447
O   14.5971806801 -2.9723736592  0.5890972646
C   12.8800558059 -3.5663795934  2.2812209186
C   12.8468890180 -2.2233853664  2.7371033249
C   12.1499530552 -4.5640334498  2.9691504209
C   12.0531696016 -1.8886915574  3.8325069536
C   11.3891680706 -4.2156067936  4.0745001126
C   11.2358026921 -2.8623933611  4.4856072423
C   10.2708757881 -2.5148306112  5.4928663069
C   10.5311038193 -1.5997920351  6.4788328732
C   9.5839231688 -1.0866211696  7.4340096252
C   8.2397549841 -1.2008059198  7.2554811767
C   10.1736967626 -0.2656393071  8.5828122166
C   14.7894355731 -5.0090848539 -0.4943883049
C   15.3037584039 -3.6758401203 -0.4195565142
C   16.3416103589 -3.2169898006 -1.1840717307
C   16.9468150378 -4.1491080846 -2.0556276508
C   16.4610077716 -5.4835381493 -2.1746355591
C   15.3803718358 -5.9050231411 -1.4081726723
C   13.7690368058 -5.1276754207  0.4735678773
C   13.6676760760 -3.9263942256  1.1613776494
H   13.4374809084 -1.4730612434  2.2160157067
H   12.2047526645 -5.5944910250  2.6398697384
H   11.2138778706 -6.0773814957  4.6877899589
H   12.4782539356  0.0204333793  3.6891216075
H   9.3078581058 -2.9886575578  5.4037469995
H   11.5439609089 -1.2081723946  6.5454875905
H   7.8351278768 -1.6244625569  6.3428595067
H   7.5247917983 -0.8452289917  7.9904746659
H   10.5032904830  0.7123027946  8.2096997925
H   11.0621906776 -0.7518701614  9.0013891162
H   9.4465610102 -0.0983367310  9.3826192267
H   16.7257822105 -2.1996458273 -1.1428745553
H   16.9344706051 -6.1814177018 -2.8633690528
H   14.9927753863 -6.9176963205 -1.4965986341
H   13.1652878632 -6.0115939810  0.6149165501
H   18.4120072864 -4.4488348206 -3.3191694819
C   9.7831645626 -4.8264445449  10.9571741780
O   12.0922200820 -5.4477169863  11.4218956078
C   11.0978388080 -5.0770696447  10.5310024389
O   7.5129121272 -4.2450635347  10.3549292793
C   11.4602063962 -4.9455471030  9.1711394596
O   5.9386080711 -3.2849716157  6.1131079676
C   10.5098393878 -4.5957427248  8.2299512445
O   4.3103599650 -4.3015772316  4.3830292713
C   9.1569108158 -4.3559247219  8.6098124602
O   6.2430940110 -6.2126869931  0.3958710085
C   8.8338848980 -4.4707233232  10.0053946636
C   8.0886338443 -4.0591741057  7.7209882069
C   8.0485426108 -4.3279959289  6.3725931507
C   6.8675417681 -3.9920505822  5.6002834997
C   6.7219060187 -4.5290298313  4.2219045568
C   7.8178705311 -4.8871135292  3.4118771414
C   5.4041430733 -4.7008411859  3.6767558470
C   7.6398870541 -5.4392598016  2.1541646523
C   5.2204812300 -5.2956398439  2.4245157588
C   6.3431114036 -5.6483183493  1.6503761708
C   3.7983593579 -5.6044589662  1.9369603851
C   3.3741401155 -7.0764666197  1.8221805398
C   3.4673857292 -8.0286306688  2.7796736496
C   3.1216218037 -9.4572530155  2.4482434375
C   4.0242536088 -7.7545293459  4.1585315618
H   9.5125630480 -4.9134472870  12.0119312130
H   12.4975770136 -5.1353647304  8.9163129642
H   10.7936426778 -4.5206235258  7.1863960785
H   11.7327640458 -5.5460757064  12.3273909682
H   7.3676361707 -4.3984129744  11.3098755569
H   7.2112846660 -3.6401381845  8.1951978570
H   8.8132315175 -4.9375010317  5.9119523415
H   8.8244748104 -4.6798670741  3.7456781575
H   8.4678855386 -5.7316941620  1.5203432268
H   4.6644490387 -3.7918122924  5.1763704058
H   5.3187166296 -6.2379928985  0.0853474771
H   3.1286434121 -5.0772043665  2.6266004170
H   3.6448750689 -5.1675460019  0.9395065142
H   2.8873645748 -7.3404918125  0.8816319190
H   2.6346530000 -9.9481909495  3.2977235049
H   4.0313914061 -10.0349028000  2.2327239055
H   2.4614491082 -9.5212930662  1.5774552781
H   5.1217040808 -7.7011011140  4.1329776588
H   3.7578976285 -8.5531396412  4.8575838711
H   3.6566776430 -6.8037050568  4.5608286315
84
Scanning combination 18/256: [3.0000, 2.8000]  Energy = -386.2531656023
O   10.7732024986 -5.2154934495  4.8524525852
O   12.0183332210 -0.5818728712  4.3035563807
O   18.0283986748 -3.7047816521 -2.7995561884
O   14.6036081668 -2.9763561815  0.5970972799
C   12.8870256589 -3.5724977188  2.2866351859
C   12.8557341709 -2.2289673068  2.7408997935
C   12.1557211615 -4.5702138023  2.9737172850
C   12.0597546394 -1.8926128098  3.8338080564
C   11.3928014363 -4.2194664399  4.0769400399
C   11.2455392544 -2.8663260835  4.4900775406
C   10.2801770387 -2.5171098225  5.4943779917
C   10.5349195952 -1.5978156431  6.4778799439
C   9.5871653410 -1.0998728655  7.4368317514
C   8.2436641087 -1.2567505512  7.2721643936
C   10.1658615141 -0.2733792156  8.5842624306
C   14.7971137301 -5.0116836095 -0.4885126054
C   15.3102083902 -3.6781140294 -0.4119803004
C   16.3461954426 -3.2165075975 -1.1768748306
C   16.9459103730 -4.1434788472 -2.0574636220
C   16.4603278310 -5.4774466116 -2.1793239806
C   15.3859775959 -5.9039341358 -1.4069396901
C   13.7756299309 -5.1321440374  0.4779804973
C   13.6746909326 -3.9318829768  1.1675981842
H   13.4479707415 -1.4803705381  2.2187835328
H   12.2083747435 -5.6009074205  2.6441042414
H   11.1990723534 -6.0824828570  4.6806244321
H   12.4798814966  0.0167877738  3.6845153808
H   9.3175027012 -2.9911985253  5.4034426967
H   11.5470826540 -1.2051609607  6.5476765956
H   7.8414574318 -1.6517668138  6.3467402802
H   7.5274333147 -0.9375606248  8.0223929463
H   10.4982789264  0.7021448822  8.2088496967
H   11.0524700867 -0.7553687703  9.0109520418
H   9.4340872638 -0.1048036026  9.3790691010
H   16.7279036909 -2.1985644254 -1.1335505138
H   16.9310964950 -6.1703026766 -2.8749097884
H   14.9983221984 -6.9162085821 -1.4985093881
H   13.1728778146 -6.0172003331  0.6167228174
H   18.4059293645 -4.4368909626 -3.3293190408
C   9.7857114930 -4.8104390006  10.9488984467
O   12.0913128609 -5.4451197512  11.4119326766
C   11.0996397254 -5.0640168250  10.5220401429
O   7.5180144431 -4.2135225901  10.3500320861
C   11.4597222551 -4.9398625011  9.1614386228
O   5.9339279668 -3.2755847564  6.1072198152
C   10.5084165897 -4.5887498935  8.2218849019
O   4.3073092030 -4.3094553849  4.3857849169
C   9.1600230822 -4.3285084136  8.6049724483
O   6.2431028281 -6.2062135802  0.3942770240
C   8.8369767627 -4.4490461131  9.9989042560
C   8.0932500376 -4.0170788765  7.7168811741
C   8.0440379410 -4.3132149162  6.3741171396
C   6.8622297701 -3.9870502524  5.6002942891
C   6.7188578299 -4.5294861847  4.2232674876
C   7.8153924999 -4.8868355444  3.4139672825
C   5.4017428616 -4.7044486008  3.6781555807
C   7.6373093496 -5.4357449057  2.1551361010
C   5.2176712591 -5.2975495132  2.4249933831
C   6.3410965704 -5.6463620656  1.6509684267
C   3.7959212257 -5.6062937098  1.9369323407
C   3.3731942885 -7.0785427015  1.8220710110
C   3.4640854844 -8.0300021875  2.7801289309
C   3.1184278486 -9.4580473322  2.4483778980
C   4.0173165218 -7.7561676893  4.1598857720
H   9.5140285629 -4.9078248925  12.0016959839
H   12.4934316444 -5.1409983057  8.9018810337
H   10.7914784582 -4.5147572839  7.1787248413
H   11.7320214250 -5.5354124040  12.3177004524
H   7.3663193765 -4.3884418315  11.3001009967
H   7.2180664568 -3.5979237439  8.1937352732
H   8.8029586933 -4.9371779952  5.9219007341
H   8.8218413061 -4.6844903646  3.7507042603
H   8.4663964220 -5.7223475662  1.5204571374
H   4.6587106822 -3.7942343307  5.1762797940
H   5.3190168257 -6.2385075641  0.0853991189
H   3.1280625214 -5.0799200818  2.6289221490
H   3.6404715912 -5.1661074185  0.9409423640
H   2.8862586913 -7.3420580037  0.8817012740
H   2.6277661003 -9.9476120747  3.2962512981
H   4.0277656115 -10.0369948413  2.2360557110
H   2.4631253408 -9.5213799383  1.5741789361
H   5.1147029670 -7.7042146659  4.1362832606
H   3.7484114804 -8.5545968037  4.8578691916
H   3.6504736166 -6.8048813810  4.5614517496
84
Scanning combination 19/256: [3.0000, 2.7000]  Energy = -386.2509049173
O   10.7672353903 -5.2204287603  4.8533325399
O   12.0405751478 -0.5903109831  4.2988241831
O   18.0164401865 -3.6726971990 -2.8240109763
O   14.6329048373 -2.9929223441  0.6233849126
C   12.9156184278 -3.5938045350  2.3065576163
C   12.8867519195 -2.2489800030  2.7564198087
C   12.1767587449 -4.5867601914  2.9912657801
C   12.0836706163 -1.9052918801  3.8408854725
C   11.4056413816 -4.2299745792  4.0871413041
C   11.2605967656 -2.8737716759  4.4953040587
C   10.2942726616 -2.5183636139  5.4955802422
C   10.5453712805 -1.5876342287  6.4714020253
C   9.5981380465 -1.1255690096  7.4482432412
C   8.2587588351 -1.3550016518  7.3167690046
C   10.1528731934 -0.2827540376  8.5955161574
C   14.8232298236 -5.0185617233 -0.4802824011
C   15.3338434975 -3.6849229510 -0.3950774570
C   16.3614873739 -3.2124437755 -1.1657118511
C   16.9483263073 -4.1253621567 -2.0693971144
C   16.4645314993 -5.4588554908 -2.2009544271
C   15.4054506927 -5.8992505858 -1.4147696984
C   13.8071664899 -5.1486313695  0.4917931908
C   13.7046714582 -3.9523728052  1.1884534348
H   13.4861632717 -1.5054739754  2.2355746843
H   12.2272093414 -5.6177374408  2.6620499555
H   11.1642834715 -6.0968244580  4.6613428612
H   12.4925435941  0.0032981588  3.6673221658
H   9.3357920625 -3.0009117722  5.4133363223
H   11.5494820134 -1.1712341534  6.5242041961
H   7.8381136844 -1.6502810819  6.3612774741
H   7.5602893907 -1.1486571270  8.1199509680
H   10.4924708265  0.6941778070  8.2300123308
H   11.0325917088 -0.7602303644  9.0393803225
H   9.4013235360 -0.1108098293  9.3720904266
H   16.7443345843 -2.1961336751 -1.1095691750
H   16.9252895968 -6.1403467117 -2.9144042799
H   15.0235703100 -6.9130775787 -1.5106339272
H   13.2077611490 -6.0362990727  0.6287254551
H   18.3865564278 -4.3947417033 -3.3728397549
C   9.7924658146 -4.7622624555  10.9351528542
O   12.0910175879 -5.4292370279  11.3864341733
C   11.0995155821 -5.0413894616  10.5002899985
O   7.5336227743 -4.1108982069  10.3486918987
C   11.4537210468 -4.9298405095  9.1369206526
O   5.9270683989 -3.2569635687  6.0992668152
C   10.4999063412 -4.5749963672  8.2022454783
O   4.2904653499 -4.3221738732  4.3988831951
C   9.1540356625 -4.3130331291  8.5910636476
O   6.2352042166 -6.1888387082  0.3916190280
C   8.8428132847 -4.3918992098  9.9892665687
C   8.0810960990 -4.0210597977  7.7045660856
C   8.0400081638 -4.3006031588  6.3570709959
C   6.8533186216 -3.9703633865  5.5921183868
C   6.7023332756 -4.5244494637  4.2231478861
C   7.7996390832 -4.8826484505  3.4170503245
C   5.3850401670 -4.7078199918  3.6845687831
C   7.6254524941 -5.4238935730  2.1561433918
C   5.2045460267 -5.2981138563  2.4297743361
C   6.3301146624 -5.6363049625  1.6518770121
C   3.7846803705 -5.6109721660  1.9398072087
C   3.3666546494 -7.0843303405  1.8199180599
C   3.4504938845 -8.0355312047  2.7789424922
C   3.1057140437 -9.4642989967  2.4467831507
C   3.9936080098 -7.7615336856  4.1631410668
H   9.5271869457 -4.8493000576  11.9908823229
H   12.4833593623 -5.1431474630  8.8690890326
H   10.7768680574 -4.5104596000  7.1564467813
H   11.7386536728 -5.5010591714  12.2965561608
H   7.3697040878 -4.3160871496  11.2906433381
H   7.1908349404 -3.6378141729  8.1844828198
H   8.7934082991 -4.9282398497  5.9020701028
H   8.8041272789 -4.6849897739  3.7611648472
H   8.4564280200 -5.7039065848  1.5205952632
H   4.6417124209 -3.7982206823  5.1831071665
H   5.3105301569 -6.2351615379  0.0869687158
H   3.1133169591 -5.0893612203  2.6323763982
H   3.6298499895 -5.1705074424  0.9439040239
H   2.8880272314 -7.3501041720  0.8755756562
H   2.6001012579 -9.9494134971  3.2888782165
H   4.0170371566 -10.0464677436  2.2515679820
H   2.4641160061 -9.5286549009  1.5623502744
H   5.0912933346 -7.7099237873  4.1478038489
H   3.7182617756 -8.5599358587  4.8591812421
H   3.6242580820 -6.8096335337  4.5611337998
84
Scanning combination 20/256: [3.0000, 2.6000]  Energy = -386.2472003695
O   10.7667427837 -5.2216517845  4.8522617920
O   12.0385507086 -0.5920593620  4.3003102882
O   18.0150514017 -3.6682851677 -2.8266952325
O   14.6372918416 -2.9946699143  0.6261725371
C   12.9180737384 -3.5963307535  2.3079150438
C   12.8879407653 -2.2517282014  2.7585230211
C   12.1774130190 -4.5887776582  2.9914006539
C   12.0852653547 -1.9067398393  3.8420798294
C   11.4067194996 -4.2313939567  4.0871232819
C   11.2644005187 -2.8747553035  4.4960623872
C   10.2994395887 -2.5149035419  5.4917379773
C   10.5430964939 -1.5878637555  6.4722605233
C   9.5968683447 -1.1439485023  7.4546114658
C   8.2575124384 -1.4084794632  7.3346830221
C   10.1499943448 -0.2908939098  8.5930271676
C   14.8266612200 -5.0193615203 -0.4794609376
C   15.3378774102 -3.6854572248 -0.3935561532
C   16.3630778809 -3.2111079412 -1.1650221030
C   16.9491427024 -4.1226543917 -2.0699881258
C   16.4653888100 -5.4565788499 -2.2021578719
C   15.4065582720 -5.8983973314 -1.4165826121
C   13.8126726755 -5.1506020975  0.4946632287
C   13.7103288623 -3.9548295236  1.1919057406
H   13.4902195246 -1.5091637577  2.2412811630
H   12.2311510547 -5.6207054503  2.6658031267
H   11.1637798594 -6.0983501266  4.6600253173
H   12.4926339428  0.0016744605  3.6707103225
H   9.3410623991 -2.9984227274  5.4151283705
H   11.5421601342 -1.1617871509  6.5264428877
H   7.8327885753 -1.6785094581  6.3741867988
H   7.5597012297 -1.1629254569  8.1275151970
H   10.4891768725  0.6821907212  8.2158121689
H   11.0299815834 -0.7624898135  9.0426358037
H   9.4047697933 -0.1179771307  9.3749513715
H   16.7468943645 -2.1944831946 -1.1078326502
H   16.9238337188 -6.1369748377 -2.9179287444
H   15.0251058596 -6.9129724551 -1.5114627425
H   13.2128356092 -6.0378050929  0.6319257494
H   18.3822380586 -4.3896628328 -3.3776205392
C   9.7924464725 -4.7592559208  10.9324145516
O   12.0919431030 -5.4256452662  11.3854158050
C   11.0995226405 -5.0377521825  10.4997552911
O   7.5335212747 -4.1131560716  10.3468664380
C   11.4522740345 -4.9309800377  9.1361121321
O   5.9200546805 -3.2604732824  6.0973608564
C   10.4987972981 -4.5743186369  8.2010797143
O   4.2911152471 -4.3223726652  4.3964543166
C   9.1568983672 -4.2971948237  8.5898951998
O   6.2301160611 -6.1887414270  0.3882957926
C   8.8430575036 -4.3874115596  9.9859991777
C   8.0896245539 -3.9772369925  7.6995417150
C   8.0375915777 -4.2862274231  6.3558605515
C   6.8509441760 -3.9692890623  5.5909704300
C   6.7028769804 -4.5261417041  4.2214260946
C   7.7997338026 -4.8819895844  3.4128208163
C   5.3850224967 -4.7084188182  3.6824129965
C   7.6233103315 -5.4245278952  2.1516584852
C   5.2029703768 -5.2986582963  2.4275859372
C   6.3271309054 -5.6373126664  1.6487650762
C   3.7822765387 -5.6116151899  1.9398708250
C   3.3650777704 -7.0850171590  1.8197144449
C   3.4483134742 -8.0360656229  2.7789261448
C   3.1041422270 -9.4648945624  2.4466126263
C   3.9905717882 -7.7617625665  4.1634460999
H   9.5293372285 -4.8376273595  11.9888388837
H   12.4824957607 -5.1427289947  8.8702471243
H   10.7749648805 -4.5163278640  7.1550575317
H   11.7409691653 -5.4975962491  12.2960727505
H   7.3798993764 -4.3023929232  11.2940319556
H   7.1965939470 -3.6030340344  8.1788613859
H   8.7921166391 -4.9203268320  5.9125141452
H   8.8055282539 -4.6833013773  3.7534695485
H   8.4525256081 -5.7046074519  1.5142201289
H   4.6439497152 -3.7995278515  5.1820048562
H   5.3045321585 -6.2344370712  0.0852587764
H   3.1120764609 -5.0904019104  2.6336431560
H   3.6254494471 -5.1698779292  0.9450083420
H   2.8892117134 -7.3509004092  0.8741594273
H   2.5964010866 -9.9492061181  3.2877728974
H   4.0156109024 -10.0477529364  2.2542706961
H   2.4642692048 -9.5296393665  1.5609903906
H   5.0882624458 -7.7097003183  4.1489749270
H   3.7150480704 -8.5601382674  4.8593798896
H   3.6207233948 -6.8099688481  4.5611234963
84
Scanning combination 21/256: [3.0000, 2.5000]  Energy = -386.2430635687
O   10.7658535619 -5.2202728202  4.8514390907
O   12.0432900324 -0.5922290741  4.2989018569
O   18.0128894626 -3.6627729647 -2.8313724703
O   14.6437762329 -2.9967306014  0.6311941776
C   12.9261992284 -3.5988227975  2.3118914601
C   12.8976672225 -2.2532624165  2.7608361841
C   12.1840916430 -4.5913012204  2.9943611212
C   12.0915567473 -1.9071696157  3.8414142320
C   11.4106323796 -4.2324731683  4.0872037080
C   11.2708353001 -2.8754489421  4.4959903220
C   10.3070739561 -2.5191643148  5.4924172054
C   10.5441297763 -1.5882731222  6.4719882157
C   9.5976540041 -1.1560485028  7.4569297474
C   8.2615954524 -1.4668697590  7.3591213727
C   10.1457232801 -0.2982051363  8.5919687946
C   14.8325990347 -5.0200116596 -0.4765322959
C   15.3433507969 -3.6862730143 -0.3893258767
C   16.3659686327 -3.2100441675 -1.1633300762
C   16.9493051000 -4.1191686118 -2.0726613273
C   16.4661223159 -5.4528049551 -2.2058900631
C   15.4103138975 -5.8963960395 -1.4172997316
C   13.8188978771 -5.1529271855  0.4975532706
C   13.7168207327 -3.9575021202  1.1955174584
H   13.5012145148 -1.5115368773  2.2424020213
H   12.2362906091 -5.6235074053  2.6685163653
H   11.1586361443 -6.0989309593  4.6598530445
H   12.4967419152  0.0027298795  3.6698102672
H   9.3494556002 -3.0052143471  5.4113040915
H   11.5384253284 -1.1502076878  6.5224107677
H   7.8271730953 -1.7284379813  6.3999474105
H   7.5702290514 -1.2193892484  8.1577534614
H   10.4819680853  0.6727496706  8.2093391894
H   11.0289983870 -0.7661752686  9.0413807950
H   9.3970478873 -0.1205286392  9.3702190395
H   16.7492958876 -2.1937409041 -1.1044917410
H   16.9231752037 -6.1313447588 -2.9243840719
H   15.0289821792 -6.9104890098 -1.5137878208
H   13.2222039298 -6.0421785375  0.6363016833
H   18.3777269196 -4.3817190062 -3.3872388025
C   9.7940479830 -4.7464357941  10.9307387710
O   12.0917373161 -5.4207932655  11.3818453590
C   11.0995197430 -5.0310348589  10.4965171074
O   7.5339928922 -4.1015767475  10.3445449803
C   11.4507860822 -4.9282233386  9.1324099702
O   5.9143899919 -3.2580463991  6.0946838055
C   10.4958008589 -4.5716036416  8.1989572207
O   4.2878713234 -4.3251451984  4.3945651494
C   9.1567143634 -4.2872588931  8.5888906494
O   6.2245960985 -6.1877757460  0.3849628057
C   8.8436823327 -4.3760868863  9.9840460475
C   8.0955206395 -3.9384757831  7.6958899284
C   8.0329656200 -4.2752458036  6.3554708654
C   6.8470115213 -3.9654091457  5.5893452143
C   6.7003005869 -4.5244682983  4.2188877927
C   7.7964521126 -4.8807458794  3.4090331438
C   5.3824798527 -4.7094614597  3.6804928976
C   7.6190983589 -5.4239556649  2.1478551559
C   5.1994766334 -5.2999233906  2.4258659274
C   6.3227277067 -5.6371438849  1.6456500473
C   3.7784622500 -5.6132761946  1.9395834319
C   3.3629379356 -7.0867169432  1.8184637536
C   3.4447983661 -8.0367838204  2.7786299765
C   3.1012337224 -9.4655611906  2.4467479984
C   3.9854898949 -7.7617491838  4.1634697418
H   9.5302738706 -4.8253011345  11.9869691991
H   12.4793180476 -5.1463020357  8.8644725702
H   10.7706354100 -4.5173360172  7.1525715234
H   11.7401304707 -5.4903474588  12.2924049546
H   7.3810087222 -4.2827287291  11.2932704987
H   7.2087479055 -3.5540579502  8.1807653017
H   8.7850681373 -4.9179968167  5.9212514715
H   8.8030145102 -4.6823789269  3.7478116779
H   8.4472596983 -5.7038399633  1.5089281055
H   4.6386923028 -3.8012795938  5.1798136782
H   5.2986342450 -6.2333723908  0.0829078582
H   3.1096904925 -5.0935976975  2.6357576238
H   3.6195766441 -5.1697242832  0.9458692285
H   2.8896480047 -7.3536124771  0.8720486542
H   2.5902557414 -9.9487201982  3.2864148633
H   4.0130148204 -10.0490341014  2.2586018623
H   2.4649583482 -9.5313652508  1.5587479016
H   5.0831418467 -7.7095037921  4.1502115033
H   3.7095118686 -8.5601462815  4.8590202375
H   3.6151138641 -6.8101385279  4.5609716855
84
Scanning combination 22/256: [3.0000, 2.4000]  Energy = -386.2402762171
O   10.7597233845 -5.2276746127  4.8403702943
O   12.0737709582 -0.6033281928  4.3025536914
O   17.9988719447 -3.6170811958 -2.8774044110
O   14.7007936070 -3.0111352130  0.6660694154
C   12.9809911407 -3.6215522002  2.3441395773
C   12.9476926441 -2.2763857895  2.7936915318
C   12.2249106248 -4.6091523021  3.0180672312
C   12.1207438102 -1.9229463328  3.8572362367
C   11.4289144843 -4.2442045789  4.0941925488
C   11.2843480753 -2.8857677949  4.5043715331
C   10.3129005550 -2.5334173302  5.4976401292
C   10.5228537317 -1.5684334164  6.4515077561
C   9.5974259541 -1.1806109523  7.4736615890
C   8.2752403687 -1.5846485360  7.4756513537
C   10.1507421662 -0.2833036947  8.5765667546
C   14.8824198925 -5.0228167019 -0.4637513934
C   15.3896633753 -3.6881951676 -0.3703375235
C   16.3959361238 -3.1987760702 -1.1579653106
C   16.9588204247 -4.0906533611 -2.0967479641
C   16.4778907570 -5.4243015071 -2.2376483519
C   15.4435339877 -5.8839018285 -1.4293352001
C   13.8836292006 -5.1690213199  0.5249945787
C   13.7795966149 -3.9780480920  1.2309265200
H   13.5671032574 -1.5386139223  2.2885981481
H   12.2856782649 -5.6439719917  2.7007020795
H   11.1288011094 -6.1130481766  4.6343577374
H   12.5295526166 -0.0163144460  3.6667906760
H   9.3700345415 -3.0527774062  5.4452897484
H   11.4904056784 -1.0716689230  6.4587226074
H   7.7302313597 -1.7238702308  6.5457750869
H   7.6857327438 -1.4618952527  8.3785207460
H   10.4822038670  0.6784150656  8.1668986849
H   11.0371044787 -0.7350036867  9.0369550642
H   9.4046377666 -0.0861938449  9.3533954906
H   16.7806887791 -2.1833722194 -1.0913221189
H   16.9190153210 -6.0897483654 -2.9780682073
H   15.0663816115 -6.8988954437 -1.5316226987
H   13.2977785873 -6.0646818540  0.6686944217
H   18.3428820195 -4.3214600910 -3.4643147733
C   9.7973155367 -4.6859751786  10.9230427718
O   12.0849185253 -5.3897687528  11.3785245886
C   11.0938833067 -5.0074202217  10.4882070635
O   7.5569598045 -3.9713817136  10.3339272011
C   11.4407408764 -4.9409053070  9.1208333594
O   5.9202925477 -3.2497668304  6.0753484441
C   10.4872687778 -4.5859371631  8.1843623360
O   4.2715691865 -4.3352334630  4.4004171703
C   9.1522870259 -4.2930043774  8.5731031180
O   6.1825821852 -6.1733240792  0.3656641193
C   8.8500086997 -4.3181818771  9.9718423421
C   8.0863941762 -3.9689770034  7.6735197631
C   8.0296952185 -4.2943852602  6.3260228189
C   6.8436505935 -3.9677649567  5.5666085082
C   6.6824899648 -4.5261574379  4.1995416434
C   7.7733694826 -4.8793702938  3.3831512832
C   5.3603203217 -4.7140601192  3.6738115210
C   7.5882277577 -5.4169220020  2.1214177202
C   5.1691029247 -5.3019469101  2.4193913837
C   6.2882809412 -5.6297319356  1.6285800802
C   3.7465508891 -5.6226227137  1.9419476944
C   3.3438436623 -7.0986660994  1.8110933548
C   3.4153197406 -8.0457959035  2.7746358837
C   3.0758010084 -9.4766876236  2.4478933489
C   3.9421210094 -7.7651088442  4.1637881082
H   9.5404461122 -4.7231366830  11.9833640524
H   12.4635625161 -5.1815910532  8.8522945495
H   10.7602219636 -4.5442121440  7.1370860592
H   11.7370542769 -5.4299981920  12.2924462768
H   7.4043014359 -4.1149125835  11.2885456048
H   7.1734626261 -3.6492080165  8.1592371796
H   8.7758312690 -4.9359607315  5.8803643375
H   8.7807464367 -4.6806624815  3.7191154711
H   8.4113458454 -5.6939334452  1.4752230858
H   4.6285977112 -3.8045087099  5.1776560840
H   5.2543879051 -6.2214149315  0.0710801630
H   3.0788737625 -5.1151340724  2.6480972578
H   3.5771184616 -5.1720561023  0.9532832717
H   2.8929329226 -7.3713195832  0.8555114155
H   2.5363149808 -9.9469757354  3.2770580817
H   3.9906699580 -10.0662814499  2.2987645398
H   2.4678480169 -9.5515082893  1.5410959446
H   5.0394967897 -7.7078299597  4.1598326658
H   3.6630529057 -8.5636089459  4.8577462174
H   3.5647950470 -6.8139675641  4.5557103219
84
Scanning combination 23/256: [3.0000, 2.3000]  Energy = -386.2375923391
O   10.7581417975 -5.2286406617  4.8401732975
O   12.0695888818 -0.6034521328  4.3028741377
O   17.9949344060 -3.6118821489 -2.8785263416
O   14.7042873945 -3.0114946378  0.6720649916
C   12.9821551928 -3.6221217074  2.3470418494
C   12.9497006888 -2.2770360147  2.7966394105
C   12.2257435017 -4.6100379484  3.0199016550
C   12.1220003167 -1.9231809767  3.8586591892
C   11.4294980140 -4.2453901170  4.0952515630
C   11.2862857414 -2.8864889363  4.5037235100
C   10.3141576312 -2.5330055423  5.4916632022
C   10.5233441881 -1.5775284126  6.4561348692
C   9.6019464931 -1.2055325430  7.4822704640
C   8.2773062852 -1.6321076698  7.4852009283
C   10.1497596335 -0.2925622439  8.5711088906
C   14.8854864445 -5.0222979013 -0.4593761457
C   15.3920417346 -3.6872391360 -0.3658025042
C   16.3960412188 -3.1961786306 -1.1548793408
C   16.9570377956 -4.0868856071 -2.0959225368
C   16.4765734945 -5.4209114387 -2.2370163482
C   15.4445404658 -5.8822760802 -1.4269155344
C   13.8880366285 -5.1697027344  0.5303430696
C   13.7828963600 -3.9787691749  1.2358657592
H   13.5712785376 -1.5407142717  2.2929472040
H   12.2871893385 -5.6445075928  2.7022997767
H   11.1272788000 -6.1138447464  4.6328313071
H   12.5284257457 -0.0164298313  3.6695169685
H   9.3698038783 -3.0489371954  5.4357876220
H   11.4866616327 -1.0738388040  6.4654572417
H   7.7341654747 -1.7308242406  6.5473428627
H   7.6757708864 -1.4521796174  8.3718328595
H   10.4779301766  0.6628586040  8.1446854349
H   11.0400738368 -0.7318226182  9.0344223751
H   9.4105376870 -0.0876827661  9.3521978100
H   16.7803894861 -2.1804405492 -1.0874271036
H   16.9164497721 -6.0853991234 -2.9790682700
H   15.0671534424 -6.8974757381 -1.5286833961
H   13.3026670720 -6.0655871251  0.6741165987
H   18.3372622218 -4.3153385184 -3.4674470289
C   9.7992092553 -4.6818784047  10.9229208061
O   12.0855775241 -5.3893709604  11.3786777921
C   11.0955092059 -5.0040394008  10.4884414720
O   7.5563363991 -3.9784979587  10.3332849746
C   11.4415605848 -4.9420515711  9.1212865949
O   5.9137805471 -3.2591536675  6.0737475851
C   10.4881000719 -4.5867691591  8.1852654403
O   4.2726431218 -4.3353272574  4.3967803423
C   9.1584842615 -4.2814803685  8.5748533386
O   6.1778577378 -6.1725150934  0.3606962776
C   8.8518938586 -4.3159472794  9.9706360455
C   8.1028762267 -3.9181136522  7.6684892959
C   8.0277427903 -4.2870544341  6.3258527493
C   6.8426604768 -3.9718670274  5.5657907097
C   6.6838714047 -4.5310442932  4.1975130226
C   7.7738899968 -4.8808251397  3.3776662504
C   5.3608644878 -4.7164800640  3.6714717789
C   7.5868337737 -5.4172144794  2.1155626106
C   5.1682116803 -5.3032056075  2.4167001361
C   6.2862025447 -5.6302480292  1.6240763535
C   3.7444933738 -5.6230832047  1.9419619581
C   3.3420801105 -7.0990170689  1.8108436173
C   3.4127487472 -8.0456277935  2.7748832335
C   3.0732542593 -9.4766307657  2.4484418589
C   3.9384066743 -7.7649310125  4.1646075763
H   9.5417889345 -4.7172084256  11.9828807819
H   12.4644158073 -5.1831419761  8.8529108181
H   10.7584948838 -4.5512376139  7.1367525417
H   11.7388620413 -5.4257139391  12.2928007616
H   7.4132982236 -4.1010314227  11.2923484639
H   7.1821054762 -3.6249148529  8.1588480571
H   8.7670184292 -4.9438374415  5.8923417730
H   8.7824463103 -4.6792836811  3.7098314402
H   8.4091563157 -5.6929465162  1.4672435722
H   4.6310997262 -3.8067671341  5.1762077353
H   5.2491184176 -6.2206711370  0.0678158095
H   3.0790159794 -5.1169282601  2.6512063846
H   3.5716005598 -5.1706956051  0.9547351413
H   2.8929907017 -7.3724005235  0.8545983440
H   2.5302015373 -9.9454720475  3.2760749376
H   3.9881485135 -10.0672317370  2.3036275859
H   2.4686968388 -9.5517986930  1.5394081806
H   5.0357655598 -7.7077637731  4.1618531685
H   3.6587468379 -8.5636299896  4.8581088338
H   3.5610965165 -6.8138258426  4.5566747693
84
Scanning combination 24/256: [3.0000, 2.2000]  Energy = -386.2363106009
O   10.7580241344 -5.2284785697  4.8399200550
O   12.0696266093 -0.6035504106  4.3028750067
O   17.9946949300 -3.6113545418 -2.8786606949
O   14.7045426863 -3.0115025830  0.6722591047
C   12.9825566443 -3.6221931082  2.3472301736
C   12.9499236867 -2.2770652276  2.7967718105
C   12.2258856828 -4.6101735186  3.0198772295
C   12.1223751096 -1.9232084772  3.8587961428
C   11.4297528776 -4.2454859848  4.0951855687
C   11.2861489723 -2.8863667951  4.5039714144
C   10.3150789069 -2.5332484127  5.4914418833
C   10.5218798447 -1.5778442461  6.4581224430
C   9.6013564172 -1.2122046822  7.4818953223
C   8.2765923781 -1.6798050966  7.4926985891
C   10.1477043700 -0.2942052512  8.5685821179
C   14.8856750654 -5.0222913349 -0.4591664319
C   15.3922309709 -3.6873074920 -0.3655082313
C   16.3962390553 -3.1959604447 -1.1546535938
C   16.9569999849 -4.0865700111 -2.0959674358
C   16.4765375936 -5.4205773045 -2.2369315907
C   15.4447421169 -5.8822011246 -1.4267693781
C   13.8883474134 -5.1697257514  0.5305727442
C   13.7834289239 -3.9788874872  1.2362466808
H   13.5717246209 -1.5407432707  2.2931716894
H   12.2873835527 -5.6447101873  2.7022925054
H   11.1268170877 -6.1138863124  4.6329370986
H   12.5284045689 -0.0162586670  3.6696224181
H   9.3698253898 -3.0496542994  5.4354666170
H   11.4864201005 -1.0744052816  6.4654557951
H   7.7324015482 -1.7281162101  6.5471815678
H   7.6757772656 -1.4529986654  8.3717772721
H   10.4772766333  0.6623458410  8.1433213392
H   11.0401497434 -0.7319110147  9.0343995777
H   9.4098800070 -0.0883122975  9.3515872351
H   16.7803771385 -2.1802944680 -1.0872043498
H   16.9162351054 -6.0850446827 -2.9791684726
H   15.0672699870 -6.8974173930 -1.5285208662
H   13.3031101193 -6.0656983647  0.6745131081
H   18.3367913641 -4.3148935882 -3.4676976063
C   9.7993289830 -4.6821194409  10.9225366996
O   12.0857890120 -5.3892621414  11.3787140756
C   11.0955261065 -5.0039496417  10.4883622480
O   7.5562653886 -3.9779773228  10.3332092816
C   11.4415818245 -4.9422595814  9.1213249534
O   5.9130883266 -3.2589547090  6.0733449592
C   10.4864347284 -4.5864554969  8.1853387313
O   4.2725413366 -4.3355535464  4.3966896586
C   9.1596813130 -4.2782035111  8.5758454678
O   6.1777051854 -6.1724295311  0.3602615933
C   8.8519565585 -4.3158616813  9.9692009824
C   8.1169718981 -3.8673921450  7.6625067780
C   8.0259835447 -4.2842398199  6.3247029794
C   6.8434079988 -3.9727820721  5.5658950672
C   6.6838018582 -4.5316119637  4.1975671214
C   7.7737760812 -4.8807309616  3.3776944178
C   5.3609921180 -4.7166492824  3.6715456102
C   7.5867181999 -5.4171421051  2.1151699714
C   5.1682515145 -5.3031717988  2.4164497200
C   6.2860237259 -5.6304557715  1.6238079396
C   3.7443717265 -5.6231113502  1.9419439343
C   3.3419162308 -7.0990679133  1.8107266184
C   3.4125177887 -8.0456665826  2.7749136907
C   3.0730321472 -9.4766732791  2.4484904704
C   3.9381036076 -7.7649236278  4.1646604879
H   9.5420842709 -4.7169802727  11.9828679986
H   12.4642752592 -5.1835475975  8.8528483761
H   10.7587883330 -4.5513936037  7.1371626038
H   11.7390220946 -5.4254172411  12.2930869066
H   7.4136593217 -4.1002605719  11.2923566754
H   7.1795689449 -3.6247585709  8.1600609195
H   8.7651793472 -4.9445850084  5.8940739427
H   8.7824422999 -4.6794391703  3.7094043682
H   8.4088141446 -5.6927695709  1.4668849511
H   4.6310386611 -3.8070320875  5.1761842221
H   5.2487144512 -6.2205947722  0.0675696495
H   3.0788941554 -5.1171319580  2.6513221872
H   3.5713057738 -5.1706970786  0.9547419024
H   2.8929407571 -7.3725584766  0.8544510104
H   2.5296806479 -9.9453562045  3.2760410488
H   3.9879680649 -10.0673076359  2.3040387992
H   2.4687607936 -9.5518442924  1.5392849309
H   5.0354693165 -7.7077694317  4.1619600885
H   3.6583534479 -8.5636469518  4.8581525584
H   3.5607831186 -6.8138188490  4.5566908003
84
Scanning combination 25/256: [3.0000, 2.1000]  Energy = -386.2375603910
O   10.7552559719 -5.2261164939  4.8375912555
O   12.0715938469 -0.6040050711  4.3037670540
O   17.9916061677 -3.6062110443 -2.8809294136
O   14.7084231395 -3.0118209460  0.6757424009
C   12.9875333361 -3.6231601130  2.3491589527
C   12.9563097956 -2.2771562927  2.7976295450
C   12.2295552314 -4.6121761302  3.0196196036
C   12.1279380396 -1.9230292925  3.8581996857
C   11.4322720652 -4.2467519343  4.0927096904
C   11.2922754616 -2.8875408651  4.5008221691
C   10.3237078008 -2.5400459710  5.4884112694
C   10.5276784832 -1.5939251421  6.4649824632
C   9.6116246503 -1.2447229051  7.4894028728
C   8.2720042908 -1.7120483693  7.4990863207
C   10.1395068487 -0.3124065610  8.5617341387
C   14.8892192536 -5.0220919919 -0.4564905294
C   15.3952665561 -3.6867121785 -0.3626292929
C   16.3974388474 -3.1940211774 -1.1524408928
C   16.9564271016 -4.0831069798 -2.0959624835
C   16.4765085862 -5.4174056717 -2.2372469017
C   15.4468919373 -5.8807664733 -1.4254454302
C   13.8931686552 -5.1708598153  0.5340136635
C   13.7883946658 -3.9799339580  1.2393390944
H   13.5787119151 -1.5410636647  2.2942389943
H   12.2900690135 -5.6468515425  2.7019456136
H   11.1208578362 -6.1131971945  4.6334851388
H   12.5284546512 -0.0142343850  3.6715244526
H   9.3794617916 -3.0588952498  5.4324828468
H   11.4849226587 -1.0759563181  6.4686294627
H   7.7188719786 -1.6701198566  6.5599765846
H   7.6829203030 -1.4522331241  8.3782701522
H   10.4542097854  0.6385108189  8.1144602781
H   11.0368701656 -0.7297821120  9.0355058924
H   9.3931081999 -0.1037648249  9.3353820119
H   16.7808342539 -2.1779440651 -1.0842803528
H   16.9146763630 -6.0806999093 -2.9812787534
H   15.0697912112 -6.8961508723 -1.5268971606
H   13.3088845078 -6.0671768588  0.6790542418
H   18.3320851838 -4.3087267474 -3.4719502329
C   9.8004672965 -4.6846543809  10.9209774533
O   12.0873023803 -5.3888226955  11.3806037974
C   11.0966187726 -5.0082534089  10.4884563372
O   7.5604798039 -3.9727153440  10.3295309556
C   11.4439493678 -4.9468406991  9.1223480740
O   5.9057546031 -3.2569574349  6.0693417523
C   10.4932620897 -4.5759420454  8.1874327912
O   4.2713769165 -4.3397448477  4.3957117942
C   9.1756108596 -4.2463608647  8.5784351387
O   6.1745102893 -6.1707310780  0.3565398090
C   8.8587538440 -4.3042821484  9.9671590775
C   8.1354382669 -3.8015293297  7.6580719818
C   8.0211339750 -4.2716460436  6.3250518764
C   6.8392224476 -3.9719480859  5.5675679490
C   6.6823846748 -4.5374425648  4.1991888031
C   7.7719601146 -4.8839638630  3.3767350968
C   5.3599212201 -4.7212763959  3.6716072158
C   7.5843811077 -5.4169092991  2.1125249840
C   5.1667480745 -5.3048964275  2.4149824021
C   6.2838800308 -5.6303302312  1.6208741334
C   3.7424765328 -5.6241262958  1.9412926105
C   3.3402100022 -7.1000298494  1.8099591328
C   3.4096414630 -8.0458807422  2.7748073969
C   3.0701873366 -9.4770364380  2.4491668900
C   3.9339672676 -7.7649513022  4.1650455115
H   9.5418476712 -4.7181276325  11.9809353883
H   12.4645913983 -5.1937977023  8.8523707461
H   10.7632041720 -4.5524854854  7.1383801501
H   11.7405567558 -5.4214786462  12.2949914918
H   7.4182359885 -4.0919574578  11.2891517994
H   7.1855912927 -3.6391939132  8.1662089135
H   8.7429179490 -4.9597669150  5.9124504884
H   8.7819091510 -4.6816878068  3.7050034291
H   8.4060878013 -5.6901021386  1.4621409523
H   4.6307449548 -3.8107898689  5.1754010680
H   5.2453690118 -6.2196304226  0.0647724652
H   3.0777671931 -5.1192631385  2.6522013890
H   3.5677946880 -5.1707295641  0.9548264378
H   2.8927119089 -7.3741930566  0.8531380597
H   2.5232155699 -9.9439520120  3.2753141525
H   3.9852911540 -10.0685002545  2.3094325426
H   2.4694775619 -9.5529008768  1.5376839804
H   5.0313494940 -7.7082877083  4.1633950179
H   3.6534666954 -8.5635556192  4.8583219545
H   3.5565992690 -6.8137890978  4.5568631940
84
Scanning combination 26/256: [3.0000, 2.0000]  Energy = -386.2406586405
O   10.7544707310 -5.2265046000  4.8365475055
O   12.0722939568 -0.6044405122  4.3045700592
O   17.9912042266 -3.6049455619 -2.8817654731
O   14.7096202297 -3.0119192978  0.6762387598
C   12.9885825910 -3.6233999326  2.3497747478
C   12.9569900057 -2.2776043261  2.7984371670
C   12.2302074408 -4.6123054456  3.0198327812
C   12.1289825395 -1.9232010647  3.8586991761
C   11.4328705891 -4.2473311756  4.0926956838
C   11.2935989185 -2.8879030368  4.5012294587
C   10.3251554113 -2.5394812388  5.4855931091
C   10.5266434698 -1.5936024137  6.4643671224
C   9.6180967573 -1.2577866860  7.4912746831
C   8.2716016221 -1.7540831510  7.5022523591
C   10.1337312285 -0.3161263697  8.5562599684
C   14.8903854226 -5.0220444676 -0.4561496285
C   15.3961466661 -3.6867731289 -0.3622463170
C   16.3981512939 -3.1934095274 -1.1524624990
C   16.9566115902 -4.0823830331 -2.0965242360
C   16.4768743958 -5.4166710272 -2.2377995458
C   15.4477677126 -5.8805994518 -1.4255204379
C   13.8946854937 -5.1709560026  0.5345396461
C   13.7897407838 -3.9801585482  1.2399944012
H   13.5799001570 -1.5420071162  2.2951832992
H   12.2911691999 -5.6467549950  2.7017250111
H   11.1200675237 -6.1137062169  4.6325500617
H   12.5288482907 -0.0148233876  3.6717447621
H   9.3810424778 -3.0616650763  5.4373360887
H   11.4842936573 -1.0771725203  6.4692916111
H   7.7160507789 -1.6625577860  6.5688047332
H   7.6865862853 -1.4568206451  8.3710652705
H   10.4515916594  0.6369601353  8.1143089135
H   11.0316604994 -0.7270741660  9.0334437273
H   9.3908483233 -0.1063099025  9.3327178454
H   16.7812349231 -2.1775162653 -1.0838813260
H   16.9147121207 -6.0797637185 -2.9821739562
H   15.0707418950 -6.8959629636 -1.5268444387
H   13.3107077199 -6.0675928364  0.6797322939
H   18.3312879758 -4.3073395362 -3.4734382923
C   9.8011311704 -4.6846880432  10.9199731814
O   12.0873098955 -5.3904028829  11.3806537840
C   11.0974572320 -5.0070631831  10.4883743285
O   7.5617000580 -3.9698345818  10.3284515964
C   11.4433557704 -4.9485924255  9.1223684327
O   5.9044936526 -3.2570795939  6.0675330707
C   10.4913178292 -4.5765166611  8.1877654370
O   4.2711810968 -4.3407845964  4.3968048882
C   9.1801734062 -4.2359101551  8.5806142944
O   6.1741599260 -6.1699029688  0.3561294022
C   8.8590559679 -4.3049127222  9.9646926621
C   8.1450631322 -3.7442862568  7.6537244752
C   8.0172150403 -4.2636125104  6.3228715231
C   6.8386942514 -3.9743584922  5.5675257984
C   6.6817345601 -4.5394082140  4.1983723672
C   7.7715258211 -4.8841760727  3.3761915164
C   5.3593547921 -4.7216861216  3.6716881378
C   7.5838630014 -5.4171458000  2.1116702690
C   5.1660211249 -5.3052583348  2.4148993083
C   6.2830338889 -5.6304685694  1.6207486150
C   3.7419055372 -5.6244665678  1.9412877025
C   3.3397018213 -7.1003313891  1.8097056230
C   3.4088731550 -8.0461545256  2.7748134058
C   3.0694162589 -9.4772587018  2.4492937090
C   3.9328423178 -7.7650766511  4.1650975247
H   9.5419625085 -4.7196344466  11.9795339215
H   12.4635315220 -5.1966812712  8.8524294984
H   10.7646381620 -4.5514134409  7.1394641731
H   11.7409225634 -5.4206979793  12.2951302181
H   7.4199814812 -4.0903627954  11.2881236231
H   7.1859713084 -3.6469695828  8.1670358847
H   8.7379085597 -4.9573622870  5.9235655767
H   8.7810439150 -4.6826190597  3.7054935699
H   8.4056153141 -5.6893529608  1.4617770649
H   4.6309162598 -3.8110353685  5.1763635556
H   5.2447997814 -6.2192149910  0.0644017175
H   3.0772643904 -5.1196705256  2.6522687843
H   3.5673044383 -5.1709513671  0.9548614312
H   2.8926519191 -7.3746488003  0.8528051487
H   2.5215192519 -9.9436739500  3.2751214590
H   3.9845510255 -10.0689567733  2.3108334634
H   2.4696243789 -9.5533600132  1.5372573723
H   5.0302249362 -7.7084694840  4.1637752066
H   3.6521141100 -8.5636601679  4.8583205077
H   3.5554159487 -6.8139119369  4.5567936316
84
Scanning combination 27/256: [3.0000, 1.9000]  Energy = -386.2454005476
O   10.7535068758 -5.2265223556  4.8342889758
O   12.0756307993 -0.6056201499  4.3051033944
O   17.9901614064 -3.6017594234 -2.8843737834
O   14.7128207222 -3.0122634961  0.6777861297
C   12.9923673587 -3.6245368546  2.3505194494
C   12.9619285384 -2.2783839017  2.7986077112
C   12.2332093594 -4.6139453721  3.0193059868
C   12.1332937806 -1.9237996703  3.8576937081
C   11.4342698506 -4.2486869204  4.0906130428
C   11.2969166219 -2.8885830849  4.4980077075
C   10.3334416048 -2.5404615194  5.4840151310
C   10.5334523420 -1.5964954399  6.4668850490
C   9.6261770994 -1.2696829016  7.4890813408
C   8.2702241920 -1.7945477556  7.5032385789
C   10.1255432149 -0.3250691345  8.5515638724
C   14.8936624245 -5.0219283124 -0.4552576252
C   15.3988015097 -3.6864489360 -0.3612075180
C   16.3997455188 -3.1921431773 -1.1522701376
C   16.9570418119 -4.0802597775 -2.0978185012
C   16.4778290055 -5.4147010417 -2.2392120893
C   15.4502229769 -5.8796813881 -1.4256678353
C   13.8988017460 -5.1717910096  0.5359478597
C   13.7935553391 -3.9810692040  1.2413537752
H   13.5851154693 -1.5426128895  2.2960655177
H   12.2939605288 -5.6482775543  2.7009745628
H   11.1172845008 -6.1142233661  4.6299355106
H   12.5303852279 -0.0144958943  3.6727940998
H   9.3905246161 -3.0687128784  5.4479151609
H   11.4882225949 -1.0728340194  6.4681912280
H   7.7133808924 -1.6455544319  6.5778244204
H   7.6968949562 -1.4689066435  8.3704554412
H   10.4354858753  0.6280483086  8.1029550731
H   11.0271593458 -0.7238799898  9.0361376161
H   9.3729675704 -0.1204866686  9.3204248983
H   16.7825874016 -2.1762852554 -1.0831081833
H   16.9148510043 -6.0770877487 -2.9846770133
H   15.0736674254 -6.8952308222 -1.5268312499
H   13.3156532161 -6.0688259850  0.6817133658
H   18.3291703146 -4.3033111037 -3.4776167432
C   9.8008928987 -4.6870119866  10.9176499543
O   12.0867282584 -5.3931761056  11.3799410784
C   11.0964480701 -5.0118150152  10.4867012166
O   7.5639991596 -3.9642010197  10.3243049762
C   11.4426602173 -4.9530365251  9.1212166521
O   5.8951143372 -3.2554090490  6.0665599282
C   10.4931676425 -4.5665424815  8.1871680518
O   4.2694958156 -4.3445013366  4.3974387071
C   9.1889682746 -4.2128186771  8.5829737304
O   6.1722595187 -6.1682060811  0.3541937003
C   8.8633974272 -4.2929833780  9.9616099393
C   8.1513541392 -3.6847673158  7.6542713854
C   8.0120107580 -4.2451128708  6.3238812715
C   6.8353959446 -3.9702130526  5.5704650111
C   6.6799617975 -4.5427569220  4.2014376102
C   7.7693244303 -4.8867212865  3.3778338981
C   5.3580673854 -4.7252375218  3.6732555967
C   7.5822083891 -5.4171529703  2.1112474537
C   5.1646563934 -5.3064928245  2.4147335010
C   6.2814120516 -5.6301727640  1.6196038345
C   3.7402395219 -5.6253301609  1.9409828711
C   3.3382066601 -7.1012647490  1.8092270478
C   3.4066498334 -8.0467778064  2.7746904616
C   3.0672396947 -9.4779632142  2.4496829633
C   3.9296010859 -7.7655263133  4.1652967128
H   9.5401486146 -4.7247735122  11.9761257567
H   12.4605318877 -5.2072638758  8.8505688169
H   10.7663178231 -4.5491566367  7.1387682450
H   11.7418633188 -5.4184212332  12.2951839580
H   7.4229368806 -4.0861427612  11.2833863400
H   7.1887573925 -3.6581376507  8.1744882796
H   8.7272881765 -4.9568169317  5.9514926567
H   8.7791694717 -4.6854918184  3.7068306905
H   8.4039649074 -5.6876334512  1.4598741706
H   4.6306927096 -3.8135164370  5.1766159119
H   5.2426738043 -6.2181754386  0.0629774582
H   3.0756496926 -5.1208801275  2.6523216342
H   3.5653960806 -5.1715216008  0.9546673899
H   2.8924458539 -7.3759380735  0.8518633532
H   2.5167162047 -9.9430176493  3.2745292599
H   3.9824388371 -10.0703456279  2.3147562769
H   2.4700274581 -9.5547180332  1.5360312371
H   5.0269812760 -7.7092569421  4.1648150480
H   3.6482891889 -8.5640051622  4.8583597763
H   3.5520346881 -6.8143000913  4.5566292393
84
Scanning combination 28/256: [3.0000, 1.8000]  Energy = -386.2500430342
O   10.7539162576 -5.2258129669  4.8325980271
O   12.0788069447 -0.6056462861  4.3046164705
O   17.9897605533 -3.5994038991 -2.8866199916
O   14.7156786588 -3.0127515239  0.6781097762
C   12.9952534725 -3.6251867006  2.3504962141
C   12.9646129918 -2.2790225902  2.7984541300
C   12.2348608584 -4.6143180214  3.0184156338
C   12.1364950772 -1.9236364945  3.8570098039
C   11.4365829602 -4.2490205361  4.0895483245
C   11.3012259266 -2.8888445223  4.4990389454
C   10.3385098211 -2.5416809674  5.4827047376
C   10.5327023921 -1.5944749341  6.4643235886
C   9.6351628109 -1.2799818321  7.4901113552
C   8.2759586035 -1.8393400105  7.5086362363
C   10.1156605661 -0.3279824524  8.5462666565
C   14.8964162035 -5.0221227783 -0.4553118839
C   15.4012170310 -3.6865062067 -0.3612378850
C   16.4013104838 -3.1913073146 -1.1525996880
C   16.9577941645 -4.0787408207 -2.0991101300
C   16.4789361475 -5.4133654858 -2.2406377689
C   15.4524089755 -5.8793180475 -1.4263453233
C   13.9022293383 -5.1725634565  0.5363532419
C   13.7969127885 -3.9819118718  1.2417805207
H   13.5893088454 -1.5442954656  2.2962167591
H   12.2961448251 -5.6487887271  2.7004340730
H   11.1154887262 -6.1142753080  4.6271431891
H   12.5330402675 -0.0145006343  3.6716280958
H   9.3981444734 -3.0768185613  5.4539874191
H   11.4863427850 -1.0700428684  6.4667312426
H   7.7150374230 -1.6568401004  6.5921905210
H   7.7069642744 -1.4825001736  8.3657731560
H   10.4252256942  0.6275366636  8.1032251356
H   11.0169754085 -0.7170616081  9.0368844998
H   9.3634984710 -0.1272593960  9.3158185164
H   16.7838001615 -2.1753104040 -1.0829254369
H   16.9152877444 -6.0752281105 -2.9867890325
H   15.0760009664 -6.8949765842 -1.5271689541
H   13.3195833722 -6.0699438323  0.6826080505
H   18.3278181865 -4.3004539645 -3.4808085814
C   9.8004249533 -4.6859486307  10.9152354072
O   12.0851019537 -5.3980472211  11.3776176730
C   11.0959397628 -5.0112237764  10.4848892179
O   7.5646747463 -3.9552606781  10.3236372619
C   11.4398806595 -4.9554347689  9.1189956154
O   5.8930433426 -3.2538382011  6.0666604629
C   10.4899830333 -4.5656761494  8.1863203022
O   4.2680258928 -4.3472493020  4.3995362862
C   9.1920942704 -4.1978611296  8.5838097457
O   6.1717983382 -6.1657645360  0.3547319636
C   8.8627056460 -4.2894596997  9.9589090784
C   8.1589465627 -3.6298786589  7.6506126615
C   8.0087379255 -4.2349069465  6.3225864185
C   6.8332184568 -3.9701876348  5.5725488138
C   6.6781445236 -4.5440128929  4.2023164806
C   7.7678332523 -4.8872153664  3.3798158330
C   5.3567741746 -4.7262688057  3.6746627154
C   7.5806531596 -5.4169456838  2.1131750448
C   5.1634235007 -5.3075071391  2.4159626682
C   6.2802272809 -5.6300087825  1.6210337165
C   3.7396244548 -5.6261408749  1.9412864655
C   3.3374451300 -7.1019483734  1.8089794415
C   3.4049958565 -8.0473278324  2.7745456209
C   3.0655556839 -9.4785803410  2.4499134235
C   3.9271009036 -7.7660909280  4.1654941862
H   9.5381397128 -4.7297065977  11.9737777801
H   12.4569540198 -5.2152488670  8.8477441881
H   10.7668459384 -4.5449480765  7.1384325882
H   11.7416551252 -5.4169759013  12.2933421034
H   7.4222676727 -4.0830178562  11.2824776085
H   7.1958619881 -3.6485872193  8.1741980156
H   8.7190525800 -4.9553656271  5.9629393507
H   8.7774982501 -4.6881871464  3.7109484344
H   8.4022745701 -5.6855671111  1.4618214641
H   4.6279784303 -3.8148889623  5.1784105670
H   5.2423806884 -6.2168885686  0.0630888733
H   3.0748779554 -5.1218025784  2.6523869016
H   3.5648710901 -5.1721521176  0.9550771759
H   2.8922549508 -7.3767167325  0.8513253582
H   2.5130943404 -9.9426641051  3.2739881321
H   3.9808042686 -10.0714538199  2.3176553309
H   2.4702986075 -9.5558433200  1.5350372153
H   5.0245052464 -7.7099295322  4.1656038478
H   3.6452980312 -8.5644940875  4.8583861210
H   3.5493570668 -6.8148425960  4.5565439957
84
Scanning combination 29/256: [3.0000, 1.7000]  Energy = -386.2532395121
O   10.7555158180 -5.2252758361  4.8314156564
O   12.0833214712 -0.6056100391  4.3028927601
O   17.9895610545 -3.5968845386 -2.8896291459
O   14.7188290214 -3.0132757950  0.6787271691
C   12.9987770844 -3.6261583960  2.3500156694
C   12.9705588742 -2.2794141768  2.7972251594
C   12.2386627705 -4.6155249336  3.0177808283
C   12.1421373014 -1.9235557236  3.8553923807
C   11.4396817388 -4.2493182934  4.0882809011
C   11.3060700830 -2.8880353641  4.4947901926
C   10.3478363322 -2.5410129229  5.4806941852
C   10.5388161831 -1.5962700000  6.4674430600
C   9.6398676036 -1.2906090034  7.4895114300
C   8.2813714490 -1.8869431421  7.5165886154
C   10.1069772703 -0.3321068442  8.5449436544
C   14.8998547572 -5.0222735904 -0.4553391648
C   15.4041456551 -3.6862245676 -0.3611391557
C   16.4030626087 -3.1907135150 -1.1531948023
C   16.9588300474 -4.0770850643 -2.1009773331
C   16.4804749954 -5.4119460779 -2.2426358846
C   15.4551892742 -5.8786923346 -1.4272602002
C   13.9061483773 -5.1735686355  0.5367980431
C   13.8002853704 -3.9827445263  1.2419613118
H   13.5949127999 -1.5446549168  2.2952350551
H   12.2982746737 -5.6499034737  2.6992262786
H   11.1136829373 -6.1141659721  4.6233871111
H   12.5365462284 -0.0138418303  3.6703202957
H   9.4106998591 -3.0854704445  5.4584502843
H   11.4871180330 -1.0586266402  6.4609038104
H   7.7213268792 -1.6736486252  6.6044534735
H   7.7204451183 -1.5111441502  8.3721491323
H   10.4065002739  0.6253806558  8.0956083756
H   11.0132188871 -0.7095795550  9.0426713101
H   9.3439158277 -0.1365772403  9.3066032895
H   16.7854734136 -2.1744082979 -1.0831486529
H   16.9163381880 -6.0731656985 -2.9897920604
H   15.0793530264 -6.8945630805 -1.5281241573
H   13.3244976223 -6.0712273426  0.6834705585
H   18.3269015177 -4.2971863488 -3.4852580363
C   9.7961742386 -4.6873330489  10.9111448849
O   12.0806835990 -5.4014939883  11.3735979880
C   11.0901376640 -5.0175984327  10.4808541683
O   7.5636305334 -3.9442754055  10.3211869507
C   11.4359859139 -4.9606423197  9.1159013394
O   5.8800674072 -3.2507079526  6.0666124225
C   10.4893237414 -4.5553562128  8.1836662643
O   4.2652633692 -4.3500726980  4.4017901561
C   9.1970223128 -4.1760312245  8.5837902830
O   6.1712175788 -6.1636600389  0.3550108950
C   8.8633395347 -4.2717528782  9.9552758304
C   8.1692848734 -3.5779800062  7.6496881586
C   8.0061437794 -4.2155796095  6.3248238792
C   6.8290269908 -3.9619905491  5.5780975908
C   6.6758023300 -4.5459159022  4.2087730683
C   7.7652371824 -4.8893838341  3.3843937428
C   5.3549253022 -4.7291579060  3.6786724017
C   7.5796154816 -5.4161837846  2.1157723754
C   5.1624316219 -5.3077955437  2.4180825904
C   6.2795483747 -5.6288145703  1.6221977376
C   3.7384367591 -5.6266918381  1.9420820445
C   3.3364315540 -7.1027888642  1.8090510197
C   3.4030733290 -8.0481644994  2.7745278308
C   3.0635499499 -9.4794242379  2.4501307712
C   3.9240888593 -7.7669208235  4.1658578752
H   9.5338688219 -4.7342696289  11.9685899221
H   12.4500901186 -5.2250003248  8.8432645097
H   10.7650089261 -4.5435627820  7.1357551336
H   11.7407145861 -5.4152505521  12.2909005698
H   7.4227735115 -4.0798702942  11.2783929857
H   7.2055506800 -3.6458459804  8.1698373248
H   8.7066623544 -4.9559132430  5.9878865010
H   8.7752817091 -4.6911317441  3.7151788565
H   8.4019851331 -5.6841165087  1.4630902208
H   4.6271705401 -3.8167802895  5.1806617797
H   5.2420048130 -6.2151437133  0.0636722759
H   3.0729786015 -5.1227995729  2.6530724336
H   3.5644302991 -5.1726719616  0.9555982881
H   2.8922753017 -7.3773628656  0.8508058739
H   2.5086133825 -9.9423236271  3.2732594786
H   3.9787977197 -10.0729560655  2.3210608096
H   2.4706495629 -9.5571816830  1.5337959388
H   5.0214394013 -7.7108834391  4.1667490653
H   3.6417239444 -8.5653211884  4.8584857202
H   3.5460570014 -6.8156374710  4.5565300623
84
Scanning combination 30/256: [3.0000, 1.6000]  Energy = -386.2531388994
O   10.7678621564 -5.2197678385  4.8242068209
O   12.1082286588 -0.6015542271  4.2939000275
O   17.9922549578 -3.5858860017 -2.9078675388
O   14.7377530590 -3.0156687880  0.6752598164
C   13.0197778057 -3.6277107372  2.3472482010
C   12.9930724323 -2.2807956163  2.7940890291
C   12.2565029879 -4.6147555558  3.0137690221
C   12.1633030068 -1.9213409418  3.8507944378
C   11.4581797191 -4.2469326716  4.0838542418
C   11.3282004665 -2.8860950306  4.4957876958
C   10.3736192682 -2.5551594590  5.4894236894
C   10.5413094865 -1.5900154058  6.4621138678
C   9.6514828081 -1.3098942459  7.4935357792
C   8.2968648859 -1.9490079028  7.5485480443
C   10.0718479273 -0.3164663963  8.5359818760
C   14.9190143455 -5.0239008699 -0.4601276362
C   15.4209462874 -3.6869992932 -0.3663736917
C   16.4154577563 -3.1878214321 -1.1612236692
C   16.9674920816 -4.0705537019 -2.1142717183
C   16.4914729569 -5.4063620881 -2.2561467760
C   15.4717257795 -5.8775068556 -1.4359263316
C   13.9283830211 -5.1774073321  0.5349364086
C   13.8209574291 -3.9860640941  1.2393996439
H   13.6219557645 -1.5507310911  2.2896610476
H   12.3126920030 -5.6484817634  2.6923424320
H   11.1077045432 -6.1119768059  4.6016731669
H   12.5609197461 -0.0134808377  3.6559260237
H   9.4561606044 -3.1335567212  5.4920098940
H   11.4699011867 -1.0197907346  6.4299075252
H   7.6995107302 -1.6633479102  6.6763878943
H   7.7891967793 -1.5732569839  8.4402256861
H   10.3295256724  0.6505003936  8.0824114646
H   10.9826405788 -0.6412343603  9.0619138352
H   9.2870256469 -0.1484749278  9.2811786601
H   16.7962114935 -2.1709979093 -1.0884489025
H   16.9246275699 -6.0647228422 -3.0072301711
H   15.0981635299 -6.8942592065 -1.5361971364
H   13.3506656272 -6.0773530449  0.6840931582
H   18.3255726784 -4.2827430529 -3.5094932572
C   9.7854610580 -4.6767887506  10.8951169782
O   12.0528120636 -5.4362392630  11.3644217507
C   11.0754361134 -5.0286901560  10.4676727975
O   7.5793795182 -3.8525871021  10.2970843771
C   11.4253179668 -4.9876546609  9.1031059593
O   5.8789049757 -3.2349221868  6.0736873709
C   10.4868119247 -4.5691149172  8.1678445575
O   4.2518088862 -4.3626301424  4.4258124440
C   9.2020450382 -4.1710051659  8.5670241323
O   6.1746625104 -6.1480724730  0.3697608383
C   8.8652507574 -4.2395656949  9.9360048629
C   8.1819726872 -3.5424488114  7.6359391676
C   8.0064626026 -4.2028485287  6.3152218428
C   6.8217916701 -3.9524912438  5.5832436601
C   6.6612822943 -4.5449536776  4.2220203331
C   7.7543740602 -4.8923759425  3.4075846360
C   5.3418213818 -4.7328616629  3.6968217215
C   7.5749456627 -5.4129664427  2.1376196654
C   5.1546605899 -5.3095748776  2.4349150751
C   6.2760330625 -5.6231632342  1.6409808041
C   3.7342237670 -5.6292548324  1.9511060410
C   3.3334751848 -7.1052515385  1.8113735150
C   3.3943136764 -8.0523189146  2.7755120541
C   3.0536613371 -9.4831133715  2.4506924745
C   3.9092056885 -7.7730341932  4.1693284407
H   9.5086017164 -4.7443933768  11.9480438602
H   12.4314719816 -5.2825860069  8.8304152505
H   10.7707732779 -4.5465694102  7.1217385007
H   11.7164885858 -5.4073831518  12.2827506067
H   7.4044179174 -4.0388539524  11.2396668882
H   7.2210893157 -3.6601719387  8.1558511796
H   8.6657277494 -4.9948318908  6.0058474581
H   8.7606342467 -4.7026149205  3.7526477024
H   8.4012336329 -5.6744163292  1.4883644970
H   4.6094553360 -3.8225833662  5.2006941760
H   5.2468869647 -6.2027987981  0.0753520410
H   3.0643253307 -5.1274513179  2.6593520945
H   3.5668935501 -5.1735624976  0.9643766626
H   2.8945468866 -7.3778942845  0.8500923668
H   2.4861020224 -9.9407354833  3.2682364318
H   3.9684726480 -10.0804266891  2.3372458311
H   2.4728708894 -9.5622613540  1.5268532237
H   5.0064874625 -7.7164876158  4.1746977500
H   3.6238434883 -8.5720663906  4.8597482115
H   3.5290780252 -6.8221719615  4.5588688309
84
Scanning combination 31/256: [3.0000, 1.5000]  Energy = -386.2462176081
O   10.7689670260 -5.2227572471  4.8233963930
O   12.1058940271 -0.6035768084  4.2953851193
O   17.9927631658 -3.5842272344 -2.9107241858
O   14.7398980644 -3.0153816271  0.6750326454
C   13.0212747198 -3.6284242285  2.3474915017
C   12.9928767956 -2.2819204919  2.7951009254
C   12.2566424414 -4.6158539764  3.0130207698
C   12.1640937117 -1.9231368517  3.8524933441
C   11.4597730809 -4.2485392310  4.0844836564
C   11.3304668691 -2.8875716091  4.4972324386
C   10.3753669622 -2.5520079556  5.4871069331
C   10.5357140844 -1.5881695029  6.4639701915
C   9.6464535768 -1.3179627119  7.4962839499
C   8.3024049028 -1.9970054505  7.5592883664
C   10.0618513227 -0.3150396987  8.5301285257
C   14.9213115238 -5.0234957242 -0.4604962254
C   15.4233129711 -3.6865716197 -0.3669771774
C   16.4175114176 -3.1869967934 -1.1622891076
C   16.9689715037 -4.0695090515 -2.1162512398
C   16.4928479717 -5.4052011547 -2.2575349066
C   15.4742361451 -5.8767208354 -1.4368595290
C   13.9313934225 -5.1772783200  0.5352158462
C   13.8243573658 -3.9864793372  1.2404432413
H   13.6217222305 -1.5499230581  2.2939305947
H   12.3141496975 -5.6501077088  2.6929372297
H   11.1084368780 -6.1143362151  4.5981791318
H   12.5606846970 -0.0153187674  3.6597840800
H   9.4600663492 -3.1362673678  5.4945181048
H   11.4623604417 -1.0141487129  6.4388874335
H   7.7071698041 -1.6844890199  6.6947791149
H   7.7843208148 -1.5944124459  8.4371583780
H   10.3255028286  0.6489117555  8.0715646275
H   10.9778049973 -0.6385551312  9.0475077913
H   9.2877906428 -0.1421953809  9.2863656103
H   16.7986913191 -2.1705002151 -1.0907778070
H   16.9254503604 -6.0635513760 -3.0091896565
H   15.1009636778 -6.8937698563 -1.5371869938
H   13.3540125327 -6.0773776381  0.6849323400
H   18.3251760959 -4.2810815310 -3.5128654182
C   9.7811490019 -4.6797658205  10.8929154490
O   12.0500335029 -5.4389514917  11.3643131698
C   11.0701647800 -5.0363843355  10.4670569448
O   7.5770146095 -3.8538736805  10.2970542418
C   11.4207204216 -4.9951946870  9.1028497480
O   5.8693317173 -3.2325019312  6.0721467466
C   10.4857510908 -4.5666470569  8.1672689814
O   4.2529265007 -4.3642825159  4.4228647344
C   9.2067067665 -4.1514082104  8.5650862634
O   6.1706766101 -6.1488188107  0.3673515098
C   8.8643699745 -4.2331449213  9.9325913527
C   8.1977048063 -3.4916140054  7.6305716239
C   8.0034447856 -4.1890930324  6.3202876932
C   6.8196664422 -3.9479582440  5.5894748577
C   6.6629142909 -4.5451844689  4.2249202259
C   7.7549737336 -4.8925842261  3.4077846142
C   5.3438462756 -4.7338684796  3.6962091179
C   7.5726951823 -5.4141501198  2.1371382489
C   5.1545794537 -5.3098464065  2.4336561707
C   6.2742986999 -5.6241755431  1.6388804175
C   3.7332920624 -5.6293618407  1.9516187370
C   3.3332522747 -7.1054606826  1.8122124015
C   3.3931925064 -8.0527807848  2.7761659577
C   3.0522111515 -9.4833216732  2.4506208608
C   3.9070626123 -7.7737592840  4.1704650018
H   9.5084235681 -4.7402386362  11.9477937644
H   12.4283655621 -5.2874550898  8.8328096352
H   10.7731348460 -4.5581035401  7.1222891021
H   11.7169047885 -5.4092153926  12.2834924586
H   7.4137986190 -4.0275883309  11.2443239191
H   7.2365889464 -3.6475328449  8.1425036976
H   8.6679059432 -4.9765895610  6.0169684977
H   8.7636591058 -4.7032001623  3.7477712228
H   8.3970481514 -5.6765933259  1.4861644604
H   4.6130064764 -3.8249316269  5.1978717933
H   5.2423250752 -6.2020390850  0.0735125244
H   3.0641270784 -5.1278962676  2.6607052631
H   3.5633348592 -5.1727830178  0.9656702774
H   2.8955026850 -7.3777124778  0.8503878491
H   2.4825625203 -9.9405174543  3.2668805167
H   3.9666421663 -10.0815791133  2.3396470392
H   2.4734576632 -9.5624950716  1.5254787028
H   5.0043299299 -7.7173932715  4.1764984045
H   3.6213532450 -8.5736003652  4.8600070370
H   3.5265621002 -6.8232156073  4.5602644224
84
Scanning combination 32/256: [2.9000, 2.9000]  Energy = -386.2509959932
O   10.7727025733 -5.2506183687  4.8508778129
O   11.9832976278 -0.6021832094  4.3198496649
O   18.0199440374 -3.6970963941 -2.7966394948
O   14.6004294651 -2.9774276298  0.6115126582
C   12.8772754009 -3.5801588204  2.2959295550
C   12.8378935311 -2.2398142390  2.7577088122
C   12.1486908189 -4.5822150939  2.9782938632
C   12.0340558749 -1.9116723259  3.8479556077
C   11.3802623916 -4.2419291007  4.0812797094
C   11.2169987708 -2.8901798787  4.4970896874
C   10.2416685912 -2.5413765975  5.4965718003
C   10.5037457787 -1.6259237570  6.4827396810
C   9.5613147971 -1.0841866728  7.4263705185
C   8.2161291953 -1.1728299836  7.2439798098
C   10.1622425137 -0.2720580421  8.5742895662
C   14.7963099566 -5.0099384453 -0.4795723561
C   15.3089284213 -3.6765179803 -0.3995457522
C   16.3425052120 -3.2124653202 -1.1669194935
C   16.9407224561 -4.1379123284 -2.0509049936
C   16.4560233575 -5.4721965997 -2.1750728711
C   15.3830930996 -5.9002155779 -1.4016690051
C   13.7746130351 -5.1331237465  0.4860283980
C   13.6696257339 -3.9343997677  1.1776893829
H   13.4292149866 -1.4853525952  2.2432721504
H   12.2097402718 -5.6106044518  2.6442353790
H   11.2108560446 -6.1106063397  4.6732037284
H   12.4521032058 -0.0014887688  3.7082539049
H   9.2727633287 -3.0019614384  5.3941854804
H   11.5242116109 -1.2532928773  6.5610858382
H   7.8029179045 -1.5953521888  6.3355895873
H   7.5076934486 -0.7920259000  7.9727667410
H   10.5054836698  0.7020766169  8.2043260780
H   11.0452786424 -0.7713819290  8.9881280646
H   9.4397345136 -0.0974546867  9.3769886874
H   16.7249828877 -2.1946243938 -1.1231414637
H   16.9239624271 -6.1633670054 -2.8746797631
H   14.9961067282 -6.9127982742 -1.4930352511
H   13.1720903681 -6.0188600170  0.6210981209
H   18.3967646190 -4.4286134168 -3.3277814178
C   9.7926267588 -4.8211437439  10.9462920617
O   12.0992689740 -5.4404898203  11.4220091309
C   11.1088609603 -5.0749089035  10.5249037197
O   7.5268375938 -4.2314744710  10.3374733646
C   11.4741679883 -4.9542846468  9.1652121441
O   5.9621927375 -3.2607720349  6.0970351047
C   10.5276318840 -4.6048854835  8.2196757203
O   4.3268127989 -4.3142860208  4.3972660524
C   9.1775909467 -4.3420102211  8.5969505391
O   6.2396791856 -6.2071104384  0.3919730866
C   8.8487778237 -4.4593208595  9.9917371610
C   8.1153334147 -4.0335148720  7.7088725506
C   8.0840492775 -4.2795741459  6.3530718306
C   6.8922776691 -3.9648747030  5.5844512675
C   6.7389373541 -4.5212649792  4.2146686861
C   7.8306729740 -4.8812057708  3.3994043759
C   5.4174593733 -4.7036502534  3.6805479888
C   7.6456231018 -5.4360075852  2.1442498161
C   5.2270332608 -5.2974524199  2.4287324888
C   6.3461609358 -5.6474277871  1.6481000512
C   3.8020263505 -5.6033746796  1.9467517692
C   3.3756750354 -7.0741490506  1.8261175425
C   3.4648228381 -8.0278414800  2.7820541406
C   3.1181405505 -9.4555603648  2.4480399445
C   4.0170424090 -7.7557965841  4.1629687611
H   9.5191438813 -4.9093323738  12.0002231326
H   12.5112738790 -5.1480909205  8.9115215851
H   10.8131943498 -4.5444456597  7.1761016358
H   11.7370861756 -5.5330809994  12.3261989075
H   7.3762128693 -4.3872683017  11.2910444269
H   7.2340761637 -3.6215207906  8.1839065939
H   8.8383500986 -4.9085308046  5.9001048012
H   8.8392511885 -4.6771714737  3.7295748685
H   8.4709798708 -5.7262021966  1.5053229438
H   4.6829219917 -3.7921091626  5.1813935292
H   5.3133851419 -6.2380781297  0.0886523119
H   3.1374145584 -5.0795521997  2.6437309351
H   3.6419155510 -5.1589997743  0.9537533680
H   2.8899914707 -7.3352957355  0.8841477100
H   2.6248746892 -9.9451430153  3.2944196165
H   4.0272234823 -10.0361795323  2.2382365527
H   2.4632341205 -9.5176542679  1.5732580006
H   5.1145589852 -7.7040986658  4.1406071236
H   3.7464151592 -8.5541471107  4.8605611446
H   3.6501166756 -6.8043696287  4.5643431788
84
Scanning combination 33/256: [2.9000, 2.8000]  Energy = -386.2524360414
O   10.6499167046 -5.3594534258  4.7940251021
O   12.0560027331 -0.7384643347  4.3966618586
O   17.8691630607 -3.3740254591 -2.9124318301
O   14.8193218639 -3.0865123305  0.8782378084
C   13.0756035714 -3.7566853737  2.4987813495
C   13.0335078688 -2.4183447468  2.9660499224
C   12.2691002888 -4.7417962591  3.1129019988
C   12.1298286633 -2.0612986309  3.9627091968
C   11.3929062495 -4.3746250093  4.1247898889
C   11.2404494055 -3.0207741932  4.5450374430
C   10.2187868288 -2.6539296854  5.4903711691
C   10.4559952424 -1.7361510931  6.4829829247
C   9.5074243314 -1.1912284569  7.4163637901
C   8.1652105083 -1.3272955668  7.2401342091
C   10.0931702582 -0.4018864845  8.5861039708
C   14.9947674779 -5.0330376413 -0.3587971392
C   15.4792321841 -3.6940049480 -0.2149818423
C   16.4235691216 -3.1303726094 -1.0290109882
C   16.9177934038 -3.9349003578 -2.0782139931
C   16.4583598470 -5.2698411935 -2.2711458984
C   15.5061959192 -5.8145386983 -1.4152880178
C   14.0393969378 -5.2517471125  0.6612388476
C   13.9138050763 -4.0878377997  1.4076407759
H   13.7080406774 -1.6913531559  2.5202359185
H   12.3404461662 -5.7773601178  2.8007971255
H   11.0008883965 -6.2509463895  4.5808894062
H   12.5170963531 -0.1505079626  3.7657827742
H   9.2486120650 -3.0975116633  5.3423566800
H   11.4760336226 -1.3688983751  6.5745405268
H   7.7621666830 -1.7113150786  6.3108235648
H   7.4477111780 -1.0045201281  7.9876767870
H   10.5670974479  0.5208120125  8.2298759531
H   10.8823211750 -0.9759929841  9.0855520898
H   9.3296142420 -0.1397513906  9.3241580309
H   16.8028661469 -2.1176137130 -0.9073656281
H   16.8529627725 -5.8699947011 -3.0894977291
H   15.1510077762 -6.8333972221 -1.5532786859
H   13.4949883269 -6.1742933404  0.7997779309
H   18.1361673776 -4.0041170847 -3.6127631455
C   9.9669003174 -4.4552587022  10.8704544179
O   12.2354403057 -5.2362004793  11.3009695238
C   11.2213266762 -4.9001135809  10.4191961593
O   7.7396736759 -3.6957791103  10.3100004251
C   11.5006583273 -5.0183922424  9.0397511498
O   5.9248573484 -3.3187221334  6.0936478405
C   10.5218362637 -4.7294782343  8.1088222428
O   4.2568877739 -4.3731564584  4.4188956913
C   9.2147778121 -4.3249548052  8.5151772878
O   6.1123098759 -6.1069909195  0.3120828124
C   8.9895358805 -4.1561486737  9.9273646601
C   8.1090673244 -4.0959477681  7.6539249799
C   8.0345661394 -4.3783894443  6.3062526810
C   6.8418697132 -4.0222774494  5.5568447398
C   6.6658756709 -4.5363490091  4.1732747603
C   7.7447979436 -4.8290685619  3.3173810706
C   5.3352946188 -4.7319017713  3.6671484786
C   7.5404210181 -5.3292433379  2.0423750822
C   5.1266144068 -5.2949411159  2.4035518104
C   6.2345265568 -5.5762689977  1.5792392298
C   3.6994088736 -5.6326728229  1.9489662657
C   3.3354615106 -7.1146005390  1.7930670535
C   3.3529649012 -8.0453215261  2.7741458994
C   3.0028763823 -9.4780862625  2.4687530338
C   3.8319696771 -7.7472739217  4.1775513788
H   9.7609983292 -4.3568070589  11.9389086121
H   12.4971577137 -5.3438764504  8.7587406528
H   10.7555667200 -4.8108726192  7.0525857188
H   11.9133551172 -5.2326942402  12.2247058971
H   7.6690547355 -3.6238709919  11.2830389018
H   7.2292254185 -3.7108223935  8.1486575417
H   8.7531116098 -5.0369796585  5.8382573601
H   8.7544914162 -4.6025160300  3.6318070982
H   8.3539085552 -5.5508670585  1.3627089668
H   4.6254889374 -3.8580890647  5.2013378245
H   5.1783013355 -6.2126416261  0.0520636287
H   3.0406459541 -5.1647036342  2.6899702956
H   3.4921753984 -5.1576154083  0.9793373384
H   2.9782090208 -7.4113581409  0.8058797403
H   2.3665804831 -9.8944992991  3.2571387251
H   3.9084694181 -10.0987134787  2.4460979646
H   2.4895935908 -9.5766353374  1.5078033438
H   4.9280076254 -7.6808682237  4.2097011139
H   3.5343926685 -8.5426548926  4.8668325048
H   3.4375186157 -6.7956633637  4.5498659751
84
Scanning combination 34/256: [2.9000, 2.7000]  Energy = -386.2495311495
O   10.6504717467 -5.3731024394  4.7807899527
O   12.0500262296 -0.7504209631  4.4132132079
O   17.8690468569 -3.3731834370 -2.9142321603
O   14.8157167939 -3.0783640268  0.8727554322
C   13.0761822958 -3.7537500699  2.4956013450
C   13.0345319379 -2.4175148030  2.9698248380
C   12.2693176215 -4.7438695841  3.1019743381
C   12.1334965541 -2.0692628340  3.9703619037
C   11.3956146755 -4.3844300354  4.1190894748
C   11.2497260059 -3.0328372788  4.5500366504
C   10.2335142483 -2.6577380872  5.4932202532
C   10.4696986473 -1.7374032417  6.4855199333
C   9.5134338526 -1.1939544323  7.4078682804
C   8.1722041452 -1.3719600758  7.2382960446
C   10.0873046233 -0.3970106818  8.5750200012
C   14.9972470427 -5.0285372967 -0.3582233724
C   15.4803451032 -3.6886971718 -0.2163738948
C   16.4239671231 -3.1262497114 -1.0310481577
C   16.9199384018 -3.9332895271 -2.0772391979
C   16.4628580325 -5.2696312255 -2.2667610391
C   15.5110090010 -5.8131627911 -1.4105763260
C   14.0396804261 -5.2457509901  0.6588660833
C   13.9137710157 -4.0813810458  1.4040184146
H   13.7062818297 -1.6841847206  2.5303830821
H   12.3424842148 -5.7765427527  2.7794210068
H   11.0019129077 -6.2635158883  4.5623565637
H   12.5193493583 -0.1546778472  3.7975293163
H   9.2592257514 -3.0890769351  5.3397901894
H   11.4908306393 -1.3795700818  6.5965140712
H   7.7745020347 -1.7320917713  6.2971019363
H   7.4532513626 -1.0823175904  7.9982715336
H   10.5579241380  0.5230555332  8.2103599174
H   10.8787528209 -0.9633558485  9.0815899088
H   9.3191457015 -0.1321760986  9.3072627794
H   16.7995018556 -2.1115037496 -0.9144482824
H   16.8557780364 -5.8708737406 -3.0848766261
H   15.1561887474 -6.8326047176 -1.5456659561
H   13.4981070278 -6.1695073425  0.7989888135
H   18.1381815996 -4.0078271014 -3.6094721350
C   9.9690423588 -4.4512204232  10.8651039157
O   12.2287953752 -5.2477303770  11.3002210527
C   11.2195612763 -4.9059181093  10.4154991813
O   7.7377152373 -3.7009205513  10.3058877391
C   11.4967195878 -5.0255188533  9.0355939416
O   5.9051594916 -3.3324484979  6.1036268809
C   10.5162467529 -4.7341737008  8.1051499405
O   4.2522375485 -4.3792217415  4.4182779916
C   9.2180064502 -4.3027885790  8.5113866714
O   6.1102547533 -6.0930980983  0.3100571640
C   8.9922663224 -4.1473312652  9.9229042121
C   8.1161604126 -4.0397150087  7.6503147081
C   8.0288147746 -4.3554887736  6.3100353852
C   6.8318414128 -4.0221613476  5.5645006865
C   6.6635202069 -4.5360122558  4.1786661369
C   7.7435465634 -4.8300854638  3.3226426399
C   5.3343653132 -4.7317561959  3.6695387456
C   7.5404180152 -5.3296555081  2.0463628539
C   5.1283906690 -5.2949709473  2.4061594318
C   6.2353992860 -5.5744914763  1.5813321306
C   3.7029250719 -5.6339466313  1.9504085713
C   3.3380223632 -7.1155488800  1.7948867532
C   3.3514596875 -8.0465045427  2.7760020727
C   2.9981619810 -9.4784030131  2.4699460096
C   3.8265612309 -7.7490780200  4.1810033717
H   9.7666784214 -4.3483647652  11.9333580051
H   12.4915154505 -5.3543522873  8.7536223984
H   10.7455770223 -4.8283984050  7.0488655381
H   11.9137380824 -5.1990149669  12.2256560161
H   7.6656833124 -3.6308002489  11.2783681695
H   7.2380451615 -3.6543721805  8.1489709708
H   8.7575244090 -5.0031391275  5.8445162548
H   8.7560604575 -4.6170158206  3.6367247399
H   8.3530032264 -5.5530303509  1.3664604520
H   4.6156481990 -3.8684354567  5.2056392493
H   5.1749342636 -6.2011713583  0.0543679444
H   3.0421237755 -5.1643056058  2.6881968789
H   3.5008482964 -5.1602009012  0.9793053305
H   2.9798262763 -7.4109487901  0.8076606684
H   2.3554595835 -9.8917540323  3.2547987583
H   3.9015152133 -10.1024744656  2.4536751129
H   2.4900866926 -9.5760278254  1.5061469800
H   4.9223094144 -7.6802706601  4.2167581497
H   3.5285220641 -8.5460470571  4.8684269454
H   3.4284878614 -6.7992155684  4.5538652296
84
Scanning combination 35/256: [2.9000, 2.6000]  Energy = -386.2453831430
O   10.6530194289 -5.3713649518  4.7801252992
O   12.0602678227 -0.7510092402  4.4176894817
O   17.8706704192 -3.3725292397 -2.9152792640
O   14.8158626193 -3.0762451309  0.8703740519
C   13.0782992311 -3.7527819796  2.4941383630
C   13.0391357433 -2.4167627489  2.9690694351
C   12.2701220056 -4.7428953829  3.0991801191
C   12.1408300668 -2.0686683727  3.9710905192
C   11.3985344356 -4.3837182341  4.1173977548
C   11.2556700634 -3.0318186162  4.5479232336
C   10.2424648461 -2.6568780539  5.4908357234
C   10.4791052942 -1.7390085169  6.4856702085
C   9.5207980980 -1.2108752429  7.4109720429
C   8.1792428047 -1.4345572851  7.2553331126
C   10.0824475798 -0.3946037573  8.5686935012
C   14.9984695586 -5.0270751005 -0.3592529502
C   15.4803692065 -3.6866446304 -0.2186631306
C   16.4236913177 -3.1244558566 -1.0337304669
C   16.9209907839 -3.9323067636 -2.0786729055
C   16.4651660850 -5.2693783942 -2.2667485288
C   15.5133557159 -5.8126387331 -1.4102435615
C   14.0410498685 -5.2443421509  0.6577245443
C   13.9150242273 -4.0798344971  1.4023274635
H   13.7105154518 -1.6833626143  2.5295666242
H   12.3405240720 -5.7748123063  2.7739028496
H   11.0004502418 -6.2621096846  4.5567329275
H   12.5263364642 -0.1544040999  3.8004030436
H   9.2677432654 -3.0895507001  5.3408414242
H   11.4988182930 -1.3769239715  6.5951304248
H   7.7792225443 -1.7609156667  6.3030832245
H   7.4610507170 -1.1358083314  8.0123313032
H   10.5517120412  0.5241428501  8.1991857690
H   10.8750019222 -0.9509346522  9.0837147813
H   9.3096706951 -0.1260681135  9.2948691758
H   16.7987988848 -2.1095178079 -0.9175889805
H   16.8594883952 -5.8715112053 -3.0835969030
H   15.1599763717 -6.8327914984 -1.5437036528
H   13.4995138850 -6.1679773578  0.7983367018
H   18.1408109208 -4.0079387021 -3.6093863541
C   9.9663699587 -4.4510652579  10.8640873729
O   12.2278424733 -5.2469488640  11.2975415806
C   11.2157812844 -4.9082011748  10.4139659347
O   7.7357848766 -3.6969179681  10.3064382583
C   11.4899545836 -5.0300725093  9.0340404338
O   5.8969124174 -3.3309692100  6.1028580485
C   10.5118491986 -4.7278931241  8.1045412237
O   4.2482433885 -4.3824614187  4.4199583596
C   9.2172664311 -4.2874254592  8.5108198104
O   6.1119402647 -6.0896792181  0.3099931982
C   8.9912332026 -4.1388413683  9.9216429497
C   8.1186898361 -4.0041963917  7.6466279525
C   8.0267370151 -4.3397127892  6.3086752886
C   6.8270947829 -4.0170751723  5.5650597730
C   6.6594728820 -4.5373812057  4.1815835464
C   7.7402292280 -4.8311656989  3.3266652821
C   5.3307020982 -4.7334728173  3.6714055614
C   7.5391398621 -5.3290824001  2.0497934036
C   5.1263132244 -5.2944011942  2.4065206405
C   6.2346064407 -5.5730642281  1.5825509618
C   3.7012040538 -5.6344773681  1.9496597851
C   3.3374124967 -7.1165193982  1.7949255270
C   3.3502227636 -8.0470249591  2.7764626517
C   2.9959480591 -9.4786104587  2.4705656353
C   3.8240297444 -7.7493737639  4.1818200095
H   9.7664867978 -4.3452882227  11.9320805690
H   12.4834857997 -5.3626418915  8.7517264665
H   10.7379564000 -4.8273806358  7.0482541203
H   11.9178953056 -5.1894068910  12.2239862312
H   7.6639954271 -3.6345949762  11.2792959185
H   7.2393030505 -3.6216594121  8.1443579688
H   8.7503308077 -5.0026774671  5.8557065848
H   8.7522148958 -4.6178856274  3.6426179733
H   8.3531564610 -5.5524079302  1.3708987358
H   4.6123391200 -3.8720326300  5.2080630926
H   5.1772690270 -6.1965910767  0.0520550166
H   3.0398061302 -5.1646144560  2.6868881970
H   3.4992321765 -5.1616005560  0.9780324366
H   2.9811612204 -7.4128638852  0.8072722157
H   2.3504962826 -9.8903397621  3.2539389536
H   3.8984550005 -10.1038931531  2.4574853667
H   2.4904070535 -9.5762505753  1.5054511480
H   4.9196784810 -7.6795029853  4.2184842784
H   3.5263466841 -8.5470727077  4.8685699194
H   3.4244816052 -6.8001940083  4.5548545065
84
Scanning combination 36/256: [2.9000, 2.5000]  Energy = -386.2415620085
O   10.6638693419 -5.3685072394  4.7649716548
O   12.1116999693 -0.7552060340  4.4404105523
O   17.8843841054 -3.3682109872 -2.9299075759
O   14.8205362862 -3.0659383184  0.8490077423
C   13.0904697026 -3.7470794676  2.4818343290
C   13.0615440881 -2.4162511505  2.9700574455
C   12.2767803876 -4.7357931608  3.0810041140
C   12.1731002509 -2.0704015513  3.9827038147
C   11.4149032742 -4.3808215793  4.1094469689
C   11.2801885094 -3.0319153942  4.5543121125
C   10.2674839267 -2.6675856961  5.5024412926
C   10.4959039330 -1.7325192523  6.4848486738
C   9.5414098279 -1.2232880282  7.4206809126
C   8.2058285648 -1.5313438388  7.3243916580
C   10.0795420483 -0.3430516062  8.5415744189
C   15.0125479771 -5.0212846248 -0.3723736633
C   15.4872915609 -3.6775957282 -0.2384869295
C   16.4288429733 -3.1149429237 -1.0553759503
C   16.9350321878 -3.9274516251 -2.0924978156
C   16.4880613404 -5.2689304011 -2.2723542669
C   15.5358745281 -5.8116805279 -1.4158133550
C   14.0553645880 -5.2377514026  0.6450664865
C   13.9250705860 -4.0717674760  1.3867155975
H   13.7369193487 -1.6855566266  2.5327377391
H   12.3347942845 -5.7630107647  2.7396997779
H   10.9960721693 -6.2596762315  4.5225431438
H   12.5800267199 -0.1609390965  3.8217172655
H   9.3010182998 -3.1277106426  5.3792200140
H   11.5079815330 -1.3444819295  6.5706452142
H   7.7606020558 -1.7617612653  6.3619111941
H   7.5352728230 -1.3509954560  8.1564493497
H   10.5383729241  0.5656045973  8.1351052782
H   10.8702479448 -0.8563722356  9.1012229639
H   9.2891988218 -0.0550464266  9.2410569445
H   16.7961347245 -2.0961804097 -0.9461099447
H   16.8894957041 -5.8750579771 -3.0828402939
H   15.1892118406 -6.8353384335 -1.5421277042
H   13.5169876114 -6.1628914569  0.7872155378
H   18.1634511461 -4.0088550911 -3.6155692337
C   9.9528859914 -4.4376135859  10.8633293699
O   12.2102883735 -5.2508988935  11.2914541843
C   11.1974530777 -4.9080067317  10.4109923963
O   7.7382031384 -3.6303561874  10.3017567833
C   11.4627914874 -5.0562249265  9.0321271797
O   5.8829782609 -3.3337050695  6.1090588201
C   10.4873742478 -4.7430325790  8.1052971530
O   4.2300630798 -4.3987015588  4.4308682575
C   9.2001816673 -4.2926648046  8.5135339718
O   6.1100028744 -6.0712074380  0.3101132798
C   8.9794852874 -4.1168368330  9.9208114940
C   8.1074946717 -4.0090953232  7.6420522764
C   8.0261723317 -4.3276482199  6.2967704896
C   6.8148068098 -4.0133194357  5.5659677214
C   6.6418009642 -4.5393852950  4.1882233872
C   7.7255613435 -4.8340457456  3.3388278141
C   5.3143176748 -4.7391647394  3.6784563265
C   7.5298380150 -5.3290067678  2.0615336059
C   5.1146484027 -5.2947869602  2.4103774381
C   6.2268708639 -5.5672215008  1.5882688301
C   3.6928945246 -5.6398608031  1.9479063775
C   3.3340789600 -7.1235415392  1.7940159994
C   3.3394405554 -8.0522355419  2.7774126264
C   2.9795162404 -9.4830114271  2.4744080149
C   3.8048326415 -7.7528821625  4.1853732969
H   9.7561907875 -4.3235964755  11.9306993499
H   12.4452390792 -5.4151623997  8.7460756222
H   10.7107426465 -4.8320788620  7.0482745161
H   11.9239081247 -5.1297163818  12.2189345518
H   7.6382856044 -3.6358468660  11.2741841624
H   7.2169035243 -3.6555692246  8.1410553199
H   8.7441032086 -4.9995289427  5.8464850414
H   8.7354900749 -4.6252160114  3.6635960901
H   8.3480071993 -5.5534746199  1.3882048661
H   4.5899960018 -3.8886606905  5.2202177074
H   5.1774389869 -6.1620632438  0.0408517035
H   3.0264577726 -5.1694354369  2.6803133592
H   3.4956569212 -5.1711505407  0.9732259978
H   2.9905369500 -7.4239317439  0.8029691255
H   2.3152929070 -9.8831061735  3.2482577427
H   3.8767324029 -10.1158452506  2.4845637990
H   2.4920727419 -9.5831214392  1.5003306721
H   4.8996191766 -7.6747154507  4.2279733744
H   3.5095346030 -8.5540133423  4.8693555365
H   3.3959909047 -6.8075541291  4.5579589144
84
Scanning combination 37/256: [2.9000, 2.4000]  Energy = -386.2378712889
O   10.6644046878 -5.3702485753  4.7653546963
O   12.1100088146 -0.7570199176  4.4426530162
O   17.8851445786 -3.3674361965 -2.9304299780
O   14.8196116848 -3.0646985381  0.8484308000
C   13.0905505409 -3.7473190269  2.4819769235
C   13.0622260751 -2.4164690636  2.9711380844
C   12.2756251871 -4.7363174899  3.0799702569
C   12.1727374934 -2.0710588022  3.9822596570
C   11.4133835261 -4.3818578659  4.1079464767
C   11.2807554984 -3.0324457302  4.5534020810
C   10.2739589329 -2.6664499012  5.5045119938
C   10.4979019221 -1.7324394846  6.4893070970
C   9.5408091752 -1.2394471447  7.4293982467
C   8.2061297734 -1.5886415121  7.3514959837
C   10.0780423721 -0.3427079627  8.5354836775
C   15.0135426669 -5.0202528597 -0.3720787324
C   15.4873802432 -3.6763965381 -0.2385636559
C   16.4285834657 -3.1137400935 -1.0565310391
C   16.9356909255 -3.9266213202 -2.0930808453
C   16.4898855098 -5.2682609844 -2.2720546191
C   15.5378262879 -5.8106632377 -1.4151803252
C   14.0556221291 -5.2369814947  0.6446873230
C   13.9244788435 -4.0710172949  1.3861476482
H   13.7374973051 -1.6840707530  2.5364614795
H   12.3329511651 -5.7638338772  2.7388145319
H   10.9972644578 -6.2610100602  4.5212917250
H   12.5820826798 -0.1614013694  3.8283601635
H   9.3059047805 -3.1239971493  5.3842269554
H   11.5052725591 -1.3316935330  6.5743584588
H   7.7483065241 -1.7798310379  6.3847455401
H   7.5313429877 -1.3596025528  8.1703470329
H   10.5381967306  0.5608494346  8.1196647892
H   10.8726422655 -0.8531136632  9.0917490701
H   9.2939582970 -0.0434269008  9.2376156194
H   16.7956145530 -2.0949976918 -0.9488582707
H   16.8923124991 -5.8747878734 -3.0817861100
H   15.1920765319 -6.8343459136 -1.5418151980
H   13.5187214367 -6.1628658550  0.7877293277
H   18.1654105669 -4.0082512331 -3.6156243191
C   9.9521181264 -4.4382484682  10.8615943031
O   12.2091068485 -5.2494511224  11.2959129835
C   11.1958952953 -4.9118735597  10.4129401594
O   7.7382958206 -3.6332830560  10.2941421760
C   11.4619068254 -5.0610390160  9.0346560018
O   5.8796276754 -3.3355421391  6.1052463928
C   10.4898228692 -4.7420885665  8.1054550752
O   4.2320975802 -4.3987115740  4.4288324906
C   9.2076746059 -4.2759733939  8.5098503350
O   6.1058204869 -6.0723955858  0.3070769200
C   8.9834350544 -4.1115850316  9.9160023306
C   8.1159173153 -3.9699732122  7.6360273157
C   8.0240680817 -4.3170980611  6.2941928988
C   6.8138185751 -4.0131404735  5.5628403298
C   6.6432630939 -4.5413899764  4.1849162175
C   7.7260710846 -4.8357957281  3.3335881627
C   5.3149524071 -4.7402857439  3.6761075295
C   7.5287066493 -5.3308438334  2.0562348047
C   5.1140841657 -5.2957707396  2.4083135765
C   6.2247860728 -5.5681476590  1.5845858321
C   3.6916354857 -5.6405427819  1.9484407037
C   3.3334718316 -7.1241378469  1.7941820957
C   3.3378616507 -8.0527304149  2.7775428505
C   2.9774913007 -9.4834301921  2.4746790471
C   3.8024997691 -7.7530579037  4.1856737453
H   9.7562481136 -4.3188010964  11.9284066192
H   12.4456877019 -5.4189085869  8.7513467910
H   10.7104908680 -4.8489546237  7.0492373205
H   11.9217331035 -5.1264301965  12.2229982183
H   7.6434469041 -3.6260151752  11.2668526490
H   7.2205932483 -3.6347610203  8.1402159644
H   8.7409649197 -4.9940441730  5.8529404367
H   8.7370148943 -4.6254785757  3.6548306556
H   8.3456195538 -5.5558060735  1.3814380328
H   4.5949571558 -3.8895440379  5.2188097173
H   5.1723411792 -6.1592187423  0.0383933219
H   3.0265078498 -5.1707044730  2.6823764233
H   3.4929112697 -5.1709087938  0.9746433487
H   2.9920219351 -7.4245279770  0.8025768720
H   2.3110474608 -9.8823819697  3.2471724760
H   3.8740213049 -10.1171345200  2.4876510911
H   2.4923091148 -9.5842198605  1.4995476756
H   4.8972273333 -7.6745831604  4.2286975683
H   3.5070349987 -8.5542661661  4.8694490813
H   3.3932357268 -6.8077317574  4.5578558908
84
Scanning combination 38/256: [2.9000, 2.3000]  Energy = -386.2352579828
O   10.6655937404 -5.3655559469  4.7649750793
O   12.1174018414 -0.7549389636  4.4440575456
O   17.8862279892 -3.3649882512 -2.9307617410
O   14.8190426598 -3.0622777569  0.8458513373
C   13.0919781661 -3.7454912437  2.4797369630
C   13.0676866856 -2.4147756577  2.9705139022
C   12.2770019440 -4.7350236107  3.0773547000
C   12.1802048295 -2.0691200011  3.9837967356
C   11.4181623497 -4.3798549278  4.1079889046
C   11.2898825635 -3.0308945014  4.5559833844
C   10.2861610069 -2.6713124665  5.5108753147
C   10.5019836749 -1.7321438472  6.4932135605
C   9.5461184398 -1.2594610126  7.4399853014
C   8.2100483203 -1.6390941838  7.3879910441
C   10.0783304077 -0.3439938807  8.5280799413
C   15.0155626291 -5.0187040563 -0.3727180517
C   15.4874234179 -3.6738195903 -0.2405340108
C   16.4278733086 -3.1108999253 -1.0584423219
C   16.9371738076 -3.9244628851 -2.0932341071
C   16.4936208432 -5.2671232111 -2.2708578415
C   15.5414474967 -5.8097017347 -1.4143266095
C   14.0580594741 -5.2360451350  0.6441658371
C   13.9252359075 -4.0693198826  1.3840980165
H   13.7441276254 -1.6836585000  2.5353655544
H   12.3300989292 -5.7619029031  2.7336971909
H   10.9943128271 -6.2574586705  4.5215277188
H   12.5910175689 -0.1587509484  3.8319511119
H   9.3214988773 -3.1396404064  5.3975704245
H   11.5003696202 -1.3078288043  6.5690384199
H   7.7201650084 -1.7616338869  6.4246023765
H   7.5644524844 -1.4332194508  8.2386152137
H   10.5263264237  0.5480069971  8.0772012125
H   10.8783263707 -0.8344560007  9.0969141006
H   9.2887785537 -0.0340848504  9.2197677475
H   16.7927927662 -2.0910193249 -0.9517791538
H   16.8978470087 -5.8741290018 -3.0793019131
H   15.1968797132 -6.8339869721 -1.5397178676
H   13.5222791759 -6.1623670593  0.7880284959
H   18.1686095696 -4.0064382528 -3.6144022836
C   9.9517300307 -4.4290306871  10.8615872150
O   12.2040814851 -5.2511252972  11.2999051527
C   11.1927175438 -4.9127346910  10.4149872813
O   7.7438854473 -3.6100675038  10.2886201136
C   11.4606656952 -5.0660435172  9.0376576803
O   5.8775850381 -3.3331256192  6.0972634055
C   10.4907520190 -4.7425523893  8.1068651359
O   4.2308607139 -4.4027540990  4.4241863782
C   9.2144188469 -4.2632719180  8.5088119200
O   6.0980066280 -6.0741732747  0.3003197059
C   8.9873683391 -4.0973513571  9.9133683718
C   8.1305477857 -3.9253288183  7.6260134868
C   8.0231907897 -4.3099547426  6.2880891907
C   6.8137775972 -4.0112352758  5.5562373579
C   6.6424214679 -4.5447072038  4.1793730460
C   7.7238512361 -4.8404207586  3.3261599818
C   5.3140838240 -4.7444493032  3.6718081897
C   7.5244870157 -5.3345890468  2.0482257613
C   5.1111303484 -5.2987448465  2.4038824817
C   6.2200388447 -5.5704312925  1.5778609223
C   3.6875405012 -5.6427294202  1.9469815949
C   3.3305212832 -7.1263636727  1.7927598332
C   3.3339457040 -8.0538063780  2.7771957250
C   2.9729780953 -9.4845425810  2.4754996479
C   3.7973359279 -7.7532851570  4.1857152053
H   9.7502574770 -4.3142050016  11.9282463086
H   12.4403123852 -5.4358758292  8.7550267721
H   10.7094705516 -4.8612418661  7.0516051358
H   11.9163858611 -5.1198740829  12.2258495582
H   7.6432556131 -3.6078865451  11.2609080600
H   7.2283828535 -3.6218760655  8.1390848596
H   8.7273946656 -5.0071928196  5.8571530425
H   8.7357434808 -4.6289562100  3.6436930017
H   8.3404957053 -5.5589105532  1.3720624924
H   4.5928789365 -3.8925001111  5.2129591368
H   5.1642187618 -6.1544167040  0.0309398665
H   3.0244774988 -5.1750066074  2.6841311720
H   3.4847885980 -5.1714020391  0.9747291272
H   2.9937762384 -7.4286381049  0.8000807909
H   2.3017840263 -9.8807000612  3.2453028962
H   3.8683323532 -10.1196669319  2.4945932804
H   2.4927671684 -9.5862011455  1.4980595884
H   4.8919548406 -7.6743575345  4.2301719223
H   3.5016112657 -8.5543429082  4.8695301565
H   3.3873845071 -6.8081888546  4.5576267849
84
Scanning combination 39/256: [2.9000, 2.2000]  Energy = -386.2350190874
O   10.6751200283 -5.3625313864  4.7626424446
O   12.1383130317 -0.7513016197  4.4480174799
O   17.8933016333 -3.3576368231 -2.9360476785
O   14.8206934829 -3.0549431040  0.8369298372
C   13.0977110914 -3.7408960473  2.4760424121
C   13.0773344509 -2.4129787135  2.9730468288
C   12.2816984509 -4.7290848356  3.0731422459
C   12.1938785607 -2.0664861549  3.9901196256
C   11.4292959113 -4.3761766621  4.1095134356
C   11.3020479651 -3.0278236313  4.5643609948
C   10.3032528414 -2.6803626881  5.5275802194
C   10.4987886819 -1.7230370400  6.4968303074
C   9.5510575851 -1.2784997836  7.4594051174
C   8.2184019409 -1.7209832049  7.4676948935
C   10.0733070956 -0.3139796226  8.5090567805
C   15.0245254014 -5.0137867364 -0.3766257365
C   15.4903662846 -3.6667410309 -0.2486188525
C   16.4291900538 -3.1019961606 -1.0684402361
C   16.9446418275 -3.9180215776 -2.0985731353
C   16.5078477379 -5.2635419852 -2.2711817813
C   15.5557623560 -5.8068460941 -1.4145103692
C   14.0681129993 -5.2318038517  0.6414141195
C   13.9308242372 -4.0638294366  1.3788951308
H   13.7563504740 -1.6841529605  2.5376033903
H   12.3274103081 -5.7537477277  2.7212330533
H   10.9959562543 -6.2544981757  4.5085747485
H   12.6174096423 -0.1605627115  3.8329255834
H   9.3531281348 -3.1877319801  5.4534513696
H   11.4800626526 -1.2572107260  6.5455631027
H   7.6436300701 -1.7029330588  6.5420487032
H   7.6475190090 -1.5546125900  8.3793336482
H   10.5138589567  0.5697906478  8.0336438038
H   10.8814866453 -0.7715592185  9.0929975101
H   9.2867516258  0.0118005343  9.1970807194
H   16.7880796608 -2.0799753118 -0.9659157080
H   16.9174427273 -5.8724963191 -3.0756022100
H   15.2160313673 -6.8331478307 -1.5365990641
H   13.5361983182 -6.1600971619  0.7873013357
H   18.1816297152 -4.0014422128 -3.6152093624
C   9.9492859292 -4.4120417666  10.8583963732
O   12.1841898688 -5.2710655970  11.3138799253
C   11.1829441372 -4.9206407756  10.4216754754
O   7.7762245295 -3.5162288144  10.2679527379
C   11.4492554667 -5.0968684969  9.0473142122
O   5.8963769476 -3.3088390388  6.0686904894
C   10.4877883784 -4.7678564543  8.1104586750
O   4.2331155179 -4.4080083564  4.4267706425
C   9.2196308718 -4.2684031015  8.5030089564
O   6.0762731925 -6.0728498848  0.2866767844
C   8.9973343146 -4.0685565191  9.9026539239
C   8.1394417482 -3.9148410863  7.6112340774
C   8.0263127145 -4.3164376255  6.2685569936
C   6.8228144697 -4.0067363423  5.5356109774
C   6.6421150177 -4.5496474127  4.1640685739
C   7.7184753483 -4.8530933486  3.3085906467
C   5.3103677816 -4.7485871151  3.6647742018
C   7.5121380055 -5.3453901463  2.0316083405
C   5.1000927145 -5.3034355639  2.3979068996
C   6.2047318429 -5.5752713948  1.5659174317
C   3.6753140229 -5.6500017793  1.9461913672
C   3.3218249641 -7.1344518753  1.7893672052
C   3.3203201464 -8.0601256414  2.7753058490
C   2.9572172424 -9.4912258290  2.4779958217
C   3.7794890039 -7.7557413364  4.1843894042
H   9.7412738732 -4.2946640144  11.9236948302
H   12.4215054469 -5.4917692577  8.7726080989
H   10.7156440907 -4.8896083865  7.0572608628
H   11.9042656288 -5.1043271261  12.2361823720
H   7.6653347072 -3.5207285515  11.2386715719
H   7.2111189685 -3.7057687960  8.1302029761
H   8.7273037759 -5.0179157725  5.8412665454
H   8.7326717529 -4.6506596140  3.6259505249
H   8.3252288392 -5.5710749476  1.3521827855
H   4.6002938788 -3.8865498379  5.2062480744
H   5.1416774515 -6.1399106922  0.0154098199
H   3.0143533263 -5.1852405440  2.6869805301
H   3.4679488835 -5.1779775021  0.9752926896
H   2.9966912251 -7.4398953653  0.7937385820
H   2.2720427130 -9.8780523706  3.2402740937
H   3.8489090746 -10.1304844593  2.5169989541
H   2.4919578960 -9.5984976783  1.4939951770
H   4.8738583455 -7.6756827883  4.2314306933
H   3.4819292039 -8.5551506508  4.8692122771
H   3.3681963909 -6.8096618134  4.5522775807
84
Scanning combination 40/256: [2.9000, 2.1000]  Energy = -386.2362967726
O   10.6761976386 -5.3632008435  4.7639137368
O   12.1373848446 -0.7514100793  4.4488936796
O   17.8932342402 -3.3570891088 -2.9359995500
O   14.8199823792 -3.0540861078  0.8364076672
C   13.0991314709 -3.7410011581  2.4773651225
C   13.0771404552 -2.4125569509  2.9734026236
C   12.2809391060 -4.7290611377  3.0726303873
C   12.1928165711 -2.0660141936  3.9894379205
C   11.4282978969 -4.3762813380  4.1088182745
C   11.3038342201 -3.0282263198  4.5654084884
C   10.3062101279 -2.6799303654  5.5270793956
C   10.4983091724 -1.7214909941  6.4972122079
C   9.5572430834 -1.2912931535  7.4650871850
C   8.2206049862 -1.7603662061  7.4765967673
C   10.0695868035 -0.3176203376  8.5056106748
C   15.0249008967 -5.0133439331 -0.3761444194
C   15.4905085635 -3.6662189089 -0.2484751691
C   16.4291178447 -3.1014613902 -1.0684538197
C   16.9448440576 -3.9175162077 -2.0983806667
C   16.5083878453 -5.2629907844 -2.2705641718
C   15.5566098918 -5.8062050082 -1.4138226317
C   14.0679142667 -5.2312093447  0.6413068319
C   13.9309406946 -4.0634026215  1.3790894970
H   13.7555355048 -1.6825098523  2.5393348467
H   12.3268270420 -5.7539071946  2.7215208425
H   10.9965143631 -6.2549726248  4.5084395084
H   12.6167028753 -0.1597001163  3.8354677215
H   9.3540393085 -3.1832481918  5.4482837584
H   11.4794371601 -1.2560533629  6.5463070895
H   7.6493668538 -1.7077366226  6.5503573288
H   7.6436936081 -1.5508523058  8.3757316392
H   10.5092176403  0.5663313015  8.0296678747
H   10.8798413598 -0.7697923444  9.0906267715
H   9.2836201328  0.0102001535  9.1930199683
H   16.7877987183 -2.0793576667 -0.9668219256
H   16.9180812573 -5.8720311134 -3.0747772113
H   15.2172430432 -6.8324667358 -1.5361014168
H   13.5367047508 -6.1598866711  0.7881771233
H   18.1820632574 -4.0010197600 -3.6148753022
C   9.9486796742 -4.4148713383  10.8578985566
O   12.1833712100 -5.2712858738  11.3146375627
C   11.1818654284 -4.9241366327  10.4214736615
O   7.7758087307 -3.5196038300  10.2669487688
C   11.4472638089 -5.1018874464  9.0474813639
O   5.8958299519 -3.3121725941  6.0690155490
C   10.4853965867 -4.7690695397  8.1102018988
O   4.2341099553 -4.4070635560  4.4251016005
C   9.2263178371 -4.2551214319  8.5043149332
O   6.0750849733 -6.0731521051  0.2858333384
C   8.9983897730 -4.0681296501  9.9008216968
C   8.1536654067 -3.8553460880  7.6047989134
C   8.0244808595 -4.3098715542  6.2668411065
C   6.8233740800 -4.0106958762  5.5360978328
C   6.6426295471 -4.5522132313  4.1632834585
C   7.7188075564 -4.8542659646  3.3071517518
C   5.3110819909 -4.7489853474  3.6637709826
C   7.5116710036 -5.3461152695  2.0299481714
C   5.0999415624 -5.3038266706  2.3971266651
C   6.2042762624 -5.5751208768  1.5647313935
C   3.6749201342 -5.6501165810  1.9468239702
C   3.3216811063 -7.1344081947  1.7898753566
C   3.3197194063 -8.0601609912  2.7756834851
C   2.9562558534 -9.4911392966  2.4782112991
C   3.7785873119 -7.7557594685  4.1848506634
H   9.7423709811 -4.2897932899  11.9221292530
H   12.4207517311 -5.4929037481  8.7726052891
H   10.7135814217 -4.8978021239  7.0575676117
H   11.9033703731 -5.1041804986  12.2369345605
H   7.6709432361 -3.5115919875  11.2379501888
H   7.2103220002 -3.7157950726  8.1291650550
H   8.7192895715 -5.0216547825  5.8484608783
H   8.7329250243 -4.6506891248  3.6233229602
H   8.3244779823 -5.5723340269  1.3508496409
H   4.6025356820 -3.8863226617  5.2048043616
H   5.1403605885 -6.1389147506  0.0158145426
H   3.0143337930 -5.1859319658  2.6882847324
H   3.4668307249 -5.1773147759  0.9765301206
H   2.9970569235 -7.4394609315  0.7940794169
H   2.2701119777 -9.8775693869  3.2397841086
H   3.8475303918 -10.1308657602  2.5183340761
H   2.4919376219 -9.5986556523  1.4937890081
H   4.8729736269 -7.6758683965  4.2319253426
H   3.4806347874 -8.5551565130  4.8695100422
H   3.3673262925 -6.8095232644  4.5524559419
84
Scanning combination 41/256: [2.9000, 2.0000]  Energy = -386.2395430799
O   10.6769598678 -5.3621292082  4.7643831249
O   12.1375369547 -0.7509506858  4.4491751869
O   17.8932932657 -3.3563697584 -2.9359841772
O   14.8198719527 -3.0532581873  0.8363330840
C   13.0991785035 -3.7403096077  2.4765344751
C   13.0788762109 -2.4116979636  2.9729919457
C   12.2818953921 -4.7291073572  3.0724487946
C   12.1954083066 -2.0650605822  3.9888726420
C   11.4298681512 -4.3761889343  4.1084731212
C   11.3064214839 -3.0271138629  4.5636510458
C   10.3119745725 -2.6778369742  5.5241880936
C   10.5026470650 -1.7239578785  6.5010773908
C   9.5651425084 -1.3076270089  7.4689353557
C   8.2199114536 -1.8018241215  7.4816116885
C   10.0640602251 -0.3253135251  8.5012639313
C   15.0253800905 -5.0126976083 -0.3758895196
C   15.4903918551 -3.6651838316 -0.2486307425
C   16.4288379441 -3.1006186346 -1.0685097215
C   16.9450391073 -3.9168005459 -2.0980181864
C   16.5091150037 -5.2625497217 -2.2699059590
C   15.5573052523 -5.8057555741 -1.4131772021
C   14.0687569686 -5.2309638599  0.6419023009
C   13.9309727392 -4.0626718921  1.3788565221
H   13.7566471034 -1.6812353258  2.5388844242
H   12.3265705594 -5.7538676769  2.7208001382
H   10.9961795277 -6.2542449895  4.5086593092
H   12.6166611349 -0.1581206619  3.8370197993
H   9.3580995140 -3.1815379073  5.4462674700
H   11.4812939837 -1.2521317850  6.5463230874
H   7.6514384211 -1.6985257956  6.5586580402
H   7.6467961098 -1.5483210855  8.3710907959
H   10.4994318268  0.5588795915  8.0197351375
H   10.8780170065 -0.7656487477  9.0928764080
H   9.2746024629  0.0025676898  9.1855954843
H   16.7872311126 -2.0781632004 -0.9672970713
H   16.9190659519 -5.8716399221 -3.0739764288
H   15.2183759285 -6.8322361696 -1.5351276441
H   13.5374747657 -6.1593418859  0.7888305882
H   18.1825538183 -4.0003372401 -3.6143438839
C   9.9495250024 -4.4152242791  10.8583739600
O   12.1832968593 -5.2737834979  11.3149606998
C   11.1809114616 -4.9276188110  10.4221046960
O   7.7761016433 -3.5210858167  10.2665224175
C   11.4458116376 -5.1059629072  9.0479741559
O   5.8907365201 -3.3144365807  6.0675921765
C   10.4834512381 -4.7668792149  8.1107049899
O   4.2342659546 -4.4064677211  4.4236252837
C   9.2331901223 -4.2430236972  8.5069444361
O   6.0734535989 -6.0733956858  0.2843955479
C   9.0014293022 -4.0634998987  9.8996286284
C   8.1627928630 -3.7974189248  7.6007882028
C   8.0217293791 -4.2967326130  6.2618858547
C   6.8217882943 -4.0106710920  5.5356103171
C   6.6425302212 -4.5552982502  4.1627431321
C   7.7187772994 -4.8562936009  3.3062374153
C   5.3109700748 -4.7504938806  3.6635144254
C   7.5114985070 -5.3476385793  2.0279871223
C   5.0996869653 -5.3045694848  2.3962643830
C   6.2033753332 -5.5758111237  1.5633640402
C   3.6742109645 -5.6503142102  1.9469832519
C   3.3210705840 -7.1345415875  1.7899380312
C   3.3188091129 -8.0601477268  2.7758906479
C   2.9550332078 -9.4910885056  2.4785340854
C   3.7773978450 -7.7557607782  4.1851969706
H   9.7435326115 -4.2878087093  11.9228626970
H   12.4182241918 -5.4983162297  8.7720473520
H   10.7102130156 -4.9039702082  7.0586490710
H   11.9028046278 -5.1045232163  12.2371074761
H   7.6762421062 -3.5023496748  11.2376173646
H   7.2119008594 -3.7359734716  8.1323239328
H   8.7102025915 -5.0243783107  5.8670356797
H   8.7330793980 -4.6519238320  3.6214505988
H   8.3240092273 -5.5735799634  1.3486722340
H   4.6045024746 -3.8861047071  5.2041222961
H   5.1382646546 -6.1382737683  0.0146016786
H   3.0145736286 -5.1866364501  2.6896094332
H   3.4649844768 -5.1767681845  0.9772786598
H   2.9972743483 -7.4397132094  0.7939498379
H   2.2676797446 -9.8768957369  3.2393517437
H   3.8459153129 -10.1312976847  2.5200593007
H   2.4919564654 -9.5986356579  1.4935287116
H   4.8717687152 -7.6761712838  4.2327050151
H   3.4791170070 -8.5550118871  4.8699025514
H   3.3663252159 -6.8094399863  4.5527804673
84
Scanning combination 42/256: [2.9000, 1.9000]  Energy = -386.2442265745
O   10.6767923092 -5.3624673474  4.7644046894
O   12.1371252676 -0.7511202666  4.4492567542
O   17.8932214853 -3.3565180056 -2.9359507897
O   14.8198122025 -3.0533918728  0.8365342338
C   13.0988842447 -3.7404344959  2.4766450690
C   13.0785764823 -2.4118526542  2.9731574598
C   12.2816568197 -4.7291909285  3.0726945240
C   12.1952801877 -2.0650592977  3.9888063202
C   11.4295956247 -4.3763529030  4.1085606179
C   11.3064497578 -3.0268546401  4.5634371911
C   10.3133282848 -2.6761509238  5.5220092531
C   10.5015001220 -1.7226659407  6.5022236707
C   9.5698555415 -1.3148295371  7.4701186308
C   8.2186533342 -1.8480963526  7.4862666453
C   10.0608452425 -0.3285768253  8.4983632070
C   15.0252344342 -5.0128106090 -0.3758759950
C   15.4903770728 -3.6652168770 -0.2485730258
C   16.4287453091 -3.1008516634 -1.0683830568
C   16.9449884967 -3.9169062607 -2.0979836281
C   16.5088945145 -5.2626661619 -2.2699149493
C   15.5571532892 -5.8057352939 -1.4132524158
C   14.0686055794 -5.2310082477  0.6419852725
C   13.9307656381 -4.0627755290  1.3789559110
H   13.7562687642 -1.6813192635  2.5391680437
H   12.3264426061 -5.7539942592  2.7210043268
H   10.9963875779 -6.2545439763  4.5085740587
H   12.6164226554 -0.1583542109  3.8371283628
H   9.3583561636 -3.1807172612  5.4465715675
H   11.4807021121 -1.2511467903  6.5460583763
H   7.6533530888 -1.7023632471  6.5662004672
H   7.6482458095 -1.5527712918  8.3648011158
H   10.4994066021  0.5572924766  8.0198722433
H   10.8768032973 -0.7657286870  9.0917570959
H   9.2745530193  0.0021396454  9.1850793612
H   16.7873453134 -2.0783262775 -0.9671964804
H   16.9188638136 -5.8717038961 -3.0740974853
H   15.2181459926 -6.8322922581 -1.5352739417
H   13.5372645181 -6.1593921854  0.7887787601
H   18.1824496502 -4.0004435270 -3.6144096407
C   9.9491408909 -4.4163438093  10.8583665889
O   12.1834930990 -5.2730865886  11.3149204035
C   11.1806343293 -4.9277075316  10.4218127733
O   7.7754359988 -3.5221068097  10.2660386573
C   11.4450928796 -5.1059402423  9.0479749953
O   5.8895108516 -3.3147879110  6.0676122380
C   10.4807048202 -4.7655680143  8.1106390893
O   4.2345182808 -4.4062010701  4.4239739416
C   9.2356273205 -4.2360945467  8.5087445082
O   6.0736315637 -6.0734023829  0.2845639115
C   9.0008643267 -4.0636654536  9.8979299026
C   8.1677804007 -3.7441752138  7.5965747632
C   8.0190271856 -4.2895771288  6.2590862298
C   6.8221689040 -4.0116336145  5.5361710284
C   6.6424245386 -4.5562467166  4.1623762982
C   7.7188314090 -4.8562167495  3.3059780238
C   5.3110505294 -4.7505079950  3.6637003237
C   7.5116722308 -5.3474979107  2.0278060552
C   5.0997478023 -5.3044420985  2.3962668166
C   6.2034832379 -5.5756670479  1.5634220480
C   3.6743786271 -5.6502146218  1.9470064619
C   3.3212233861 -7.1344942019  1.7899806813
C   3.3189976360 -8.0601193764  2.7758575246
C   2.9552620085 -9.4910879137  2.4784736198
C   3.7776155126 -7.7557687296  4.1851663632
H   9.7433023215 -4.2879601078  11.9225387067
H   12.4180040227 -5.4969131519  8.7718956989
H   10.7097528568 -4.9034573561  7.0589232651
H   11.9026924314 -5.1043313521  12.2369907980
H   7.6757636876 -3.5040089270  11.2369505861
H   7.2144880746 -3.7400748150  8.1305969046
H   8.7074186225 -5.0218343962  5.8740640560
H   8.7331762351 -4.6514992173  3.6212603090
H   8.3242841230 -5.5734553821  1.3486678599
H   4.6053021605 -3.8858502718  5.2046805894
H   5.1384654888 -6.1384115393  0.0147577386
H   3.0146378796 -5.1864707201  2.6895385916
H   3.4652642134 -5.1767780633  0.9772319612
H   2.9972784827 -7.4395760953  0.7939956178
H   2.2681164327 -9.8770154673  3.2394164554
H   3.8461945757 -10.1312214749  2.5197436659
H   2.4919676235 -9.5986040166  1.4935728492
H   4.8719885667 -7.6761219400  4.2326103049
H   3.4794161071 -8.5550308090  4.8698651440
H   3.3665148729 -6.8094568781  4.5527536449
84
Scanning combination 43/256: [2.9000, 1.8000]  Energy = -386.2493621107
O   10.6787656178 -5.3575051536  4.7645532582
O   12.1430146112 -0.7488291675  4.4466400961
O   17.8935495238 -3.3552458069 -2.9358224051
O   14.8202236072 -3.0523537272  0.8344508761
C   13.1030712178 -3.7398396212  2.4755318446
C   13.0840081921 -2.4097285721  2.9688276107
C   12.2838330000 -4.7286360499  3.0694678484
C   12.2020471498 -2.0620662428  3.9841847512
C   11.4333207766 -4.3746948922  4.1054096812
C   11.3155615652 -3.0250933438  4.5592746314
C   10.3265131232 -2.6756661957  5.5185082910
C   10.5142330233 -1.7226636780  6.5001201470
C   9.5861814625 -1.3367451251  7.4722295810
C   8.2296910122 -1.8970924122  7.4933505653
C   10.0502116508 -0.3412760245  8.4944481755
C   15.0264106783 -5.0124292055 -0.3760631025
C   15.4911028232 -3.6647786583 -0.2492176822
C   16.4289820284 -3.0994652703 -1.0691551443
C   16.9453678999 -3.9158154300 -2.0981776101
C   16.5100813205 -5.2618183272 -2.2694329016
C   15.5587040999 -5.8054490112 -1.4126214260
C   14.0693529913 -5.2305673458  0.6408173675
C   13.9330005261 -4.0624099102  1.3776652793
H   13.7620345986 -1.6797218722  2.5345346571
H   12.3276296782 -5.7538946672  2.7190358212
H   10.9945066764 -6.2506860277  4.5086764427
H   12.6194082646 -0.1527475638  3.8357978337
H   9.3723939630 -3.1848706942  5.4538832646
H   11.4897103191 -1.2412668835  6.5435492157
H   7.6610112697 -1.7045009730  6.5837476115
H   7.6645207764 -1.5747747792  8.3657962938
H   10.4756548647  0.5434544467  8.0042012409
H   10.8695733348 -0.7566186790  9.0987136166
H   9.2500421607 -0.0186155256  9.1684726412
H   16.7864156425 -2.0769033128 -0.9678145823
H   16.9202890094 -5.8711559404 -3.0729144809
H   15.2196851890 -6.8318541168 -1.5339305400
H   13.5388021523 -6.1592969929  0.7893392010
H   18.1831035037 -3.9996993229 -3.6137489031
C   9.9492829124 -4.4138671769  10.8579166654
O   12.1807790820 -5.2788499095  11.3131715426
C   11.1781145353 -4.9296150492  10.4203648391
O   7.7741305980 -3.5193322555  10.2663842904
C   11.4382212626 -5.1087933965  9.0464915474
O   5.8794177160 -3.3120708470  6.0660345016
C   10.4761258843 -4.7551737857  8.1096241440
O   4.2331815797 -4.4084912906  4.4212368322
C   9.2399077904 -4.2146587050  8.5111536882
O   6.0715160110 -6.0737093353  0.2819429860
C   9.0039600593 -4.0499252505  9.8971397781
C   8.1661640971 -3.6926648570  7.6018019419
C   8.0164678197 -4.2644915077  6.2598374659
C   6.8187314749 -4.0041353445  5.5377693630
C   6.6411556614 -4.5572749263  4.1640333108
C   7.7165696285 -4.8586895672  3.3064892071
C   5.3106869556 -4.7526090962  3.6629399089
C   7.5097349928 -5.3496556334  2.0275146918
C   5.0990392322 -5.3062955879  2.3950316374
C   6.2021745077 -5.5775545021  1.5615914460
C   3.6730135183 -5.6509883356  1.9465697188
C   3.3197342721 -7.1350504424  1.7897942477
C   3.3175247857 -8.0602442544  2.7761064800
C   2.9535286903 -9.4911066926  2.4788971245
C   3.7758302173 -7.7557572727  4.1855589566
H   9.7436822067 -4.2900535486  11.9215462011
H   12.4069582000 -5.5073690747  8.7691924444
H   10.7004171118 -4.9028024619  7.0584292361
H   11.9040863472 -5.1061630044  12.2358170440
H   7.6804570820 -3.4931186699  11.2368533705
H   7.2144228608 -3.7552708241  8.1415229628
H   8.6963892679 -5.0187918867  5.9096119403
H   8.7308818506 -4.6559683041  3.6231236384
H   8.3221926976 -5.5746187021  1.3471809507
H   4.6040895293 -3.8875029603  5.2018647523
H   5.1361512261 -6.1375095280  0.0129828495
H   3.0142005193 -5.1877266295  2.6902137023
H   3.4626048891 -5.1765570774  0.9775269249
H   2.9972642924 -7.4406376492  0.7935456209
H   2.2647677898 -9.8760063138  3.2388550359
H   3.8439879921 -10.1317207809  2.5221783965
H   2.4919021774 -9.5987766251  1.4932360879
H   4.8702496185 -7.6766962705  4.2334166991
H   3.4770328675 -8.5549127852  4.8701445833
H   3.3649576909 -6.8092914012  4.5530319144
84
Scanning combination 44/256: [2.9000, 1.7000]  Energy = -386.2533270117
O   10.6891414673 -5.3492130810  4.7593417922
O   12.1607197288 -0.7422167218  4.4366814405
O   17.8991936743 -3.3532333780 -2.9423221535
O   14.8269780116 -3.0505720794  0.8258352041
C   13.1131922828 -3.7366502974  2.4678919909
C   13.0968362759 -2.4059255150  2.9597183468
C   12.2942744399 -4.7252126631  3.0621055534
C   12.2164817995 -2.0563600358  3.9762232905
C   11.4462803862 -4.3697389515  4.0990352254
C   11.3312827825 -3.0201986791  4.5555649372
C   10.3479330510 -2.6844480489  5.5231638016
C   10.5260541651 -1.7252544780  6.5021290094
C   9.6002954026 -1.3598151378  7.4785668066
C   8.2428093314 -1.9532481439  7.5096828566
C   10.0256541607 -0.3437877338  8.4936433195
C   15.0341277329 -5.0120373736 -0.3820432620
C   15.4971336909 -3.6636478966 -0.2568687253
C   16.4337804794 -3.0972518954 -1.0771519883
C   16.9514885569 -3.9142850341 -2.1045972859
C   16.5183296420 -5.2612830413 -2.2740709522
C   15.5675480068 -5.8055932719 -1.4170717910
C   14.0779410477 -5.2301819067  0.6353912081
C   13.9416467064 -4.0608308437  1.3704264950
H   13.7761925636 -1.6783809067  2.5224486041
H   12.3355061744 -5.7500576907  2.7101119923
H   10.9951371455 -6.2436065944  4.4984147346
H   12.6356092484 -0.1478960769  3.8221014751
H   9.4062335980 -3.2199972389  5.4717089214
H   11.4924827254 -1.2218471998  6.5283814640
H   7.6628976192 -1.7198456073  6.6152027535
H   7.7026673312 -1.6155113946  8.3945243629
H   10.4197596335  0.5535216927  7.9995929336
H   10.8506984086 -0.7208039307  9.1172368754
H   9.2028060173 -0.0483267155  9.1531374553
H   16.7881441825 -2.0737290074 -0.9758275930
H   16.9298226422 -5.8710778067 -3.0763955988
H   15.2295885847 -6.8325723586 -1.5366602943
H   13.5480013997 -6.1589908301  0.7855500938
H   18.1904927944 -3.9983545527 -3.6187763977
C   9.9464875814 -4.4078080305  10.8613209093
O   12.1709078064 -5.2978786285  11.3047017095
C   11.1675410588 -4.9377679395  10.4170935551
O   7.7792721425 -3.4853608161  10.2770584522
C   11.4214270848 -5.1199286151  9.0424783000
O   5.8779066734 -3.2955125175  6.0613034820
C   10.4598151092 -4.7515119072  8.1105806832
O   4.2276774094 -4.4127267377  4.4272199215
C   9.2310052510 -4.2057581067  8.5180554700
O   6.0704338571 -6.0711157059  0.2855561130
C   9.0008139208 -4.0347100151  9.9030869268
C   8.1668896483 -3.6489687641  7.6027008368
C   8.0174949327 -4.2471070660  6.2562388971
C   6.8168775369 -3.9923650296  5.5388315754
C   6.6356253678 -4.5564548642  4.1686229501
C   7.7113434595 -4.8645003012  3.3150509418
C   5.3058682547 -4.7544914585  3.6680497636
C   7.5059486356 -5.3530330329  2.0350226883
C   5.0951199151 -5.3076406962  2.3993249688
C   6.1990134967 -5.5777011603  1.5665031720
C   3.6700561850 -5.6528211732  1.9480833674
C   3.3171456627 -7.1369379648  1.7898344495
C   3.3127349886 -8.0618335051  2.7763713756
C   2.9476124356 -9.4925418734  2.4801293715
C   3.7694877428 -7.7569104294  4.1861547325
H   9.7417928137 -4.2902787086  11.9269516248
H   12.3807550998 -5.5374448520  8.7593318875
H   10.6828064680 -4.8870850915  7.0579581370
H   11.9042681421 -5.1119237960  12.2276306487
H   7.6873701328 -3.4639376015  11.2480830510
H   7.2123425397 -3.7501822234  8.1361326522
H   8.6756863948 -5.0310030346  5.9301365645
H   8.7256267594 -4.6694230354  3.6358141329
H   8.3192458248 -5.5774311618  1.3560280653
H   4.5973700517 -3.8863520501  5.2040813781
H   5.1357263550 -6.1327343524  0.0138033103
H   3.0098248136 -5.1905641900  2.6910055598
H   3.4605852348 -5.1783415720  0.9788164574
H   2.9966234074 -7.4429321836  0.7930481700
H   2.2541019686 -9.8744211850  3.2373360747
H   3.8366720736 -10.1345871010  2.5298712216
H   2.4910085504 -9.6016496949  1.4923122154
H   4.8639084030 -7.6787036785  4.2349641480
H   3.4691434956 -8.5552261251  4.8708960236
H   3.3591711574 -6.8097541073  4.5523963973
84
Scanning combination 45/256: [2.9000, 1.6000]  Energy = -386.2529793974
O   10.6906356359 -5.3502311970  4.7588994591
O   12.1601739140 -0.7420822916  4.4371809281
O   17.9003516664 -3.3531270738 -2.9440051790
O   14.8282859358 -3.0504106196  0.8249796598
C   13.1130045918 -3.7360148411  2.4668027058
C   13.0969259796 -2.4059422979  2.9602231530
C   12.2955425761 -4.7247951469  3.0623115213
C   12.2174814877 -2.0563437920  3.9772619871
C   11.4482770088 -4.3700544249  4.0998023437
C   11.3325923830 -3.0201175599  4.5552997939
C   10.3491821402 -2.6825331818  5.5193570008
C   10.5216230823 -1.7280771002  6.5046276438
C   9.5993173470 -1.3735414139  7.4824171501
C   8.2445110305 -2.0014701058  7.5163008300
C   10.0175100292 -0.3456780252  8.4892756381
C   15.0356010095 -5.0118218631 -0.3831887082
C   15.4979150030 -3.6632522802 -0.2583866296
C   16.4350765595 -3.0968191928 -1.0788082561
C   16.9530491997 -3.9143248047 -2.1058502225
C   16.5199867703 -5.2614274015 -2.2752819946
C   15.5688872295 -5.8056041209 -1.4183611823
C   14.0800324616 -5.2300699568  0.6350640792
C   13.9421532985 -4.0602773062  1.3693510944
H   13.7757214952 -1.6787342489  2.5226898130
H   12.3362839341 -5.7490239148  2.7092030309
H   10.9966248620 -6.2441907997  4.4959745944
H   12.6363913115 -0.1492732871  3.8221316734
H   9.4071125905 -3.2209608754  5.4763488393
H   11.4845154262 -1.2198117288  6.5293627567
H   7.6657451200 -1.7267897804  6.6308984294
H   7.7047360260 -1.6215741509  8.3859496707
H   10.4147365816  0.5542546385  7.9994751954
H   10.8466077042 -0.7169488878  9.1114221530
H   9.2005202516 -0.0473005849  9.1548785887
H   16.7892390609 -2.0732424801 -0.9778587065
H   16.9315572915 -5.8712997442 -3.0776067927
H   15.2314258780 -6.8329234603 -1.5375664374
H   13.5496413330 -6.1586913980  0.7845467480
H   18.1919912324 -3.9984069373 -3.6202350939
C   9.9444556843 -4.4109604252  10.8601948197
O   12.1698358213 -5.3011616714  11.3050130690
C   11.1664410461 -4.9391278638  10.4173491619
O   7.7784441971 -3.4829976685  10.2783603808
C   11.4179412816 -5.1235933830  9.0431725330
O   5.8726038698 -3.2943033372  6.0577583640
C   10.4551681568 -4.7524622555  8.1105490573
O   4.2285525460 -4.4120097570  4.4286993748
C   9.2323659582 -4.1919355265  8.5152749218
O   6.0694936157 -6.0707919195  0.2862003619
C   8.9987103908 -4.0337727463  9.9005936508
C   8.1781561833 -3.5980713671  7.5960052947
C   8.0140111246 -4.2349877413  6.2590226621
C   6.8163912847 -3.9912115002  5.5409325199
C   6.6365985093 -4.5585459743  4.1694813152
C   7.7122410423 -4.8650942096  3.3150964362
C   5.3060950554 -4.7543290702  3.6692435945
C   7.5061231315 -5.3539251906  2.0350231190
C   5.0947238080 -5.3075798283  2.4002021134
C   6.1985680193 -5.5780746113  1.5673413898
C   3.6696629072 -5.6528274134  1.9488325677
C   3.3168524532 -7.1370094924  1.7901159306
C   3.3121385787 -8.0620759488  2.7765596262
C   2.9468016565 -9.4927101842  2.4802709796
C   3.7686251733 -7.7572271538  4.1864483094
H   9.7428518981 -4.2896305756  11.9258351810
H   12.3776284413 -5.5400522431  8.7599209053
H   10.6825922527 -4.8902670902  7.0592953971
H   11.9039707540 -5.1130317664  12.2277807303
H   7.6890962324 -3.4608927140  11.2495103017
H   7.2287523341 -3.7493198015  8.1233701194
H   8.6710342280 -5.0238044903  5.9428295784
H   8.7264488347 -4.6702745973  3.6368461123
H   8.3195750497 -5.5787750968  1.3561930509
H   4.5993418275 -3.8847765105  5.2061125751
H   5.1349240520 -6.1321542590  0.0138715451
H   3.0095810900 -5.1904140190  2.6918151576
H   3.4605202120 -5.1782516203  0.9795237351
H   2.9967696148 -7.4427721757  0.7930949996
H   2.2526403228 -9.8742217221  3.2370727607
H   3.8355875483 -10.1350542110  2.5308539403
H   2.4909349087 -9.6018775276  1.4921301916
H   4.8630293925 -7.6790972958  4.2355395808
H   3.4680423461 -8.5554555113  4.8712135892
H   3.3584094080 -6.8099821630  4.5525609175
84
Scanning combination 46/256: [2.9000, 1.5000]  Energy = -386.2462157007
O   10.6950883695 -5.3499382593  4.7592466202
O   12.1619568826 -0.7424973758  4.4363130628
O   17.9026569095 -3.3530829434 -2.9469186141
O   14.8299838676 -3.0492607817  0.8221086473
C   13.1166841020 -3.7357922317  2.4651879330
C   13.1003616305 -2.4050146275  2.9576786760
C   12.2983560192 -4.7247741455  3.0600261201
C   12.2212840344 -2.0557935285  3.9744020648
C   11.4516205471 -4.3702078688  4.0977863318
C   11.3384625986 -3.0197266881  4.5526500948
C   10.3585833711 -2.6812886740  5.5167269774
C   10.5251101205 -1.7265341745  6.5040363178
C   9.6026916693 -1.3904221591  7.4855823510
C   8.2533704488 -2.0484112515  7.5284678102
C   10.0052058726 -0.3522173874  8.4871404652
C   15.0382851228 -5.0112650091 -0.3849430639
C   15.5006918373 -3.6624342004 -0.2607055240
C   16.4367861673 -3.0966951925 -1.0815695381
C   16.9552607643 -3.9139801165 -2.1086037218
C   16.5227934567 -5.2613219446 -2.2771811146
C   15.5722093179 -5.8052136189 -1.4197233992
C   14.0822105851 -5.2292658701  0.6328254274
C   13.9449262870 -4.0596720489  1.3673269470
H   13.7784122067 -1.6763608932  2.5207266028
H   12.3385353391 -5.7492826199  2.7067396417
H   10.9983176454 -6.2437208637  4.4922706180
H   12.6383468439 -0.1475413421  3.8236720464
H   9.4182014794 -3.2268650296  5.4725106623
H   11.4833055079 -1.2063433888  6.5278595044
H   7.6751871792 -1.7492698695  6.6496345988
H   7.7209689271 -1.6570917336  8.3998763666
H   10.3895684377  0.5457227871  7.9844764758
H   10.8400811360 -0.7106392919  9.1102025578
H   9.1827875704 -0.0575501598  9.1486861272
H   16.7910778685 -2.0727859759 -0.9818177817
H   16.9347234947 -5.8713677590 -3.0792503352
H   15.2350669472 -6.8325229935 -1.5391046320
H   13.5530415221 -6.1583640843  0.7832698700
H   18.1947136959 -3.9984277076 -3.6227191542
C   9.9385935757 -4.4102177869  10.8576463781
O   12.1616489820 -5.3059433228  11.3017181721
C   11.1570424629 -4.9458341050  10.4154809676
O   7.7736897346 -3.4779876061  10.2775012270
C   11.4105082681 -5.1286045431  9.0422071080
O   5.8603358356 -3.2860181517  6.0583059903
C   10.4546570868 -4.7431338864  8.1080005698
O   4.2276891191 -4.4139584344  4.4288107342
C   9.2378798521 -4.1706056952  8.5127123955
O   6.0687302568 -6.0702672445  0.2876923714
C   8.9989915522 -4.0182238621  9.8966916501
C   8.1913672728 -3.5457142883  7.5927901824
C   8.0119361659 -4.2131919526  6.2628927509
C   6.8113216643 -3.9800387284  5.5480660375
C   6.6356486852 -4.5585839523  4.1754324698
C   7.7113422306 -4.8670466427  3.3202621676
C   5.3066188909 -4.7565118480  3.6725077193
C   7.5055978932 -5.3551473832  2.0389996508
C   5.0955684513 -5.3084432663  2.4024427034
C   6.1986683496 -5.5781969031  1.5692449528
C   3.6702304323 -5.6527049702  1.9507792439
C   3.3165534213 -7.1367332210  1.7911715780
C   3.3109013060 -8.0622112758  2.7770813169
C   2.9451713469 -9.4927964669  2.4805583476
C   3.7668361495 -7.7576997019  4.1872379254
H   9.7380670504 -4.2905047882  11.9228576928
H   12.3674030455 -5.5488259603  8.7580294660
H   10.6769462873 -4.8938809354  7.0564614610
H   11.9013244389 -5.1150593189  12.2249820013
H   7.6899801260 -3.4568960792  11.2489720379
H   7.2452353884 -3.7399575227  8.1136605660
H   8.6582704798 -5.0209686714  5.9727864561
H   8.7272406015 -4.6728850705  3.6380305899
H   8.3180210485 -5.5805393923  1.3587396524
H   4.5980510565 -3.8845319546  5.2053247017
H   5.1338766351 -6.1303742740  0.0155974953
H   3.0096404945 -5.1905586280  2.6935124355
H   3.4606129815 -5.1779219529  0.9816420634
H   2.9971999340 -7.4421086293  0.7937732917
H   2.2495453078 -9.8736434864  3.2363735141
H   3.8333723007 -10.1358311009  2.5328935642
H   2.4907435379 -9.6022123577  1.4917699639
H   4.8612588083 -7.6799494412  4.2366764010
H   3.4656480003 -8.5558984610  4.8717134952
H   3.3568163275 -6.8102464946  4.5530734676
84
Scanning combination 47/256: [2.8000, 2.9000]  Energy = -386.2458330389
O   10.7718725211 -5.2813676946  4.8496535189
O   11.9571931031 -0.6226523072  4.3361350509
O   18.0125168291 -3.6872762241 -2.7950325377
O   14.6004445557 -2.9798428348  0.6255935664
C   12.8730821877 -3.5892383553  2.3066269664
C   12.8243701508 -2.2512553892  2.7732028144
C   12.1452599959 -4.5962411739  2.9823030880
C   12.0134708167 -1.9306069208  3.8610493527
C   11.3718325420 -4.2640752795  4.0848014892
C   11.1976652864 -2.9143240285  4.5058612236
C   10.2157529690 -2.5652980535  5.5007229926
C   10.4785750651 -1.6508383431  6.4891107949
C   9.5440730591 -1.0829403577  7.4245933789
C   8.1989742154 -1.1464009727  7.2378205158
C   10.1562537658 -0.2747524776  8.5695356784
C   14.7967538846 -5.0090481811 -0.4720558624
C   15.3086759801 -3.6756745976 -0.3890464393
C   16.3405763052 -3.2095357206 -1.1574860554
C   16.9361828387 -4.1313011517 -2.0470364760
C   16.4519326413 -5.4653055653 -2.1736211899
C   15.3824965693 -5.8967631463 -1.3974953574
C   13.7760726277 -5.1354163481  0.4940645428
C   13.6702726108 -3.9388250951  1.1894925757
H   13.4166982108 -1.4928238056  2.2661376290
H   12.2124521873 -5.6237775045  2.6464475179
H   11.2163795875 -6.1369022663  4.6666944895
H   12.4273426174 -0.0192751025  3.7285223564
H   9.2420436791 -3.0116485478  5.3828516192
H   11.5048177168 -1.2961504368  6.5698347299
H   7.7832084897 -1.5822177186  6.3372154649
H   7.4954257930 -0.7584150195  7.9680251685
H   10.5062701383  0.6958572004  8.1965986341
H   11.0354035360 -0.7807482311  8.9835912276
H   9.4376996895 -0.0935522994  9.3744418845
H   16.7237502294 -2.1922551075 -1.1116217668
H   16.9180189702 -6.1536629728 -2.8768334528
H   14.9971174097 -6.9099585232 -1.4903185864
H   13.1746816564 -6.0221764985  0.6264573684
H   18.3874642253 -4.4162852704 -3.3309462137
C   9.7991976107 -4.8127349200  10.9361268557
O   12.1018373786 -5.4410849338  11.4236299995
C   11.1163670611 -5.0723314670  10.5223590838
O   7.5382238543 -4.2193118295  10.3171269676
C   11.4872452523 -4.9582875402  9.1639176485
O   5.9767753118 -3.2489981486  6.0909050424
C   10.5461721038 -4.6109789568  8.2134988111
O   4.3384186984 -4.3198720980  4.4062750399
C   9.1968822235 -4.3307906715  8.5823314972
O   6.2364815603 -6.2064017580  0.3916200493
C   8.8607095471 -4.4509633797  9.9766796175
C   8.1402346029 -4.0096304764  7.6941861010
C   8.1201854918 -4.2273423668  6.3292405563
C   6.9116032136 -3.9398055731  5.5700712734
C   6.7513057765 -4.5094098961  4.2079661865
C   7.8392435245 -4.8749056104  3.3899070343
C   5.4270737354 -4.7040002254  3.6836607850
C   7.6484955191 -5.4338492075  2.1379945016
C   5.2317331951 -5.2986706221  2.4328976845
C   6.3477506763 -5.6451599055  1.6466205344
C   3.8053675565 -5.6022570179  1.9532214181
C   3.3783994303 -7.0726024635  1.8285460703
C   3.4636008700 -8.0273964532  2.7836962193
C   3.1158229933 -9.4546163982  2.4484587494
C   4.0139775180 -7.7565730234  4.1654934243
H   9.5179438028 -4.9062518302  11.9875594274
H   12.5234539302 -5.1616121246  8.9146034398
H   10.8391967323 -4.5602381856  7.1713850938
H   11.7356259106 -5.5258642602  12.3271550161
H   7.3826603815 -4.3807225996  11.2693104532
H   7.2574752342 -3.6075189155  8.1722262582
H   8.8661359877 -4.8699028470  5.8830545289
H   8.8496189755 -4.6737047793  3.7149250458
H   8.4711401419 -5.7266989967  1.4976117492
H   4.6956963840 -3.7965921287  5.1887799571
H   5.3093629129 -6.2376381337  0.0914818219
H   3.1424482175 -5.0806276752  2.6536859730
H   3.6437254238 -5.1550992101  0.9613992540
H   2.8933705502 -7.3315711478  0.8856444875
H   2.6193641020 -9.9439760802  3.2933034801
H   4.0249701757 -10.0358125868  2.2408335459
H   2.4646353683 -9.5161667606  1.5709079697
H   5.1114539253 -7.7051630036  4.1439260847
H   3.7414497991 -8.5552235566  4.8620890226
H   3.6477917189 -6.8044636324  4.5657950163
84
Scanning combination 48/256: [2.8000, 2.8000]  Energy = -386.2485009428
O   10.5961707568 -5.4870539477  4.7194411325
O   12.0777077057 -0.8694593874  4.5352158639
O   17.7849718135 -3.2093149572 -2.9191730271
O   14.8750379968 -3.1012386304  0.9887059895
C   13.1350939519 -3.8338638819  2.5859220939
C   13.0940326878 -2.5129069036  3.0968803478
C   12.2935710126 -4.8292582583  3.1322428924
C   12.1600602352 -2.1802276232  4.0689812992
C   11.3821364847 -4.4883215800  4.1237413004
C   11.2398348254 -3.1472623418  4.5886693044
C   10.1976103671 -2.7657194827  5.5018210670
C   10.4423032685 -1.8443515107  6.4945458418
C   9.4788429797 -1.2098257439  7.3508288194
C   8.1413423047 -1.3334735853  7.1329158757
C   10.0507862669 -0.3625044214  8.4855298018
C   15.0698229003 -5.0153685156 -0.2942389845
C   15.5280472959 -3.6693597461 -0.1294564172
C   16.4302616708 -3.0622226465 -0.9589168263
C   16.8925784234 -3.8205195157 -2.0557138972
C   16.4600973794 -5.1619359373 -2.2667128637
C   15.5622276278 -5.7565452110 -1.3865300683
C   14.1399128851 -5.2792002919  0.7369061697
C   13.9944019733 -4.1320392884  1.5037425481
H   13.7943539440 -1.7783891227  2.7090729541
H   12.3655226197 -5.8507627676  2.7769469230
H   10.9190204759 -6.3738221689  4.4477242372
H   12.5612270893 -0.2651311195  3.9399880616
H   9.2115676595 -3.1513086075  5.3051855004
H   11.4802766856 -1.5655201660  6.6566572413
H   7.7692335251 -1.7349960025  6.1976626026
H   7.4025766698 -0.9717026710  7.8404326050
H   10.5970706885  0.5009129574  8.0867504017
H   10.7820568308 -0.9357589900  9.0680000808
H   9.2681055339 -0.0012179910  9.1584752124
H   16.7928793766 -2.0455697134 -0.8204941745
H   16.8293780425 -5.7276148269 -3.1201528561
H   15.2297864878 -6.7819235190 -1.5330012313
H   13.6308133723 -6.2217754820  0.8729688691
H   18.0177791890 -3.8076218324 -3.6583909521
C   10.0741344887 -4.3142968009  10.8076696488
O   12.2875339447 -5.2345546346  11.2420409309
C   11.2733878921 -4.8955547951  10.3615629115
O   7.8903749877 -3.4329439924  10.2466596173
C   11.4891080874 -5.1601863273  8.9911747115
O   5.8713554070 -3.4174289022  6.1545301231
C   10.4955816240 -4.8921248359  8.0705682983
O   4.2189516358 -4.4219656445  4.4430121574
C   9.2447060719 -4.3347103809  8.4775981250
O   6.0816617267 -6.0020837056  0.2813108265
C   9.0874873258 -4.0226227827  9.8727241417
C   8.1305345611 -4.0878398959  7.6360652477
C   8.0388723547 -4.3669572229  6.2867564764
C   6.8090063813 -4.0569717333  5.5767675906
C   6.6307464427 -4.5396274376  4.1847969463
C   7.7089429535 -4.7899190946  3.3141636247
C   5.3007703104 -4.7433934738  3.6802160272
C   7.5069568613 -5.2487902123  2.0245532918
C   5.0974746173 -5.2810473312  2.4050479280
C   6.2043847999 -5.5149998168  1.5647818852
C   3.6784798413 -5.6451298433  1.9494492986
C   3.3420818213 -7.1338545921  1.7922667699
C   3.3209404044 -8.0539606250  2.7833528441
C   2.9404471929 -9.4825697500  2.4948675363
C   3.7678005330 -7.7442414206  4.1955419959
H   9.9201235513 -4.0973422941  11.8661108046
H   12.4518930968 -5.5740223924  8.7077448843
H   10.6762228218 -5.1158331563  7.0244456095
H   12.0249118800 -5.0428435432  12.1641038458
H   7.8727592517 -3.2448459092  11.2056805918
H   7.2615762628 -3.6936359314  8.1416307731
H   8.7448985521 -5.0273817304  5.8021482383
H   8.7199775666 -4.5793688070  3.6339722287
H   8.3196003839 -5.4247854932  1.3307208184
H   4.5832980231 -3.9451459105  5.2512232103
H   5.1490582472 -6.1560163895  0.0410191738
H   3.0091849343 -5.1877904287  2.6875100062
H   3.4710038601 -5.1765207280  0.9768735058
H   3.0383778189 -7.4472533456  0.7921853001
H   2.2239191572 -9.8433685286  3.2414043667
H   3.8175903913 -10.1380832503  2.5739140247
H   2.5042357143 -9.5968457082  1.4983178549
H   4.8606709080 -7.6513455411  4.2508136057
H   3.4729909344 -8.5477144983  4.8772472998
H   3.3411821808 -6.8037161247  4.5602805867
84
Scanning combination 49/256: [2.8000, 2.7000]  Energy = -386.2457145449
O   10.6019831708 -5.4622578618  4.7227721417
O   12.1450673318 -0.8688301049  4.5564514464
O   17.8197860971 -3.2101247720 -2.9222331054
O   14.8542118975 -3.0939511314  0.9440822272
C   13.1301996639 -3.8317373401  2.5586286643
C   13.1144940407 -2.5167304419  3.0889543235
C   12.2799105979 -4.8179074762  3.1097404081
C   12.1947653746 -2.1760052247  4.0753424435
C   11.3879571990 -4.4692697306  4.1180226574
C   11.2600876397 -3.1293330153  4.5948224176
C   10.2210367941 -2.7546958561  5.5185200467
C   10.4427125192 -1.8207852242  6.5059054254
C   9.4704646958 -1.2274036101  7.3806165889
C   8.1310774131 -1.4255283278  7.2127218004
C   10.0143578808 -0.3434667355  8.4984404205
C   15.0734540774 -5.0145065815 -0.3256866560
C   15.5168059058 -3.6632631823 -0.1677847648
C   16.4223390627 -3.0535822303 -0.9941219234
C   16.9174853596 -3.8218913426 -2.0695447530
C   16.5065099704 -5.1713169662 -2.2699282440
C   15.5949117662 -5.7635753654 -1.4012482569
C   14.1366730730 -5.2771235538  0.7017053847
C   13.9819104853 -4.1291004436  1.4668000838
H   13.8260327768 -1.7908381008  2.7043002269
H   12.3259502667 -5.8397576131  2.7489586956
H   10.9285165823 -6.3520655450  4.4665946696
H   12.6512312813 -0.2731185680  3.9704330585
H   9.2427946765 -3.1675525820  5.3373298008
H   11.4688655709 -1.4913812084  6.6488647422
H   7.7331708987 -1.7505896988  6.2590658675
H   7.4173449917 -1.1719122307  7.9896151027
H   10.5491267035  0.5178036571  8.0817150961
H   10.7442024294 -0.8845644897  9.1115074622
H   9.2148320082  0.0215347393  9.1489568065
H   16.7656741199 -2.0292973407 -0.8681450793
H   16.9040773693 -5.7450897246 -3.1055905703
H   15.2776713769 -6.7940109246 -1.5458870932
H   13.6330533129 -6.2224030256  0.8399662018
H   18.0811719613 -3.8163674689 -3.6455699314
C   10.0745562047 -4.2898374967  10.8056437586
O   12.2925133345 -5.2021598302  11.2391076030
C   11.2650313817 -4.8907838438  10.3633913117
O   7.9075950345 -3.3708667312  10.2359648676
C   11.4644137116 -5.1920098927  8.9976446792
O   5.8945765291 -3.3699482947  6.1224098752
C   10.4732352140 -4.9181323935  8.0763662537
O   4.2304132870 -4.4264446172  4.4555091575
C   9.2332663240 -4.3352614954  8.4783959396
O   6.0556248553 -6.0255659512  0.2849565912
C   9.0893702227 -3.9954408852  9.8685174211
C   8.1186623627 -4.0924633790  7.6335780232
C   8.0463543799 -4.3481982674  6.2746563880
C   6.8241573142 -4.0309250472  5.5563634572
C   6.6392127957 -4.5346660845  4.1721202043
C   7.7109757420 -4.7983544762  3.2968705524
C   5.3049011806 -4.7462612903  3.6818320099
C   7.4977747668 -5.2817110944  2.0178960085
C   5.0894923783 -5.2882537915  2.4107019353
C   6.1897970909 -5.5340347068  1.5655394594
C   3.6652913839 -5.6468703009  1.9666433479
C   3.3301172908 -7.1336527537  1.7965401921
C   3.3071084753 -8.0580134540  2.7831376640
C   2.9236955147 -9.4845490976  2.4902773819
C   3.7550629759 -7.7530357114  4.1959684679
H   9.9248166947 -4.0675274646  11.8640612661
H   12.4110577162 -5.6452652917  8.7210230090
H   10.6416018878 -5.1613391434  7.0323902407
H   12.0488888358 -4.9783421727  12.1597858027
H   7.8871268304 -3.1965889972  11.1976040200
H   7.2295151754 -3.7511113474  8.1437014838
H   8.7512993737 -5.0171328450  5.8016999981
H   8.7245869865 -4.5755470993  3.6016059525
H   8.3056465273 -5.4832365811  1.3253691920
H   4.5993882084 -3.9237604354  5.2459060975
H   5.1195551747 -6.0948446264  0.0200997620
H   3.0046307878 -5.1993756232  2.7181759331
H   3.4457937919 -5.1655094883  1.0032538162
H   3.0443066971 -7.4430072379  0.7902201429
H   2.1946803055 -9.8410207893  3.2264557230
H   3.7959512945 -10.1443045875  2.5828391144
H   2.5012240308 -9.5979233730  1.4879819754
H   4.8482169054 -7.6651907135  4.2517737510
H   3.4553283611 -8.5549623230  4.8766534767
H   3.3349650817 -6.8103740274  4.5622736243
84
Scanning combination 50/256: [2.8000, 2.6000]  Energy = -386.2417908903
O   10.6041062106 -5.4617945061  4.7244255690
O   12.1462298659 -0.8683192456  4.5602485552
O   17.8197033229 -3.2110340036 -2.9193925950
O   14.8500610835 -3.0900861204  0.9434363182
C   13.1288558762 -3.8285623150  2.5584421877
C   13.1150293489 -2.5134940494  3.0886586294
C   12.2791489869 -4.8162194899  3.1079690679
C   12.1969953808 -2.1742542279  4.0760708954
C   11.3895312826 -4.4693841759  4.1178887166
C   11.2645096055 -3.1295645752  4.5948762865
C   10.2289053795 -2.7565614096  5.5194615358
C   10.4510481657 -1.8217745620  6.5066995035
C   9.4777753461 -1.2397920647  7.3842748113
C   8.1382053754 -1.4823879593  7.2366987351
C   10.0149632015 -0.3463854141  8.4941674649
C   15.0721472049 -5.0124988374 -0.3229012935
C   15.5146201245 -3.6602516283 -0.1667343700
C   16.4194586228 -3.0518489797 -0.9928651733
C   16.9164039967 -3.8212162270 -2.0664911540
C   16.5062689414 -5.1713701709 -2.2653987640
C   15.5943206691 -5.7624416291 -1.3967667925
C   14.1340248494 -5.2744901097  0.7031079000
C   13.9781969815 -4.1253016586  1.4659580460
H   13.8252897806 -1.7871859636  2.7022219996
H   12.3225742516 -5.8362052074  2.7419205769
H   10.9278268653 -6.3519084997  4.4657555184
H   12.6512429002 -0.2702576038  3.9758815645
H   9.2498758547 -3.1676798106  5.3374158998
H   11.4759507940 -1.4884400579  6.6487342597
H   7.7365182393 -1.8041880788  6.2841748845
H   7.4251786198 -1.2141555934  8.0092428865
H   10.5478226124  0.5137057232  8.0737359633
H   10.7479386743 -0.8845537539  9.1067776454
H   9.2134315193  0.0195377386  9.1421497838
H   16.7622609401 -2.0266000425 -0.8673662963
H   16.9049748013 -5.7459948031 -3.0998852657
H   15.2766975169 -6.7930694715 -1.5396782280
H   13.6311281420 -6.2199456903  0.8420862574
H   18.0832458851 -3.8186587616 -3.6403802266
C   10.0737946532 -4.2838530136  10.8011239918
O   12.2874542717 -5.2034063216  11.2395691028
C   11.2628906970 -4.8894061559  10.3616582361
O   7.9058945851 -3.3681793559  10.2298936906
C   11.4623980856 -5.1939495606  8.9968159393
O   5.8885050985 -3.3731427067  6.1186815036
C   10.4725708755 -4.9177616143  8.0736285384
O   4.2273140902 -4.4269702876  4.4516264528
C   9.2363886819 -4.3254509802  8.4734255615
O   6.0543619780 -6.0245850558  0.2814723288
C   9.0913027380 -3.9850490065  9.8616700404
C   8.1280628675 -4.0532893244  7.6242380909
C   8.0446140358 -4.3394657965  6.2701417152
C   6.8209237358 -4.0321586994  5.5536849527
C   6.6369306162 -4.5379470503  4.1702590603
C   7.7091162014 -4.8017751383  3.2955371400
C   5.3027691958 -4.7472423601  3.6793573003
C   7.4969057258 -5.2828584859  2.0152674992
C   5.0884652229 -5.2882788417  2.4077743165
C   6.1887168920 -5.5334781369  1.5622023672
C   3.6639159846 -5.6467180144  1.9653336153
C   3.3289026720 -7.1334379548  1.7969167201
C   3.3061212451 -8.0571457056  2.7841605991
C   2.9222645719 -9.4834240462  2.4906641329
C   3.7544935973 -7.7527360122  4.1970790805
H   9.9238648221 -4.0588795825  11.8587545341
H   12.4092835051 -5.6469819908  8.7204626285
H   10.6407913356 -5.1701614344  7.0317193220
H   12.0454345095 -4.9715594739  12.1584576890
H   7.8877880184 -3.1855542839  11.1897735043
H   7.2462553797 -3.6927295938  8.1348182340
H   8.7467964092 -5.0182828782  5.8072403609
H   8.7225937817 -4.5796146478  3.6012812676
H   8.3051963645 -5.4848353899  1.3230410767
H   4.5957034434 -3.9254639321  5.2432059040
H   5.1179515879 -6.0965862726  0.0182365970
H   3.0051236747 -5.1996907821  2.7187950925
H   3.4422705793 -5.1648408863  1.0026718640
H   3.0424879577 -7.4438975394  0.7911712207
H   2.1920925027 -9.8401297132  3.2255482027
H   3.7942158908 -10.1434247123  2.5839490070
H   2.5011419660 -9.5958515010  1.4876786678
H   4.8477061791 -7.6650510437  4.2525767903
H   3.4551884271 -8.5553734321  4.8772503193
H   3.3342668340 -6.8105405691  4.5645659627
84
Scanning combination 51/256: [2.8000, 2.5000]  Energy = -386.2381600138
O   10.6142825329 -5.4547958932  4.7240905081
O   12.1624609594 -0.8579386492  4.5606273232
O   17.8292769753 -3.2142291201 -2.9161840261
O   14.8435502863 -3.0783193379  0.9321175866
C   13.1268642370 -3.8161607002  2.5508952104
C   13.1174860910 -2.5030967679  3.0842470324
C   12.2774641673 -4.8039116151  3.0987697294
C   12.2059913138 -2.1649540986  4.0780953664
C   11.3970590025 -4.4609654245  4.1172887737
C   11.2753714862 -3.1225740357  4.6007671067
C   10.2469414891 -2.7607277852  5.5368348498
C   10.4683863440 -1.8115959209  6.5111363416
C   9.5082113010 -1.2564068855  7.4153454131
C   8.1734880985 -1.5781923094  7.3397401982
C   10.0394468539 -0.3201270624  8.4918203746
C   15.0723265908 -5.0061152857 -0.3246195568
C   15.5104955931 -3.6519092052 -0.1743653597
C   16.4167474166 -3.0451352222 -1.0000353196
C   16.9220563657 -3.8209222888 -2.0652397606
C   16.5163957071 -5.1734042271 -2.2580629565
C   15.6008452790 -5.7615609988 -1.3911625127
C   14.1332791968 -5.2658176219  0.7004874640
C   13.9742247280 -4.1135649710  1.4578525302
H   13.8268166518 -1.7783139806  2.6934330943
H   12.3131036607 -5.8194824068  2.7208321271
H   10.9319147103 -6.3439242189  4.4552673050
H   12.6659218871 -0.2632853379  3.9705697092
H   9.2717345421 -3.1970833540  5.3851940301
H   11.4869395078 -1.4489367551  6.6205120677
H   7.7106271935 -1.8079738904  6.3867432312
H   7.5176943629 -1.4064079599  8.1855256589
H   10.5621544996  0.5348506044  8.0476903746
H   10.7772304531 -0.8273846088  9.1247459738
H   9.2318392916  0.0537115819  9.1281380471
H   16.7540171478 -2.0176835031 -0.8787762234
H   16.9210116480 -5.7523365486 -3.0865567990
H   15.2860080074 -6.7938227355 -1.5281025678
H   13.6311814064 -6.2113638492  0.8416643432
H   18.1029503106 -3.8280435419 -3.6282970111
C   10.0690782282 -4.2458953028  10.7884472015
O   12.2644918950 -5.2012518484  11.2422611239
C   11.2472072653 -4.8799208271  10.3588916488
O   7.9264450075 -3.2799126577  10.1974952515
C   11.4429516859 -5.2104681808  8.9992869378
O   5.8874262091 -3.3843403298  6.1101725046
C   10.4544981149 -4.9397498081  8.0742733887
O   4.2191335823 -4.4295809079  4.4411576333
C   9.2290576056 -4.3255693592  8.4657471096
O   6.0429077540 -6.0235818084  0.2667168422
C   9.0923537633 -3.9451380582  9.8438049538
C   8.1230296155 -4.0630920112  7.6091054808
C   8.0485593127 -4.3420586870  6.2486944495
C   6.8190376986 -4.0396058040  5.5389472752
C   6.6287678084 -4.5473879214  4.1580610585
C   7.7001769224 -4.8186854808  3.2851961900
C   5.2938684316 -4.7520396860  3.6679921752
C   7.4869489646 -5.2934468926  2.0030718954
C   5.0782576450 -5.2912188359  2.3957759513
C   6.1779306150 -5.5373303362  1.5492397005
C   3.6534175741 -5.6500571557  1.9547905365
C   3.3182684724 -7.1374746275  1.7922250414
C   3.2982440460 -8.0586295824  2.7819746187
C   2.9136813906 -9.4854320942  2.4920845341
C   3.7483984746 -7.7524790518  4.1940578604
H   9.9182929971 -4.0085937829  11.8433807772
H   12.3827821047 -5.6796121054  8.7277072470
H   10.6162022525 -5.2068909094  7.0354470814
H   12.0293620201 -4.9418286432  12.1559053639
H   7.8840582080 -3.1367789453  11.1633902571
H   7.2312364883 -3.7281100558  8.1176763762
H   8.7427286740 -5.0341476413  5.7935926037
H   8.7140927296 -4.6057252032  3.5955281801
H   8.2957710625 -5.4950724077  1.3116990733
H   4.5875673339 -3.9335363590  5.2353006166
H   5.1065875484 -6.1011050581  0.0049882570
H   2.9946784941 -5.2004049587  2.7067780934
H   3.4307485499 -5.1727234904  0.9899960489
H   3.0301969764 -7.4521739068  0.7881437109
H   2.1797897518 -9.8382642194  3.2252616330
H   3.7844594901 -10.1461280622  2.5915651447
H   2.4967244226 -9.6000835297  1.4876252971
H   4.8416406244 -7.6641039308  4.2481916116
H   3.4512626119 -8.5554025489  4.8750333232
H   3.3275809958 -6.8108613402  4.5622909567
84
Scanning combination 52/256: [2.8000, 2.4000]  Energy = -386.2344743010
O   10.6160763257 -5.4538991221  4.7264570905
O   12.1561547378 -0.8575157625  4.5599073328
O   17.8316449855 -3.2146797505 -2.9162711464
O   14.8419437832 -3.0762004941  0.9297669116
C   13.1251218999 -3.8148064596  2.5486529956
C   13.1156757675 -2.5012916211  3.0825094191
C   12.2746425846 -4.8029127558  3.0961100116
C   12.2034945544 -2.1634989274  4.0756098631
C   11.3955420685 -4.4597341779  4.1157667078
C   11.2761420581 -3.1212453588  4.6003265407
C   10.2559361539 -2.7586851385  5.5422684663
C   10.4726644590 -1.8085694118  6.5171936941
C   9.5069643479 -1.2687151719  7.4222871728
C   8.1742692675 -1.6297592080  7.3610294564
C   10.0380811984 -0.3253200260  8.4899106878
C   15.0730470607 -5.0050007747 -0.3251479258
C   15.5102845859 -3.6502894215 -0.1758727596
C   16.4169985217 -3.0441362405 -1.0017414408
C   16.9240266227 -3.8209064242 -2.0654465619
C   16.5191232629 -5.1736928729 -2.2571381287
C   15.6029901096 -5.7610289515 -1.3905672299
C   14.1332891514 -5.2643865956  0.6994844619
C   13.9730521360 -4.1117782819  1.4558485326
H   13.8251134455 -1.7746668194  2.6949376210
H   12.3097479724 -5.8199162977  2.7207252725
H   10.9332072508 -6.3430836022  4.4568631395
H   12.6606346741 -0.2598983391  3.9742419462
H   9.2792207038 -3.1961417328  5.3981452707
H   11.4866396204 -1.4347222357  6.6296676245
H   7.7010652366 -1.8241863918  6.4030822694
H   7.5191908244 -1.4338428302  8.2037714598
H   10.5575525816  0.5200054134  8.0255506335
H   10.7819207448 -0.8271914996  9.1217698413
H   9.2357280261  0.0578146311  9.1275540519
H   16.7541414153 -2.0163752583 -0.8829187424
H   16.9247184203 -5.7533949891 -3.0846762688
H   15.2890119493 -6.7935703228 -1.5274504976
H   13.6317220460 -6.2100547922  0.8419121797
H   18.1071213221 -3.8294655352 -3.6268525417
C   10.0707632677 -4.2433058771  10.7882386591
O   12.2644241740 -5.1987436590  11.2469688139
C   11.2466655961 -4.8819940879  10.3620564288
O   7.9232955385 -3.2910152277  10.1973454245
C   11.4409339640 -5.2174192823  9.0034632865
O   5.8857324165 -3.3771249612  6.1013297011
C   10.4541216528 -4.9432574522  8.0761392727
O   4.2214503019 -4.4304764688  4.4382385738
C   9.2336447010 -4.3162454682  8.4636505814
O   6.0377777151 -6.0257240973  0.2628994274
C   9.0954912734 -3.9433504295  9.8419302927
C   8.1324851101 -4.0171437056  7.6028690250
C   8.0464909626 -4.3284445375  6.2454349331
C   6.8192757673 -4.0332150495  5.5334706913
C   6.6308610344 -4.5463653329  4.1535515307
C   7.7008735552 -4.8207194413  3.2794278942
C   5.2952962772 -4.7529157535  3.6647742773
C   7.4854178552 -5.2974220376  1.9978378162
C   5.0776870882 -5.2933740797  2.3934714776
C   6.1756274069 -5.5401551364  1.5453721860
C   3.6518160178 -5.6509582334  1.9544559784
C   3.3158193960 -7.1381122087  1.7917371370
C   3.2962359419 -8.0596094134  2.7812638041
C   2.9116134856 -9.4864946844  2.4920684660
C   3.7467141956 -7.7526139416  4.1930045424
H   9.9225238265 -3.9953350670  11.8406705688
H   12.3804438208 -5.6894965597  8.7352190230
H   10.6129215410 -5.2263527239  7.0403636383
H   12.0287179771 -4.9367948260  12.1599510317
H   7.8951484191 -3.1205033440  11.1586046844
H   7.2362109894 -3.7045424605  8.1197723356
H   8.7403084444 -5.0263746304  5.7997785714
H   8.7161725395 -4.6081262352  3.5861588807
H   8.2927481349 -5.5002882950  1.3048960001
H   4.5924860758 -3.9314787224  5.2300892336
H   5.1006891511 -6.1005343592  0.0029408768
H   2.9941310735 -5.2005108125  2.7068664146
H   3.4290392768 -5.1729225671  0.9900209057
H   3.0278142403 -7.4515973196  0.7873998487
H   2.1771837676 -9.8385472302  3.2250298349
H   3.7818919952 -10.1475726213  2.5929212596
H   2.4952648148 -9.6024588873  1.4875387634
H   4.8399640215 -7.6642245391  4.2467001778
H   3.4494319060 -8.5547720354  4.8747727341
H   3.3261900532 -6.8104245781  4.5600404891
84
Scanning combination 53/256: [2.8000, 2.3000]  Energy = -386.2313805815
O   10.6161446965 -5.4532974182  4.7269391619
O   12.1564357499 -0.8564343457  4.5599743731
O   17.8320382968 -3.2147092059 -2.9162261658
O   14.8418405520 -3.0758821765  0.9291574578
C   13.1251797205 -3.8141853185  2.5489341234
C   13.1150301714 -2.5007989438  3.0826328878
C   12.2744754695 -4.8018323228  3.0961250787
C   12.2030925131 -2.1625527116  4.0755166077
C   11.3958259457 -4.4594755346  4.1158996357
C   11.2773548393 -3.1213376763  4.6015177944
C   10.2568496281 -2.7602652405  5.5419006158
C   10.4715276817 -1.8065504294  6.5159377990
C   9.5079388381 -1.2761059708  7.4235775162
C   8.1774376356 -1.6814901171  7.3723145367
C   10.0363717067 -0.3249408949  8.4868060015
C   15.0733039121 -5.0048755561 -0.3250537989
C   15.5101623720 -3.6502771147 -0.1761874463
C   16.4170840071 -3.0437651974 -1.0022675885
C   16.9243627224 -3.8209690163 -2.0653691119
C   16.5195828084 -5.1736154553 -2.2570784063
C   15.6032227563 -5.7611351928 -1.3905470639
C   14.1331142441 -5.2640410536  0.6993163966
C   13.9725428472 -4.1111226951  1.4554339512
H   13.8246844522 -1.7750238338  2.6943566825
H   12.3094652902 -5.8183975814  2.7203557136
H   10.9333624629 -6.3425086424  4.4571607931
H   12.6606180548 -0.2596898643  3.9730682014
H   9.2801962322 -3.1977047956  5.3994615377
H   11.4858262398 -1.4350977652  6.6288492266
H   7.6985418518 -1.8194842010  6.4043582992
H   7.5224027477 -1.4371988818  8.2040475668
H   10.5585755939  0.5218999977  8.0280208636
H   10.7807109022 -0.8245964260  9.1204122812
H   9.2369399335  0.0592251808  9.1276806325
H   16.7538572922 -2.0161037520 -0.8830968582
H   16.9253815763 -5.7535974125 -3.0843167358
H   15.2893629812 -6.7935690110 -1.5270475501
H   13.6319554211 -6.2099574902  0.8417291463
H   18.1077103512 -3.8296623741 -3.6264349237
C   10.0708896005 -4.2438428109  10.7881463276
O   12.2638764460 -5.1996487551  11.2476357579
C   11.2490368911 -4.8775036558  10.3615923879
O   7.9245442006 -3.2896552892  10.1979868556
C   11.4387494260 -5.2198682537  9.0044757082
O   5.8874966188 -3.3758297407  6.1004599201
C   10.4494522750 -4.9475464713  8.0777083005
O   4.2218927750 -4.4304904371  4.4385954474
C   9.2351010455 -4.3093205403  8.4635226458
O   6.0372738476 -6.0259345230  0.2627747113
C   9.0941456145 -3.9473012878  9.8420933201
C   8.1424538609 -3.9703418801  7.5954234002
C   8.0445987366 -4.3267484554  6.2435501255
C   6.8201635327 -4.0360628484  5.5326319482
C   6.6306770427 -4.5472453703  4.1521582429
C   7.7009854771 -4.8207968503  3.2781665979
C   5.2952824273 -4.7522994121  3.6636543466
C   7.4848703422 -5.2978756871  1.9972399029
C   5.0770095575 -5.2939200950  2.3929798688
C   6.1752109600 -5.5405603679  1.5451085974
C   3.6515223529 -5.6514434615  1.9541797912
C   3.3155636341 -7.1384041834  1.7916565199
C   3.2959437307 -8.0596108510  2.7811919322
C   2.9112731888 -9.4864021733  2.4920674163
C   3.7464490751 -7.7525499442  4.1928783955
H   9.9234238677 -3.9935048888  11.8406066076
H   12.3794018869 -5.6905363799  8.7357940469
H   10.6126528205 -5.2273362188  7.0414676785
H   12.0286115860 -4.9361997876  12.1598664295
H   7.8953416408 -3.1188750210  11.1593138595
H   7.2315882533 -3.7062384076  8.1206274704
H   8.7382684067 -5.0263837454  5.8009275198
H   8.7163524762 -4.6085663609  3.5857038953
H   8.2924445139 -5.5009969900  1.3047295211
H   4.5920271001 -3.9306880238  5.2300943150
H   5.1004077689 -6.1004923912  0.0024985458
H   2.9943113072 -5.2007429497  2.7067168175
H   3.4286495377 -5.1730529930  0.9900990600
H   3.0272168301 -7.4517880861  0.7873914397
H   2.1768423130 -9.8384960888  3.2248414071
H   3.7813479267 -10.1475409931  2.5931410570
H   2.4950526722 -9.6027140809  1.4875575441
H   4.8397122102 -7.6642856133  4.2464506780
H   3.4491292063 -8.5547011764  4.8745740945
H   3.3259431499 -6.8103308772  4.5598632793
84
Scanning combination 54/256: [2.8000, 2.2000]  Energy = -386.2306364771
O   10.6206793696 -5.4475941960  4.7283432076
O   12.1607887492 -0.8526115095  4.5549454289
O   17.8343008595 -3.2151328075 -2.9157595542
O   14.8408770168 -3.0736106826  0.9254311643
C   13.1272374253 -3.8120250765  2.5450807745
C   13.1195860756 -2.4972866037  3.0768147831
C   12.2765965935 -4.8008232368  3.0919643745
C   12.2097502524 -2.1584861059  4.0702946773
C   11.4014040816 -4.4575019946  4.1129764156
C   11.2876638366 -3.1185892323  4.5984044154
C   10.2744392672 -2.7634029672  5.5441511328
C   10.4838369329 -1.8115739239  6.5213115300
C   9.5196663099 -1.3035500091  7.4339106836
C   8.1831700632 -1.7242810716  7.3960928821
C   10.0303379236 -0.3367421942  8.4827870734
C   15.0740707044 -5.0039517699 -0.3260250743
C   15.5099664394 -3.6487205332 -0.1784637537
C   16.4169795144 -3.0425209801 -1.0037980705
C   16.9260342864 -3.8207296183 -2.0651993515
C   16.5220531503 -5.1739353705 -2.2558440935
C   15.6051234059 -5.7609395140 -1.3897820470
C   14.1334613802 -5.2630597903  0.6975330215
C   13.9727613580 -4.1091468150  1.4516758270
H   13.8280885218 -1.7707671888  2.6871902899
H   12.3086237227 -5.8176417388  2.7153627079
H   10.9327324518 -6.3387133495  4.4595171574
H   12.6608302218 -0.2530269492  3.9674452647
H   9.2997159507 -3.2108355966  5.4081892104
H   11.4908251644 -1.4164902717  6.6218977328
H   7.6805323626 -1.7732730720  6.4302611630
H   7.5465657316 -1.4986413979  8.2483044942
H   10.5371219741  0.5038331813  7.9976747968
H   10.7795562259 -0.8158475188  9.1274289335
H   9.2174079816  0.0476460592  9.1070325645
H   16.7528134300 -2.0143638553 -0.8853044764
H   16.9289950828 -5.7545916063 -3.0817899662
H   15.2918042063 -6.7935929230 -1.5251287053
H   13.6323970668 -6.2086096716  0.8415389199
H   18.1115730166 -3.8309231974 -3.6243326602
C   10.0716923345 -4.2402850906  10.7940693575
O   12.2641552671 -5.2005410646  11.2479223343
C   11.2444916824 -4.8808240087  10.3654818605
O   7.9233167784 -3.2878206301  10.2098930327
C   11.4286244425 -5.2274166917  9.0089671152
O   5.8846661633 -3.3663229052  6.0902201750
C   10.4446310808 -4.9370425966  8.0826725451
O   4.2209675992 -4.4320182962  4.4342989568
C   9.2430914046 -4.2805970369  8.4670716290
O   6.0334178118 -6.0287601133  0.2582339949
C   9.0989979963 -3.9313056396  9.8476333720
C   8.1559955769 -3.9156176131  7.5888526339
C   8.0451413183 -4.3095856616  6.2368165895
C   6.8196223216 -4.0278129698  5.5264822391
C   6.6297321748 -4.5503972352  4.1491092793
C   7.6990811139 -4.8265429405  3.2745694229
C   5.2944820543 -4.7552916846  3.6603748398
C   7.4826076227 -5.3025204591  1.9926844874
C   5.0751357874 -5.2963044723  2.3894391331
C   6.1725618863 -5.5433834017  1.5406174296
C   3.6487134376 -5.6527337121  1.9520144364
C   3.3124491929 -7.1396017974  1.7904995886
C   3.2937843975 -8.0602691389  2.7805963864
C   2.9090990908 -9.4870108922  2.4921450828
C   3.7446713976 -7.7526300040  4.1920464279
H   9.9274445659 -3.9891267234  11.8464353761
H   12.3632998248 -5.7056540430  8.7362494303
H   10.5959161337 -5.2315954566  7.0487424810
H   12.0325866966 -4.9334015314  12.1604828571
H   7.8994272603 -3.1134731856  11.1707632648
H   7.2327511138 -3.7092902724  8.1193520218
H   8.7194907021 -5.0393365282  5.8130161693
H   8.7146449784 -4.6137183373  3.5808427108
H   8.2901887833 -5.5057160971  1.2997079364
H   4.5926382481 -3.9300868199  5.2238251701
H   5.0961752811 -6.1008143283 -0.0013021871
H   2.9926641626 -5.2020430398  2.7056445570
H   3.4247270393 -5.1736979252  0.9883567765
H   3.0238395072 -7.4532194109  0.7864418513
H   2.1739929067 -9.8383907775  3.2245030599
H   3.7788903826 -10.1482521110  2.5944839696
H   2.4937183969 -9.6039843809  1.4874097127
H   4.8379810846 -7.6648266846  4.2453457957
H   3.4472578968 -8.5543842489  4.8740999981
H   3.3245656282 -6.8101004813  4.5587564450
84
Scanning combination 55/256: [2.8000, 2.1000]  Energy = -386.2320314642
O   10.6258776598 -5.4452056948  4.7287550714
O   12.1653065134 -0.8495348694  4.5504793106
O   17.8383306054 -3.2158754908 -2.9177387173
O   14.8416076314 -3.0719036340  0.9208778067
C   13.1289207941 -3.8098652458  2.5414022812
C   13.1223041523 -2.4951086534  3.0726260034
C   12.2795838078 -4.7989295842  3.0896870758
C   12.2145512783 -2.1559934506  4.0677618550
C   11.4065880002 -4.4557326132  4.1125863194
C   11.2930886359 -3.1159171937  4.5963629013
C   10.2828009766 -2.7639700898  5.5436504028
C   10.4876019554 -1.8103228288  6.5218841799
C   9.5263730020 -1.3195391721  7.4395316273
C   8.1846679277 -1.7753437331  7.4210169181
C   10.0237952956 -0.3366030051  8.4758368189
C   15.0761204966 -5.0033400925 -0.3288966278
C   15.5114303578 -3.6477976478 -0.1821466790
C   16.4186194426 -3.0419723868 -1.0075610600
C   16.9291027251 -3.8210382540 -2.0677533970
C   16.5262029215 -5.1746974721 -2.2571336591
C   15.6087407200 -5.7613034553 -1.3913214571
C   14.1354013486 -5.2617699472  0.6946897195
C   13.9743762193 -4.1076092258  1.4483020525
H   13.8299292300 -1.7689093205  2.6810170429
H   12.3099782983 -5.8147324917  2.7106063794
H   10.9356081939 -6.3362172985  4.4574730850
H   12.6628533599 -0.2508733401  3.9598046316
H   9.3117643470 -3.2259818065  5.4220377317
H   11.4925470868 -1.4059549178  6.6134397476
H   7.6617780426 -1.7442526237  6.4643493442
H   7.5696098852 -1.5139998031  8.2804498783
H   10.5271095268  0.5069912260  7.9907389919
H   10.7744989409 -0.8039420102  9.1282629496
H   9.2066504291  0.0455486784  9.0959716535
H   16.7532576379 -2.0134530954 -0.8896733524
H   16.9344004254 -5.7560039989 -3.0821510200
H   15.2958713024 -6.7943335359 -1.5259673980
H   13.6348065833 -6.2075830893  0.8389821162
H   18.1171573537 -3.8324981266 -3.6251265909
C   10.0722907997 -4.2362627882  10.7974933964
O   12.2620558843 -5.2039830353  11.2483168843
C   11.2402666669 -4.8859609675  10.3681656155
O   7.9244748014 -3.2802922109  10.2168375346
C   11.4197357921 -5.2313818665  9.0118511633
O   5.8867576169 -3.3515695380  6.0777115939
C   10.4364332622 -4.9323462994  8.0866501075
O   4.2221436507 -4.4319866417  4.4351309016
C   9.2439882659 -4.2675378285  8.4726844784
O   6.0298324038 -6.0308130026  0.2558580051
C   9.1005028884 -3.9218942313  9.8506648180
C   8.1608625610 -3.8687307664  7.5853989013
C   8.0436749716 -4.2984866323  6.2305342495
C   6.8221235191 -4.0203174403  5.5200105527
C   6.6298377325 -4.5514824595  4.1458114022
C   7.6981959840 -4.8310596427  3.2715540009
C   5.2939958238 -4.7565049402  3.6594395146
C   7.4809805094 -5.3066589651  1.9898779912
C   5.0737031838 -5.2970398908  2.3881323007
C   6.1704401996 -5.5458291616  1.5384598403
C   3.6470468954 -5.6534222101  1.9513929635
C   3.3097813038 -7.1403415741  1.7896324351
C   3.2914760259 -8.0610784214  2.7797354092
C   2.9067790762 -9.4883076795  2.4921724836
C   3.7427608309 -7.7529875198  4.1910249121
H   9.9294373075 -3.9854686130  11.8500811023
H   12.3482455578 -5.7218537481  8.7386236841
H   10.5877810283 -5.2287501145  7.0534248056
H   12.0362400062 -4.9310521996  12.1596739740
H   7.9016444263 -3.1137902373  11.1787691696
H   7.2208208161 -3.7517678135  8.1205822343
H   8.7101162737 -5.0458089501  5.8267136752
H   8.7144274030 -4.6216814956  3.5785098294
H   8.2879815412 -5.5114246189  1.2964363186
H   4.5964312322 -3.9248718731  5.2212123839
H   5.0925619843 -6.1010650756 -0.0041366784
H   2.9910369866 -5.2025524691  2.7050516515
H   3.4228761824 -5.1755144703  0.9873054387
H   3.0203627676 -7.4545919445  0.7858863619
H   2.1708966659 -9.8387910693  3.2244670140
H   3.7767189480 -10.1493738033  2.5958100474
H   2.4921724466 -9.6057653017  1.4870621700
H   4.8361484712 -7.6655071577  4.2439556808
H   3.4451687147 -8.5543303872  4.8736190589
H   3.3232761359 -6.8099954712  4.5572994030
84
Scanning combination 56/256: [2.8000, 2.0000]  Energy = -386.2356010672
O   10.6333669603 -5.4393264654  4.7296086303
O   12.1717184645 -0.8436308210  4.5424448476
O   17.8444354415 -3.2170851747 -2.9212399847
O   14.8438500404 -3.0699131087  0.9129952945
C   13.1326184247 -3.8069593844  2.5351501630
C   13.1260888844 -2.4914039664  3.0649893677
C   12.2827581170 -4.7953202356  3.0844200141
C   12.2198082727 -2.1509534312  4.0617357636
C   11.4134563099 -4.4514817600  4.1103796244
C   11.3024559449 -3.1121816452  4.5967016753
C   10.2955008897 -2.7667658489  5.5483418202
C   10.4906639096 -1.8041024194  6.5204214879
C   9.5362260294 -1.3369958389  7.4470461940
C   8.1903288910 -1.8280121133  7.4480460840
C   10.0136075268 -0.3365067910  8.4688461600
C   15.0803086556 -5.0027943826 -0.3338741482
C   15.5144379052 -3.6465828405 -0.1888730956
C   16.4218466299 -3.0410080097 -1.0139255234
C   16.9344792987 -3.8215037277 -2.0718187245
C   16.5327442720 -5.1757940786 -2.2595663054
C   15.6145757168 -5.7618054012 -1.3943483398
C   14.1392237407 -5.2606166188  0.6895335945
C   13.9772920328 -4.1056007585  1.4416509194
H   13.8339680979 -1.7663316514  2.6713649508
H   12.3119677898 -5.8114307813  2.7058916615
H   10.9384380203 -6.3305094816  4.4549727801
H   12.6669158838 -0.2447629541  3.9495526888
H   9.3281992571 -3.2468235903  5.4483274509
H   11.4887132600 -1.3815202278  6.6041880273
H   7.6426785444 -1.7318571730  6.5106880981
H   7.6019650058 -1.5572857281  8.3215526852
H   10.5090884810  0.5062099542  7.9746334019
H   10.7672045428 -0.7796913572  9.1345639627
H   9.1908295187  0.0440528644  9.0818285205
H   16.7551331264 -2.0117417066 -0.8974134224
H   16.9424918251 -5.7582500663 -3.0828573325
H   15.3022926191 -6.7952008315 -1.5274965051
H   13.6386751586 -6.2063750580  0.8350568911
H   18.1255174420 -3.8351626860 -3.6265702128
C   10.0731205111 -4.2321843150  10.8020094835
O   12.2564831278 -5.2151195018  11.2491940082
C   11.2363537144 -4.8876284033  10.3697929037
O   7.9281748918 -3.2652685780  10.2233843478
C   11.4083488296 -5.2408809315  9.0143070880
O   5.8939418649 -3.3296706443  6.0629452324
C   10.4245940929 -4.9307179870  8.0905777704
O   4.2237272674 -4.4324306746  4.4329938860
C   9.2412803254 -4.2589334486  8.4810632339
O   6.0247372353 -6.0334856700  0.2530519400
C   9.0994835473 -3.9172453377  9.8564983317
C   8.1579645907 -3.8227972854  7.5882204859
C   8.0422272017 -4.2842839606  6.2266722498
C   6.8257419566 -4.0091843074  5.5130386289
C   6.6309336472 -4.5495948959  4.1409290718
C   7.6977795726 -4.8369835882  3.2685453246
C   5.2950121666 -4.7566317362  3.6561406474
C   7.4785102036 -5.3145024140  1.9874204387
C   5.0722546394 -5.3002973220  2.3865180743
C   6.1672745724 -5.5503549121  1.5359781539
C   3.6447540212 -5.6548147094  1.9508265604
C   3.3058218025 -7.1412953471  1.7892502880
C   3.2881722898 -8.0619517416  2.7794129109
C   2.9034718830 -9.4891818979  2.4923491208
C   3.7401978144 -7.7534931514  4.1903677323
H   9.9317168733 -3.9816542560  11.8547719937
H   12.3286316654 -5.7458353177  8.7409220569
H   10.5771137940 -5.2211259921  7.0557715426
H   12.0401582792 -4.9286397415  12.1594347482
H   7.8999160287 -3.1110435753  11.1865991824
H   7.2107486774 -3.7755665756  8.1275201342
H   8.6944371840 -5.0548643068  5.8474109615
H   8.7144193039 -4.6341904375  3.5777730297
H   8.2844050051 -5.5204924225  1.2939930202
H   4.5968969195 -3.9170495086  5.2130556853
H   5.0869968915 -6.1009867772 -0.0066226878
H   2.9900487731 -5.2033549039  2.7050511131
H   3.4193921176 -5.1760952672  0.9872855994
H   3.0154439040 -7.4550348941  0.7856800199
H   2.1666392921 -9.8390198186  3.2238827124
H   3.7728588435 -10.1505964683  2.5976742254
H   2.4900896311 -9.6075837628  1.4869125367
H   4.8336700722 -7.6667879175  4.2428331390
H   3.4421341533 -8.5540956377  4.8735458059
H   3.3217485313 -6.8098255174  4.5560707632
84
Scanning combination 57/256: [2.8000, 1.9000]  Energy = -386.2405956980
O   10.6337853520 -5.4396246618  4.7294909695
O   12.1710555285 -0.8428687236  4.5424428227
O   17.8455874583 -3.2172279178 -2.9220698341
O   14.8439965234 -3.0694411999  0.9122639755
C   13.1315392552 -3.8059073915  2.5345617765
C   13.1248126412 -2.4910350701  3.0654658899
C   12.2831346012 -4.7943388231  3.0852331944
C   12.2196103994 -2.1505602768  4.0630480335
C   11.4144333697 -4.4514161946  4.1116685843
C   11.3011569844 -3.1112584327  4.5965060778
C   10.2953338973 -2.7657785744  5.5462967059
C   10.4889214202 -1.8060249413  6.5239674132
C   9.5393534346 -1.3441985284  7.4499360645
C   8.1885876102 -1.8730596267  7.4555231564
C   10.0091127331 -0.3363166525  8.4653394099
C   15.0807379485 -5.0025869823 -0.3344156652
C   15.5147664735 -3.6464197579 -0.1896187125
C   16.4223678726 -3.0409870712 -1.0149601443
C   16.9354443194 -3.8216187915 -2.0726940646
C   16.5338783755 -5.1760976768 -2.2601558203
C   15.6154411839 -5.7619820791 -1.3948356405
C   14.1396766708 -5.2600303224  0.6893267384
C   13.9772210090 -4.1048991338  1.4414825950
H   13.8325955237 -1.7666625167  2.6711881687
H   12.3119613927 -5.8097708849  2.7054869132
H   10.9392298182 -6.3305368689  4.4542710377
H   12.6671528351 -0.2461893536  3.9479672878
H   9.3283825877 -3.2530361333  5.4508935607
H   11.4859603836 -1.3790538078  6.6020553332
H   7.6417268998 -1.7356395014  6.5223453697
H   7.6021411939 -1.5590376793  8.3162057189
H   10.5085975176  0.5093587398  7.9765169539
H   10.7649754116 -0.7780724820  9.1312752457
H   9.1907927879  0.0488173837  9.0831875256
H   16.7554148380 -2.0116731296 -0.8985830837
H   16.9439436510 -5.7586475475 -3.0833913959
H   15.3033694536 -6.7955687069 -1.5280001900
H   13.6395060485 -6.2060616371  0.8342325014
H   18.1269478759 -3.8355980269 -3.6271150776
C   10.0728643209 -4.2343231642  10.8020968770
O   12.2568006302 -5.2165424410  11.2493063623
C   11.2360248880 -4.8889898735  10.3706795093
O   7.9289810265 -3.2656059971  10.2240567443
C   11.4063823259 -5.2433416880  9.0159166222
O   5.8928832204 -3.3283490037  6.0595725777
C   10.4204735285 -4.9328973236  8.0922334806
O   4.2248537986 -4.4304917261  4.4350001027
C   9.2432579608 -4.2549578738  8.4826866591
O   6.0246941300 -6.0339000907  0.2533289737
C   9.0990611299 -3.9192323880  9.8558906158
C   8.1643317282 -3.7686973153  7.5813817664
C   8.0388188868 -4.2798692768  6.2215041232
C   6.8257538227 -4.0104894314  5.5120688256
C   6.6312540595 -4.5520396209  4.1402530704
C   7.6984193602 -4.8377034476  3.2676292793
C   5.2948585147 -4.7558607887  3.6569099266
C   7.4789836831 -5.3151264725  1.9866173268
C   5.0719350355 -5.2994016060  2.3868082102
C   6.1671418304 -5.5507334710  1.5363438002
C   3.6445679411 -5.6547787479  1.9513303709
C   3.3056129759 -7.1414272785  1.7893090816
C   3.2877835311 -8.0621230823  2.7793838352
C   2.9029485339 -9.4893239070  2.4923809042
C   3.7398486940 -7.7535249321  4.1902459371
H   9.9330463383 -3.9805474270  11.8538128771
H   12.3266676557 -5.7470965583  8.7420795303
H   10.5772050770 -5.2218967443  7.0576582538
H   12.0397785617 -4.9282693632  12.1587927556
H   7.9013789228 -3.1111804745  11.1873172495
H   7.2152027255 -3.7783869083  8.1214237588
H   8.6929216442 -5.0522389035  5.8522022976
H   8.7153205387 -4.6354558083  3.5772294322
H   8.2852197481 -5.5223448862  1.2936846613
H   4.5997817876 -3.9138964817  5.2152057234
H   5.0870191595 -6.1008737125 -0.0065857846
H   2.9899347655 -5.2033092594  2.7057184753
H   3.4196011025 -5.1763652535  0.9875722098
H   3.0146434084 -7.4550993240  0.7858268383
H   2.1659677768 -9.8389626981  3.2238785804
H   3.7723681946 -10.1506569998  2.5979695717
H   2.4897594358 -9.6077397138  1.4868499302
H   4.8333181729 -7.6669355882  4.2426558469
H   3.4417241057 -8.5540278902  4.8734553857
H   3.3216507017 -6.8097338126  4.5559807893
84
Scanning combination 58/256: [2.8000, 1.8000]  Energy = -386.2458089586
O   10.6365821470 -5.4390171236  4.7309499497
O   12.1719036479 -0.8413879960  4.5394071209
O   17.8478648458 -3.2182590097 -2.9234043619
O   14.8440154593 -3.0679651426  0.9096861235
C   13.1333004335 -3.8053135914  2.5332813194
C   13.1262481918 -2.4893198503  3.0621338460
C   12.2835339800 -4.7937577336  3.0833804241
C   12.2211487344 -2.1482724931  4.0584271172
C   11.4148684571 -4.4505257402  4.1095520767
C   11.3067988944 -3.1096825115  4.5947068594
C   10.3074537383 -2.7620545782  5.5453080981
C   10.4940491047 -1.8002698627  6.5226047720
C   9.5496725474 -1.3587943735  7.4549133033
C   8.1938264130 -1.9156392700  7.4678060287
C   10.0006250859 -0.3423764778  8.4604150558
C   15.0822540032 -5.0018506885 -0.3355660961
C   15.5155683124 -3.6454004471 -0.1915585289
C   16.4234122417 -3.0407138225 -1.0172509994
C   16.9373783804 -3.8220976978 -2.0740564527
C   16.5363579958 -5.1765335692 -2.2607819436
C   15.6176877867 -5.7615969194 -1.3953720074
C   14.1404866622 -5.2589272485  0.6875841833
C   13.9772704103 -4.1035569712  1.4389619255
H   13.8323332845 -1.7629329183  2.6688931104
H   12.3122220950 -5.8094517310  2.7041067690
H   10.9411391113 -6.3293984298  4.4526625356
H   12.6672755981 -0.2431478586  3.9463583785
H   9.3428272189 -3.2589949921  5.4635836895
H   11.4880437749 -1.3657794245  6.5967121852
H   7.6437950410 -1.7455549741  6.5424065825
H   7.6101903237 -1.5781002046  8.3213422824
H   10.4940215388  0.5021352136  7.9650126728
H   10.7585816056 -0.7705020084  9.1320576976
H   9.1769997520  0.0413188018  9.0703968948
H   16.7563716255 -2.0113178400 -0.9021471992
H   16.9471819364 -5.7595084907 -3.0833198110
H   15.3064464962 -6.7952103687 -1.5285670681
H   13.6407634666 -6.2049964427  0.8335592345
H   18.1306557459 -3.8366765646 -3.6278815788
C   10.0707156820 -4.2397035541  10.8059294481
O   12.2554433677 -5.2196889658  11.2492548963
C   11.2311052988 -4.8971947080  10.3719347121
O   7.9286083678 -3.2656066076  10.2247859644
C   11.3976592740 -5.2511309007  9.0166956209
O   5.8881655893 -3.3233999526  6.0557714190
C   10.4156287992 -4.9242608583  8.0912970005
O   4.2254808987 -4.4289892488  4.4331046239
C   9.2510935021 -4.2304776301  8.4831879506
O   6.0228582023 -6.0356461216  0.2531036354
C   9.1010954353 -3.9142859646  9.8563928511
C   8.1667843846 -3.7117869280  7.5818239817
C   8.0372960543 -4.2563152956  6.2189583804
C   6.8248278494 -4.0039470628  5.5103660858
C   6.6310424950 -4.5535368977  4.1393739396
C   7.6978481270 -4.8420608089  3.2670086551
C   5.2947429484 -4.7573098872  3.6561709035
C   7.4783745314 -5.3188372006  1.9855785546
C   5.0714040392 -5.3006691784  2.3862505883
C   6.1661920356 -5.5513524694  1.5352639397
C   3.6438086997 -5.6547862405  1.9519047614
C   3.3045540312 -7.1410924272  1.7899364980
C   3.2867444272 -8.0620769035  2.7796708817
C   2.9016413909 -9.4892179691  2.4925803181
C   3.7389807186 -7.7535774369  4.1904419696
H   9.9349878926 -3.9795519706  11.8567024974
H   12.3176259314 -5.7547679111  8.7413375531
H   10.5676319578 -5.2233699261  7.0588475979
H   12.0420560250 -4.9286658483  12.1589173889
H   7.9029408193 -3.1128541363  11.1874145949
H   7.2177482359 -3.7966497470  8.1188437636
H   8.6796728584 -5.0518095329  5.8879412013
H   8.7150554548 -4.6397048768  3.5749294199
H   8.2843304627 -5.5270489715  1.2924455677
H   4.6040018977 -3.9104572282  5.2113586438
H   5.0851104527 -6.1006643573 -0.0066324033
H   2.9895614584 -5.2032414972  2.7065832981
H   3.4187393179 -5.1759765079  0.9885104050
H   3.0130808352 -7.4540232145  0.7865842815
H   2.1641569636 -9.8387308311  3.2236185868
H   3.7706104663 -10.1510117995  2.5987714795
H   2.4888795688 -9.6081487169  1.4869456551
H   4.8325162821 -7.6674605957  4.2423662612
H   3.4404700963 -8.5539069143  4.8737057648
H   3.3212694648 -6.8093714909  4.5557194720
84
Scanning combination 59/256: [2.8000, 1.7000]  Energy = -386.2499905821
O   10.6469053621 -5.4295007744  4.7315219544
O   12.1822082074 -0.8331059078  4.5269774292
O   17.8535780702 -3.2193138990 -2.9267352511
O   14.8469672151 -3.0658894070  0.9010989996
C   13.1389082376 -3.8014765274  2.5253030031
C   13.1336647409 -2.4840001612  3.0506892354
C   12.2906721422 -4.7900752117  3.0771695970
C   12.2309496658 -2.1409706087  4.0484718527
C   11.4259159427 -4.4453185336  4.1053156362
C   11.3192550769 -3.1040178788  4.5893351221
C   10.3268952421 -2.7692021423  5.5485970766
C   10.5072680675 -1.8014160033  6.5231208998
C   9.5670672687 -1.3839619640  7.4613557075
C   8.2094567922 -1.9732056113  7.4877779122
C   9.9835618260 -0.3474003553  8.4570354189
C   15.0865320278 -5.0015451333 -0.3405802673
C   15.5188195981 -3.6446597289 -0.1982747709
C   16.4267164051 -3.0396172273 -1.0234336205
C   16.9423907560 -3.8226475823 -2.0780824717
C   16.5423750326 -5.1777145362 -2.2632154069
C   15.6230738843 -5.7627061950 -1.3983260498
C   14.1445075384 -5.2579162450  0.6820147615
C   13.9814903205 -4.1013995288  1.4315171441
H   13.8405446181 -1.7604730562  2.6529760147
H   12.3165598507 -5.8057626881  2.6975606862
H   10.9412987188 -6.3214475491  4.4495495000
H   12.6746443916 -0.2346758061  3.9308297084
H   9.3719411930 -3.2938063275  5.4889264766
H   11.4905492850 -1.3359211199  6.5749041364
H   7.6467951951 -1.7562280631  6.5786389429
H   7.6536565140 -1.6264395121  8.3574247323
H   10.4579722436  0.5028073707  7.9516342272
H   10.7422576241 -0.7439639356  9.1500508266
H   9.1381399143  0.0212143913  9.0465415352
H   16.7577767645 -2.0097970164 -0.9082434900
H   16.9545477880 -5.7617077607 -3.0842053504
H   15.3117960420 -6.7965624333 -1.5293597069
H   13.6449574478 -6.2039457063  0.8293312809
H   18.1379930570 -3.8392774742 -3.6293336617
C   10.0682387011 -4.2323566344  10.8100254493
O   12.2443804327 -5.2375796367  11.2411765499
C   11.2218583547 -4.8968105470  10.3682584405
O   7.9285044449 -3.2446370057  10.2410087886
C   11.3826071629 -5.2498122499  9.0124951331
O   5.8884472459 -3.3029027760  6.0443079650
C   10.4008846844 -4.9089011611  8.0910426970
O   4.2233812947 -4.4295354044  4.4338735054
C   9.2425510928 -4.2169216205  8.4915351342
O   6.0214639680 -6.0380723888  0.2543696112
C   9.0968554118 -3.8985069778  9.8637057166
C   8.1658231675 -3.6698323482  7.5849292739
C   8.0397197341 -4.2396416083  6.2170816888
C   6.8268423697 -3.9898989685  5.5084825152
C   6.6303735916 -4.5512488819  4.1407613529
C   7.6963750922 -4.8466025787  3.2704597004
C   5.2942627085 -4.7574987618  3.6577709881
C   7.4770259221 -5.3252669231  1.9892770632
C   5.0705176621 -5.3027352186  2.3882235071
C   6.1649514283 -5.5554656248  1.5374351644
C   3.6425035213 -5.6553921904  1.9524955320
C   3.3014038230 -7.1412938044  1.7901970370
C   3.2841195985 -8.0621214067  2.7800710669
C   2.8987205613 -9.4890674226  2.4931355181
C   3.7369768649 -7.7535840146  4.1906675950
H   9.9299705234 -3.9894394159  11.8651784722
H   12.2888331105 -5.7757403379  8.7341307415
H   10.5495306606 -5.2017130491  7.0564366510
H   12.0435647648 -4.9335853134  12.1490128158
H   7.8954196908 -3.1196302046  11.2077840970
H   7.2151104289 -3.7938920926  8.1168082861
H   8.6530831592 -5.0728194293  5.9240034599
H   8.7139159094 -4.6488365315  3.5804804842
H   8.2831222392 -5.5356482931  1.2968281545
H   4.5990158292 -3.9042505347  5.2076294907
H   5.0837058024 -6.1001258618 -0.0065892957
H   2.9891690242 -5.2034040089  2.7076563642
H   3.4173827026 -5.1758748644  0.9892560187
H   3.0086333386 -7.4541725293  0.7870621264
H   2.1602986769 -9.8378496720  3.2235230648
H   3.7673546399 -10.1509897217  2.6006785548
H   2.4871106791 -9.6081277283  1.4870549941
H   4.8306467660 -7.6687398075  4.2422830959
H   3.4378167551 -8.5534319253  4.8741276831
H   3.3206149879 -6.8087872282  4.5559910070
84
Scanning combination 60/256: [2.8000, 1.6000]  Energy = -386.2499285933
O   10.6485616593 -5.4301534896  4.7306089863
O   12.1817968744 -0.8320289397  4.5254424165
O   17.8552771231 -3.2196512991 -2.9283139362
O   14.8478253466 -3.0656823120  0.8995475464
C   13.1384555897 -3.8005284186  2.5234261956
C   13.1331428135 -2.4836245282  3.0500931383
C   12.2914816295 -4.7894363640  3.0764775989
C   12.2319096393 -2.1406353247  4.0487678341
C   11.4282852085 -4.4454777766  4.1057878349
C   11.3209384103 -3.1038193579  4.5889634084
C   10.3279835024 -2.7681703611  5.5450284579
C   10.5040847671 -1.8022775281  6.5231677559
C   9.5676693071 -1.3976297941  7.4649453797
C   8.2142993075 -2.0229834560  7.4969549013
C   9.9751928673 -0.3495633378  8.4525987479
C   15.0874584886 -5.0015702081 -0.3420736773
C   15.5197925026 -3.6444045863 -0.2000829832
C   16.4277847384 -3.0398151181 -1.0250823508
C   16.9438572554 -3.8226953530 -2.0793755694
C   16.5440142349 -5.1780931189 -2.2642386805
C   15.6245293141 -5.7627962112 -1.3994607912
C   14.1458255751 -5.2578217193  0.6812758933
C   13.9823302955 -4.1010448346  1.4304153866
H   13.8394948282 -1.7600523645  2.6520428979
H   12.3175223972 -5.8050300296  2.6967042170
H   10.9429826615 -6.3217758401  4.4474315650
H   12.6751136885 -0.2354285043  3.9283860111
H   9.3743913498 -3.2993409445  5.4935392793
H   11.4843898743 -1.3325145386  6.5750455637
H   7.6480160377 -1.7609479396  6.6001779987
H   7.6582293559 -1.6334020211  8.3495446905
H   10.4534795744  0.5026076505  7.9523774084
H   10.7364621625 -0.7398488276  9.1458713743
H   9.1349237614  0.0236407434  9.0472758221
H   16.7588165566 -2.0095758932 -0.9104318085
H   16.9562985388 -5.7623129709 -3.0850263511
H   15.3134399826 -6.7969707664 -1.5303477681
H   13.6459019843 -6.2036623663  0.8282683991
H   18.1397825879 -3.8398490823 -3.6302262420
C   10.0656510832 -4.2368377616  10.8091566986
O   12.2443803662 -5.2394927097  11.2419103445
C   11.2206471237 -4.9001526519  10.3687948692
O   7.9280198767 -3.2423587638  10.2437732733
C   11.3772166134 -5.2521507432  9.0131487079
O   5.8843980128 -3.2992887800  6.0395777846
C   10.3939606170 -4.9081522462  8.0915601367
O   4.2254288164 -4.4285900196  4.4351704701
C   9.2422981714 -4.2034418700  8.4890395890
O   6.0210506787 -6.0386063132  0.2547961661
C   9.0946188812 -3.8978624174  9.8620425501
C   8.1739249178 -3.6203477078  7.5787394412
C   8.0358225113 -4.2280427400  6.2195700298
C   6.8260914546 -3.9880026699  5.5105246249
C   6.6319734128 -4.5529535465  4.1418716036
C   7.6975960978 -4.8470096553  3.2705474916
C   5.2952050354 -4.7567959213  3.6587657667
C   7.4772879633 -5.3265077121  1.9896590596
C   5.0707302305 -5.3022942813  2.3887317178
C   6.1649062473 -5.5565377123  1.5381330602
C   3.6425203366 -5.6550931331  1.9532700735
C   3.3010739920 -7.1410949908  1.7905278255
C   3.2836386782 -8.0621558263  2.7801770205
C   2.8981636725 -9.4891676180  2.4932821984
C   3.7365970144 -7.7537974405  4.1907788931
H   9.9317052641 -3.9897505453  11.8629290406
H   12.2849561671 -5.7758356597  8.7346712101
H   10.5486528014 -5.2018766524  7.0585934745
H   12.0441420537 -4.9344547242  12.1501837745
H   7.8955420206 -3.1219792744  11.2104638647
H   7.2269370354 -3.7942206892  8.1036414272
H   8.6472690954 -5.0660940013  5.9368527507
H   8.7151501043 -4.6502289336  3.5813336044
H   8.2833473089 -5.5376777363  1.2974769258
H   4.6020623899 -3.9016068751  5.2091841607
H   5.0833729514 -6.1000410417 -0.0063311290
H   2.9887947471 -5.2031263490  2.7080936901
H   3.4176532513 -5.1757718843  0.9898712774
H   3.0080174965 -7.4536228575  0.7873320380
H   2.1595210648 -9.8377631585  3.2235845876
H   3.7667464970 -10.1511816286  2.6010495975
H   2.4867547247 -9.6081418482  1.4871026582
H   4.8302614229 -7.6690860391  4.2424269342
H   3.4373039044 -8.5534008157  4.8744357243
H   3.3205647082 -6.8088293573  4.5560515031
84
Scanning combination 61/256: [2.8000, 1.5000]  Energy = -386.2439626451
O   10.6668292454 -5.4245615417  4.7299279311
O   12.1894436570 -0.8244889751  4.5095846199
O   17.8662469654 -3.2223460066 -2.9376811540
O   14.8548643932 -3.0631422713  0.8849652861
C   13.1477531119 -3.7963282801  2.5106984082
C   13.1422508886 -2.4778912856  3.0347264423
C   12.3038145858 -4.7863748266  3.0666940784
C   12.2438825287 -2.1343797498  4.0364601279
C   11.4458527840 -4.4424836950  4.1004068885
C   11.3397425829 -3.1006302298  4.5837036500
C   10.3490043486 -2.7750207213  5.5429813893
C   10.5086051486 -1.8015327135  6.5162317974
C   9.5743293376 -1.4249859429  7.4675290973
C   8.2265131936 -2.0777781919  7.5272417268
C   9.9446148715 -0.3528884518  8.4418651403
C   15.0963113552 -5.0013806105 -0.3523122507
C   15.5274312965 -3.6433541419 -0.2131093393
C   16.4357229540 -3.0394624292 -1.0375705107
C   16.9540828188 -3.8243274582 -2.0890047904
C   16.5554042032 -5.1805259823 -2.2714850588
C   15.6350496824 -5.7643964653 -1.4072366380
C   14.1548272832 -5.2565502447  0.6711325301
C   13.9903449414 -4.0982467769  1.4175923571
H   13.8463895500 -1.7544734252  2.6317312817
H   12.3284718557 -5.8018486575  2.6861846592
H   10.9498413977 -6.3162047511  4.4373664010
H   12.6812189652 -0.2268351161  3.9116040184
H   9.4051587530 -3.3303655527  5.5051084027
H   11.4725075832 -1.2973686301  6.5549564732
H   7.6279499091 -1.7502212361  6.6718962107
H   7.7289246871 -1.6968966243  8.4198320897
H   10.4008182726  0.5019873717  7.9286771131
H   10.7034352280 -0.7085223302  9.1559840059
H   9.0831334550  0.0006149794  9.0183135916
H   16.7651425452 -2.0082598450 -0.9246673626
H   16.9692004225 -5.7663535424 -3.0902623180
H   15.3245034709 -6.7989546660 -1.5357289557
H   13.6544948905 -6.2021151573  0.8196133806
H   18.1530202929 -3.8445353130 -3.6369235802
C   10.0568917917 -4.2346049195  10.8113286255
O   12.2236441108 -5.2632125032  11.2377935541
C   11.2049126376 -4.9069672869  10.3662038353
O   7.9331013770 -3.2061350265  10.2595749859
C   11.3568085337 -5.2610065721  9.0110732923
O   5.8856733790 -3.2597678206  6.0239367381
C   10.3761821077 -4.9019316248  8.0923724155
O   4.2234684565 -4.4308219431  4.4427530019
C   9.2361039852 -4.1867199692  8.4941112062
O   6.0240645688 -6.0406128853  0.2638556101
C   9.0888039571 -3.8798413440  9.8669360298
C   8.1816608402 -3.5762720945  7.5762563748
C   8.0377179419 -4.2039481456  6.2185235909
C   6.8262272901 -3.9618397957  5.5100641616
C   6.6308294283 -4.5455549373  4.1480134214
C   7.6975639295 -4.8513291738  3.2826791954
C   5.2954428122 -4.7556625589  3.6659241312
C   7.4785211679 -5.3355709642  2.0033690613
C   5.0720833323 -5.3052018280  2.3975424009
C   6.1667717616 -5.5619537294  1.5487300740
C   3.6441565558 -5.6546036750  1.9582115564
C   3.2990324004 -7.1396848814  1.7934197487
C   3.2808818440 -8.0616296807  2.7819064529
C   2.8942188731 -9.4881762391  2.4943323289
C   3.7340762003 -7.7547472594  4.1928715289
H   9.9182789566 -3.9991760880  11.8669101745
H   12.2532616003 -5.7999251975  8.7292194200
H   10.5251412071 -5.1889735166  7.0565527369
H   12.0352908166 -4.9416400165  12.1422333030
H   7.8789195804 -3.1484480839  11.2313155235
H   7.2372253256 -3.8024914743  8.0866856048
H   8.6111462862 -5.0814658424  5.9762075408
H   8.7152547886 -4.6622196094  3.5980072074
H   8.2851563703 -5.5495983721  1.3132418279
H   4.5937302293 -3.8896047714  5.2076203049
H   5.0867362903 -6.0979824359  0.0003286946
H   2.9906900616 -5.2017200055  2.7126078969
H   3.4217092009 -5.1735368992  0.9949506278
H   3.0035739161 -7.4497451051  0.7899322638
H   2.1540503384 -9.8358822805  3.2234570258
H   3.7619056601 -10.1510562091  2.6036087616
H   2.4843588977 -9.6067208040  1.4874983314
H   4.8279114529 -7.6720609052  4.2442896307
H   3.4331705910 -8.5536115873  4.8765763830
H   3.3202143569 -6.8087121017  4.5579491545
84
Scanning combination 62/256: [2.7000, 2.9000]  Energy = -386.2404657598
O   10.7431403833 -5.3361178605  4.8590490768
O   11.9480702233 -0.6703317417  4.3634816446
O   17.9725593669 -3.6070664086 -2.7938548735
O   14.6137188318 -3.0089338265  0.6939489105
C   12.8919626079 -3.6424222166  2.3615368758
C   12.8427866274 -2.3049150163  2.8276909802
C   12.1593804220 -4.6493252988  3.0293455718
C   12.0164079961 -1.9824032427  3.9010107496
C   11.3674869773 -4.3163275891  4.1183411907
C   11.1904915729 -2.9650738273  4.5362229619
C   10.1877401918 -2.5957744330  5.5047579624
C   10.4629156190 -1.6832014709  6.4958748667
C   9.5238130992 -1.0750499555  7.4012074241
C   8.1814111347 -1.1369467435  7.1916731049
C   10.1262863770 -0.2625791374  8.5488254904
C   14.8155113907 -5.0172352222 -0.4396502652
C   15.3191023969 -3.6817422843 -0.3352368876
C   16.3368152234 -3.1901754899 -1.1048054505
C   16.9186947891 -4.0815516303 -2.0324340000
C   16.4432661616 -5.4168666881 -2.1813878888
C   15.3948511237 -5.8784203068 -1.3934165476
C   13.8033999577 -5.1682370721  0.5329129936
C   13.6918362483 -3.9821037278  1.2451505278
H   13.4451675145 -1.5494521060  2.3283579828
H   12.2329165819 -5.6756360739  2.6919951343
H   11.1695318882 -6.1979136248  4.6606383347
H   12.3940195655 -0.0668102432  3.7383786482
H   9.1984092692 -2.9960964147  5.3426443077
H   11.5041857914 -1.3806381466  6.6017999408
H   7.7838425273 -1.5954960220  6.2939268575
H   7.4655295768 -0.6854335512  7.8722160563
H   10.5303287302  0.6914955435  8.1861687750
H   10.9687623667 -0.7967553359  9.0006700377
H   9.3873984735 -0.0487132417  9.3272144013
H   16.7163110555 -2.1727410979 -1.0319164885
H   16.9003279206 -6.0825856259 -2.9117172268
H   15.0200047310 -6.8944478518 -1.4998601326
H   13.2144555110 -6.0640681649  0.6603202801
H   18.3302364279 -4.3131777777 -3.3702770688
C   9.8402398145 -4.7711724330  10.9134275248
O   12.1314452416 -5.4401097800  11.3962075512
C   11.1482009915 -5.0671003576  10.4942379622
O   7.5926942868 -4.1149689088  10.3035550431
C   11.5085900980 -4.9981445715  9.1293363593
O   5.9844897327 -3.2587420614  6.0923587651
C   10.5691173007 -4.6473149930  8.1811377718
O   4.3384683814 -4.3368459096  4.4210554933
C   9.2287707331 -4.3285202013  8.5538255155
O   6.2200093035 -6.1876522354  0.3800062395
C   8.9022933877 -4.4054396063  9.9559680657
C   8.1756116554 -3.9975641323  7.6677378073
C   8.1579191351 -4.1917711950  6.2939652227
C   6.9228073909 -3.9304643803  5.5569247845
C   6.7528261666 -4.4979709580  4.1967605516
C   7.8363406673 -4.8478692742  3.3659986386
C   5.4248760839 -4.7051157612  3.6859023122
C   7.6404634153 -5.4040582146  2.1141047056
C   5.2248582638 -5.2966629331  2.4342441078
C   6.3368952214 -5.6288488341  1.6355797960
C   3.7962857496 -5.6035769272  1.9622652444
C   3.3789076881 -7.0750377185  1.8275853570
C   3.4500729473 -8.0269038986  2.7866912972
C   3.0977567628 -9.4534951445  2.4534501968
C   3.9900101453 -7.7562758094  4.1730003101
H   9.5663875360 -4.8358952701  11.9692888921
H   12.5366762062 -5.2342695090  8.8716634739
H   10.8563298020 -4.6167308646  7.1355890669
H   11.7756691767 -5.4744380755  12.3071124993
H   7.4213504615 -4.3054455495  11.2477577190
H   7.2951923505 -3.6000380985  8.1537771797
H   8.8815377450 -4.8600631223  5.8473326306
H   8.8466095845 -4.6394538205  3.6863503644
H   8.4602227951 -5.6834246770  1.4637642207
H   4.6945098797 -3.8128534561  5.2027561953
H   5.2886440812 -6.2436358883  0.0957821709
H   3.1373334066 -5.0940055945  2.6752838617
H   3.6235908323 -5.1468097058  0.9766212146
H   2.9145953150 -7.3391692729  0.8758230394
H   2.5755296353 -9.9311710595  3.2895145237
H   4.0066546180 -10.0444990345  2.2747882588
H   2.4686478118 -9.5157283960  1.5600299111
H   5.0877737142 -7.7086201110  4.1607851508
H   3.7084662612 -8.5539205539  4.8673006514
H   3.6249498643 -6.8027277912  4.5705485924
84
Scanning combination 63/256: [2.7000, 2.8000]  Energy = -386.2386754747
O   10.7300981452 -5.3478409984  4.8498378494
O   11.9642055345 -0.6872067214  4.3705655573
O   17.9647478319 -3.5754941391 -2.8143634044
O   14.6427483503 -3.0209410187  0.7162613938
C   12.9191905624 -3.6633504979  2.3795973749
C   12.8688974605 -2.3262878274  2.8469194559
C   12.1764589313 -4.6679814198  3.0399746195
C   12.0310324902 -2.0002641598  3.9104641384
C   11.3706444184 -4.3320096162  4.1188181994
C   11.1947258328 -2.9795711043  4.5380548976
C   10.1941648671 -2.6119534308  5.5074915354
C   10.4601245541 -1.6818331524  6.4873894456
C   9.5237880497 -1.0911679037  7.4045285988
C   8.1784271130 -1.2085344143  7.2344578747
C   10.1191924778 -0.2566657892  8.5378741179
C   14.8423472537 -5.0197378134 -0.4336530192
C   15.3416462264 -3.6835129136 -0.3234989785
C   16.3494169414 -3.1808432922 -1.1007396584
C   16.9230122375 -4.0617473644 -2.0438940551
C   16.4513974782 -5.3973493288 -2.1988841820
C   15.4143134440 -5.8699904868 -1.4020994929
C   13.8386049250 -5.1815883528  0.5465370847
C   13.7248902935 -3.9996170525  1.2654734829
H   13.4804153174 -1.5736610576  2.3545632845
H   12.2506022612 -5.6948983960  2.7033687625
H   11.1457816795 -6.2137805908  4.6476015601
H   12.4193692912 -0.0868256048  3.7486384139
H   9.2129575646 -3.0458371453  5.3739356870
H   11.4949943358 -1.3564854805  6.5782833582
H   7.7713392201 -1.5987094878  6.3086322482
H   7.4683713179 -0.8824075198  7.9875035218
H   10.5303895030  0.6876361060  8.1594052042
H   10.9564533807 -0.7829078489  9.0085113622
H   9.3715504763 -0.0219501653  9.3013470762
H   16.7257381358 -2.1630707077 -1.0237074680
H   16.9019256006 -6.0543636733 -2.9411906598
H   15.0425052649 -6.8862306539 -1.5141974742
H   13.2552855593 -6.0811324856  0.6742766626
H   18.3162383211 -4.2732586779 -3.4049405996
C   9.8505968147 -4.7250248545  10.9022204720
O   12.1305032246 -5.4384147405  11.3748758060
C   11.1482909788 -5.0572210364  10.4758731961
O   7.6081350085 -4.0430215095  10.2986213040
C   11.5018589385 -5.0067332275  9.1082547507
O   5.9721620557 -3.2481769721  6.0893579252
C   10.5612292972 -4.6478647832  8.1638728960
O   4.3251758895 -4.3516283893  4.4291506083
C   9.2268978582 -4.3059238190  8.5422191924
O   6.2129394119 -6.1691242462  0.3746581522
C   8.9107828974 -4.3578438183  9.9469718964
C   8.1678102614 -3.9756489905  7.6619787223
C   8.1434936992 -4.1850881079  6.2886588254
C   6.9085556114 -3.9217783823  5.5536337996
C   6.7386299027 -4.4957276581  4.1969175881
C   7.8239493002 -4.8340486304  3.3638617456
C   5.4120191791 -4.7097339218  3.6888161141
C   7.6303202735 -5.3851989720  2.1097005938
C   5.2140402428 -5.2942610791  2.4338937084
C   6.3274456897 -5.6166924234  1.6329577147
C   3.7874999695 -5.6081322421  1.9623110299
C   3.3775937896 -7.0810859877  1.8241978192
C   3.4402599707 -8.0299530052  2.7865594204
C   3.0851008341 -9.4565246632  2.4573346876
C   3.9724878115 -7.7571119476  4.1753141285
H   9.5833828272 -4.7753667452  11.9602420842
H   12.5211174698 -5.2709857918  8.8432484322
H   10.8447699357 -4.6263813790  7.1170535024
H   11.7802114884 -5.4515049507  12.2884695130
H   7.4402383182 -4.2150541431  11.2466088976
H   7.2891651119 -3.5856190960  8.1551540438
H   8.8474626270 -4.8857189003  5.8583746745
H   8.8330049414 -4.6181093886  3.6829369638
H   8.4509192913 -5.6591264317  1.4588213808
H   4.6792168226 -3.8228878617  5.2078315324
H   5.2814100681 -6.2393879735  0.0947193481
H   3.1262009986 -5.1047379191  2.6772873831
H   3.6126766134 -5.1493825537  0.9784548208
H   2.9255080795 -7.3493813892  0.8677324162
H   2.5459232964 -9.9245060638  3.2880808900
H   3.9934440914 -10.0540902370  2.2997198890
H   2.4709126708 -9.5217485180  1.5539626552
H   5.0699914627 -7.7048675600  4.1687500306
H   3.6905032065 -8.5562554891  4.8675511840
H   3.6018674444 -6.8053625229  4.5716459791
84
Scanning combination 64/256: [2.7000, 2.7000]  Energy = -386.2355827089
O   10.7287360351 -5.3483259222  4.8487814076
O   11.9636451137 -0.6886512019  4.3712846962
O   17.9632774045 -3.5721208658 -2.8151060565
O   14.6447606104 -3.0218285071  0.7186376203
C   12.9206853917 -3.6653184197  2.3806426489
C   12.8701299243 -2.3278204338  2.8474697193
C   12.1757029197 -4.6700811487  3.0390653211
C   12.0317768819 -2.0009508165  3.9092111776
C   11.3694849476 -4.3333917557  4.1166873647
C   11.1980021736 -2.9805338279  4.5366776315
C   10.2027285079 -2.6105658275  5.5062745076
C   10.4658641220 -1.6799263071  6.4860318504
C   9.5278738009 -1.1121278792  7.4118244591
C   8.1809475696 -1.2651667960  7.2519654487
C   10.1162001629 -0.2638545584  8.5348933424
C   14.8443282545 -5.0201606241 -0.4320614500
C   15.3428134143 -3.6834730170 -0.3221686543
C   16.3495418578 -3.1796099530 -1.0998434847
C   16.9225988699 -4.0595043374 -2.0439799075
C   16.4514070116 -5.3952473555 -2.1993755730
C   15.4155597378 -5.8692081878 -1.4018138845
C   13.8415896602 -5.1830225414  0.5489961895
C   13.7276399558 -4.0011417344  1.2677826373
H   13.4833355107 -1.5749763593  2.3585342021
H   12.2514430999 -5.6984035466  2.7071309721
H   11.1438688376 -6.2144480893  4.6459049836
H   12.4189144720 -0.0869515537  3.7512412851
H   9.2209714414 -3.0442003206  5.3755056911
H   11.4966223273 -1.3439748138  6.5780881163
H   7.7722898254 -1.6286489435  6.3173587881
H   7.4700571122 -0.9077200242  7.9906308665
H   10.5243833416  0.6758980869  8.1425863324
H   10.9566950585 -0.7796611626  9.0108894946
H   9.3712062730 -0.0237553292  9.2992939022
H   16.7267906590 -2.1621507994 -1.0220267046
H   16.9012013569 -6.0515868906 -2.9426596110
H   15.0442438786 -6.8855232802 -1.5144157136
H   13.2577697084 -6.0822455946  0.6771534231
H   18.3136674787 -4.2693466216 -3.4068505026
C   9.8488125667 -4.7269961156  10.8978220674
O   12.1306868174 -5.4364186940  11.3737699462
C   11.1470282894 -5.0576828435  10.4752009620
O   7.6093070581 -4.0393454948  10.2975663597
C   11.4971294852 -5.0110867565  9.1076089303
O   5.9654169605 -3.2483630476  6.0866950239
C   10.5587196081 -4.6433538959  8.1625710562
O   4.3255504242 -4.3512597920  4.4281413338
C   9.2294163573 -4.2808646997  8.5408387359
O   6.2106090079 -6.1682220525  0.3728283740
C   8.9114796275 -4.3496386518  9.9430890079
C   8.1708584274 -3.9342236026  7.6592130804
C   8.1405522347 -4.1683933307  6.2878305034
C   6.9064269729 -3.9188761268  5.5528808080
C   6.7385917396 -4.4953914845  4.1961107396
C   7.8235203249 -4.8331645884  3.3619124933
C   5.4115818912 -4.7091811020  3.6876111805
C   7.6288065394 -5.3846028916  2.1077773084
C   5.2127975271 -5.2944377384  2.4329740490
C   6.3258477913 -5.6165143016  1.6314435086
C   3.7859872174 -5.6085255034  1.9624004558
C   3.3773716825 -7.0817207221  1.8242657333
C   3.4392048109 -8.0305380921  2.7866967785
C   3.0838028885 -9.4571062433  2.4576585106
C   3.9706789888 -7.7573331773  4.1757450344
H   9.5848166621 -4.7672747437  11.9564085838
H   12.5179918379 -5.2714626273  8.8470032814
H   10.8433412849 -4.6324939613  7.1163850632
H   11.7841342848 -5.4506227947  12.2885434198
H   7.4503883314 -4.2064168445  11.2480271404
H   7.2811737784 -3.5684742620  8.1498927217
H   8.8437607384 -4.8760515565  5.8688159100
H   8.8334227710 -4.6172471953  3.6792891174
H   8.4489179940 -5.6567862794  1.4552132919
H   4.6830408492 -3.8236625477  5.2075856586
H   5.2787665362 -6.2387513557  0.0941826658
H   3.1248710322 -5.1051356729  2.6775782933
H   3.6105469610 -5.1493382833  0.9788333049
H   2.9273014159 -7.3496892003  0.8668361407
H   2.5429094714 -9.9241453498  3.2877326731
H   3.9919576926 -10.0555258297  2.3024424061
H   2.4711658078 -9.5227766598  1.5532326186
H   5.0681597300 -7.7045460889  4.1695722492
H   3.6889024703 -8.5566988878  4.8677549710
H   3.5991887456 -6.8057414773  4.5717771379
84
Scanning combination 65/256: [2.7000, 2.6000]  Energy = -386.2315882441
O   10.7270006584 -5.3460279125  4.8470247108
O   11.9682788988 -0.6885611131  4.3688025976
O   17.9609258321 -3.5669039370 -2.8170585657
O   14.6486738975 -3.0235854277  0.7215322557
C   12.9253821740 -3.6674594050  2.3814361802
C   12.8770321733 -2.3291186492  2.8470979427
C   12.1792488198 -4.6723229511  3.0390040068
C   12.0375600315 -2.0012034503  3.9074376543
C   11.3725045778 -4.3341465335  4.1152926413
C   11.2050754321 -2.9814845989  4.5364227125
C   10.2131317901 -2.6144534759  5.5090139889
C   10.4748096580 -1.6776968676  6.4838406775
C   9.5369520737 -1.1254431002  7.4141661693
C   8.1901789425 -1.3291111282  7.2764467229
C   10.1143380455 -0.2681631267  8.5319989644
C   14.8482705204 -5.0209632766 -0.4303495837
C   15.3458861119 -3.6838403015 -0.3198714023
C   16.3507682355 -3.1780427168 -1.0980967565
C   16.9223496378 -4.0562279918 -2.0445115911
C   16.4518328577 -5.3921174597 -2.2009717256
C   15.4181138997 -5.8680985836 -1.4020302278
C   13.8463949103 -5.1855859437  0.5510477317
C   13.7316565636 -4.0034589984  1.2690619556
H   13.4924095279 -1.5776394412  2.3576779866
H   12.2541437894 -5.7013534675  2.7080655447
H   11.1374657329 -6.2142274696  4.6446002320
H   12.4215469197 -0.0849704094  3.7490612342
H   9.2299410342 -3.0479674624  5.3814256601
H   11.5014227302 -1.3288409841  6.5704322783
H   7.7804747937 -1.6837372151  6.3396506575
H   7.4786318636 -0.9897135671  8.0218276374
H   10.5153818529  0.6675000561  8.1250646205
H   10.9573608008 -0.7746173679  9.0153860311
H   9.3626515256 -0.0267095085  9.2893836579
H   16.7272635403 -2.1603156052 -1.0188131304
H   16.9006856088 -6.0470813398 -2.9459042594
H   15.0472185270 -6.8844903708 -1.5145297389
H   13.2638009111 -6.0855086105  0.6803920553
H   18.3102751142 -4.2627346801 -3.4109453347
C   9.8480355373 -4.7141315764  10.8960260160
O   12.1268945094 -5.4373655282  11.3667208003
C   11.1439442984 -5.0502940303  10.4707365789
O   7.6094332693 -4.0205910493  10.2992719427
C   11.4915140859 -5.0079179634  9.1024958189
O   5.9593088306 -3.2439851373  6.0829326335
C   10.5528765401 -4.6356395062  8.1604219678
O   4.3222604943 -4.3535061151  4.4264879048
C   9.2254625739 -4.2704080779  8.5402629485
O   6.2076113926 -6.1665341315  0.3707003364
C   8.9101491831 -4.3344701004  9.9422370328
C   8.1720315162 -3.9008466383  7.6581148887
C   8.1372948482 -4.1556650215  6.2873424854
C   6.9026788242 -3.9122892264  5.5514655550
C   6.7365561861 -4.4913062500  4.1943471308
C   7.8213803401 -4.8309217065  3.3603765311
C   5.4095223602 -4.7093161700  3.6865795630
C   7.6261588129 -5.3825172994  2.1060380502
C   5.2108469055 -5.2954752964  2.4323990436
C   6.3233966549 -5.6148679399  1.6293830880
C   3.7838764362 -5.6096728605  1.9620233198
C   3.3766933123 -7.0831097591  1.8236630699
C   3.4371811169 -8.0312365312  2.7867984667
C   3.0815568163 -9.4578019477  2.4582683743
C   3.9675379973 -7.7574466761  4.1761657199
H   9.5817221610 -4.7602813534  11.9537475427
H   12.5094923389 -5.2772068868  8.8399655075
H   10.8348072977 -4.6269660089  7.1132664853
H   11.7822697200 -5.4465957120  12.2823377297
H   7.4511379924 -4.1913247306  11.2493863469
H   7.2871480592 -3.5284122862  8.1526585486
H   8.8399495971 -4.8692166589  5.8794345657
H   8.8320731348 -4.6160936145  3.6766703543
H   8.4457100129 -5.6528619652  1.4518796379
H   4.6778687098 -3.8246911642  5.2055549564
H   5.2754902640 -6.2378101300  0.0930473553
H   3.1233848220 -5.1069617783  2.6782716361
H   3.6071636883 -5.1496963858  0.9788693852
H   2.9293864697 -7.3518859042  0.8652602989
H   2.5376565771 -9.9231323454  3.2872445272
H   3.9895829803 -10.0573404099  2.3070696147
H   2.4717700349 -9.5241813751  1.5520133771
H   5.0649900065 -7.7039128051  4.1707617979
H   3.6858740949 -8.5572638468  4.8676731392
H   3.5949775173 -6.8062338124  4.5721162318
84
Scanning combination 66/256: [2.7000, 2.5000]  Energy = -386.2280215021
O   10.7231886700 -5.3435178450  4.8421772326
O   11.9867475988 -0.6894178316  4.3603405297
O   17.9573989468 -3.5504058524 -2.8287607592
O   14.6621459648 -3.0291591110  0.7277683125
C   12.9419140895 -3.6765144932  2.3874857670
C   12.8948354596 -2.3376585527  2.8508861945
C   12.1906340160 -4.6787238901  3.0428860820
C   12.0511851928 -2.0051218235  3.9064382843
C   11.3788318164 -4.3364361885  4.1143953612
C   11.2127120073 -2.9824406322  4.5351410166
C   10.2258185986 -2.6205892969  5.5141932909
C   10.4847170424 -1.6673300454  6.4762008494
C   9.5548328471 -1.1403038753  7.4270349954
C   8.2126231490 -1.4189922248  7.3375407057
C   10.1191112400 -0.2533661040  8.5285458744
C   14.8632772918 -5.0234168628 -0.4289242045
C   15.3574191595 -3.6850938651 -0.3168934998
C   16.3579728046 -3.1740227321 -1.0971826108
C   16.9258247241 -4.0464037733 -2.0510875884
C   16.4579730832 -5.3829047006 -2.2101171161
C   15.4307432094 -5.8653416911 -1.4065504822
C   13.8657130645 -5.1932853726  0.5562914501
C   13.7492471060 -4.0123617403  1.2760663688
H   13.5146214015 -1.5891917345  2.3620918759
H   12.2642456813 -5.7077830672  2.7114232678
H   11.1214024116 -6.2157452437  4.6345029361
H   12.4330590969 -0.0909260034  3.7299176829
H   9.2498407774 -3.0834653865  5.4130381461
H   11.5039714224 -1.2898295576  6.5300717733
H   7.7710152344 -1.6733932634  6.3810176914
H   7.5349278665 -1.1911131781  8.1519716650
H   10.5087977820  0.6811572457  8.1082824250
H   10.9652622980 -0.7388141599  9.0281446038
H   9.3579213431 -0.0063605967  9.2754180825
H   16.7331176958 -2.1561904832 -1.0136342449
H   16.9031178927 -6.0329781875 -2.9615237718
H   15.0630007860 -6.8826819817 -1.5207361299
H   13.2869977909 -6.0955052723  0.6871595998
H   18.3031001632 -4.2415848211 -3.4301890125
C   9.8424932629 -4.6892155905  10.8938043747
O   12.1165224800 -5.4343203325  11.3569425026
C   11.1315539728 -5.0462168269  10.4631483000
O   7.6141913720 -3.9493489966  10.3024695556
C   11.4759831206 -5.0083042298  9.0940444455
O   5.9591265021 -3.2423556299  6.0784084699
C   10.5382399103 -4.6238456378  8.1565466708
O   4.3150011229 -4.3569338344  4.4285148609
C   9.2142958718 -4.2570860376  8.5387096324
O   6.1998193647 -6.1590488816  0.3657795550
C   8.9055827877 -4.2988420522  9.9420583426
C   8.1618313044 -3.8989667194  7.6489519079
C   8.1387184613 -4.1563505259  6.2729275991
C   6.8999467273 -3.9109369506  5.5426794082
C   6.7281448859 -4.4913392713  4.1891168417
C   7.8130478944 -4.8264202204  3.3544613620
C   5.4006563011 -4.7107996571  3.6851035070
C   7.6182247993 -5.3732743573  2.0987593964
C   5.2019735721 -5.2941964560  2.4298657653
C   6.3150145478 -5.6081854213  1.6246790064
C   3.7756749491 -5.6131943448  1.9610361946
C   3.3744850274 -7.0880695436  1.8208038518
C   3.4302250200 -8.0341147986  2.7862115344
C   3.0733447821 -9.4610766061  2.4607945151
C   3.9561278352 -7.7582957570  4.1769317511
H   9.5840526991 -4.7239021127  11.9540036354
H   12.4882373759 -5.2894734856  8.8240917277
H   10.8126312782 -4.6109009148  7.1083716147
H   11.7769400908 -5.4337225806  12.2747025483
H   7.4466002655 -4.1333726488  11.2479396449
H   7.2561548740 -3.5704922450  8.1386935026
H   8.8227995217 -4.8960956505  5.8769122492
H   8.8221870842 -4.6078641633  3.6726021799
H   8.4377433151 -5.6402101741  1.4434793388
H   4.6720148767 -3.8255882847  5.2050338264
H   5.2677532580 -6.2346367576  0.0893910301
H   3.1132928518 -5.1153810210  2.6790337671
H   3.5962049378 -5.1525183279  0.9787891803
H   2.9358511096 -7.3603492576  0.8593551656
H   2.5184591065 -9.9201509978  3.2860769474
H   3.9812078237 -10.0642167626  2.3239749268
H   2.4737674886 -9.5301229889  1.5479990945
H   5.0533745312 -7.7015547420  4.1743601388
H   3.6749738009 -8.5591213728  4.8675031720
H   3.5799593557 -6.8081970700  4.5721059559
84
Scanning combination 67/256: [2.7000, 2.4000]  Energy = -386.2240976091
O   10.7224997196 -5.3448260281  4.8415357037
O   11.9843825060 -0.6896215490  4.3609760829
O   17.9575758985 -3.5488571214 -2.8297814358
O   14.6635590419 -3.0298140635  0.7282406164
C   12.9415402785 -3.6772100205  2.3877157462
C   12.8933621263 -2.3388042407  2.8519152575
C   12.1897631297 -4.6787382150  3.0432909584
C   12.0504544575 -2.0054405388  3.9076272655
C   11.3789318928 -4.3368379828  4.1154874798
C   11.2128966284 -2.9825516663  4.5367336048
C   10.2266055549 -2.6184509400  5.5128827183
C   10.4827740122 -1.6656194202  6.4758416624
C   9.5540730326 -1.1484881525  7.4291575101
C   8.2125445053 -1.4738985103  7.3541531289
C   10.1186869597 -0.2532449434  8.5240855858
C   14.8646101317 -5.0237831070 -0.4289696467
C   15.3591385792 -3.6856096749 -0.3166312400
C   16.3587287342 -3.1737312975 -1.0974522479
C   16.9261056639 -4.0452572945 -2.0521931741
C   16.4584567336 -5.3820464325 -2.2111002609
C   15.4319542926 -5.8653820037 -1.4070129700
C   13.8671086948 -5.1935246733  0.5564749856
C   13.7507163018 -4.0130252373  1.2770372271
H   13.5150521655 -1.5918658869  2.3643412715
H   12.2647647831 -5.7079649249  2.7130925236
H   11.1211528990 -6.2170657377  4.6336704363
H   12.4322682384 -0.0921612405  3.7306143153
H   9.2504036527 -3.0832093214  5.4174881832
H   11.5000756392 -1.2861481662  6.5299525271
H   7.7646236267 -1.6776644404  6.3848581040
H   7.5363146277 -1.1868333757  8.1543998798
H   10.5111246817  0.6811274291  8.1049788969
H   10.9652850719 -0.7364395727  9.0259587230
H   9.3626394464 -0.0059055981  9.2761118569
H   16.7337734172 -2.1557129586 -1.0138142382
H   16.9035178914 -6.0320030567 -2.9625997620
H   15.0640083779 -6.8828271848 -1.5210595449
H   13.2893762668 -6.0962581389  0.6876898520
H   18.3023147483 -4.2400764132 -3.4315580275
C   9.8425192268 -4.6869318286  10.8930623370
O   12.1151604601 -5.4367106173  11.3569516056
C   11.1331277049 -5.0392887629  10.4643148698
O   7.6131048428 -3.9522068109  10.3022745743
C   11.4757755918 -5.0081125915  9.0947921647
O   5.9604320154 -3.2407116487  6.0757226046
C   10.5356115424 -4.6304775975  8.1565102686
O   4.3155239003 -4.3574162451  4.4283226791
C   9.2143675850 -4.2549617925  8.5375492591
O   6.1982167472 -6.1581759043  0.3639850725
C   8.9040141878 -4.3022941353  9.9402261705
C   8.1716956993 -3.8559733004  7.6437875563
C   8.1372414170 -4.1520357275  6.2697859387
C   6.9004374959 -3.9121320573  5.5413356646
C   6.7288271009 -4.4913447621  4.1875821245
C   7.8131594071 -4.8244532844  3.3516261069
C   5.4010599845 -4.7092306702  3.6834926510
C   7.6172918294 -5.3734553722  2.0970748302
C   5.2014760446 -5.2942786257  2.4291088021
C   6.3139779852 -5.6099081491  1.6239767225
C   3.7750606842 -5.6137909262  1.9610438194
C   3.3740205850 -7.0886317510  1.8206886898
C   3.4295049930 -8.0344692536  2.7861929853
C   3.0726856246 -9.4613673853  2.4610137410
C   3.9551361841 -7.7583628711  4.1768950356
H   9.5826009483 -4.7201734700  11.9531185822
H   12.4886403898 -5.2905324000  8.8259114494
H   10.8152150551 -4.6122292746  7.1091703355
H   11.7761413160 -5.4331197293  12.2747183635
H   7.4497934992 -4.1258695416  11.2506532959
H   7.2550893363 -3.5701161347  8.1406321870
H   8.8247076689 -4.8896878945  5.8766042245
H   8.8228599841 -4.6081798878  3.6701504575
H   8.4364244765 -5.6396465116  1.4411522669
H   4.6718020844 -3.8260654453  5.2049945271
H   5.2658300791 -6.2343945160  0.0887427601
H   3.1137071918 -5.1154523769  2.6794648108
H   3.5953216948 -5.1526866143  0.9791289341
H   2.9365538827 -7.3609864981  0.8587405977
H   2.5168470200 -9.9197617150  3.2859353328
H   3.9803934710 -10.0649498359  2.3254596296
H   2.4740301183 -9.5307367187  1.5476901009
H   5.0523371219 -7.7012282941  4.1747903737
H   3.6740260579 -8.5591358602  4.8674427308
H   3.5787835953 -6.8083791760  4.5720447044
84
Scanning combination 68/256: [2.7000, 2.3000]  Energy = -386.2234412428
O   10.7098100549 -5.3514984786  4.8330899160
O   11.9557992196 -0.6893781531  4.3156095431
O   17.9269535430 -3.4758430287 -2.8704363172
O   14.7098230139 -3.0430655197  0.7690160124
C   12.9852168814 -3.7032789026  2.4193728158
C   12.9249932872 -2.3621412868  2.8754824000
C   12.2176737907 -4.7000628523  3.0640530117
C   12.0519522412 -2.0173609274  3.9033561954
C   11.3888043606 -4.3505659339  4.1200414049
C   11.2143955325 -2.9941238419  4.5362907231
C   10.2268970929 -2.6441236854  5.5188852673
C   10.4549538703 -1.6670095728  6.4622928940
C   9.5724804152 -1.2046249515  7.4843316317
C   8.2528049523 -1.6323645067  7.5850587055
C   10.1739563511 -0.2208414953  8.4780144752
C   14.9249538487 -5.0280614326 -0.4006436167
C   15.4029455387 -3.6840909715 -0.2859573830
C   16.3790849112 -3.1499498335 -1.0827253140
C   16.9295700699 -3.9995809943 -2.0666113983
C   16.4766969876 -5.3410257856 -2.2293303596
C   15.4805731866 -5.8500845182 -1.4024472053
C   13.9431352171 -5.2171048644  0.5984681195
C   13.8111161972 -4.0385288169  1.3200896457
H   13.5649085055 -1.6199469059  2.4042467263
H   12.2927657914 -5.7320574377  2.7407625102
H   11.0824533679 -6.2317357626  4.6123571273
H   12.4044327704 -0.1022202204  3.6749218948
H   9.2660486620 -3.1510866698  5.4557327362
H   11.4356639670 -1.1980229155  6.4387483307
H   7.6361778040 -1.7273285476  6.6924532205
H   7.7330011660 -1.5006471051  8.5317082861
H   10.5134248848  0.6839948487  7.9601228062
H   11.0668861072 -0.6399745568  8.9571960386
H   9.4590123978  0.0677004514  9.2550724227
H   16.7428825915 -2.1283682562 -0.9956337336
H   16.9072994044 -5.9733484065 -3.0039013222
H   15.1262689911 -6.8722244091 -1.5203649875
H   13.3901554314 -6.1336783703  0.7412228470
H   18.2552967402 -4.1498548664 -3.5004694032
C   9.8294523535 -4.6105870999  10.8894583377
O   12.0704818117 -5.4187096166  11.3941704677
C   11.1086560068 -5.0208888466  10.4792748907
O   7.6401356550 -3.7880358942  10.2589100802
C   11.4652711304 -5.0326438985  9.1130022259
O   5.9832069126 -3.2271539795  6.0256840538
C   10.5345683224 -4.6782102302  8.1543259728
O   4.3189646063 -4.3624762475  4.4115342244
C   9.2161638892 -4.2857643831  8.5171755020
O   6.1417687067 -6.1322708843  0.3106945457
C   8.9096124831 -4.2325566191  9.9177383551
C   8.1646333001 -3.9304377640  7.6155363493
C   8.1358602540 -4.1971093513  6.2302415396
C   6.9113175407 -3.9193459431  5.4945574087
C   6.7291376259 -4.4908474294  4.1378950761
C   7.8025707047 -4.8106303855  3.2817914013
C   5.3951814278 -4.7117516334  3.6520349781
C   7.5887725639 -5.3479920057  2.0236912709
C   5.1785603673 -5.2960064603  2.4006013673
C   6.2786953573 -5.5938146785  1.5727431003
C   3.7472433048 -5.6309337517  1.9588660488
C   3.3677294573 -7.1094812131  1.8092707716
C   3.3971648250 -8.0441006616  2.7863949454
C   3.0305599009 -9.4725610813  2.4785695532
C   3.9029454774 -7.7547115150  4.1825100199
H   9.5649349847 -4.5954546912  11.9484488827
H   12.4772989278 -5.3312857991  8.8605072541
H   10.8197600972 -4.7005857058  7.1083778244
H   11.7162524837 -5.3912739249  12.3058653346
H   7.4978268079 -3.8290060965  11.2249365616
H   7.2301431849 -3.6948398521  8.1062493583
H   8.8097519516 -4.9414288684  5.8318073545
H   8.8168620877 -4.5882284466  3.5845429052
H   8.3959016803 -5.6016329268  1.3480122576
H   4.6824758311 -3.8197340352  5.1763600405
H   5.2046575016 -6.2201873105  0.0547716844
H   3.0954618654 -5.1554302641  2.7008883152
H   3.5382673601 -5.1583341020  0.9886470142
H   2.9769441325 -7.3978842650  0.8320910582
H   2.4145806339 -9.8937171409  3.2805649818
H   3.9318357173 -10.0976658274  2.4221653717
H   2.4887369692 -9.5579290541  1.5318809325
H   4.9992066689 -7.6849023107  4.1944996962
H   3.6202190038 -8.5566049291  4.8710767916
H   3.5126571429 -6.8071778497  4.5701588154
84
Scanning combination 69/256: [2.7000, 2.2000]  Energy = -386.2229484316
O   10.7097461702 -5.3552668017  4.8315535335
O   11.9548080110 -0.6929304055  4.3190177764
O   17.9264661595 -3.4748448291 -2.8700773480
O   14.7117600735 -3.0427153240  0.7719599878
C   12.9841892037 -3.7033108277  2.4194286451
C   12.9247314935 -2.3626277402  2.8758291240
C   12.2181159978 -4.7009064315  3.0643563546
C   12.0505545021 -2.0191365933  3.9022720957
C   11.3865948433 -4.3529221615  4.1183290142
C   11.2143416164 -2.9962407497  4.5336149486
C   10.2342443368 -2.6435144699  5.5176278491
C   10.4624953651 -1.6691390449  6.4629713028
C   9.5800846008 -1.2256114468  7.4858717548
C   8.2553462073 -1.6724162491  7.5808961835
C   10.1660941309 -0.2295396952  8.4721201418
C   14.9264936775 -5.0270853255 -0.3987629106
C   15.4027719338 -3.6824814966 -0.2852420077
C   16.3770428938 -3.1486735083 -1.0835830947
C   16.9280982693 -3.9982882123 -2.0672411455
C   16.4764642777 -5.3399542480 -2.2295960709
C   15.4817398389 -5.8487813109 -1.4012495007
C   13.9451138102 -5.2167678179  0.6003964801
C   13.8104340131 -4.0374489112  1.3202145070
H   13.5647902698 -1.6212690510  2.4043409579
H   12.2946469420 -5.7321356039  2.7408018316
H   11.0839711145 -6.2341249318  4.6078991205
H   12.3981532499 -0.1050745915  3.6758248788
H   9.2714845935 -3.1488496184  5.4606832868
H   11.4421625894 -1.1956560098  6.4476226406
H   7.6303844756 -1.7054440475  6.6885550263
H   7.7348491069 -1.5117362618  8.5224752060
H   10.5058684035  0.6763368908  7.9564257906
H   11.0595750305 -0.6435465108  8.9518997350
H   9.4530941928  0.0604303795  9.2494170310
H   16.7430676236 -2.1278872985 -0.9944912631
H   16.9083626267 -5.9726750283 -3.0035424370
H   15.1281117213 -6.8708689938 -1.5179509211
H   13.3922744792 -6.1332409329  0.7431262420
H   18.2541305637 -4.1476961123 -3.5015281332
C   9.8307129829 -4.6118303579  10.8908971803
O   12.0733513333 -5.4173410642  11.3922047368
C   11.1096259343 -5.0198092587  10.4797554575
O   7.6439422048 -3.7832568080  10.2616807366
C   11.4617118057 -5.0370796966  9.1129427400
O   5.9790030923 -3.2298199983  6.0239063684
C   10.5321470461 -4.6770771510  8.1557060707
O   4.3177635287 -4.3632767889  4.4118034813
C   9.2221072948 -4.2713566144  8.5211820033
O   6.1428552941 -6.1310264412  0.3099084513
C   8.9119972336 -4.2313281785  9.9194860388
C   8.1808183472 -3.8708611485  7.6146042767
C   8.1350960407 -4.1857213578  6.2285439003
C   6.9108972474 -3.9183574836  5.4942229627
C   6.7282432735 -4.4919122372  4.1376513851
C   7.8014223189 -4.8121951267  3.2821209872
C   5.3934155716 -4.7125441529  3.6521028832
C   7.5880308073 -5.3479829707  2.0234690003
C   5.1772244470 -5.2961869520  2.4000038390
C   6.2781064406 -5.5929255468  1.5721259123
C   3.7458390818 -5.6306340401  1.9578473392
C   3.3680532554 -7.1097037177  1.8088761822
C   3.3971880411 -8.0440330799  2.7863370430
C   3.0294976123 -9.4723880474  2.4795087300
C   3.9020939768 -7.7538249735  4.1825588954
H   9.5644329849 -4.5918271417  11.9494146130
H   12.4734639282 -5.3363040602  8.8616323294
H   10.8168247092 -4.7019412707  7.1087899877
H   11.7213159105 -5.3907652968  12.3050002635
H   7.5019950023 -3.8262926186  11.2276004206
H   7.2296776145 -3.7033267893  8.1064738684
H   8.8003882321 -4.9416346956  5.8401664762
H   8.8154548601 -4.5901623940  3.5856446213
H   8.3957869571 -5.5990511939  1.3475107273
H   4.6837493428 -3.8216347569  5.1776223336
H   5.2055555214 -6.2191851307  0.0547410890
H   3.0937980112 -5.1544651931  2.6994807800
H   3.5373320868 -5.1587390069  0.9870192016
H   2.9797507298 -7.3987691749  0.8310164836
H   2.4119356493 -9.8923324434  3.2808713559
H   3.9299465896 -10.0986810970  2.4254219478
H   2.4891641152 -9.5588475194  1.5321464243
H   4.9982768077 -7.6838571490  4.1947040572
H   3.6196004182 -8.5553623093  4.8715832721
H   3.5114460240 -6.8061402301  4.5694481191
84
Scanning combination 70/256: [2.7000, 2.1000]  Energy = -386.2249008413
O   10.7110465654 -5.3560109490  4.8279484280
O   11.9558847657 -0.6948584295  4.3185952034
O   17.9246612639 -3.4709385720 -2.8712888406
O   14.7127651484 -3.0420829298  0.7713160499
C   12.9869685542 -3.7049591937  2.4172291866
C   12.9274694586 -2.3631859554  2.8724705926
C   12.2203588332 -4.7046890262  3.0594462134
C   12.0551589405 -2.0204836915  3.9001708429
C   11.3905600540 -4.3562368678  4.1142452670
C   11.2225884043 -2.9996115506  4.5325236627
C   10.2450942252 -2.6511693049  5.5177375416
C   10.4715126670 -1.6811717499  6.4705711666
C   9.5872783816 -1.2475303213  7.4876420031
C   8.2512539714 -1.7081126001  7.5784611760
C   10.1549249631 -0.2461797658  8.4698071911
C   14.9286705755 -5.0263775061 -0.3985781993
C   15.4046884293 -3.6814497164 -0.2847220065
C   16.3785279454 -3.1459687716 -1.0824166538
C   16.9281713916 -3.9952495481 -2.0668832280
C   16.4772280469 -5.3373820627 -2.2285287818
C   15.4838905087 -5.8480936602 -1.3999680804
C   13.9488072245 -5.2178344542  0.6009071083
C   13.8146872672 -4.0387556683  1.3204455265
H   13.5667040842 -1.6198589031  2.4021541785
H   12.2989138724 -5.7369414461  2.7372042098
H   11.0804009647 -6.2367547452  4.6044869121
H   12.3909636610 -0.1016127175  3.6746999043
H   9.2811752071 -3.1585937910  5.4644319283
H   11.4488645123 -1.2031280340  6.4512274989
H   7.6258282960 -1.6382249759  6.6886946682
H   7.7370245152 -1.5170229971  8.5200203168
H   10.4814174252  0.6568012313  7.9408855631
H   11.0529123439 -0.6445324292  8.9573912096
H   9.4279938862  0.0362103519  9.2373677737
H   16.7426663639 -2.1243576445 -0.9944915815
H   16.9084860231 -5.9700318252 -3.0022856910
H   15.1313188771 -6.8708986213 -1.5145207953
H   13.3966027687 -6.1344862819  0.7454068104
H   18.2513524874 -4.1438048917 -3.5032011349
C   9.8334389761 -4.6112606818  10.8919772269
O   12.0770370474 -5.4174295890  11.3919290533
C   11.1104763270 -5.0240095840  10.4796960366
O   7.6486071029 -3.7737756087  10.2655103060
C   11.4607229927 -5.0425479138  9.1129053097
O   5.9727724726 -3.2277138000  6.0242223055
C   10.5333521091 -4.6660726667  8.1580001148
O   4.3154199085 -4.3665492373  4.4112324919
C   9.2308624778 -4.2463471840  8.5253286989
O   6.1419107404 -6.1285144255  0.3080451321
C   8.9191424739 -4.2145719390  9.9208529654
C   8.1926375843 -3.8069738645  7.6131442401
C   8.1314713923 -4.1747092160  6.2260114615
C   6.9073521456 -3.9164358390  5.4958898495
C   6.7258104235 -4.4936558043  4.1398035229
C   7.7997216014 -4.8136214968  3.2844103431
C   5.3920643163 -4.7143527139  3.6522463684
C   7.5868506632 -5.3465022603  2.0239273158
C   5.1763740581 -5.2959384350  2.3987679804
C   6.2772589962 -5.5913334092  1.5708891723
C   3.7454885528 -5.6313024637  1.9559007848
C   3.3685359951 -7.1106522184  1.8078205094
C   3.3958531812 -8.0437549145  2.7864198397
C   3.0273469400 -9.4721119468  2.4813445452
C   3.9002155256 -7.7522896873  4.1824464130
H   9.5703158430 -4.5930469687  11.9510566268
H   12.4684883598 -5.3519704216  8.8578006098
H   10.8144026674 -4.7017559097  7.1109689163
H   11.7286088973 -5.3888353537  12.3058479553
H   7.5074079168 -3.8218040569  11.2312018208
H   7.2293951951 -3.7199198965  8.1080123815
H   8.7846084749 -4.9525884367  5.8591106814
H   8.8142857200 -4.5940406223  3.5895770683
H   8.3944660212 -5.5957147227  1.3468739209
H   4.6808818523 -3.8261482272  5.1781851118
H   5.2048369676 -6.2179624139  0.0519316418
H   3.0929157450 -5.1547274107  2.6966246683
H   3.5370653557 -5.1600793810  0.9848059391
H   2.9839937013 -7.4012310873  0.8289759031
H   2.4064714022 -9.8889402189  3.2816802858
H   3.9269755330 -10.0999460612  2.4319497929
H   2.4899997403 -9.5597117414  1.5324431941
H   4.9963445176 -7.6816066015  4.1953023353
H   3.6176842532 -8.5532463662  4.8719537667
H   3.5090030535 -6.8045623706  4.5683738558
84
Scanning combination 71/256: [2.7000, 2.0000]  Energy = -386.2290381189
O   10.7120080126 -5.3576281823  4.8269188944
O   11.9584949565 -0.6978770880  4.3194698529
O   17.9250540489 -3.4674766319 -2.8748607695
O   14.7155066683 -3.0416169692  0.7712585168
C   12.9900142147 -3.7049816044  2.4171947347
C   12.9312627104 -2.3636611458  2.8717151457
C   12.2255751558 -4.7051915857  3.0611102052
C   12.0587376695 -2.0222889364  3.8989630746
C   11.3937875631 -4.3588394090  4.1140109307
C   11.2248700676 -3.0014229356  4.5284461319
C   10.2528868355 -2.6552276707  5.5144271322
C   10.4798550630 -1.6877172211  6.4728678037
C   9.5957955728 -1.2625967857  7.4851950409
C   8.2490621306 -1.7481703271  7.5761688144
C   10.1418247999 -0.2537052168  8.4667022933
C   14.9343097210 -5.0263524394 -0.3978966466
C   15.4070738277 -3.6806638520 -0.2853160530
C   16.3785378108 -3.1445911084 -1.0854950656
C   16.9296278494 -3.9931908081 -2.0701205303
C   16.4815442447 -5.3363065203 -2.2311947161
C   15.4900562286 -5.8473112667 -1.4003768902
C   13.9534120087 -5.2177473682  0.6007560744
C   13.8160295084 -4.0380068172  1.3190397206
H   13.5692592001 -1.6222408630  2.3975178579
H   12.3025917829 -5.7348462784  2.7333914786
H   11.0770665973 -6.2384900718  4.5978049012
H   12.3879079612 -0.1062822593  3.6706819209
H   9.2933160860 -3.1817765101  5.4780465076
H   11.4571034557 -1.2073449603  6.4554468920
H   7.6187947382 -1.5967526271  6.6994213015
H   7.7489896006 -1.5211107499  8.5174241037
H   10.4594861903  0.6557367352  7.9427563215
H   11.0421259099 -0.6391891584  8.9625323660
H   9.4083683631  0.0218906855  9.2317370692
H   16.7426298440 -2.1234877415 -0.9949056288
H   16.9133273571 -5.9679268394 -3.0062057099
H   15.1381931287 -6.8701480938 -1.5152878161
H   13.4043284154 -6.1362126718  0.7447224931
H   18.2512541263 -4.1391420664 -3.5083668906
C   9.8378548702 -4.6059019974  10.8927520609
O   12.0781184234 -5.4252353435  11.3873479713
C   11.1127919074 -5.0225890154  10.4777006960
O   7.6574154495 -3.7570701018  10.2688662377
C   11.4561967236 -5.0479513334  9.1103498776
O   5.9673259084 -3.2263914850  6.0195514289
C   10.5293811529 -4.6622128468  8.1571768155
O   4.3128299158 -4.3697443002  4.4126839530
C   9.2344749607 -4.2328337741  8.5293095158
O   6.1428556500 -6.1242984515  0.3060192706
C   8.9250628057 -4.2046726019  9.9205317667
C   8.1950506413 -3.7470092402  7.6160430180
C   8.1274615376 -4.1616155000  6.2240680957
C   6.9055663171 -3.9148443860  5.4946758284
C   6.7232158659 -4.4964268601  4.1403370115
C   7.7966311112 -4.8162462971  3.2852023509
C   5.3891976697 -4.7161791657  3.6527855914
C   7.5858430149 -5.3460801658  2.0234554173
C   5.1744405057 -5.2958499424  2.3980019022
C   6.2764817796 -5.5899588173  1.5701096892
C   3.7440029407 -5.6318275061  1.9540403898
C   3.3694009852 -7.1119017776  1.8063762856
C   3.3948749717 -8.0437218360  2.7863234294
C   3.0244944014 -9.4720132639  2.4834519472
C   3.8974841549 -7.7508091309  4.1827642990
H   9.5698292139 -4.5951752958  11.9504696818
H   12.4592051582 -5.3702294849  8.8531095883
H   10.8134093230 -4.6926217368  7.1103096591
H   11.7331812900 -5.3853584602  12.3014462475
H   7.5144149665 -3.8157386150  11.2332797213
H   7.2257191249 -3.7366324379  8.1132595032
H   8.7654874869 -4.9663076781  5.8940732686
H   8.8102826346 -4.6000766225  3.5942737226
H   8.3949254450 -5.5926965553  1.3466845000
H   4.6801644021 -3.8288476420  5.1796961321
H   5.2059573220 -6.2147829567  0.0510893098
H   3.0903788948 -5.1556013756  2.6943569145
H   3.5370172022 -5.1614695469  0.9820991995
H   2.9880552330 -7.4041082698  0.8267573434
H   2.3996216146 -9.8856807035  3.2823689823
H   3.9230229593 -10.1017256584  2.4395970460
H   2.4908108316 -9.5613179326  1.5326678496
H   4.9935154890 -7.6795690877  4.1964327881
H   3.6150685118 -8.5514864204  4.8726676158
H   3.5051079148 -6.8031260538  4.5677368367
84
Scanning combination 72/256: [2.7000, 1.9000]  Energy = -386.2347642179
O   10.7126880828 -5.3575438234  4.8261291524
O   11.9591536936 -0.6974965702  4.3185321790
O   17.9250290180 -3.4661343714 -2.8759277668
O   14.7159985750 -3.0419710327  0.7699923246
C   12.9910036533 -3.7061593418  2.4162915732
C   12.9310658354 -2.3644000779  2.8708054145
C   12.2250005169 -4.7062789406  3.0589062425
C   12.0596394061 -2.0221128175  3.8981949135
C   11.3947358151 -4.3594922288  4.1127225346
C   11.2282966533 -3.0019021333  4.5299278768
C   10.2576570191 -2.6551538014  5.5142122499
C   10.4795419595 -1.6867836157  6.4736101882
C   9.6030831724 -1.2740748574  7.4882131610
C   8.2521212442 -1.7928555799  7.5814080227
C   10.1343272580 -0.2584299006  8.4626330482
C   14.9350446082 -5.0265761724 -0.3989958714
C   15.4081318341 -3.6806102430 -0.2863638815
C   16.3800531964 -3.1438664659 -1.0853781720
C   16.9303982351 -3.9922610315 -2.0703467015
C   16.4820859157 -5.3353222753 -2.2313209754
C   15.4908498091 -5.8473927326 -1.4010166060
C   13.9552561090 -5.2187682452  0.6005584637
C   13.8183793318 -4.0392608235  1.3190584336
H   13.5691958954 -1.6219800161  2.3982164425
H   12.3036205852 -5.7372042034  2.7334971955
H   11.0760381009 -6.2391615102  4.5963921592
H   12.3880813414 -0.1042120092  3.6704725296
H   9.2955098299 -3.1849949951  5.4864597893
H   11.4555790000 -1.2052898358  6.4544094610
H   7.6226260913 -1.6049951637  6.7124344075
H   7.7509842884 -1.5307930335  8.5115225744
H   10.4546700651  0.6527158233  7.9418290971
H   11.0366172596 -0.6358155213  8.9605348405
H   9.4034235846  0.0177379573  9.2293143511
H   16.7432721762 -2.1221142974 -0.9962133172
H   16.9136644771 -5.9671251376 -3.0058501376
H   15.1398420551 -6.8707584067 -1.5150493035
H   13.4053044124 -6.1366960288  0.7451451428
H   18.2510357451 -4.1379317460 -3.5093215895
C   9.8370352847 -4.6077364091  10.8905965329
O   12.0778333946 -5.4262177141  11.3857988782
C   11.1108296934 -5.0250395549  10.4763375095
O   7.6566371708 -3.7536820410  10.2692178075
C   11.4536290107 -5.0501834151  9.1086802901
O   5.9673355970 -3.2245077594  6.0194571807
C   10.5249362543 -4.6588739317  8.1574429312
O   4.3132900355 -4.3703642342  4.4129590086
C   9.2381952069 -4.2174897400  8.5321263015
O   6.1422591339 -6.1232745404  0.3056733323
C   8.9239627739 -4.2006695832  9.9192894910
C   8.2005451747 -3.6918397656  7.6141182004
C   8.1245151753 -4.1520140281  6.2208540418
C   6.9044480684 -3.9155486433  5.4953521868
C   6.7230039921 -4.4978520389  4.1404155792
C   7.7969257262 -4.8167199651  3.2857528267
C   5.3894991850 -4.7164519798  3.6528393948
C   7.5854488264 -5.3459712614  2.0236857267
C   5.1744669489 -5.2959176036  2.3978659724
C   6.2759999460 -5.5894956382  1.5699087582
C   3.7443206065 -5.6321952415  1.9537753757
C   3.3694181880 -7.1122121355  1.8062500189
C   3.3943047596 -8.0437706968  2.7864143228
C   3.0237684389 -9.4721315704  2.4839088177
C   3.8966981800 -7.7506148895  4.1828167668
H   9.5722871831 -4.5947876359  11.9494277250
H   12.4558617720 -5.3729862606  8.8505676002
H   10.8104901703 -4.6917095728  7.1112535426
H   11.7347790009 -5.3848931155  12.3013906782
H   7.5155659397 -3.8129999623  11.2342793611
H   7.2305725578 -3.7375802737  8.1094355210
H   8.7570489739 -4.9651711466  5.9065509483
H   8.8107480187 -4.6013978304  3.5954667796
H   8.3941541046 -5.5922477512  1.3470537519
H   4.6798853538 -3.8291596140  5.1799692673
H   5.2053820040 -6.2142366532  0.0498492086
H   3.0905709913 -5.1558273727  2.6937043522
H   3.5368915466 -5.1619434683  0.9819129721
H   2.9890471689 -7.4047605644  0.8263775939
H   2.3979053514 -9.8848197183  3.2825217452
H   3.9220818492 -10.1022561915  2.4414614354
H   2.4910205622 -9.5616509166  1.5326336507
H   4.9927472131 -7.6790057896  4.1967736873
H   3.6141980433 -8.5512318129  4.8727341265
H   3.5041476707 -6.8029294748  4.5674610143
84
Scanning combination 73/256: [2.7000, 1.8000]  Energy = -386.2408975359
O   10.7146353920 -5.3552545309  4.8252091601
O   11.9640300004 -0.6975189243  4.3138111337
O   17.9252215451 -3.4623673222 -2.8795707262
O   14.7187430534 -3.0425995996  0.7684139943
C   12.9945758546 -3.7081162912  2.4133614957
C   12.9361705034 -2.3651225907  2.8659128095
C   12.2280354910 -4.7085213858  3.0562161283
C   12.0656025689 -2.0217925464  3.8929171295
C   11.3984409460 -4.3600655340  4.1097077342
C   11.2361323711 -3.0015352528  4.5268535453
C   10.2745022164 -2.6570304196  5.5167907569
C   10.4904364324 -1.6840626355  6.4747959563
C   9.6150953355 -1.2897409102  7.4895718326
C   8.2598566179 -1.8410175739  7.5918938326
C   10.1212715949 -0.2666534114  8.4612649043
C   14.9396708239 -5.0268234347 -0.4003947054
C   15.4111648733 -3.6802186661 -0.2878733923
C   16.3819580455 -3.1422680636 -1.0873769593
C   16.9323301945 -3.9899120252 -2.0728555369
C   16.4858091656 -5.3335753128 -2.2334080912
C   15.4959483084 -5.8469305360 -1.4023849212
C   13.9605197970 -5.2205793308  0.5993051771
C   13.8223115294 -4.0410811054  1.3171234123
H   13.5741627604 -1.6222679734  2.3930679790
H   12.3061025011 -5.7404312373  2.7322152381
H   11.0705808533 -6.2386251262  4.5912062668
H   12.3899944902 -0.1017431564  3.6662250890
H   9.3158915869 -3.2059112425  5.5123993424
H   11.4610669969 -1.1879497265  6.4478912454
H   7.6294045568 -1.6241034992  6.7281313648
H   7.7697960997 -1.5579549299  8.5234359445
H   10.4259743457  0.6444505388  7.9307447807
H   11.0275557571 -0.6257164907  8.9688030494
H   9.3761381391 -0.0006365423  9.2175541371
H   16.7440228773 -2.1200719014 -0.9987715639
H   16.9175503506 -5.9648619097 -3.0081405620
H   15.1466030981 -6.8708644415 -1.5155836790
H   13.4117489726 -6.1390215410  0.7449948679
H   18.2509923916 -4.1334121116 -3.5138464133
C   9.8355543405 -4.6038848715  10.8894689058
O   12.0735848659 -5.4337233929  11.3775959711
C   11.1050445923 -5.0300178045  10.4706080652
O   7.6578136092 -3.7370930370  10.2715664579
C   11.4459816237 -5.0539605159  9.1028458579
O   5.9602483953 -3.2162534908  6.0163523245
C   10.5197235018 -4.6463039237  8.1550800169
O   4.3112269986 -4.3740317035  4.4135293746
C   9.2403105889 -4.1979458529  8.5364720649
O   6.1416534986 -6.1192263272  0.3041343326
C   8.9256594060 -4.1821759210  9.9195047390
C   8.2018858692 -3.6398446560  7.6190654258
C   8.1244908884 -4.1310752165  6.2202610919
C   6.9026264325 -3.9041495020  5.4964150048
C   6.7214009517 -4.4970830653  4.1435187060
C   7.7949373352 -4.8190459221  3.2893081668
C   5.3885316819 -4.7189000120  3.6548106973
C   7.5842124108 -5.3460412649  2.0256433852
C   5.1740744898 -5.2966778305  2.3984510692
C   6.2753143243 -5.5882158781  1.5697427028
C   3.7441945078 -5.6330332316  1.9530722151
C   3.3698991807 -7.1132755606  1.8055978665
C   3.3927386868 -8.0440007714  2.7865812572
C   3.0209413040 -9.4723533396  2.4856990098
C   3.8936729695 -7.7498288355  4.1832937069
H   9.5709956271 -4.5964186707  11.9480639556
H   12.4429628972 -5.3881423182  8.8400397849
H   10.7997468140 -4.6821314946  7.1072477009
H   11.7373803936 -5.3824732137  12.2949503741
H   7.5162375396 -3.8030877845  11.2357368752
H   7.2323435111 -3.7414028497  8.1120536260
H   8.7320688590 -4.9767057596  5.9464720532
H   8.8091950579 -4.6067349052  3.5995894426
H   8.3928423643 -5.5906602818  1.3479721835
H   4.6777376635 -3.8308034023  5.1792889430
H   5.2049144353 -6.2108537746  0.0477480700
H   3.0899191516 -5.1566848394  2.6924923310
H   3.5368753367 -5.1633795128  0.9808176056
H   2.9926686960 -7.4070412555  0.8248526698
H   2.3911889934 -9.8820028331  3.2828580509
H   3.9182527387 -10.1042350349  2.4485233029
H   2.4917642348 -9.5631416978  1.5325771562
H   4.9896306595 -7.6775624278  4.1981575799
H   3.6110306926 -8.5501788317  4.8734094967
H   3.5001716819 -6.8021547337  4.5669202707
84
Scanning combination 74/256: [2.7000, 1.7000]  Energy = -386.2458981272
O   10.7219345672 -5.3522190107  4.8236783017
O   11.9735031739 -0.6941717350  4.3027567713
O   17.9270848794 -3.4569288968 -2.8866493627
O   14.7238906348 -3.0438576773  0.7634941195
C   13.0011806071 -3.7094260210  2.4087407533
C   12.9428994905 -2.3658873955  2.8589518714
C   12.2349819668 -4.7090651478  3.0527842913
C   12.0738021757 -2.0201682141  3.8868559705
C   11.4075232100 -4.3594495876  4.1074733323
C   11.2458878992 -3.0003775842  4.5246262850
C   10.2895935561 -2.6655419209  5.5197864719
C   10.4944661756 -1.6853220172  6.4746187726
C   9.6227300932 -1.3103197020  7.4948723039
C   8.2676674962 -1.8976899890  7.6060746789
C   10.0987917334 -0.2688862832  8.4604146923
C   14.9480412928 -5.0285790238 -0.4037086194
C   15.4168778420 -3.6809143850 -0.2922526885
C   16.3855067268 -3.1406580932 -1.0924549930
C   16.9365161049 -3.9868442986 -2.0786748661
C   16.4928671713 -5.3317189222 -2.2383617577
C   15.5052538286 -5.8476073895 -1.4060500491
C   13.9692847695 -5.2233151067  0.5963689291
C   13.8290903798 -4.0432398917  1.3131507503
H   13.5815057149 -1.6261757039  2.3820375122
H   12.3105106205 -5.7406555730  2.7280097623
H   11.0649853234 -6.2375900934  4.5807506346
H   12.3986302271 -0.1020943392  3.6506176468
H   9.3410462623 -3.2473533656  5.5388552343
H   11.4519438959 -1.1629437252  6.4303183920
H   7.6310005722 -1.6292606710  6.7596012694
H   7.7973342103 -1.5956569947  8.5445144456
H   10.3845896316  0.6485964101  7.9280453164
H   11.0099226701 -0.5979842477  8.9823957166
H   9.3402119634 -0.0163603223  9.2090885115
H   16.7451221128 -2.1175696841 -1.0028133178
H   16.9252632439 -5.9619756966 -3.0135739058
H   15.1577485546 -6.8722797503 -1.5187180603
H   13.4225080239 -6.1428189262  0.7430550614
H   18.2525415013 -4.1268420819 -3.5222315854
C   9.8331869978 -4.5975278860  10.8885800875
O   12.0648774300 -5.4501030156  11.3677810661
C   11.0983154981 -5.0335157307  10.4648931164
O   7.6646524741 -3.7021153546  10.2765653096
C   11.4359558544 -5.0620703310  9.0966610052
O   5.9625174549 -3.1943843987  6.0079208731
C   10.5093625980 -4.6445440567  8.1521089020
O   4.3103347125 -4.3775589948  4.4216201024
C   9.2350497398 -4.1915177142  8.5377422095
O   6.1434016874 -6.1123690937  0.3071274011
C   8.9243866189 -4.1679706890  9.9193298408
C   8.2032709969 -3.5963816070  7.6196556497
C   8.1252446926 -4.1203874859  6.2192474536
C   6.9032777392 -3.8906848489  5.4956758536
C   6.7200431515 -4.4931651350  4.1471524217
C   7.7943330095 -4.8187526832  3.2959260005
C   5.3875598245 -4.7185199349  3.6599307221
C   7.5843683804 -5.3449408069  2.0319007304
C   5.1736007931 -5.2962015045  2.4032046598
C   6.2757218826 -5.5855527678  1.5746048108
C   3.7447394499 -5.6339556000  1.9553536204
C   3.3716121468 -7.1144871762  1.8060677877
C   3.3904286007 -8.0446692215  2.7875525663
C   3.0164091968 -9.4726990644  2.4881792106
C   3.8888797823 -7.7495018878  4.1848870383
H   9.5668665507 -4.5971157003  11.9470705639
H   12.4266121516 -5.4107551254  8.8289096044
H   10.7920814750 -4.6692385333  7.1050698229
H   11.7362142894 -5.3809486757  12.2865090894
H   7.5176702250 -3.7851620145  11.2381352121
H   7.2325271512 -3.7451581791  8.1029000473
H   8.6944004494 -5.0029209855  5.9796787794
H   8.8083717415 -4.6102556421  3.6096621661
H   8.3934780505 -5.5892655716  1.3548760339
H   4.6757363307 -3.8279861170  5.1828673227
H   5.2070245580 -6.2029832568  0.0491720591
H   3.0886755013 -5.1583178998  2.6936261172
H   3.5394382756 -5.1643022154  0.9826725779
H   2.9985568960 -7.4085822496  0.8238042103
H   2.3806354872 -9.8780411532  3.2827731843
H   3.9121024846 -10.1072041961  2.4589555356
H   2.4928820271 -9.5651851410  1.5321321694
H   4.9847301240 -7.6767317671  4.2010770297
H   3.6053267474 -8.5494374502  4.8750197939
H   3.4945969493 -6.8015290015  4.5669733270
84
Scanning combination 75/256: [2.7000, 1.6000]  Energy = -386.2466634508
O   10.7249490309 -5.3552412704  4.8236627749
O   11.9714220634 -0.6955912911  4.3015729454
O   17.9280561666 -3.4551433791 -2.8899763244
O   14.7254972734 -3.0441371799  0.7622459445
C   13.0019921774 -3.7105007578  2.4078156669
C   12.9420025592 -2.3672435603  2.8588466888
C   12.2357909659 -4.7099637566  3.0523401808
C   12.0729326227 -2.0218000166  3.8868952477
C   11.4089203125 -4.3610898131  4.1079810107
C   11.2471099566 -3.0019924539  4.5265163696
C   10.2920193330 -2.6655608071  5.5192712051
C   10.4879169394 -1.6837438297  6.4736445342
C   9.6172011512 -1.3214063487  7.4956444981
C   8.2661938647 -1.9483582387  7.6100616897
C   10.0871117056 -0.2698427730  8.4551988147
C   14.9511127789 -5.0286835607 -0.4052035526
C   15.4190793019 -3.6805981936 -0.2939996409
C   16.3871604811 -3.1402531147 -1.0945948897
C   16.9384998114 -3.9857978425 -2.0811534023
C   16.4959400041 -5.3311820792 -2.2406059389
C   15.5088238004 -5.8474347144 -1.4076363118
C   13.9726712562 -5.2241028517  0.5954936265
C   13.8311260066 -4.0438889940  1.3124060282
H   13.5799188803 -1.6265965989  2.3828345405
H   12.3124744354 -5.7414402312  2.7275157050
H   11.0665495472 -6.2400382289  4.5757647950
H   12.3985031348 -0.1045158736  3.6498885277
H   9.3430677962 -3.2512154637  5.5465714147
H   11.4428849072 -1.1578488217  6.4298317533
H   7.6289574897 -1.6369496405  6.7782785570
H   7.7980191148 -1.6021325482  8.5348057409
H   10.3748296479  0.6512989135  7.9273838946
H   11.0029603983 -0.5912349154  8.9758320440
H   9.3358751025 -0.0137756652  9.2106623150
H   16.7465689635 -2.1167619983 -1.0060191933
H   16.9284604294 -5.9611437541 -3.0158743660
H   15.1628381300 -6.8726498887 -1.5201963067
H   13.4270365550 -6.1439801299  0.7423426722
H   18.2535313310 -4.1246076085 -3.5259709571
C   9.8322764167 -4.6025013630  10.8868438523
O   12.0639084646 -5.4554927524  11.3697225223
C   11.0969470286 -5.0402919502  10.4655712018
O   7.6663377773 -3.6961494491  10.2768769403
C   11.4317238781 -5.0701411348  9.0968883418
O   5.9635725357 -3.1882399944  6.0026498057
C   10.5038586494 -4.6480910593  8.1519440717
O   4.3125468740 -4.3760075794  4.4238208262
C   9.2360908872 -4.1759711893  8.5361703329
O   6.1431267637 -6.1111972741  0.3075797288
C   8.9237964503 -4.1666972864  9.9166162073
C   8.2087580394 -3.5472742202  7.6178183299
C   8.1225843448 -4.1102824616  6.2239402472
C   6.9052951458 -3.8883969554  5.4970124874
C   6.7219076700 -4.4936949469  4.1474404869
C   7.7952922527 -4.8188551515  3.2956400113
C   5.3888405378 -4.7172412275  3.6610591363
C   7.5851927405 -5.3453965289  2.0314922067
C   5.1741335348 -5.2953847121  2.4044436922
C   6.2758855195 -5.5849473990  1.5752229903
C   3.7451444665 -5.6336289595  1.9571593718
C   3.3724005976 -7.1142808511  1.8069501603
C   3.3897731921 -8.0446234848  2.7883871971
C   3.0147357939 -9.4724566729  2.4891534192
C   3.8872783776 -7.7495068233  4.1860744090
H   9.5701978236 -4.5947122300  11.9463645491
H   12.4236915514 -5.4171996955  8.8300433376
H   10.7907645994 -4.6778300277  7.1055771235
H   11.7368867161 -5.3827158084  12.2892376303
H   7.5223133196 -3.7759830987  11.2390074104
H   7.2445930510 -3.7457133599  8.0955442125
H   8.6904830643 -4.9942687768  5.9877601913
H   8.8085354665 -4.6108654277  3.6109948831
H   8.3944586925 -5.5903882376  1.3553313949
H   4.6791851195 -3.8242626314  5.1836220565
H   5.2066994439 -6.1999073110  0.0495279561
H   3.0890761897 -5.1586058477  2.6959017392
H   3.5393849161 -5.1637023671  0.9846545332
H   3.0015763894 -7.4085129752  0.8238239486
H   2.3763546810 -9.8762639336  3.2824618072
H   3.9095914979 -10.1082616118  2.4629172764
H   2.4935070616 -9.5651098583  1.5318438038
H   4.9831290080 -7.6768838816  4.2031027246
H   3.6029373683 -8.5493714797  4.8760275059
H   3.4929195183 -6.8013865802  4.5677015088
84
Scanning combination 76/256: [2.7000, 1.5000]  Energy = -386.2410770651
O   10.7268228376 -5.3551911497  4.8244531468
O   11.9716393194 -0.6959565886  4.2998347035
O   17.9282918586 -3.4537451940 -2.8916484291
O   14.7264913112 -3.0441480519  0.7612270486
C   13.0039721331 -3.7112235823  2.4068343425
C   12.9442757365 -2.3672576789  2.8564236643
C   12.2378047946 -4.7111684825  3.0512165397
C   12.0761358398 -2.0214776469  3.8838807120
C   11.4113665519 -4.3623001932  4.1065010549
C   11.2527950914 -3.0024473822  4.5228341631
C   10.2998037785 -2.6648323483  5.5135151065
C   10.4908491691 -1.6860629503  6.4729219824
C   9.6231503866 -1.3413091670  7.4991043202
C   8.2793316978 -1.9975559999  7.6178585813
C   10.0729563828 -0.2786547251  8.4518005247
C   14.9531595474 -5.0287636827 -0.4056351537
C   15.4202909563 -3.6805434339 -0.2946597359
C   16.3880293767 -3.1394408583 -1.0958372009
C   16.9393230464 -3.9850409236 -2.0825493209
C   16.4975092430 -5.3304928491 -2.2414748905
C   15.5112123411 -5.8473016504 -1.4081815631
C   13.9748465061 -5.2244574463  0.5948404522
C   13.8326344651 -4.0444017803  1.3113204996
H   13.5812956636 -1.6261394414  2.3805821995
H   12.3137463680 -5.7427254162  2.7266402526
H   11.0658806967 -6.2402681412  4.5740005244
H   12.3984241181 -0.1034564401  3.6493638038
H   9.3507631616 -3.2548171700  5.5434364733
H   11.4380175020 -1.1473383299  6.4276066028
H   7.6396066118 -1.6650548359  6.7934336875
H   7.8121736053 -1.6417207779  8.5425144445
H   10.3528807073  0.6389238099  7.9156956366
H   10.9912601997 -0.5880102677  8.9733897740
H   9.3179822031 -0.0241916522  9.2036318684
H   16.7468972295 -2.1160963696 -1.0074053829
H   16.9303010317 -5.9603512001 -3.0168654065
H   15.1657380698 -6.8726442061 -1.5205690842
H   13.4297657700 -6.1448357429  0.7423181919
H   18.2537365496 -4.1229691042 -3.5280449572
C   9.8270837627 -4.6009584236  10.8837166848
O   12.0577893299 -5.4590097888  11.3652461967
C   11.0903780764 -5.0416041655  10.4624464023
O   7.6619933055 -3.6912667836  10.2766094903
C   11.4253017160 -5.0730753900  9.0948923728
O   5.9511995623 -3.1802534052  6.0009201119
C   10.5033970319 -4.6397977009  8.1500448172
O   4.3130918609 -4.3768352535  4.4236613533
C   9.2437330648 -4.1530601479  8.5365106701
O   6.1429730867 -6.1099513932  0.3086167396
C   8.9240829995 -4.1509748899  9.9142028009
C   8.2253741425 -3.4965497981  7.6157799840
C   8.1199379616 -4.0883695056  6.2290249025
C   6.9016759101 -3.8765411007  5.5035947139
C   6.7229950891 -4.4930977797  4.1531445646
C   7.7959920657 -4.8190668042  3.2995496744
C   5.3906913922 -4.7181317772  3.6638199597
C   7.5851138589 -5.3452273373  2.0346315370
C   5.1754300858 -5.2954894229  2.4061904940
C   6.2765005887 -5.5845172471  1.5766791889
C   3.7462438001 -5.6334268049  1.9586256659
C   3.3734137232 -7.1139930709  1.8076447042
C   3.3893687386 -8.0443138288  2.7890185709
C   3.0135601942 -9.4719590300  2.4898547051
C   3.8861796079 -7.7493671765  4.1869652996
H   9.5659108135 -4.5952177398  11.9424906301
H   12.4142993880 -5.4237208307  8.8269677196
H   10.7868527862 -4.6816050993  7.1031844071
H   11.7350135032 -5.3833414743  12.2854534712
H   7.5234709862 -3.7714280546  11.2394134132
H   7.2642960917 -3.7340704976  8.0840341737
H   8.6747822346 -4.9860832974  6.0225910966
H   8.8111482280 -4.6119779466  3.6111216640
H   8.3936069789 -5.5903576366  1.3568287636
H   4.6788771724 -3.8223469572  5.1828831010
H   5.2064868234 -6.1976847105  0.0498639012
H   3.0902898527 -5.1588879504  2.6976838491
H   3.5396516932 -5.1630539387  0.9864947301
H   3.0038514262 -7.4081747750  0.8240673190
H   2.3733562888 -9.8748121951  3.2821878693
H   3.9078133927 -10.1086937511  2.4657306301
H   2.4940261887 -9.5648601880  1.5316820378
H   4.9820069971 -7.6770320689  4.2044620612
H   3.6012894499 -8.5490903747  4.8767581021
H   3.4920053464 -6.8010716474  4.5684021443
84
Scanning combination 77/256: [2.6000, 2.9000]  Energy = -386.2327028509
O   10.7510679393 -5.3568800679  4.8628027980
O   11.9116904278 -0.6808684372  4.3750641293
O   17.9706719977 -3.6177879094 -2.7847720423
O   14.6037112004 -3.0032872082  0.6947976876
C   12.8751513897 -3.6387311919  2.3600589760
C   12.8162772995 -2.3030469526  2.8305697489
C   12.1465020521 -4.6516493603  3.0241636214
C   11.9870757539 -1.9900824608  3.9056854042
C   11.3585446044 -4.3286720228  4.1187713643
C   11.1719241950 -2.9813625644  4.5415379131
C   10.1639728133 -2.6171384564  5.5124768969
C   10.4421616706 -1.6960232972  6.4973599291
C   9.5139144709 -1.0732146566  7.4005578793
C   8.1705802904 -1.1043713693  7.1932650285
C   10.1291846433 -0.2710892998  8.5471341868
C   14.8055425322 -5.0135955054 -0.4355787016
C   15.3099356911 -3.6784784861 -0.3335832274
C   16.3300460081 -3.1905828553 -1.1031107628
C   16.9135920177 -4.0872990427 -2.0251011161
C   16.4368868933 -5.4222799009 -2.1711222259
C   15.3855210675 -5.8790436714 -1.3847757349
C   13.7915643616 -5.1620204495  0.5345546783
C   13.6794289807 -3.9750915973  1.2450913887
H   13.4136340460 -1.5412100818  2.3347734436
H   12.2225237497 -5.6766781248  2.6834002675
H   11.1884788271 -6.2117888063  4.6598932947
H   12.3614673067 -0.0710702965  3.7590829800
H   9.1657047090 -2.9874500941  5.3204670409
H   11.4864368149 -1.4112110931  6.6122646174
H   7.7564195018 -1.5821688801  6.3133910655
H   7.4697198868 -0.6157816242  7.8633222185
H   10.5241791008  0.6825166936  8.1753163438
H   10.9786391913 -0.8050141701  8.9869996128
H   9.4008253496 -0.0601983871  9.3354731828
H   16.7115082922 -2.1736912688 -1.0349250978
H   16.8945185367 -6.0914478207 -2.8979000283
H   15.0089911653 -6.8944880075 -1.4883449342
H   13.1984727283 -6.0553895022  0.6594852652
H   18.3312472103 -4.3278639233 -3.3546318347
C   9.8357476974 -4.7817534061  10.9057810967
O   12.1255459775 -5.4400519218  11.4101977591
C   11.1498369840 -5.0675935570  10.5007725488
O   7.5899587932 -4.1458061284  10.2753914134
C   11.5225471586 -4.9954262269  9.1397286412
O   6.0057687954 -3.2441898976  6.0803490354
C   10.5890330964 -4.6505511107  8.1815114335
O   4.3592310451 -4.3411904783  4.4270907355
C   9.2468221136 -4.3207558536  8.5426619303
O   6.2183630485 -6.1956146145  0.3797351970
C   8.9050111430 -4.4212561451  9.9393649035
C   8.2007778125 -3.9670484898  7.6558349086
C   8.1980955070 -4.1386846849  6.2743445753
C   6.9482127665 -3.9088283570  5.5433699992
C   6.7734853733 -4.4920764986  4.1896973618
C   7.8520949504 -4.8486370111  3.3539770867
C   5.4428699417 -4.7058799482  3.6864388917
C   7.6486356808 -5.4134383673  2.1069122959
C   5.2356321675 -5.2989285572  2.4367912108
C   6.3430149905 -5.6359665085  1.6342736844
C   3.8045122952 -5.6010452887  1.9700504220
C   3.3822213275 -7.0704779532  1.8327500321
C   3.4540493041 -8.0247351575  2.7890628906
C   3.1018341820 -9.4503136823  2.4519862471
C   3.9957158146 -7.7570251259  4.1752010547
H   9.5483857938 -4.8574088551  11.9563413828
H   12.5539706866 -5.2262277768  8.8946938890
H   10.8902780417 -4.6224883646  7.1397761412
H   11.7595712401 -5.4818219466  12.3171373436
H   7.4180483450 -4.3267460990  11.2210447058
H   7.3174581864 -3.5804897322  8.1453864811
H   8.9091045799 -4.8279536545  5.8396572240
H   8.8652132558 -4.6404965478  3.6645925206
H   8.4641413170 -5.7010884969  1.4552125165
H   4.7187295910 -3.8130905678  5.2043631693
H   5.2863916906 -6.2423611382  0.0970295166
H   3.1496929914 -5.0913174214  2.6864530936
H   3.6297139459 -5.1403410627  0.9869006501
H   2.9134625287 -7.3297237039  0.8818919195
H   2.5837742569 -9.9320491013  3.2881086925
H   4.0105148354 -10.0395576257  2.2669030082
H   2.4689828064 -9.5102494785  1.5610613220
H   5.0934661173 -7.7108005020  4.1613650370
H   3.7138715802 -8.5552729163  4.8686304105
H   3.6321933148 -6.8035044695  4.5742602939
84
Scanning combination 78/256: [2.6000, 2.8000]  Energy = -386.2301980253
O   10.7488711674 -5.3563462959  4.8633434320
O   11.9185551776 -0.6828998291  4.3734802196
O   17.9686848223 -3.6101785642 -2.7866744092
O   14.6069601799 -3.0066431526  0.6989907881
C   12.8814340680 -3.6443648006  2.3639804904
C   12.8246132211 -2.3076345816  2.8323819366
C   12.1509580896 -4.6564816030  3.0275309217
C   11.9940241615 -1.9923117016  3.9047893922
C   11.3602548040 -4.3306559222  4.1190065653
C   11.1759558593 -2.9816398609  4.5382894183
C   10.1683341882 -2.6150889756  5.5067076293
C   10.4486202209 -1.7013258759  6.4993069470
C   9.5192831542 -1.0903142584  7.4063314583
C   8.1723026782 -1.1627121045  7.2164426376
C   10.1259451779 -0.2736569040  8.5443141327
C   14.8091798674 -5.0149492046 -0.4344499369
C   15.3123582319 -3.6795040451 -0.3307807551
C   16.3310420153 -3.1888607459 -1.1007050921
C   16.9136848832 -4.0827205072 -2.0259793292
C   16.4381278016 -5.4177584379 -2.1739040252
C   15.3887124451 -5.8774354780 -1.3865333297
C   13.7966026942 -5.1662043552  0.5368237391
C   13.6845218367 -3.9802276080  1.2487806233
H   13.4222728625 -1.5456576630  2.3370905863
H   12.2258553220 -5.6823345693  2.6884262630
H   11.1822696211 -6.2132892775  4.6597737578
H   12.3667067397 -0.0732134116  3.7563651729
H   9.1691348679 -2.9811981712  5.3086919555
H   11.4904536470 -1.4070929552  6.6093091336
H   7.7620325696 -1.6208688491  6.3257197660
H   7.4692729583 -0.6792177455  7.8871461073
H   10.5207077270  0.6752614229  8.1620986791
H   10.9770057587 -0.7988239048  8.9919886482
H   9.3925928345 -0.0521599773  9.3258074514
H   16.7119146792 -2.1720868914 -1.0303249912
H   16.8952112930 -6.0848125241 -2.9029792129
H   15.0135251239 -6.8930432109 -1.4921049411
H   13.2045980757 -6.0603428276  0.6620774938
H   18.3278740538 -4.3179655037 -3.3603701605
C   9.8345114104 -4.7780447806  10.9005705037
O   12.1241586748 -5.4382059726  11.4042914443
C   11.1461280404 -5.0732743152  10.4941758392
O   7.5914922532 -4.1315504344  10.2736603830
C   11.5165948550 -5.0001419348  9.1329352281
O   5.9951390568 -3.2478798552  6.0811797130
C   10.5869094925 -4.6373910923  8.1781927193
O   4.3555871814 -4.3446389229  4.4277073128
C   9.2458642647 -4.2984095807  8.5395842193
O   6.2183318619 -6.1923310421  0.3794538295
C   8.9074913970 -4.3994178736  9.9367112678
C   8.2022838030 -3.9283123834  7.6527522753
C   8.1939508506 -4.1233592283  6.2729648637
C   6.9429285227 -3.9035772273  5.5431692282
C   6.7703426466 -4.4927781660  4.1920432048
C   7.8494361128 -4.8462573938  3.3556314587
C   5.4397163459 -4.7081067379  3.6882315478
C   7.6472427735 -5.4091015170  2.1075966348
C   5.2338735870 -5.2983972697  2.4370821660
C   6.3418792360 -5.6332012388  1.6343339887
C   3.8028544026 -5.6014547610  1.9699595558
C   3.3822188747 -7.0713636059  1.8321489863
C   3.4527695884 -8.0250176815  2.7891383287
C   3.0997133558 -9.4505675646  2.4528654432
C   3.9932551621 -7.7571178540  4.1757284962
H   9.5507378765 -4.8466573015  11.9527933046
H   12.5478118544 -5.2353496227  8.8876370393
H   10.8849070766 -4.6247385837  7.1347249628
H   11.7620824570 -5.4765861027  12.3123734355
H   7.4223497171 -4.3150550130  11.2190894237
H   7.3153914013 -3.5489704976  8.1424672638
H   8.9003964685 -4.8262066126  5.8512175534
H   8.8618654178 -4.6344343466  3.6662159509
H   8.4633576282 -5.6945479068  1.4552294826
H   4.7157081532 -3.8163707058  5.2056577295
H   5.2862492776 -6.2427701998  0.0976282290
H   3.1473143643 -5.0932343440  2.6868778332
H   3.6273220230 -5.1403029098  0.9871498759
H   2.9159342807 -7.3316699851  0.8803232249
H   2.5786125543 -9.9302891545  3.2882712652
H   4.0081475779 -10.0412806502  2.2713333314
H   2.4692839624 -9.5106762466  1.5602523036
H   5.0910216081 -7.7110230368  4.1631093755
H   3.7106701975 -8.5553437044  4.8688492097
H   3.6294052759 -6.8036292036  4.5745013331
84
Scanning combination 79/256: [2.6000, 2.7000]  Energy = -386.2277606722
O   10.7301664391 -5.3593402915  4.8543238816
O   11.9452253749 -0.6929408725  4.3658480905
O   17.9625426386 -3.5751958023 -2.8042488943
O   14.6311230611 -3.0230514324  0.7172060243
C   12.9086768360 -3.6683784823  2.3799522006
C   12.8546843857 -2.3312065478  2.8461812603
C   12.1694550709 -4.6744139658  3.0421320933
C   12.0120228492 -2.0064231524  3.9067085768
C   11.3607632655 -4.3394419749  4.1191927561
C   11.1779534607 -2.9878176996  4.5358953303
C   10.1698051747 -2.6169821510  5.5035969911
C   10.4506778766 -1.6864324665  6.4833133626
C   9.5321977414 -1.1034502779  7.4165271608
C   8.1836081815 -1.2604641650  7.2805812947
C   10.1320808164 -0.2518519170  8.5306066918
C   14.8343850732 -5.0216769675 -0.4324584643
C   15.3319535695 -3.6846321740 -0.3217969586
C   16.3416145272 -3.1815429679 -1.0957604166
C   16.9186879893 -4.0619816925 -2.0370593982
C   16.4484899916 -5.3978484209 -2.1935430275
C   15.4096356159 -5.8710218287 -1.3995744194
C   13.8294065536 -5.1848194445  0.5464200524
C   13.7139650570 -4.0029189822  1.2651351617
H   13.4655629382 -1.5771143999  2.3546928884
H   12.2493594660 -5.7026995349  2.7110223755
H   11.1545391832 -6.2210657714  4.6526375103
H   12.3972938298 -0.0920181256  3.7421813947
H   9.1713670862 -2.9948586478  5.3209221436
H   11.4898618887 -1.3769135578  6.5703271412
H   7.7598387210 -1.5944452185  6.3417710905
H   7.4883520188 -0.9917047606  8.0671691832
H   10.5358420000  0.6848765770  8.1280356471
H   10.9759957282 -0.7650614633  9.0040756458
H   9.3885399520 -0.0036024426  9.2939110994
H   16.7190950981 -2.1641745510 -1.0161252588
H   16.9017873316 -6.0546399464 -2.9343919171
H   15.0395711171 -6.8876313622 -1.5126896340
H   13.2444181685 -6.0836787060  0.6724344577
H   18.3156502464 -4.2721065770 -3.3947314891
C   9.8356703228 -4.7299313683  10.8932443951
O   12.1129329676 -5.4474481537  11.3791996812
C   11.1352053383 -5.0641994247  10.4761981548
O   7.6043809777 -4.0220939341  10.2807238710
C   11.4973294245 -5.0104412590  9.1112259864
O   5.9853672120 -3.2444443818  6.0867892181
C   10.5662083237 -4.6372856116  8.1626399642
O   4.3395342967 -4.3581717241  4.4381190715
C   9.2332639902 -4.2823471395  8.5329305666
O   6.2168831257 -6.1754511860  0.3795019253
C   8.9052821038 -4.3484483056  9.9333846924
C   8.1853400689 -3.9358176300  7.6443085258
C   8.1873238368 -4.1190490273  6.2610807943
C   6.9299617819 -3.8969419750  5.5416212493
C   6.7536286590 -4.4843972162  4.1923423506
C   7.8359698968 -4.8287717012  3.3579802459
C   5.4245245143 -4.7099269053  3.6929870557
C   7.6386653589 -5.3867390105  2.1081174683
C   5.2231395653 -5.2964029110  2.4394965959
C   6.3343908532 -5.6186072870  1.6354563388
C   3.7951883520 -5.6066679486  1.9691091735
C   3.3828767629 -7.0785668939  1.8285763218
C   3.4442740370 -8.0293862956  2.7889157531
C   3.0872475170 -9.4547748004  2.4568813141
C   3.9780388707 -7.7595563478  4.1775786838
H   9.5610515733 -4.7840468614  11.9491181577
H   12.5168991923 -5.2777101882  8.8535239315
H   10.8566296420 -4.6155149652  7.1179552822
H   11.7616364721 -5.4533373575  12.2928069036
H   7.4250025387 -4.2241771822  11.2206231685
H   7.2836546323 -3.5938570823  8.1316452192
H   8.8862122065 -4.8292854076  5.8391994410
H   8.8452667257 -4.6114645609  3.6736731156
H   8.4583080539 -5.6623566119  1.4569121446
H   4.6957446108 -3.8311772984  5.2173044990
H   5.2848863749 -6.2426935719  0.1006519714
H   3.1353955168 -5.1030300183  2.6852697362
H   3.6198790691 -5.1454762881  0.9863253875
H   2.9292412849 -7.3431872640  0.8719913691
H   2.5499954145 -9.9246223178  3.2876515357
H   3.9945277683 -10.0528676313  2.2955391760
H   2.4706191639 -9.5177783542  1.5550063266
H   5.0756882833 -7.7115425712  4.1702051262
H   3.6935643800 -8.5582741973  4.8692060207
H   3.6106703751 -6.8068587148  4.5745611188
84
Scanning combination 80/256: [2.6000, 2.6000]  Energy = -386.2238658663
O   10.7277886898 -5.3610115129  4.8530097294
O   11.9411459815 -0.6946663107  4.3667086561
O   17.9608590359 -3.5710474872 -2.8055251882
O   14.6336510280 -3.0242537827  0.7203721435
C   12.9093214002 -3.6706233960  2.3813675983
C   12.8542448161 -2.3331983380  2.8470185472
C   12.1683868744 -4.6766939560  3.0417468929
C   12.0130000403 -2.0077008263  3.9070872437
C   11.3611114516 -4.3417258476  4.1191317865
C   11.1817404154 -2.9893692988  4.5353676080
C   10.1767414567 -2.6142115098  5.4996612891
C   10.4552650912 -1.6867952298  6.4827491598
C   9.5337076301 -1.1223691841  7.4208851213
C   8.1831906876 -1.3208199729  7.3028323114
C   10.1291627602 -0.2570614588  8.5237028838
C   14.8367336200 -5.0220687943 -0.4307433845
C   15.3341521690 -3.6849631698 -0.3195166399
C   16.3424748624 -3.1802799606 -1.0942695154
C   16.9184601290 -4.0593335939 -2.0372839641
C   16.4484662063 -5.3954571978 -2.1941430539
C   15.4110003431 -5.8704816041 -1.3992815589
C   13.8325980161 -5.1859876616  0.5488376474
C   13.7171490729 -4.0047451468  1.2684358075
H   13.4675230099 -1.5797789108  2.3595669193
H   12.2497180150 -5.7055158090  2.7133705428
H   11.1525669149 -6.2229773858  4.6525445624
H   12.3956621984 -0.0930505773  3.7461990397
H   9.1783356909 -2.9953440273  5.3258810894
H   11.4912434409 -1.3671551653  6.5685521906
H   7.7544745768 -1.6293288954  6.3572490079
H   7.4906194716 -1.0088823672  8.0775450677
H   10.5330671873  0.6761031782  8.1123707331
H   10.9730570235 -0.7642166238  9.0027323876
H   9.3896180759 -0.0077792178  9.2899578848
H   16.7194340104 -2.1626711987 -1.0147047242
H   16.9007548490 -6.0513907613 -2.9362558256
H   15.0408409494 -6.8872421440 -1.5127614439
H   13.2485899750 -6.0853293866  0.6753041743
H   18.3126527783 -4.2677906230 -3.3968994287
C   9.8351980928 -4.7284257395  10.8899361114
O   12.1110965082 -5.4478400627  11.3783392836
C   11.1353669134 -5.0599818447  10.4753728554
O   7.6045929932 -4.0221352017  10.2791124685
C   11.4948386163 -5.0133390448  9.1105298549
O   5.9796158589 -3.2405643041  6.0803162181
C   10.5654341943 -4.6336023005  8.1610500695
O   4.3403788861 -4.3594839543  4.4374396124
C   9.2361084862 -4.2647753114  8.5316997030
O   6.2137765980 -6.1745864487  0.3762454133
C   8.9071498686 -4.3389742764  9.9304515541
C   8.1909477408 -3.8985835848  7.6417984462
C   8.1850576539 -4.1030242575  6.2591684321
C   6.9287052996 -3.8920759143  5.5392367193
C   6.7545148770 -4.4839930562  4.1906512565
C   7.8359042950 -4.8254163986  3.3532272751
C   5.4249733308 -4.7089219485  3.6910332900
C   7.6375267186 -5.3855232668  2.1039722461
C   5.2226791845 -5.2962851136  2.4378554134
C   6.3330581230 -5.6198090708  1.6330550917
C   3.7941396607 -5.6071857365  1.9694147669
C   3.3825041301 -7.0792900874  1.8283868899
C   3.4432394663 -8.0299513295  2.7889915854
C   3.0857895977 -9.4554052984  2.4573358896
C   3.9762230518 -7.7598749748  4.1780648751
H   9.5618689400 -4.7752379154  11.9454560041
H   12.5146236579 -5.2796875432  8.8554594969
H   10.8560695212 -4.6215140342  7.1166399560
H   11.7620563786 -5.4525521121  12.2924991432
H   7.4335258583 -4.2108392326  11.2235020859
H   7.2857377873 -3.5686997413  8.1298969344
H   8.8824879215 -4.8204727209  5.8489722381
H   8.8462462465 -4.6090618689  3.6670491811
H   8.4562035047 -5.6609420645  1.4510338846
H   4.6977998498 -3.8304927195  5.2157969441
H   5.2810521431 -6.2426269131  0.0997538551
H   3.1353498593 -5.1039230798  2.6868538854
H   3.6179366129 -5.1454998799  0.9870893614
H   2.9311500663 -7.3442483203  0.8707048813
H   2.5463195979 -9.9239408291  3.2874945011
H   3.9930364474 -10.0542573610  2.2984391890
H   2.4710422884 -9.5183748721  1.5541467020
H   5.0738495928 -7.7110291185  4.1712858788
H   3.6917251519 -8.5588277368  4.8695512805
H   3.6082862389 -6.8073079570  4.5748865664
84
Scanning combination 81/256: [2.6000, 2.5000]  Energy = -386.2197650667
O   10.7251429609 -5.3598546237  4.8511340236
O   11.9447547108 -0.6954611223  4.3636058472
O   17.9574656660 -3.5634312575 -2.8088390417
O   14.6390635257 -3.0266863293  0.7251625896
C   12.9158780770 -3.6741959110  2.3841252379
C   12.8620438943 -2.3358827200  2.8481067867
C   12.1729541537 -4.6802574301  3.0427541039
C   12.0190699290 -2.0091339512  3.9060231816
C   11.3646314736 -4.3438841334  4.1184750670
C   11.1877256020 -2.9909452353  4.5345021459
C   10.1861365986 -2.6186609727  5.5011583671
C   10.4625733384 -1.6862292886  6.4807561334
C   9.5417565858 -1.1371695738  7.4258661773
C   8.1929042868 -1.3842044508  7.3368083139
C   10.1293586030 -0.2587845222  8.5196888409
C   14.8425337041 -5.0231187747 -0.4277556992
C   15.3388090828 -3.6856577905 -0.3155156193
C   16.3443019175 -3.1781245340 -1.0917126342
C   16.9182293547 -4.0545950376 -2.0382479702
C   16.4492475742 -5.3909336268 -2.1963520777
C   15.4148854860 -5.8688511221 -1.3992514431
C   13.8395569021 -5.1893647435  0.5523193236
C   13.7235200029 -4.0083279214  1.2719658369
H   13.4768533102 -1.5836710708  2.3598375949
H   12.2522712317 -5.7090050370  2.7129583494
H   11.1448038020 -6.2243956321  4.6518279585
H   12.3973970296 -0.0929822671  3.7424590603
H   9.1878246067 -3.0093541421  5.3359086234
H   11.4944132414 -1.3510220738  6.5569751937
H   7.7517848991 -1.6808004973  6.3926762434
H   7.5115752235 -1.0872078381  8.1271047645
H   10.5266005593  0.6700584688  8.0941911024
H   10.9759485633 -0.7565907284  9.0052018170
H   9.3845123325 -0.0042019354  9.2795383385
H   16.7196367647 -2.1600584412 -1.0106904109
H   16.8997174998 -6.0448053888 -2.9412925507
H   15.0449938272 -6.8855436388 -1.5133914391
H   13.2578469158 -6.0900370280  0.6800695832
H   18.3078267477 -4.2585012007 -3.4029962254
C   9.8343816078 -4.7141084924  10.8877581515
O   12.1065828943 -5.4482362259  11.3721415925
C   11.1319343977 -5.0530178957  10.4706753034
O   7.6045483187 -4.0029829848  10.2776794683
C   11.4889827102 -5.0101200132  9.1050337861
O   5.9744931720 -3.2375399880  6.0739567857
C   10.5599940349 -4.6246234550  8.1586583612
O   4.3378521507 -4.3629069174  4.4352244820
C   9.2328900859 -4.2532396164  8.5305669292
O   6.2093157178 -6.1727815843  0.3717880862
C   8.9065013189 -4.3217044447  9.9290791084
C   8.1922857196 -3.8657444780  7.6397752301
C   8.1823386637 -4.0936525384  6.2557526857
C   6.9255226444 -3.8878552769  5.5348482694
C   6.7528523869 -4.4820344967  4.1867499178
C   7.8337907416 -4.8214399991  3.3475173465
C   5.4230575243 -4.7097545187  3.6883638825
C   7.6345582714 -5.3816509143  2.0981787105
C   5.2203206174 -5.2969482001  2.4353584662
C   6.3299449433 -5.6181369434  1.6286726209
C   3.7914016155 -5.6090415677  1.9687193045
C   3.3819898879 -7.0814346607  1.8272349256
C   3.4407536110 -8.0309038239  2.7890608216
C   3.0825461907 -9.4563478826  2.4584149001
C   3.9722040306 -7.7601203098  4.1786369455
H   9.5612325605 -4.7619843347  11.9433238361
H   12.5056728680 -5.2864184581  8.8468360297
H   10.8471030176 -4.6155597819  7.1130496749
H   11.7583245635 -5.4489720728  12.2866807977
H   7.4349392483 -4.1839431488  11.2235974105
H   7.2895637734 -3.5323826665  8.1309248082
H   8.8714336304 -4.8266915454  5.8600381175
H   8.8447312442 -4.6033485356  3.6591733182
H   8.4522902305 -5.6561895249  1.4433699761
H   4.6935573540 -3.8303486467  5.2115644726
H   5.2760889132 -6.2428762167  0.0975508844
H   3.1334530213 -5.1078858598  2.6883763403
H   3.6125538844 -5.1458716063  0.9875215465
H   2.9343311668 -7.3478993058  0.8682753181
H   2.5386246370 -9.9224020765  3.2869825221
H   3.9896338349 -10.0568193520  2.3050988177
H   2.4718760656 -9.5199987605  1.5525295498
H   5.0697808974 -7.7104788745  4.1729872137
H   3.6877627444 -8.5595478113  4.8696067191
H   3.6031508602 -6.8079748862  4.5755112976
84
Scanning combination 82/256: [2.6000, 2.4000]  Energy = -386.2175215479
O   10.7101188204 -5.3620052055  4.8431025764
O   11.9540086822 -0.6982313454  4.3458591032
O   17.9476447262 -3.5286679577 -2.8322646285
O   14.6670210216 -3.0388507843  0.7451459219
C   12.9379531626 -3.6922293956  2.3974337274
C   12.8830890990 -2.3535483556  2.8593884291
C   12.1859753231 -4.6930699987  3.0532810734
C   12.0288667009 -2.0182787040  3.9058636784
C   11.3674328206 -4.3516892968  4.1205467798
C   11.1928239465 -2.9963429809  4.5399756541
C   10.2148613022 -2.6337848176  5.5275548285
C   10.4711774411 -1.6586231181  6.4687659014
C   9.5648007396 -1.1530456718  7.4498146265
C   8.2276540902 -1.4990853082  7.4505513731
C   10.1548598027 -0.2266009677  8.5035214529
C   14.8741272326 -5.0274219483 -0.4199881177
C   15.3631203540 -3.6879564048 -0.3037900004
C   16.3580940846 -3.1686974701 -1.0877726332
C   16.9230470111 -4.0334133062 -2.0508197746
C   16.4598760218 -5.3709265324 -2.2140898363
C   15.4399275683 -5.8621437406 -1.4058610859
C   13.8793413684 -5.2046732579  0.5678176537
C   13.7547515836 -4.0257976337  1.2901415680
H   13.5115234984 -1.6081492468  2.3784700627
H   12.2670599390 -5.7231194100  2.7274246823
H   11.1126135651 -6.2320099939  4.6342185240
H   12.4012102480 -0.1042283875  3.7115686401
H   9.2328207388 -3.1256442904  5.4755637958
H   11.4793107177 -1.2491740353  6.4889957652
H   7.6973574789 -1.6764533987  6.5191797186
H   7.6248440848 -1.3250164310  8.3352052496
H   10.5432294614  0.6899378390  8.0429187825
H   11.0107544918 -0.6956337558  9.0021039875
H   9.4154137499  0.0475002423  9.2621676365
H   16.7300510697 -2.1501692911 -1.0017099031
H   16.9033165644 -6.0149997670 -2.9718876595
H   15.0766015055 -6.8807454378 -1.5233030676
H   13.3081365934 -6.1116255531  0.6990512021
H   18.2910967866 -4.2141103706 -3.4418465444
C   9.8278168144 -4.6669574539  10.8839798025
O   12.0871229617 -5.4441620043  11.3636715012
C   11.1158387968 -5.0379251838  10.4643263739
O   7.6079663568 -3.9189377915  10.2785571639
C   11.4688989492 -5.0122775789  9.0973341018
O   5.9799565441 -3.2216567208  6.0471712089
C   10.5411827562 -4.6279208246  8.1523125358
O   4.3278340478 -4.3718723224  4.4305906173
C   9.2146476600 -4.2568395613  8.5209217717
O   6.1871180813 -6.1614342686  0.3509757557
C   8.8978210601 -4.2821330027  9.9249205009
C   8.1731299330 -3.8920435189  7.6255232294
C   8.1830866244 -4.0985128470  6.2251810369
C   6.9223373824 -3.8790023511  5.5054915614
C   6.7418786922 -4.4735517620  4.1615321582
C   7.8210878896 -4.8059379697  3.3176753541
C   5.4099296713 -4.7108684147  3.6740903867
C   7.6178331774 -5.3626268279  2.0679494526
C   5.2038099922 -5.2979790988  2.4221076134
C   6.3112153445 -5.6070143504  1.6072144501
C   3.7748913894 -5.6197343518  1.9625632009
C   3.3779520045 -7.0950063637  1.8191767403
C   3.4263793799 -8.0388338709  2.7869017418
C   3.0648987128 -9.4651238354  2.4645568241
C   3.9501413620 -7.7618249042  4.1781904618
H   9.5608887329 -4.6905580066  11.9428781472
H   12.4800015321 -5.3053840253  8.8354981780
H   10.8275911570 -4.6108123070  7.1069460042
H   11.7424981918 -5.4331280457  12.2793811302
H   7.4533643470 -4.0453822700  11.2360787113
H   7.2499201169 -3.6161310402  8.1114725085
H   8.8316168137 -4.8791387885  5.8510506948
H   8.8311587154 -4.5792418474  3.6284503437
H   8.4321103951 -5.6294408777  1.4059638406
H   4.6833833850 -3.8352921179  5.2030274488
H   5.2527490403 -6.2450501414  0.0842377255
H   3.1176549573 -5.1265917759  2.6883236728
H   3.5872825818 -5.1549461705  0.9838345853
H   2.9501968095 -7.3698747125  0.8536822811
H   2.4981992273 -9.9163027795  3.2859813308
H   3.9705981408 -10.0743037504  2.3420940808
H   2.4753138440 -9.5359751882  1.5455340875
H   5.0473230961 -7.7061246891  4.1777526262
H   3.6664175983 -8.5620621476  4.8682903212
H   3.5747401532 -6.8111397105  4.5723085493
84
Scanning combination 83/256: [2.6000, 2.3000]  Energy = -386.2152196165
O   10.7105777638 -5.3615985087  4.8436992075
O   11.9515132223 -0.6984441701  4.3431221262
O   17.9459978594 -3.5261508549 -2.8324037269
O   14.6671261481 -3.0388740819  0.7462768751
C   12.9400581886 -3.6937065879  2.3988437222
C   12.8843511576 -2.3542603096  2.8592356853
C   12.1862733267 -4.6948917348  3.0531458856
C   12.0297895770 -2.0186154627  3.9046369728
C   11.3686600312 -4.3525207485  4.1204424219
C   11.1958400781 -2.9967121668  4.5393235675
C   10.2188061127 -2.6333937699  5.5250902707
C   10.4720747737 -1.6623796254  6.4724194113
C   9.5687977842 -1.1713615135  7.4598821923
C   8.2304057823 -1.5455826232  7.4708217192
C   10.1522878452 -0.2313255836  8.5008008393
C   14.8750779032 -5.0276574435 -0.4182749872
C   15.3637492619 -3.6879039545 -0.3021912522
C   16.3576163169 -3.1681497260 -1.0864742595
C   16.9224883122 -4.0317952713 -2.0501256806
C   16.4597627293 -5.3694384533 -2.2132938965
C   15.4408533528 -5.8614245553 -1.4045293733
C   13.8803714914 -5.2053850467  0.5692969973
C   13.7567649926 -4.0268627018  1.2920865876
H   13.5113623683 -1.6072797571  2.3788817583
H   12.2657939837 -5.7256129243  2.7283487007
H   11.1097469797 -6.2328832237  4.6339941592
H   12.3979786014 -0.1039482076  3.7090927333
H   9.2337119126 -3.1221595727  5.4689219663
H   11.4755427305 -1.2432939091  6.4848496378
H   7.6994707343 -1.6667187934  6.5294113358
H   7.6214894955 -1.3260042929  8.3433954331
H   10.5363995128  0.6829160471  8.0336440912
H   11.0105357605 -0.6953767661  8.9982273043
H   9.4143562774  0.0493288330  9.2585494639
H   16.7297557808 -2.1496284035 -1.0005137667
H   16.9023729415 -6.0129637179 -2.9719268298
H   15.0777115771 -6.8799668306 -1.5225797420
H   13.3098621669 -6.1126668345  0.7014223945
H   18.2884723984 -4.2114199974 -3.4425072544
C   9.8270723974 -4.6710803515  10.8838940015
O   12.0878661396 -5.4422529160  11.3669566768
C   11.1157975135 -5.0405150649  10.4654452826
O   7.6093031801 -3.9170464621  10.2752921847
C   11.4690473552 -5.0157990782  9.0992127862
O   5.9812773659 -3.2217506015  6.0441129439
C   10.5410128002 -4.6281939732  8.1534938573
O   4.3293926162 -4.3720456966  4.4296113100
C   9.2209420531 -4.2410082834  8.5230945575
O   6.1850155825 -6.1606475288  0.3483149696
C   8.8997195571 -4.2803486733  9.9232102247
C   8.1874238025 -3.8401269916  7.6226851891
C   8.1839358739 -4.0946574961  6.2209568541
C   6.9240708886 -3.8813997308  5.5035786211
C   6.7424671787 -4.4764589086  4.1601132479
C   7.8206788053 -4.8051485881  3.3139001787
C   5.4104680402 -4.7112874051  3.6723793054
C   7.6166129563 -5.3617895561  2.0642962483
C   5.2032380168 -5.2977901763  2.4203559807
C   6.3101413774 -5.6078793146  1.6051759417
C   3.7740963229 -5.6200864099  1.9624890419
C   3.3777376745 -7.0954801719  1.8187022946
C   3.4256750138 -8.0390868305  2.7866690961
C   3.0637843147 -9.4656448472  2.4651087157
C   3.9488630726 -7.7616915999  4.1782289830
H   9.5622957051 -4.6867082904  11.9427058036
H   12.4806512780 -5.3063917441  8.8379121112
H   10.8269472926 -4.6170748516  7.1082705975
H   11.7421169744 -5.4324640396  12.2822160577
H   7.4556328278 -4.0385031174  11.2330661298
H   7.2483996642 -3.6146965058  8.1084395583
H   8.8210731142 -4.8893571572  5.8567589667
H   8.8310584741 -4.5775522432  3.6223147099
H   8.4302874275 -5.6280368797  1.4016674584
H   4.6871683653 -3.8342140684  5.2003554372
H   5.2502259367 -6.2449541936  0.0837027366
H   3.1168658829 -5.1277873139  2.6888165872
H   3.5852221616 -5.1551567585  0.9842069751
H   2.9515633462 -7.3709350426  0.8526058725
H   2.4953758769 -9.9157011476  3.2861434062
H   3.9694072142 -10.0755068533  2.3447614037
H   2.4756293725 -9.5368572999  1.5451348241
H   5.0460276128 -7.7055874012  4.1780525193
H   3.6653021574 -8.5619420700  4.8684864330
H   3.5729999788 -6.8110235833  4.5720621912
84
Scanning combination 84/256: [2.6000, 2.2000]  Energy = -386.2160350080
O   10.7081125038 -5.3770026383  4.8441753926
O   11.9128463048 -0.7037795439  4.3090111122
O   17.9211009510 -3.4743771928 -2.8548709870
O   14.6898978944 -3.0477447980  0.7745108047
C   12.9599713654 -3.7136359162  2.4184946650
C   12.8926603239 -2.3720031908  2.8715283228
C   12.2031686730 -4.7140688237  3.0706901778
C   12.0212540923 -2.0319129817  3.9017092199
C   11.3761225246 -4.3690148879  4.1302235102
C   11.1975241430 -3.0114601592  4.5476067669
C   10.2279296640 -2.6529166251  5.5406006376
C   10.4579796339 -1.6640246168  6.4727792020
C   9.5802631816 -1.2103479409  7.4949697665
C   8.2558170401 -1.6598250059  7.6067779653
C   10.1738463776 -0.2146343592  8.4765345394
C   14.9132296779 -5.0312067576 -0.3958774960
C   15.3867168646 -3.6855988542 -0.2802825171
C   16.3640191114 -3.1503148502 -1.0743187061
C   16.9204274663 -3.9991729017 -2.0556696076
C   16.4710011710 -5.3414448582 -2.2201704756
C   15.4736572809 -5.8520497173 -1.3960713740
C   13.9292303106 -5.2236658451  0.6004301861
C   13.7895045763 -4.0451771855  1.3204287559
H   13.5232660532 -1.6257483842  2.3943543917
H   12.2849876831 -5.7460683865  2.7485051014
H   11.0743334333 -6.2546031332  4.6027336081
H   12.3335649689 -0.1130478189  3.6540288774
H   9.2526500137 -3.1726339811  5.5111411943
H   11.4348918811 -1.1857047954  6.4400094187
H   7.6091968064 -1.6542536385  6.7291937621
H   7.7655757378 -1.5290783658  8.5694356502
H   10.5116860761  0.6867060480  7.9512196780
H   11.0669618752 -0.6277918394  8.9610192422
H   9.4580801482  0.0787702057  9.2503896356
H   16.7291475159 -2.1290651817 -0.9845706782
H   16.9066155775 -5.9735938416 -2.9924085887
H   15.1225783574 -6.8750774023 -1.5135113402
H   13.3769374439 -6.1408509536  0.7406855789
H   18.2519168828 -4.1469439144 -3.4850045933
C   9.8227910003 -4.6214167989  10.8814391239
O   12.0564648978 -5.4500453045  11.3896928718
C   11.1002142447 -5.0392036017  10.4747198137
O   7.6521186021 -3.7545296840  10.2497887977
C   11.4606283689 -5.0493567053  9.1101761293
O   6.0144332219 -3.1867281486  5.9932361977
C   10.5437098145 -4.6632160657  8.1514004834
O   4.3423485809 -4.3704103810  4.4197055808
C   9.2291473790 -4.2582662023  8.5090120307
O   6.1461352578 -6.1356154880  0.3066947641
C   8.9152113665 -4.2184608763  9.9083389495
C   8.1944621424 -3.8589301742  7.6020189153
C   8.1875959701 -4.1266809087  6.1927326195
C   6.9427257511 -3.8772790713  5.4646958301
C   6.7516168602 -4.4743861038  4.1225411853
C   7.8206681941 -4.8016665698  3.2631793847
C   5.4141831178 -4.7106123469  3.6495250277
C   7.6010354277 -5.3416738143  2.0075542795
C   5.1922201346 -5.2981764989  2.4004882478
C   6.2887870058 -5.5937152963  1.5663814419
C   3.7591393484 -5.6321989563  1.9623804384
C   3.3794265266 -7.1105570506  1.8101999822
C   3.4066358031 -8.0458642442  2.7867299847
C   3.0342672414 -9.4731309661  2.4804619495
C   3.9179996719 -7.7575489798  4.1807933881
H   9.5496596463 -4.6117774373  11.9385143585
H   12.4670105575 -5.3684977230  8.8605059602
H   10.8377931741 -4.6680277233  7.1074829953
H   11.7090167803 -5.4042857334  12.3033933052
H   7.4962755834 -3.8336549366  11.2112427294
H   7.2343044143 -3.7177936079  8.0823936448
H   8.8077879674 -4.9351598784  5.8319802906
H   8.8361322408 -4.5815858513  3.5643494632
H   8.4044317363 -5.5904599033  1.3251526969
H   4.7086680009 -3.8157126923  5.1743521785
H   5.2076143884 -6.2429527989  0.0631572678
H   3.1096656674 -5.1570021175  2.7067056712
H   3.5478121944 -5.1581112335  0.9932960439
H   2.9905853886 -7.3975715508  0.8318610523
H   2.4234516894 -9.8938083855  3.2865822939
H   3.9332646038 -10.1006927037  2.4168546373
H   2.4851896256 -9.5575817933  1.5379806717
H   5.0144847410 -7.6932209762  4.1882581122
H   3.6338438492 -8.5566181910  4.8718885895
H   3.5340679709 -6.8072208606  4.5677314734
84
Scanning combination 85/256: [2.6000, 2.1000]  Energy = -386.2183626886
O   10.7052587531 -5.3709772774  4.8421159692
O   11.9138729062 -0.7004335858  4.3035781021
O   17.9165294742 -3.4672207715 -2.8553203163
O   14.6913807724 -3.0466092255  0.7761862720
C   12.9652227800 -3.7130812255  2.4202587591
C   12.8962872396 -2.3699380550  2.8685729862
C   12.2063320505 -4.7140302505  3.0692933977
C   12.0237900441 -2.0287566731  3.8967384170
C   11.3781465214 -4.3681071813  4.1260308172
C   11.2029720866 -3.0111316068  4.5426388216
C   10.2337320174 -2.6632673316  5.5353214234
C   10.4645441342 -1.6819735014  6.4765085176
C   9.5896028845 -1.2379382286  7.4962386518
C   8.2528403851 -1.6947831973  7.6000862399
C   10.1617957235 -0.2317607213  8.4709014858
C   14.9165726667 -5.0307924278 -0.3920643715
C   15.3877155763 -3.6844039272 -0.2776805422
C   16.3627282601 -3.1463805720 -1.0725059112
C   16.9184333604 -3.9942874658 -2.0548192351
C   16.4719214588 -5.3376004353 -2.2179326683
C   15.4773695645 -5.8508089706 -1.3921404288
C   13.9339548980 -5.2243916007  0.6047220547
C   13.7941085695 -4.0453136898  1.3233890431
H   13.5286055236 -1.6255211876  2.3903424544
H   12.2881731218 -5.7462151478  2.7486162388
H   11.0713592720 -6.2506327666  4.6103097057
H   12.3307982730 -0.1092149134  3.6459758396
H   9.2581692257 -3.1884225277  5.5043778489
H   11.4444117610 -1.2083695712  6.4466639782
H   7.6127130406 -1.6009550016  6.7233132990
H   7.7575359705 -1.5150369941  8.5531470488
H   10.4863950783  0.6689827718  7.9371028823
H   11.0597030945 -0.6261834697  8.9620680839
H   9.4375277436  0.0564608545  9.2390734609
H   16.7247079786 -2.1244419113 -0.9817014943
H   16.9074563725 -5.9689318845 -2.9905899102
H   15.1279837154 -6.8743736060 -1.5081525432
H   13.3835057462 -6.1424473672  0.7474581142
H   18.2465507577 -4.1388338574 -3.4869844189
C   9.8300696740 -4.6155896114  10.8824608709
O   12.0605466883 -5.4521113510  11.3908080354
C   11.1047026853 -5.0398592221  10.4756703447
O   7.6577952510 -3.7527769294  10.2496658392
C   11.4609230628 -5.0586988787  9.1103550900
O   6.0091131513 -3.1961082706  5.9980523162
C   10.5428945577 -4.6680907973  8.1520808956
O   4.3396059542 -4.3694731645  4.4156942199
C   9.2391484964 -4.2402779396  8.5130386113
O   6.1463465484 -6.1330236881  0.3038438220
C   8.9238433758 -4.2089535540  9.9087708799
C   8.2074828939 -3.7942558054  7.6039423331
C   8.1842464402 -4.1219819563  6.1925728066
C   6.9402947108 -3.8830087903  5.4677710297
C   6.7496900427 -4.4763824338  4.1231914803
C   7.8182956481 -4.8011353013  3.2629886909
C   5.4127331611 -4.7106307333  3.6477263964
C   7.5992049913 -5.3407110794  2.0070925011
C   5.1910031743 -5.2970962811  2.3980574115
C   6.2875367175 -5.5917573340  1.5639254918
C   3.7579931047 -5.6322319843  1.9608199793
C   3.3815840081 -7.1112030998  1.8094904594
C   3.4058763961 -8.0442244079  2.7881077452
C   3.0305693563 -9.4710968406  2.4837572083
C   3.9161733390 -7.7548120207  4.1825094812
H   9.5566215701 -4.6066631628  11.9393286623
H   12.4644708238 -5.3846983589  8.8597054504
H   10.8334755427 -4.6932833330  7.1073343545
H   11.7132789627 -5.4055453413  12.3046894607
H   7.5088988692 -3.8107021188  11.2133897055
H   7.2360608325 -3.7308015691  8.0848356021
H   8.7869287453 -4.9531134258  5.8565917911
H   8.8334150887 -4.5801621932  3.5646848870
H   8.4031664185 -5.5892949205  1.3257371786
H   4.7047607703 -3.8188356386  5.1735343390
H   5.2077632660 -6.2379553357  0.0594308800
H   3.1086537352 -5.1590007420  2.7065134854
H   3.5450061683 -5.1576353739  0.9923229320
H   2.9986413746 -7.4010902579  0.8297641766
H   2.4132797225 -9.8871557675  3.2872999801
H   3.9278941904 -10.1017026509  2.4277130776
H   2.4870926995 -9.5558958696  1.5380336716
H   5.0127369240 -7.6909207940  4.1910205432
H   3.6309907223 -8.5534637346  4.8736756077
H   3.5321790767 -6.8042385213  4.5688638684
84
Scanning combination 86/256: [2.6000, 2.0000]  Energy = -386.2227913137
O   10.7049747581 -5.3725300195  4.8415585855
O   11.9130994073 -0.7012667689  4.3042903701
O   17.9164840652 -3.4664657241 -2.8562703001
O   14.6915825793 -3.0464194029  0.7764439148
C   12.9649671458 -3.7132206893  2.4203990090
C   12.8960176708 -2.3702218715  2.8691517501
C   12.2066617021 -4.7143829709  3.0699171833
C   12.0239632880 -2.0291379019  3.8968863007
C   11.3782086202 -4.3692695904  4.1261875976
C   11.2030633009 -3.0114490389  4.5414697102
C   10.2367978746 -2.6614382673  5.5318270219
C   10.4670116481 -1.6841053784  6.4785840951
C   9.5966151956 -1.2502452633  7.4983966781
C   8.2535574719 -1.7362642399  7.6027912713
C   10.1556055561 -0.2361700085  8.4661611815
C   14.9174812668 -5.0306529352 -0.3919111401
C   15.3882683326 -3.6840369301 -0.2776310449
C   16.3628482570 -3.1462027834 -1.0727272434
C   16.9187270574 -3.9937482370 -2.0552846753
C   16.4725734585 -5.3373094796 -2.2183045173
C   15.4783999356 -5.8505788103 -1.3920921928
C   13.9349882222 -5.2243419384  0.6051177936
C   13.7943777650 -4.0452187808  1.3237953503
H   13.5279291418 -1.6258502219  2.3911167787
H   12.2890640518 -5.7461051912  2.7482388903
H   11.0718551094 -6.2518037664  4.6089529101
H   12.3300026386 -0.1102055343  3.6465141806
H   9.2588545521 -3.1902065717  5.5064778215
H   11.4450947253 -1.2074465599  6.4456791904
H   7.6147331935 -1.5985693919  6.7311615939
H   7.7573936519 -1.5210839301  8.5474643175
H   10.4829084959  0.6674192652  7.9375916995
H   11.0550513396 -0.6254958544  8.9585881990
H   9.4336235662  0.0530539263  9.2363272783
H   16.7246446272 -2.1239940377 -0.9821653005
H   16.9082757334 -5.9684526871 -2.9911239140
H   15.1293780825 -6.8744002169 -1.5080706534
H   13.3852298392 -6.1427181832  0.7476327649
H   18.2464964448 -4.1378190011 -3.4880617907
C   9.8299251071 -4.6170150886  10.8824030314
O   12.0611366106 -5.4524121770  11.3899026814
C   11.1046172540 -5.0402078904  10.4753645157
O   7.6587583926 -3.7503463987  10.2502583899
C   11.4582344348 -5.0611603315  9.1101570242
O   6.0062085131 -3.1972580837  5.9964139049
C   10.5391844935 -4.6681754247  8.1531482497
O   4.3395037902 -4.3691984109  4.4161903128
C   9.2436353211 -4.2297022382  8.5166673690
O   6.1463749509 -6.1324908055  0.3035881440
C   8.9244212412 -4.2076125088  9.9078749088
C   8.2165033529 -3.7358869738  7.6024626282
C   8.1812666504 -4.1121937903  6.1878138106
C   6.9387396614 -3.8842028452  5.4670368047
C   6.7489749385 -4.4786936755  4.1229156020
C   7.8181208931 -4.8014904969  3.2625110171
C   5.4119770274 -4.7105515758  3.6478844678
C   7.5992774565 -5.3405122707  2.0064226855
C   5.1906276478 -5.2965789619  2.3977805493
C   6.2875004420 -5.5914254547  1.5638331527
C   3.7578685040 -5.6322424510  1.9607231240
C   3.3818092966 -7.1113474926  1.8093884876
C   3.4056820310 -8.0442193534  2.7882420858
C   3.0299912233 -9.4709739339  2.4842576980
C   3.9157547281 -7.7544745379  4.1825622603
H   9.5579502443 -4.6056917462  11.9393907772
H   12.4615955250 -5.3864475197  8.8584996774
H   10.8315936938 -4.6933896704  7.1085812829
H   11.7139269542 -5.4053318009  12.3034973890
H   7.5108262072 -3.8087348140  11.2142710506
H   7.2399416430 -3.7404951279  8.0800878578
H   8.7805418096 -4.9508801189  5.8722098857
H   8.8331274743 -4.5808561347  3.5647067802
H   8.4036330806 -5.5891544626  1.3254336567
H   4.7059437350 -3.8187293659  5.1747430573
H   5.2079640614 -6.2370719163  0.0590323670
H   3.1083758321 -5.1590344346  2.7063449346
H   3.5450663971 -5.1578919616  0.9920834033
H   2.9996775338 -7.4015731800  0.8294518166
H   2.4118404101 -9.8862718060  3.2874915183
H   3.9270290877 -10.1020368202  2.4293848884
H   2.4872792750 -9.5561202099  1.5381607175
H   5.0122937498 -7.6904137391  4.1912375895
H   3.6305458753 -8.5530263626  4.8737849185
H   3.5316414105 -6.8038959977  4.5687245277
84
Scanning combination 87/256: [2.6000, 1.9000]  Energy = -386.2290033098
O   10.7055403803 -5.3728446910  4.8406474546
O   11.9141915424 -0.7025223999  4.3029133697
O   17.9158467625 -3.4641776497 -2.8579988828
O   14.6926309502 -3.0462630622  0.7761023015
C   12.9671143002 -3.7144021929  2.4196401522
C   12.8986334913 -2.3705336310  2.8667498207
C   12.2080906608 -4.7162463618  3.0681669127
C   12.0267931651 -2.0296332103  3.8940692045
C   11.3791286441 -4.3708035161  4.1238783271
C   11.2075191452 -3.0121539264  4.5392724849
C   10.2471107729 -2.6612790416  5.5303579197
C   10.4749284667 -1.6841476580  6.4799281822
C   9.6058750280 -1.2633411576  7.4975325746
C   8.2555484174 -1.7808298529  7.6058179273
C   10.1468826416 -0.2451540774  8.4624629351
C   14.9199267718 -5.0305402802 -0.3916101316
C   15.3896185406 -3.6835182467 -0.2776960477
C   16.3634450223 -3.1448732304 -1.0733531333
C   16.9192702481 -3.9923037763 -2.0562922713
C   16.4740708623 -5.3361193481 -2.2186733983
C   15.4810314399 -5.8499750756 -1.3918941425
C   13.9377428571 -5.2250306809  0.6053121559
C   13.7964041710 -4.0459088647  1.3234448398
H   13.5297934643 -1.6249574454  2.3897789980
H   12.2913812305 -5.7482624638  2.7471422844
H   11.0704855657 -6.2523827713  4.6066705186
H   12.3289817853 -0.1088468798  3.6466395876
H   9.2660839092 -3.1946449578  5.5108618622
H   11.4518409223 -1.2031454246  6.4443266573
H   7.6197514238 -1.5892151159  6.7432972309
H   7.7660722344 -1.5354884034  8.5457311130
H   10.4663837188  0.6595099176  7.9290597511
H   11.0505319970 -0.6234477251  8.9606003867
H   9.4164368245  0.0389009563  9.2275018120
H   16.7245973210 -2.1225938815 -0.9833225123
H   16.9097908677 -5.9670475249 -2.9917832512
H   15.1327880229 -6.8741402861 -1.5074501051
H   13.3888896392 -6.1438789470  0.7487256978
H   18.2458113420 -4.1352377506 -3.4903206971
C   9.8298817729 -4.6169124949  10.8825479169
O   12.0614308317 -5.4536494494  11.3877876274
C   11.1023260875 -5.0448656346  10.4733230055
O   7.6600728700 -3.7441726719  10.2511481712
C   11.4543066916 -5.0651904657  9.1081351862
O   5.9996470732 -3.1968646140  5.9959438672
C   10.5357975138 -4.6590065572  8.1524221063
O   4.3383064809 -4.3705368297  4.4149085215
C   9.2485039281 -4.2106941833  8.5217013774
O   6.1457475165 -6.1313684560  0.3019619705
C   8.9273855432 -4.1957462389  9.9068791354
C   8.2177339495 -3.6804195084  7.6062549281
C   8.1794015600 -4.0946086431  6.1863790569
C   6.9373165427 -3.8798456448  5.4682265153
C   6.7482134830 -4.4798745098  4.1245274826
C   7.8168742294 -4.8030021725  3.2635102703
C   5.4115897318 -4.7123632615  3.6482347656
C   7.5984474430 -5.3407429699  2.0061226567
C   5.1901729868 -5.2968163443  2.3968764786
C   6.2868953789 -5.5906875170  1.5625169605
C   3.7572773516 -5.6324122914  1.9597343959
C   3.3821335244 -7.1117939686  1.8089353987
C   3.4051151491 -8.0440043986  2.7884365631
C   3.0284708339 -9.4707527164  2.4855637237
C   3.9146540269 -7.7535994519  4.1828838583
H   9.5590530507 -4.6057342663  11.9393358254
H   12.4553948812 -5.3950614685  8.8542193444
H   10.8252594200 -4.6921218046  7.1073867212
H   11.7166555427 -5.4053062424  12.3021933704
H   7.5141204673 -3.8039977367  11.2147351965
H   7.2403594153 -3.7561697462  8.0804642460
H   8.7646358168 -4.9542396898  5.9072784692
H   8.8320203884 -4.5830549872  3.5655057227
H   8.4030562587 -5.5884250444  1.3247705647
H   4.7056771686 -3.8208063333  5.1740478443
H   5.2073580018 -6.2350505584  0.0572497300
H   3.1076173390 -5.1593442454  2.7053299490
H   3.5443125056 -5.1582922182  0.9909568210
H   3.0022447611 -7.4029029052  0.8284305982
H   2.4080048543 -9.8840954634  3.2880902291
H   3.9248665632 -10.1029826456  2.4337580295
H   2.4877382139 -9.5565834087  1.5383860270
H   5.0111779085 -7.6891935384  4.1918759693
H   3.6294215112 -8.5519974290  4.8742921784
H   3.5300567548 -6.8030058360  4.5684950112
84
Scanning combination 88/256: [2.6000, 1.8000]  Energy = -386.2354193922
O   10.7054818664 -5.3706204791  4.8405048249
O   11.9168993851 -0.7012702909  4.3009706476
O   17.9157897631 -3.4627253854 -2.8590308270
O   14.6937359256 -3.0466581025  0.7754158744
C   12.9678135501 -3.7145399581  2.4181738589
C   12.9008776652 -2.3704072700  2.8649432924
C   12.2092333035 -4.7162228899  3.0676506487
C   12.0310823920 -2.0284305223  3.8922445545
C   11.3823137954 -4.3707665171  4.1234216034
C   11.2119301320 -3.0115386578  4.5360986522
C   10.2528400468 -2.6602980463  5.5242456222
C   10.4817419262 -1.6880948290  6.4781318698
C   9.6184755101 -1.2815295917  7.4996581436
C   8.2645585167 -1.8290298427  7.6093917911
C   10.1367784748 -0.2532510709  8.4587558940
C   14.9214995321 -5.0308336839 -0.3922157690
C   15.3905881720 -3.6835555319 -0.2784320249
C   16.3640006582 -3.1442573599 -1.0740362856
C   16.9198749167 -3.9914167445 -2.0571331514
C   16.4751767306 -5.3355916506 -2.2192467170
C   15.4826424316 -5.8502474891 -1.3923526843
C   13.9397389890 -5.2257389726  0.6052018423
C   13.7979259219 -4.0465365177  1.3228377245
H   13.5322770778 -1.6263700814  2.3866718567
H   12.2921647174 -5.7480708971  2.7464977812
H   11.0678883472 -6.2508673388  4.6054981123
H   12.3304121005 -0.1078448923  3.6434091329
H   9.2705075034 -3.2030526530  5.5205154950
H   11.4539133343 -1.1974587740  6.4414906231
H   7.6238849728 -1.6054600819  6.7541942883
H   7.7788366290 -1.5554463179  8.5460934263
H   10.4530639228  0.6518800813  7.9260976945
H   11.0408767960 -0.6169784955  8.9626386589
H   9.4048287398  0.0290863715  9.2217880319
H   16.7244491771 -2.1217191747 -0.9837218121
H   16.9108510996 -5.9663946924 -2.9923932714
H   15.1344626749 -6.8745549442 -1.5072255246
H   13.3911840137 -6.1445549626  0.7486374152
H   18.2454804656 -4.1339612499 -3.4915389532
C   9.8287117686 -4.6139619827  10.8812936163
O   12.0590679501 -5.4570744362  11.3831015680
C   11.1008678650 -5.0415659065  10.4710791667
O   7.6590623797 -3.7373254081  10.2533017152
C   11.4491160640 -5.0645289936  9.1058922978
O   5.9953019522 -3.1937661008  5.9940669854
C   10.5313362454 -4.6531417644  8.1529881289
O   4.3380108304 -4.3719973484  4.4158978495
C   9.2505039998 -4.1969322165  8.5250972072
O   6.1456037067 -6.1299844112  0.3017735528
C   8.9270936921 -4.1873941245  9.9072387304
C   8.2225716839 -3.6285055652  7.6079759934
C   8.1783366584 -4.0807237675  6.1868505802
C   6.9353786252 -3.8760226924  5.4695349529
C   6.7479027280 -4.4804634988  4.1260366282
C   7.8165730564 -4.8026528659  3.2646372978
C   5.4113048152 -4.7123631044  3.6487870223
C   7.5980500306 -5.3406829649  2.0070749402
C   5.1900096540 -5.2969766876  2.3971886217
C   6.2866096947 -5.5911686980  1.5631562631
C   3.7574420338 -5.6328420960  1.9594761575
C   3.3822573792 -7.1120777717  1.8085940692
C   3.4046629097 -8.0439678530  2.7885264570
C   3.0275998711 -9.4705957025  2.4862035315
C   3.9139110893 -7.7531464185  4.1828941256
H   9.5577216200 -4.6075372431  11.9373550517
H   12.4469791037 -5.4000775329  8.8497455814
H   10.8186808745 -4.6847893487  7.1073595607
H   11.7165997339 -5.4048590976  12.2978719051
H   7.5129852826 -3.8014159988  11.2163840129
H   7.2475990394 -3.7519666804  8.0793484668
H   8.7515415540 -4.9540361083  5.9318056011
H   8.8322168180 -4.5847107950  3.5672237893
H   8.4024875201 -5.5878378107  1.3256280615
H   4.7046346030 -3.8211448775  5.1751146964
H   5.2073229426 -6.2339068212  0.0562228246
H   3.1077254436 -5.1595751250  2.7047767737
H   3.5443987225 -5.1587929789  0.9907365289
H   3.0033198778 -7.4037830210  0.8278896220
H   2.4060309327 -9.8829731574  3.2883126308
H   3.9236976586 -10.1034399812  2.4360517011
H   2.4879979725 -9.5568742473  1.5385398404
H   5.0104051706 -7.6886801515  4.1922259528
H   3.6287801392 -8.5514749151  4.8744700097
H   3.5292050199 -6.8027107129  4.5684193689
84
Scanning combination 89/256: [2.6000, 1.7000]  Energy = -386.2407923933
O   10.7084058429 -5.3652474550  4.8389606506
O   11.9265763053 -0.6991591075  4.2921326639
O   17.9164736713 -3.4594971044 -2.8635199500
O   14.6971943995 -3.0478030739  0.7722557641
C   12.9736698964 -3.7164371313  2.4143323069
C   12.9082111989 -2.3707954585  2.8575177108
C   12.2136979372 -4.7177699761  3.0636345871
C   12.0389640687 -2.0266035217  3.8840836446
C   11.3869941320 -4.3695525351  4.1185829345
C   11.2203713087 -3.0089756445  4.5305145872
C   10.2697867394 -2.6628026716  5.5241176879
C   10.4903053290 -1.6874230257  6.4782347571
C   9.6275129430 -1.3013290982  7.5019441787
C   8.2726767961 -1.8835669650  7.6251441393
C   10.1203468100 -0.2615600587  8.4581759669
C   14.9268061329 -5.0320407313 -0.3943269572
C   15.3942231696 -3.6839776024 -0.2810768967
C   16.3661185266 -3.1432537155 -1.0770966168
C   16.9220873911 -3.9895672196 -2.0605122027
C   16.4793221279 -5.3344233946 -2.2221418768
C   15.4883248730 -5.8505919268 -1.3943919328
C   13.9456447874 -5.2282518527  0.6030420018
C   13.8031607192 -4.0488521153  1.3198967176
H   13.5406440717 -1.6277976772  2.3774544123
H   12.2953615554 -5.7507475164  2.7438623909
H   11.0613025047 -6.2482318124  4.6008843012
H   12.3367332881 -0.1047657715  3.6330321835
H   9.2895053680 -3.2279395565  5.5352926577
H   11.4574682664 -1.1818063717  6.4296734218
H   7.6308136987 -1.6169061914  6.7822409017
H   7.8056769517 -1.5954908350  8.5700169779
H   10.4159746535  0.6462886525  7.9150029571
H   11.0296571555 -0.6018680407  8.9762960918
H   9.3683813080  0.0065629612  9.2083178939
H   16.7249361125 -2.1200557721 -0.9865140383
H   16.9152045692 -5.9646629774 -2.9954946655
H   15.1414737984 -6.8753374817 -1.5085149445
H   13.3982568410 -6.1475935281  0.7480699780
H   18.2460385587 -4.1299744527 -3.4966493263
C   9.8255132848 -4.6081303774  10.8810507677
O   12.0524198728 -5.4644323593  11.3739055780
C   11.0927196083 -5.0450459244  10.4654921362
O   7.6610787008 -3.7140070719  10.2571365467
C   11.4407562452 -5.0669656472  9.0997187770
O   5.9915110573 -3.1808924564  5.9912378960
C   10.5244429455 -4.6400938055  8.1500235905
O   4.3361818586 -4.3759038970  4.4198434139
C   9.2479820018 -4.1842459484  8.5278604251
O   6.1471006694 -6.1258745836  0.3037783725
C   8.9264227916 -4.1702625070  9.9078921008
C   8.2235220177 -3.5827646152  7.6111542202
C   8.1819977269 -4.0637710728  6.1864193159
C   6.9347973261 -3.8617491409  5.4706464213
C   6.7463713993 -4.4769537579  4.1303401913
C   7.8154652164 -4.8034363549  3.2710548983
C   5.4105438248 -4.7139467598  3.6530485399
C   7.5979625021 -5.3397534975  2.0124742621
C   5.1901526644 -5.2971185261  2.4003417130
C   6.2871775136 -5.5889383467  1.5661599258
C   3.7581507801 -5.6331419512  1.9604079666
C   3.3834899775 -7.1126322859  1.8087626173
C   3.4035813779 -8.0439864070  2.7890629984
C   3.0250000236 -9.4705255583  2.4881253402
C   3.9116964005 -7.7525893797  4.1836865666
H   9.5530545393 -4.6094001514  11.9374149752
H   12.4331550336 -5.4153541284  8.8381403719
H   10.8082731212 -4.6668893735  7.1027126983
H   11.7161064573 -5.4040013820  12.2905141306
H   7.5110038143 -3.7929300837  11.2182130622
H   7.2479224504 -3.7570206655  8.0714962360
H   8.7193137555 -4.9705157660  5.9675685416
H   8.8312389166 -4.5880514460  3.5751383677
H   8.4023988743 -5.5860634350  1.3304899104
H   4.7018284262 -3.8222316033  5.1769811786
H   5.2090656687 -6.2289232246  0.0567547912
H   3.1070935714 -5.1601452909  2.7047256675
H   3.5464292982 -5.1595047874  0.9911190839
H   3.0070465899 -7.4047186850  0.8272166313
H   2.3998126494 -9.8799699393  3.2889448707
H   3.9200912317 -10.1050487711  2.4427993417
H   2.4885775724 -9.5579609506  1.5387191387
H   5.0081216501 -7.6876593578  4.1933223571
H   3.6263459957 -8.5505430274  4.8754126326
H   3.5264766847 -6.8018744619  4.5682181309
84
Scanning combination 90/256: [2.6000, 1.6000]  Energy = -386.2424827810
O   10.7181544513 -5.3636916391  4.8361701940
O   11.9345866606 -0.6978392952  4.2794341127
O   17.9199296119 -3.4543394784 -2.8747931380
O   14.7049141052 -3.0503345667  0.7647845646
C   12.9822854308 -3.7193669689  2.4073944565
C   12.9152117940 -2.3731965082  2.8489074696
C   12.2214332908 -4.7194543744  3.0578789392
C   12.0453109950 -2.0263754319  3.8749634333
C   11.3953107602 -4.3696199567  4.1132397617
C   11.2298415497 -3.0088124881  4.5275315738
C   10.2838948408 -2.6716819433  5.5252270375
C   10.4845380472 -1.6848774833  6.4731073121
C   9.6256003917 -1.3221551173  7.5029054212
C   8.2775907713 -1.9432020250  7.6420980326
C   10.0862779667 -0.2629222047  8.4524441009
C   14.9385566869 -5.0350181507 -0.4003731622
C   15.4028399251 -3.6854161833 -0.2885565272
C   16.3718008225 -3.1427141371 -1.0855629617
C   16.9284891711 -3.9870051065 -2.0696101161
C   16.4893346547 -5.3334025049 -2.2303067218
C   15.5009828189 -5.8520952626 -1.4007677243
C   13.9581418310 -5.2326781093  0.5980427598
C   13.8125862451 -4.0524039359  1.3134963864
H   13.5486636565 -1.6320430679  2.3666442514
H   12.3023921158 -5.7529361857  2.7391686459
H   11.0579665235 -6.2489166986  4.5875330878
H   12.3479695251 -0.1061290935  3.6186574575
H   9.3116553560 -3.2654533910  5.5591999337
H   11.4375620500 -1.1553061396  6.4128653866
H   7.6183591992 -1.6218185195  6.8318771798
H   7.8444028906 -1.6338620431  8.5977653833
H   10.3562406021  0.6500762912  7.9038665725
H   11.0013951862 -0.5697618899  8.9837183502
H   9.3225596710 -0.0124051002  9.1966050863
H   16.7282459468 -2.1180324128 -0.9953599804
H   16.9257391884 -5.9624665366 -3.0040501059
H   15.1571552201 -6.8779922816 -1.5140923206
H   13.4135939552 -6.1533203926  0.7449602743
H   18.2494351069 -4.1232849923 -3.5089096271
C   9.8208110420 -4.6074918235  10.8779675251
O   12.0403631456 -5.4853727207  11.3672486982
C   11.0843412817 -5.0537610197  10.4596704784
O   7.6669584740 -3.6809747405  10.2574313922
C   11.4295747113 -5.0812966657  9.0935337087
O   5.9992654559 -3.1488032964  5.9825165329
C   10.5149396743 -4.6435343484  8.1449266614
O   4.3368757958 -4.3785995300  4.4321499009
C   9.2462827415 -4.1713662924  8.5265235398
O   6.1521413886 -6.1172389507  0.3120376629
C   8.9250066225 -4.1588983983  9.9052216601
C   8.2266501158 -3.5420716349  7.6118924806
C   8.1824779046 -4.0508914376  6.1900931138
C   6.9375272605 -3.8413878848  5.4707593427
C   6.7464314313 -4.4671673551  4.1360003877
C   7.8165553930 -4.8000258429  3.2821651272
C   5.4113968278 -4.7104152454  3.6615160760
C   7.6001401194 -5.3376860308  2.0244834269
C   5.1918909920 -5.2955781700  2.4097832980
C   6.2899989527 -5.5848693605  1.5762634548
C   3.7615635317 -5.6327279830  1.9661540542
C   3.3876225753 -7.1121719736  1.8111979299
C   3.4023032390 -8.0438114204  2.7914558289
C   3.0200944351 -9.4695325215  2.4913887633
C   3.9078349339 -7.7525015302  4.1869206295
H   9.5455172139 -4.6102620765  11.9339705985
H   12.4168562977 -5.4426937698  8.8303480905
H   10.8041675983 -4.6642202479  7.0987688025
H   11.7099477132 -5.4051624270  12.2841760860
H   7.5099989200 -3.7763017652  11.2158821737
H   7.2552874843 -3.7604870972  8.0669056348
H   8.6774815811 -4.9871901544  5.9961246635
H   8.8312696289 -4.5903649217  3.5923390951
H   8.4051820948 -5.5838969787  1.3443362409
H   4.6985033933 -3.8157988231  5.1824075011
H   5.2145544104 -6.2174805692  0.0621763069
H   3.1091031817 -5.1605729923  2.7095523624
H   3.5519558499 -5.1582079721  0.9967420327
H   3.0157315175 -7.4034423069  0.8277876832
H   2.3876855445 -9.8740353684  3.2891295594
H   3.9128719771 -10.1078827619  2.4550162259
H   2.4900767791 -9.5581768401  1.5385814826
H   5.0042287752 -7.6877962117  4.1979816559
H   3.6208077020 -8.5501238013  4.8782881860
H   3.5224744392 -6.8012534779  4.5700811079
84
Scanning combination 91/256: [2.6000, 1.5000]  Energy = -386.2375530001
O   10.7197375701 -5.3661004001  4.8362362594
O   11.9332906187 -0.6991042538  4.2783213610
O   17.9206714171 -3.4531164118 -2.8778744667
O   14.7061410044 -3.0503577267  0.7636940708
C   12.9833000025 -3.7202300716  2.4069051436
C   12.9155792233 -2.3741019530  2.8484503196
C   12.2233949136 -4.7206817884  3.0580610850
C   12.0456724100 -2.0276838313  3.8742329687
C   11.3966924813 -4.3714464788  4.1131339682
C   11.2309545658 -3.0100336115  4.5256511402
C   10.2866279269 -2.6706143383  5.5212359674
C   10.4813296301 -1.6876496410  6.4729708603
C   9.6234436279 -1.3373736483  7.5056794153
C   8.2821844170 -1.9919120469  7.6466997290
C   10.0717614734 -0.2653655943  8.4472249238
C   14.9412771539 -5.0350387479 -0.4010208174
C   15.4044434891 -3.6853792200 -0.2896745348
C   16.3732353005 -3.1421079659 -1.0876909253
C   16.9301173188 -3.9865547363 -2.0721336756
C   16.4919494290 -5.3330565331 -2.2322393093
C   15.5042892764 -5.8521744810 -1.4019614709
C   13.9611817371 -5.2330308139  0.5974992624
C   13.8140178288 -4.0528232860  1.3128107494
H   13.5475807308 -1.6323377250  2.3664512267
H   12.3042693340 -5.7534721649  2.7383261540
H   11.0586425073 -6.2504642019  4.5846279305
H   12.3480583518 -0.1087907249  3.6183343617
H   9.3131861022 -3.2686057432  5.5599163211
H   11.4286360572 -1.1489156167  6.4099021070
H   7.6229488736 -1.6418134862  6.8461244332
H   7.8484010743 -1.6634186263  8.5981029566
H   10.3410255412  0.6475185380  7.8984796134
H   10.9914210370 -0.5637283920  8.9739975155
H   9.3119366413 -0.0108294236  9.1944535227
H   16.7291403329 -2.1177271810 -0.9981286697
H   16.9286246056 -5.9619081193 -3.0062118822
H   15.1616473512 -6.8783252001 -1.5153171117
H   13.4178142212 -6.1544920337  0.7444755937
H   18.2504598346 -4.1217029963 -3.5125843686
C   9.8168082518 -4.6106236983  10.8753197562
O   12.0363078710 -5.4894342918  11.3663854458
C   11.0792141546 -5.0596592362  10.4590476517
O   7.6647902886 -3.6760220448  10.2574655452
C   11.4239712037 -5.0878966301  9.0934403672
O   5.9901806152 -3.1419010538  5.9787747492
C   10.5123459720 -4.6428247426  8.1446381113
O   4.3389117406 -4.3761300687  4.4330658779
C   9.2515482045 -4.1536752415  8.5254811244
O   6.1522032967 -6.1167450653  0.3133478962
C   8.9240015690 -4.1508127425  9.9019468568
C   8.2401228389 -3.4908029670  7.6085555456
C   8.1777584731 -4.0338207896  6.1954441447
C   6.9350558518 -3.8344621981  5.4762480358
C   6.7483345379 -4.4676131775  4.1403369432
C   7.8180798974 -4.7997926227  3.2845143065
C   5.4132469847 -4.7095349572  3.6641667562
C   7.6014383953 -5.3370920950  2.0258773032
C   5.1933540103 -5.2939942010  2.4113831217
C   6.2910184902 -5.5834036934  1.5773528875
C   3.7624473192 -5.6317475286  1.9686367294
C   3.3889298453 -7.1113758481  1.8127174605
C   3.4021483449 -8.0432503908  2.7925929002
C   3.0188559110 -9.4686858292  2.4923679995
C   3.9070824116 -7.7524004759  4.1884275846
H   9.5466684515 -4.6097949014  11.9318616333
H   12.4107833529 -5.4484150464  8.8299620046
H   10.8023520418 -4.6724442106  7.0985199116
H   11.7098539855 -5.4078957298  12.2850183761
H   7.5133896776 -3.7729399637  11.2165307264
H   7.2757919351 -3.7547607945  8.0517857364
H   8.6733482721 -4.9729064054  6.0189750416
H   8.8335836592 -4.5892425327  3.5923519662
H   8.4065162788 -5.5852180160  1.3453532498
H   4.7028273759 -3.8116991557  5.1831149329
H   5.2145220383 -6.2147008530  0.0628727567
H   3.1093461898 -5.1607224494  2.7123141103
H   3.5521925834 -5.1569204069  0.9995531962
H   3.0190335888 -7.4027284252  0.8284376744
H   2.3841197718 -9.8719282492  3.2888366662
H   3.9107244599 -10.1083591937  2.4583696210
H   2.4907650540 -9.5571915291  1.5383891639
H   5.0034716901 -7.6882786193  4.2002125821
H   3.6191420491 -8.5500134451  4.8793662294
H   3.5220248676 -6.8009730884  4.5714794410
84
Scanning combination 92/256: [2.5000, 2.9000]  Energy = -386.2257632013
O   10.7423601249 -5.4306763919  4.8774863366
O   11.8735416764 -0.7420656105  4.4037578431
O   17.9339526025 -3.5450145618 -2.7757790878
O   14.6100896848 -3.0317802451  0.7573469730
C   12.8843353654 -3.6940826374  2.4089687226
C   12.8178920974 -2.3594446246  2.8793659209
C   12.1533964830 -4.7095259254  3.0639477851
C   11.9617059413 -2.0495277817  3.9329156449
C   11.3420064979 -4.3895508878  4.1437854395
C   11.1383628364 -3.0436290663  4.5487631328
C   10.0801891343 -2.6267999504  5.4680717194
C   10.3945405128 -1.7690279483  6.5090847644
C   9.4800027318 -1.0905067600  7.3769112618
C   8.1372703011 -1.0958909028  7.1652567707
C   10.1076011857 -0.2779810477  8.5085351842
C   14.8203363429 -5.0218272307 -0.4054794882
C   15.3129723057 -3.6839843601 -0.2858551993
C   16.3186062813 -3.1705360383 -1.0585451577
C   16.8950844801 -4.0418765279 -2.0085658172
C   16.4299601505 -5.3786810658 -2.1729234089
C   15.3957104566 -5.8623837226 -1.3793524648
C   13.8164216940 -5.1956635143  0.5715284284
C   13.6960548862 -4.0186684393  1.2965971137
H   13.4295424115 -1.5987306756  2.3999111317
H   12.2463769159 -5.7354019350  2.7306214952
H   11.1834874275 -6.2798607637  4.6574055022
H   12.3446055597 -0.1300339992  3.8072168256
H   9.0795950080 -2.7236411456  5.0676869910
H   11.4519940509 -1.6098936210  6.6970510512
H   7.7059396485 -1.5823282357  6.2989015285
H   7.4525534254 -0.5517017765  7.8072222178
H   10.5417471239  0.6480702609  8.1128256370
H   10.9318639857 -0.8285702281  8.9749280428
H   9.3761943004 -0.0158758895  9.2787052371
H   16.6923993271 -2.1527684643 -0.9717683503
H   16.8834416265 -6.0287992844 -2.9192160067
H   15.0281416503 -6.8793283602 -1.4972240775
H   13.2360302125 -6.0981656865  0.6926687983
H   18.2840754120 -4.2358309356 -3.3752642156
C   9.8702188391 -4.7513256365  10.8858829778
O   12.1510012159 -5.4446178578  11.3862663060
C   11.1737918102 -5.0761657135  10.4761846437
O   7.6328587522 -4.0830645216  10.2584705308
C   11.5385238257 -5.0308640539  9.1115277184
O   6.0198861184 -3.2553320328  6.0875275443
C   10.6086354240 -4.6692398211  8.1560038988
O   4.3795696198 -4.3665217269  4.4519959315
C   9.2731440181 -4.3192432455  8.5214191125
O   6.2139679067 -6.1750073337  0.3752999988
C   8.9416078465 -4.3836252604  9.9199900141
C   8.2273278644 -3.9561164716  7.6351529413
C   8.2282469775 -4.1101748956  6.2555483667
C   6.9724710552 -3.8949588367  5.5352829154
C   6.7926441434 -4.4783627430  4.1832947529
C   7.8664181155 -4.8134184237  3.3342515804
C   5.4591626125 -4.7109283655  3.6970524412
C   7.6560661873 -5.3780414055  2.0872935774
C   5.2451745809 -5.2950548930  2.4448827799
C   6.3474788773 -5.6158767525  1.6290226132
C   3.8105486557 -5.5985038067  1.9890261119
C   3.3946371082 -7.0679571389  1.8388141464
C   3.4477195851 -8.0213162488  2.7972150903
C   3.0851506173 -9.4445716874  2.4606103830
C   3.9806812568 -7.7580305668  4.1879082750
H   9.5912317992 -4.7954542408  11.9410466087
H   12.5624470582 -5.2923009569  8.8641394692
H   10.9035116136 -4.6509229563  7.1113553830
H   11.7945306396 -5.4497992409  12.2978706586
H   7.4657879762 -4.2397338537  11.2092637751
H   7.3368670299 -3.5776155465  8.1188387064
H   8.9649702195 -4.7408824437  5.7854660025
H   8.8778755435 -4.5834224087  3.6340794216
H   8.4674762192 -5.6554323951  1.4265302010
H   4.7420628785 -3.8385536435  5.2290754034
H   5.2777386832 -6.2445371213  0.1104623048
H   3.1612671644 -5.1036134098  2.7208531906
H   3.6218982886 -5.1244370344  1.0148894981
H   2.9458220775 -7.3278664413  0.8786296972
H   2.5407646466 -9.9137192914  3.2872409608
H   3.9906754687 -10.0464611020  2.3034144023
H   2.4735829776 -9.5028707739  1.5549207684
H   5.0786304817 -7.7190612038  4.1824297612
H   3.6881875774 -8.5557544523  4.8776055694
H   3.6210475386 -6.8030710098  4.5864738862
84
Scanning combination 93/256: [2.5000, 2.8000]  Energy = -386.2236112352
O   10.7071217442 -5.4220918566  4.8511026658
O   11.9179000466 -0.7483513733  4.3973302869
O   17.9332233329 -3.5166365875 -2.7990424543
O   14.6360964897 -3.0451926866  0.7647615815
C   12.9123703189 -3.7138873713  2.4157213580
C   12.8485049894 -2.3789112489  2.8840183666
C   12.1699968354 -4.7225919550  3.0680338838
C   11.9861874051 -2.0590970473  3.9307144160
C   11.3375350232 -4.3913608151  4.1298658282
C   11.1380380072 -3.0427859220  4.5360361284
C   10.0811039090 -2.6401194828  5.4630013526
C   10.3904219422 -1.7522034934  6.4806198659
C   9.4857047841 -1.0990565603  7.3780562933
C   8.1362558056 -1.1741393408  7.2152737300
C   10.1154019224 -0.2685382445  8.4948882245
C   14.8495403972 -5.0285038074 -0.4088133948
C   15.3353830497 -3.6881723458 -0.2861370822
C   16.3321308616 -3.1647209646 -1.0632834340
C   16.9044887069 -4.0251842608 -2.0254815619
C   16.4449351576 -5.3633687977 -2.1950364719
C   15.4216805540 -5.8588801895 -1.3940527156
C   13.8534119342 -5.2121261453  0.5760301042
C   13.7284873924 -4.0379501608  1.3052938064
H   13.4693141173 -1.6258575961  2.4043519409
H   12.2666717639 -5.7512286575  2.7439838420
H   11.1482488524 -6.2764501268  4.6538090264
H   12.3985500731 -0.1479013933  3.7954785539
H   9.0739527028 -2.8108939003  5.1076473187
H   11.4468298602 -1.5486431680  6.6272858085
H   7.7083601317 -1.5715826879  6.3036343520
H   7.4444791715 -0.7721834881  7.9476626273
H   10.5769683969  0.6418317672  8.0930855813
H   10.9211921862 -0.8236988488  8.9873290061
H   9.3770107117  0.0238645539  9.2473347583
H   16.7029106207 -2.1460264807 -0.9699339731
H   16.8943001498 -6.0046206244 -2.9516499968
H   15.0605736653 -6.8778614601 -1.5158821458
H   13.2796260288 -6.1185586908  0.6990081668
H   18.2806947668 -4.1994244814 -3.4089747862
C   9.8732249710 -4.7209710865  10.8849818681
O   12.1481790309 -5.4533014254  11.3586662732
C   11.1659125274 -5.0722987733  10.4596759176
O   7.6458779041 -3.9920286159  10.2823180010
C   11.5162342392 -5.0406039331  9.0908959330
O   5.9823656667 -3.2791310303  6.1197801814
C   10.5806595842 -4.6712303764  8.1452797819
O   4.3480015173 -4.3730101180  4.4537184518
C   9.2557242630 -4.2989326387  8.5253840189
O   6.2324411183 -6.1525818865  0.3823999833
C   8.9394590157 -4.3399990965  9.9285622093
C   8.2083302159 -3.9405853387  7.6411747641
C   8.2113388035 -4.0960009679  6.2596179491
C   6.9402498519 -3.8962749722  5.5547082645
C   6.7627785266 -4.4693627644  4.1998539305
C   7.8449474863 -4.7827807007  3.3548179072
C   5.4345162377 -4.7090893744  3.7042352341
C   7.6509987840 -5.3411136556  2.1045712093
C   5.2356118119 -5.2902757674  2.4476916617
C   6.3483340385 -5.5957638741  1.6386789678
C   3.8085229582 -5.6073787163  1.9774899064
C   3.4028382135 -7.0803881493  1.8294311686
C   3.4435549355 -8.0280079194  2.7940466829
C   3.0728764719 -9.4510060344  2.4659454733
C   3.9681281224 -7.7593433329  4.1866999816
H   9.6074490755 -4.7565031224  11.9438856442
H   12.5315635343 -5.3198964705  8.8283548642
H   10.8627825492 -4.6569889691  7.0973618119
H   11.8063545457 -5.4408189526  12.2755260366
H   7.4742294573 -4.1657511990  11.2292239072
H   7.3136263261 -3.5826069041  8.1306925241
H   8.9274947966 -4.7618222899  5.8011155677
H   8.8500488271 -4.5434046042  3.6657355095
H   8.4737811309 -5.6005050121  1.4503775027
H   4.7023887277 -3.8555084025  5.2406972554
H   5.2995218419 -6.2451825417  0.1138450942
H   3.1469313258 -5.1129182421  2.6985210106
H   3.6283528383 -5.1409909784  0.9980353922
H   2.9689255992 -7.3481870850  0.8644279515
H   2.5111003459 -9.9057077557  3.2890518016
H   3.9749018066 -10.0632426400  2.3306833728
H   2.4749938842 -9.5130028455  1.5515258379
H   5.0658371624 -7.7149555738  4.1876876301
H   3.6752304162 -8.5574399960  4.8756602479
H   3.6014665277 -6.8058151161  4.5818989118
84
Scanning combination 94/256: [2.5000, 2.7000]  Energy = -386.2200840708
O   10.7036393589 -5.4270467957  4.8488424108
O   11.9108135451 -0.7532962378  4.3993398040
O   17.9304373334 -3.5122997170 -2.8008675649
O   14.6377922921 -3.0464007370  0.7686119735
C   12.9125311746 -3.7169235837  2.4174503285
C   12.8482712126 -2.3818394382  2.8868569166
C   12.1679360762 -4.7264462230  3.0671762181
C   11.9839506020 -2.0627746809  3.9305682152
C   11.3341095788 -4.3958834756  4.1277048505
C   11.1368721530 -3.0464128458  4.5330139358
C   10.0863535493 -2.6372547879  5.4578849399
C   10.3942121069 -1.7537036189  6.4791878063
C   9.4863580769 -1.1192282499  7.3826171291
C   8.1336151257 -1.2284856532  7.2343382616
C   10.1121957026 -0.2763464203  8.4882259843
C   14.8525385768 -5.0288858603 -0.4060691405
C   15.3381216803 -3.6885376263 -0.2823271606
C   16.3334842953 -3.1637333704 -1.0606425951
C   16.9044501866 -4.0227050356 -2.0249356902
C   16.4454127263 -5.3608536505 -2.1951413405
C   15.4238139480 -5.8578432754 -1.3930946911
C   13.8563032720 -5.2136384698  0.5784264307
C   13.7301910309 -4.0398452401  1.3080185692
H   13.4691829572 -1.6255259969  2.4135469279
H   12.2644426105 -5.7557183480  2.7448453244
H   11.1454035719 -6.2811135210  4.6506051649
H   12.3952436167 -0.1506713676  3.8036436432
H   9.0774431927 -2.8081176039  5.1077964568
H   11.4488348046 -1.5458930797  6.6290173928
H   7.7006810250 -1.6006451422  6.3147004259
H   7.4455689667 -0.7992507037  7.9550404662
H   10.5741004129  0.6277452006  8.0736806222
H   10.9198846259 -0.8260105874  8.9827704391
H   9.3777351266  0.0239633945  9.2408659162
H   16.7028601263 -2.1443411140 -0.9699650528
H   16.8933672798 -6.0008994054 -2.9535775513
H   15.0632342315 -6.8768077338 -1.5162851368
H   13.2850115573 -6.1215016219  0.7026376378
H   18.2773940753 -4.1947004089 -3.4115350695
C   9.8751764075 -4.7170075903  10.8819995286
O   12.1479272542 -5.4542540130  11.3595583570
C   11.1667680903 -5.0716136212  10.4593692926
O   7.6466303132 -3.9962301866  10.2803011198
C   11.5150089352 -5.0423661081  9.0905791534
O   5.9768662800 -3.2717291475  6.1130898266
C   10.5811084989 -4.6654427066  8.1444347200
O   4.3498236133 -4.3762169941  4.4540460267
C   9.2600279327 -4.2744437115  8.5239192449
O   6.2302745697 -6.1506354352  0.3799016611
C   8.9429865326 -4.3298584337  9.9254749913
C   8.2125255333 -3.8965902906  7.6403031028
C   8.2065933463 -4.0773162951  6.2597171449
C   6.9386864164 -3.8873378565  5.5518579099
C   6.7645856215 -4.4643188536  4.1969797878
C   7.8459416649 -4.7780927793  3.3504084284
C   5.4360951354 -4.7083344559  3.7029925244
C   7.6509018623 -5.3386803072  2.1008408050
C   5.2364301976 -5.2912656196  2.4473686805
C   6.3480506048 -5.5958047585  1.6368071532
C   3.8089378221 -5.6082324683  1.9784194756
C   3.4039677363 -7.0811532841  1.8292592040
C   3.4429650241 -8.0285258503  2.7940567854
C   3.0713412459 -9.4513194054  2.4665150980
C   3.9662538098 -7.7592279800  4.1870185909
H   9.6105785421 -4.7486792392  11.9406619924
H   12.5300798336 -5.3250372431  8.8312320739
H   10.8627430429 -4.6653323044  7.0959627521
H   11.8072800095 -5.4406028539  12.2768202037
H   7.4881991532 -4.1500207452  11.2330018937
H   7.3094146009 -3.5635663293  8.1309128171
H   8.9273619206 -4.7436819026  5.8111322068
H   8.8520158232 -4.5401607187  3.6594953349
H   8.4724620321 -5.5962846079  1.4441224576
H   4.7048166913 -3.8569285641  5.2404074182
H   5.2966772807 -6.2451675345  0.1138369259
H   3.1484608358 -5.1133176117  2.7001850484
H   3.6284135568 -5.1415418332  0.9992928139
H   2.9745724778 -7.3498641326  0.8625471467
H   2.5065480853 -9.9036438717  3.2888337797
H   3.9727214837 -10.0652977206  2.3348390322
H   2.4759486709 -9.5137582232  1.5505082742
H   5.0638554339 -7.7129880294  4.1888724248
H   3.6739058100 -8.5579455253  4.8754429535
H   3.5979694034 -6.8061239295  4.5817053756
84
Scanning combination 95/256: [2.5000, 2.6000]  Energy = -386.2157000299
O   10.6985389952 -5.4257376603  4.8448746895
O   11.9142068935 -0.7541431496  4.3964893340
O   17.9270666663 -3.5053411121 -2.8028903896
O   14.6424532362 -3.0489797414  0.7725919529
C   12.9175054086 -3.7203351626  2.4188801875
C   12.8549646219 -2.3846631583  2.8870459292
C   12.1696058376 -4.7296983647  3.0650301903
C   11.9884716097 -2.0641749170  3.9284734440
C   11.3356589960 -4.3982969077  4.1247529824
C   11.1432579282 -3.0495707045  4.5324250337
C   10.0910149215 -2.6438078188  5.4568066634
C   10.3997857504 -1.7521839237  6.4717887759
C   9.4955022552 -1.1302720909  7.3824332226
C   8.1403516984 -1.2898011567  7.2628961980
C   10.1128063082 -0.2792253265  8.4815606910
C   14.8580554726 -5.0304210536 -0.4029093864
C   15.3417086862 -3.6892791826 -0.2791953898
C   16.3340738107 -3.1614318153 -1.0586468582
C   16.9037618163 -4.0183399441 -2.0252955473
C   16.4463026497 -5.3571543506 -2.1960922628
C   15.4275683440 -5.8569231708 -1.3922315995
C   13.8629583548 -5.2174950647  0.5820252863
C   13.7354142097 -4.0433502228  1.3106197440
H   13.4795494957 -1.6319251431  2.4122873477
H   12.2640238746 -5.7585260734  2.7406793199
H   11.1347853606 -6.2826154150  4.6476916851
H   12.3976870279 -0.1499230844  3.8016373762
H   9.0826787259 -2.8022098529  5.0990390516
H   11.4536719779 -1.5400703535  6.6166949385
H   7.7065151779 -1.6547824400  6.3423480776
H   7.4513293016 -0.8981997498  8.0037368654
H   10.5722762606  0.6205383573  8.0568498667
H   10.9186125338 -0.8232023038  8.9869231393
H   9.3692644807  0.0229510861  9.2244054276
H   16.7017817978 -2.1415128119 -0.9654008385
H   16.8928682800 -5.9955155881 -2.9566768071
H   15.0666882928 -6.8757526633 -1.5150922836
H   13.2930453136 -6.1262146659  0.7068281253
H   18.2724893839 -4.1862687300 -3.4159066679
C   9.8747755891 -4.7026514777  10.8804778033
O   12.1426091034 -5.4570314605  11.3502926398
C   11.1649511104 -5.0578585524  10.4542119287
O   7.6466668996 -3.9748257018  10.2845515614
C   11.5071541740 -5.0414434141  9.0842003018
O   5.9726710591 -3.2660657868  6.1090151468
C   10.5722995925 -4.6607462168  8.1415268116
O   4.3471042170 -4.3817730554  4.4547730237
C   9.2556051210 -4.2638732583  8.5252495627
O   6.2299950807 -6.1479209528  0.3783583115
C   8.9399919775 -4.3168713557  9.9260836865
C   8.2156335104 -3.8610471396  7.6408514807
C   8.2021722171 -4.0706477657  6.2609282054
C   6.9351547890 -3.8849198472  5.5523717717
C   6.7626685020 -4.4615355893  4.1961213121
C   7.8446652992 -4.7724929103  3.3492270917
C   5.4345074947 -4.7084793316  3.7022568353
C   7.6501121971 -5.3318279044  2.0984968041
C   5.2358824419 -5.2912197263  2.4464216254
C   6.3476656752 -5.5912690306  1.6344894052
C   3.8090006401 -5.6098819604  1.9775414513
C   3.4073933061 -7.0832572532  1.8277148797
C   3.4423144289 -8.0291486023  2.7941379484
C   3.0684309318 -9.4515693907  2.4677564651
C   3.9632100654 -7.7589670333  4.1879871505
H   9.6098061693 -4.7390579142  11.9385368973
H   12.5180952363 -5.3323934688  8.8203584891
H   10.8531545552 -4.6553599246  7.0933755761
H   11.8044031021 -5.4382035652  12.2682684732
H   7.4888056107 -4.1280091181  11.2376410499
H   7.3216516457 -3.5117399719  8.1360560106
H   8.9205600432 -4.7435807569  5.8206534884
H   8.8507282442 -4.5332861233  3.6580455014
H   8.4718399762 -5.5878514649  1.4413096674
H   4.6999473268 -3.8581414369  5.2386730127
H   5.2961951465 -6.2453905069  0.1139232325
H   3.1485421977 -5.1179637888  2.7012067476
H   3.6266105549 -5.1410192618  0.9996539506
H   2.9823336598 -7.3525325734  0.8594013243
H   2.4988979082 -9.9012664563  3.2881228635
H   3.9689889285 -10.0677517590  2.3422249276
H   2.4773252314 -9.5149671948  1.5490518839
H   5.0607087274 -7.7107532142  4.1905605065
H   3.6716861517 -8.5586456720  4.8757154452
H   3.5924722696 -6.8067238143  4.5827086044
84
Scanning combination 96/256: [2.5000, 2.5000]  Energy = -386.2118145224
O   10.6850979979 -5.4213326677  4.8339765937
O   11.9258561101 -0.7538634557  4.3829651637
O   17.9240008848 -3.4889679379 -2.8146339886
O   14.6559261172 -3.0570568717  0.7779327368
C   12.9280043342 -3.7306821277  2.4204855990
C   12.8681298074 -2.3952461391  2.8884631633
C   12.1723217562 -4.7349850033  3.0646014324
C   11.9981541793 -2.0675777525  3.9249204301
C   11.3339069461 -4.3976389228  4.1196452797
C   11.1435754385 -3.0470846822  4.5270181782
C   10.0942955008 -2.6425179946  5.4540604196
C   10.4055608644 -1.7424217949  6.4619886330
C   9.5108261545 -1.1444915409  7.3951431311
C   8.1583835123 -1.3813100030  7.3346460146
C   10.1247030806 -0.2614551296  8.4700625454
C   14.8740994117 -5.0350412950 -0.4025989955
C   15.3537379085 -3.6928596159 -0.2769963892
C   16.3410579940 -3.1583171851 -1.0591637862
C   16.9077285960 -4.0093256789 -2.0327390822
C   16.4544654082 -5.3493837717 -2.2052217007
C   15.4425108830 -5.8567263683 -1.3970055481
C   13.8831356411 -5.2272373418  0.5859224226
C   13.7520576733 -4.0545358947  1.3162555213
H   13.5028831668 -1.6488990292  2.4180410514
H   12.2638220047 -5.7644870748  2.7411504374
H   11.1153272018 -6.2815577481  4.6379250953
H   12.4087991805 -0.1568824632  3.7797864144
H   9.0816144072 -2.8257947900  5.1194088685
H   11.4571410963 -1.5018637696  6.5776956954
H   7.6861825889 -1.6522357097  6.3982290922
H   7.5057614309 -1.1151219406  8.1584558756
H   10.5852971240  0.6283255214  8.0255074772
H   10.9270710748 -0.7891143873  8.9973336170
H   9.3760300818  0.0546490706  9.2018811351
H   16.7054906794 -2.1378163667 -0.9629574261
H   16.8988585914 -5.9829756076 -2.9709913694
H   15.0856824088 -6.8769890299 -1.5208775565
H   13.3188245990 -6.1391394831  0.7127258479
H   18.2664285407 -4.1656412253 -3.4342237359
C   9.8681725543 -4.6741269115  10.8788043091
O   12.1279706089 -5.4625617089  11.3380806315
C   11.1514597583 -5.0508368724  10.4462765538
O   7.6502440506 -3.9057914977  10.2891120224
C   11.4897433814 -5.0406719809  9.0752349300
O   5.9678290956 -3.2662712511  6.1093268093
C   10.5556042569 -4.6538766109  8.1363894603
O   4.3406231246 -4.3880599569  4.4565085550
C   9.2424750497 -4.2547262923  8.5238432009
O   6.2303515019 -6.1361743375  0.3737362613
C   8.9343177610 -4.2800285359  9.9266355952
C   8.2020719302 -3.8626656523  7.6359692728
C   8.1997953536 -4.0654322246  6.2518039478
C   6.9299989298 -3.8815890706  5.5487456933
C   6.7558033544 -4.4579990105  4.1944482957
C   7.8384449375 -4.7598372247  3.3459258410
C   5.4286963022 -4.7082480100  3.7017780235
C   7.6463862024 -5.3168497856  2.0947793210
C   5.2319774574 -5.2891300380  2.4447613835
C   6.3450670428 -5.5838713685  1.6320841667
C   3.8066209010 -5.6145191116  1.9757777132
C   3.4129970145 -7.0897726336  1.8230575286
C   3.4388144943 -8.0323888402  2.7929170390
C   3.0607699357 -9.4545323137  2.4709889484
C   3.9545037478 -7.7593481731  4.1880984898
H   9.6064147768 -4.7062128248  11.9380305554
H   12.4936517487 -5.3519403988  8.8047893278
H   10.8328903126 -4.6420966295  7.0874319963
H   11.7965668632 -5.4315061654  12.2574502501
H   7.4841352083 -4.0676542994  11.2389967695
H   7.2935112487 -3.5492584432  8.1300401273
H   8.9098173442 -4.7542533538  5.8207266635
H   8.8428680967 -4.5202110826  3.6590153458
H   8.4699138430 -5.5638796839  1.4364327723
H   4.6904485524 -3.8657980062  5.2418788100
H   5.2970335843 -6.2458840573  0.1131180758
H   3.1443140287 -5.1277077943  2.7012191769
H   3.6224208924 -5.1444686705  0.9988665893
H   3.0034994652 -7.3641441749  0.8494248458
H   2.4779985312 -9.8943728524  3.2874206589
H   3.9592097833 -10.0769028365  2.3617944421
H   2.4810380156 -9.5200310316  1.5453467124
H   5.0515521676 -7.7042330614  4.1948195219
H   3.6653681859 -8.5606956959  4.8746737412
H   3.5775481370 -6.8096618819  4.5826306849
84
Scanning combination 97/256: [2.5000, 2.4000]  Energy = -386.2076531645
O   10.6842419586 -5.4229416361  4.8346333566
O   11.9242665763 -0.7560447663  4.3820155923
O   17.9229473479 -3.4875353105 -2.8158898283
O   14.6560008162 -3.0574305512  0.7796821183
C   12.9295963976 -3.7323810924  2.4223574153
C   12.8703692634 -2.3963821109  2.8898294475
C   12.1719785487 -4.7370515840  3.0649070569
C   11.9970656833 -2.0690203618  3.9224332800
C   11.3307781376 -4.3995342950  4.1173698529
C   11.1417897857 -3.0478404729  4.5228859293
C   10.0993260671 -2.6408532133  5.4517164428
C   10.4086448987 -1.7400246093  6.4609459981
C   9.5125191775 -1.1579810443  7.4005811971
C   8.1608090390 -1.4413176433  7.3585371974
C   10.1222948716 -0.2626869348  8.4667618223
C   14.8757678665 -5.0351037046 -0.4009733994
C   15.3546354947 -3.6927606190 -0.2750560313
C   16.3415479495 -3.1581156353 -1.0583519879
C   16.9078665194 -4.0086146067 -2.0328768026
C   16.4549919211 -5.3483387648 -2.2058725995
C   15.4438458836 -5.8557244173 -1.3967244125
C   13.8842129659 -5.2281457344  0.5869864085
C   13.7521170907 -4.0554300634  1.3171320649
H   13.5025249517 -1.6462601759  2.4214788916
H   12.2621696517 -5.7669112211  2.7419600031
H   11.1150608156 -6.2826583247  4.6370920445
H   12.4068915164 -0.1575245034  3.7804994482
H   9.0859481450 -2.8282426375  5.1210814249
H   11.4595143357 -1.4955061551  6.5764148718
H   7.6782207598 -1.6537476957  6.4094194742
H   7.5087061093 -1.1221365408  8.1655360901
H   10.5847444397  0.6243186615  8.0199131479
H   10.9286080404 -0.7866367083  8.9915630141
H   9.3797717556  0.0647878849  9.2010044009
H   16.7061865645 -2.1377674531 -0.9637141203
H   16.8992820466 -5.9815873751 -2.9721479347
H   15.0886426534 -6.8761227344 -1.5216088941
H   13.3212853960 -6.1409067571  0.7144858552
H   18.2657373045 -4.1633009350 -3.4364594732
C   9.8675054914 -4.6784685799  10.8769272408
O   12.1286689084 -5.4594980566  11.3415707063
C   11.1490581797 -5.0599204262  10.4471771601
O   7.6493727700 -3.9123707265  10.2853560852
C   11.4872392088 -5.0463022730  9.0763167259
O   5.9631929760 -3.2675320701  6.1069697679
C   10.5556312478 -4.6465215985  8.1377393583
O   4.3411086185 -4.3880936862  4.4564069465
C   9.2471275825 -4.2328873289  8.5235939746
O   6.2290261654 -6.1353507094  0.3726284299
C   8.9360311328 -4.2770870425  9.9240209906
C   8.2066308182 -3.8251263206  7.6327516881
C   8.1970036421 -4.0547870924  6.2468081527
C   6.9280280213 -3.8798108125  5.5449485361
C   6.7553908738 -4.4576927476  4.1917879059
C   7.8384586096 -4.7610388809  3.3439608293
C   5.4279171201 -4.7096566294  3.7012361414
C   7.6463035597 -5.3156751888  2.0917411488
C   5.2313951232 -5.2898733876  2.4441043314
C   6.3443712513 -5.5818485223  1.6301919221
C   3.8060598112 -5.6150413556  1.9757201722
C   3.4135570772 -7.0902929059  1.8228075479
C   3.4387465976 -8.0326362754  2.7928017278
C   3.0598432724 -9.4546907261  2.4712810094
C   3.9535042209 -7.7591425075  4.1882224923
H   9.6103651430 -4.6989311071  11.9375297086
H   12.4935316301 -5.3513817260  8.8083600248
H   10.8297817874 -4.6490674178  7.0879688265
H   11.7964956078 -5.4313391000  12.2615149515
H   7.4929881065 -4.0579992634  11.2393252776
H   7.2842612261 -3.5453919840  8.1231194743
H   8.9049991417 -4.7506753726  5.8259966260
H   8.8429758968 -4.5181266405  3.6540824243
H   8.4696118384 -5.5624063016  1.4328080452
H   4.6944608635 -3.8654669807  5.2416015146
H   5.2957470914 -6.2461030957  0.1122716411
H   3.1436163710 -5.1285275205  2.7013051408
H   3.6210997298 -5.1451996709  0.9989784678
H   3.0064796569 -7.3658250198  0.8486207019
H   2.4754817963 -9.8933972173  3.2871677371
H   3.9577337943 -10.0781568740  2.3642821942
H   2.4814463294 -9.5210353476  1.5448215061
H   5.0505252922 -7.7032279362  4.1951353688
H   3.6644959867 -8.5611569996  4.8741185763
H   3.5755116101 -6.8096012870  4.5823815732
84
Scanning combination 98/256: [2.5000, 2.3000]  Energy = -386.2063857313
O   10.6633280752 -5.4144822230  4.8228578595
O   11.9296061424 -0.7551377879  4.3615182843
O   17.9114021037 -3.4562288376 -2.8355722823
O   14.6775509181 -3.0678811679  0.7936855266
C   12.9456197145 -3.7467941462  2.4293812330
C   12.8869437564 -2.4106014582  2.8969502656
C   12.1742366805 -4.7453912055  3.0653898860
C   12.0035188735 -2.0738293975  3.9187130550
C   11.3263950603 -4.3995593939  4.1108802515
C   11.1386672789 -3.0454808637  4.5199924332
C   10.1123798125 -2.6522896426  5.4680147901
C   10.4049721907 -1.7219618857  6.4512854039
C   9.5374722418 -1.1745895555  7.4357695001
C   8.2016795338 -1.5482115222  7.5327321845
C   10.1700044102 -0.2159736059  8.4294231695
C   14.9054093082 -5.0415816539 -0.3921978859
C   15.3747449821 -3.6953984399 -0.2664949131
C   16.3511512666 -3.1504620553 -1.0551571699
C   16.9122310703 -3.9908008537 -2.0410606716
C   16.4681510065 -5.3337305689 -2.2151402176
C   15.4705936327 -5.8538046584 -1.3969319400
C   13.9217887953 -5.2438194119  0.6029056651
C   13.7793857495 -4.0712714936  1.3318499510
H   13.5323968290 -1.6669277074  2.4360774336
H   12.2562086353 -5.7763147822  2.7411703694
H   11.0829348942 -6.2800145663  4.6280321374
H   12.3937681944 -0.1615037654  3.7397274491
H   9.0964845093 -2.9423037309  5.2269401605
H   11.4433581922 -1.4069451865  6.4975660857
H   7.5850456482 -1.6109722462  6.6393068276
H   7.6825782851 -1.4179461229  8.4781282238
H   10.6263091709  0.6393536452  7.9172520226
H   10.9799946981 -0.7106754325  8.9785378894
H   9.4341059082  0.1563899026  9.1474622468
H   16.7105114707 -2.1279199644 -0.9578959261
H   16.9073192194 -5.9587230740 -2.9910521020
H   15.1237078941 -6.8774543333 -1.5221101187
H   13.3691670745 -6.1621119579  0.7353674927
H   18.2472786496 -4.1235709685 -3.4685423439
C   9.8527881003 -4.6420716548  10.8769924078
O   12.1004433692 -5.4645782913  11.3414096844
C   11.1256581204 -5.0527780777  10.4468396351
O   7.6534249739 -3.8201155089  10.2787598700
C   11.4664878678 -5.0487798068  9.0766626917
O   5.9638517597 -3.2488490679  6.0733234271
C   10.5404222798 -4.6421630685  8.1372508294
O   4.3353821312 -4.4037688634  4.4453742396
C   9.2326297295 -4.2355693377  8.5188195541
O   6.2105986359 -6.1199149883  0.3431442145
C   8.9260454952 -4.2386733823  9.9200172041
C   8.1912319826 -3.8465922625  7.6174708633
C   8.1913593141 -4.0647806158  6.2195199102
C   6.9237385743 -3.8709145353  5.5154806891
C   6.7478033127 -4.4502057374  4.1629949703
C   7.8285914703 -4.7443608243  3.3086146446
C   5.4196785279 -4.7127498419  3.6808574108
C   7.6323501215 -5.2941429478  2.0554243929
C   5.2196812534 -5.2908902386  2.4236614040
C   6.3297216495 -5.5705208343  1.6018174644
C   3.7949765468 -5.6294862858  1.9639454409
C   3.4204593076 -7.1089015190  1.8089907630
C   3.4290112768 -8.0424157835  2.7878496698
C   3.0412961740 -9.4649431549  2.4791236204
C   3.9333486496 -7.7585195642  4.1854231816
H   9.6005690439 -4.6387868713  11.9394753868
H   12.4650868326 -5.3749932250  8.8077344925
H   10.8181933786 -4.6376202967  7.0895988060
H   11.7714737702 -5.4255323078  12.2621621550
H   7.5052968433 -3.9252856501  11.2392685837
H   7.2432603202 -3.6537509693  8.1038145853
H   8.8799435332 -4.7899390427  5.8111698280
H   8.8338465138 -4.4950138551  3.6137870003
H   8.4512721421 -5.5320963398  1.3886005978
H   4.6877820837 -3.8742304973  5.2252299472
H   5.2771336982 -6.2487823303  0.0918422608
H   3.1318283479 -5.1545980889  2.6966222823
H   3.5991791135 -5.1587469153  0.9899079853
H   3.0473653107 -7.3979053162  0.8250794958
H   2.4282576601 -9.8815605380  3.2857208769
H   3.9340729604 -10.1008532643  2.4099793936
H   2.4887241716 -9.5397414419  1.5378393244
H   5.0291701099 -7.6853012474  4.1981434877
H   3.6518273813 -8.5635067077  4.8710534749
H   3.5400241806 -6.8139605459  4.5764484162
84
Scanning combination 99/256: [2.5000, 2.2000]  Energy = -386.2060621973
O   10.6615221939 -5.4150200906  4.8228112021
O   11.9277040796 -0.7544002030  4.3611431556
O   17.9110965921 -3.4557978627 -2.8354740513
O   14.6771428417 -3.0677193880  0.7943603320
C   12.9454968468 -3.7468539271  2.4304570892
C   12.8861067667 -2.4102675308  2.8967983827
C   12.1725987277 -4.7449060602  3.0653471652
C   12.0032396697 -2.0732418403  3.9186013319
C   11.3257343060 -4.4000047032  4.1115068963
C   11.1411522376 -3.0461459946  4.5221611015
C   10.1138426220 -2.6539332310  5.4670358799
C   10.4065075460 -1.7196757304  6.4498711102
C   9.5397361731 -1.1861535913  7.4372816834
C   8.2050471055 -1.6004764757  7.5390712396
C   10.1657497248 -0.2196187787  8.4284946223
C   14.9058546269 -5.0415045294 -0.3908978034
C   15.3754283317 -3.6956478463 -0.2648796943
C   16.3507015741 -3.1505191179 -1.0547755795
C   16.9114468672 -3.9902435905 -2.0414817550
C   16.4678697113 -5.3331479183 -2.2151113692
C   15.4712708348 -5.8531164259 -1.3958821328
C   13.9208079757 -5.2434606549  0.6030487027
C   13.7788916555 -4.0711295768  1.3326361584
H   13.5325101353 -1.6671037210  2.4368656934
H   12.2555892205 -5.7757603413  2.7425080576
H   11.0822673129 -6.2800102834  4.6276558914
H   12.3924801187 -0.1609803921  3.7399832509
H   9.0953856153 -2.9412059543  5.2260478842
H   11.4438652161 -1.4018535836  6.5006877126
H   7.5828133563 -1.6189678554  6.6432967558
H   7.6843821530 -1.4145851041  8.4769899129
H   10.6252450353  0.6318504169  7.9128080677
H   10.9818882289 -0.7062762374  8.9779158217
H   9.4352955400  0.1614289718  9.1501200455
H   16.7100966243 -2.1280893524 -0.9576814960
H   16.9075037037 -5.9583047939 -2.9908103330
H   15.1242896916 -6.8765043227 -1.5214570242
H   13.3704887572 -6.1628414208  0.7361981455
H   18.2466965691 -4.1229360806 -3.4689117998
C   9.8532839354 -4.6410784486  10.8752462810
O   12.0997057448 -5.4659282851  11.3429995379
C   11.1275645322 -5.0491953104  10.4473235480
O   7.6555192064 -3.8189519664  10.2765470489
C   11.4658164655 -5.0500331813  9.0771223649
O   5.9636597611 -3.2491218308  6.0725164709
C   10.5397617769 -4.6444646812  8.1370628948
O   4.3351435570 -4.4034560757  4.4447880657
C   9.2341421646 -4.2329709647  8.5179630135
O   6.2102279350 -6.1198964675  0.3414216946
C   8.9280826847 -4.2370131047  9.9172637929
C   8.1999326760 -3.7990858073  7.6161521235
C   8.1899853417 -4.0633373945  6.2170782250
C   6.9255678232 -3.8725039827  5.5161621561
C   6.7485835528 -4.4501895932  4.1634369659
C   7.8278880915 -4.7431636209  3.3071951918
C   5.4203493548 -4.7113817986  3.6805226984
C   7.6316368545 -5.2943349492  2.0539081473
C   5.2195852823 -5.2908132404  2.4233862301
C   6.3290496681 -5.5711126313  1.6006309064
C   3.7946647434 -5.6301594597  1.9635500341
C   3.4207921404 -7.1097596573  1.8090830099
C   3.4287631186 -8.0427080034  2.7879150112
C   3.0408926850 -9.4650402657  2.4792274463
C   3.9329971397 -7.7582942428  4.1853470240
H   9.5995360959 -4.6383383919  11.9372043457
H   12.4662458867 -5.3750927356  8.8093488042
H   10.8190821088 -4.6425020684  7.0889916701
H   11.7696574147 -5.4253143041  12.2625885773
H   7.5066391166 -3.9210366957  11.2375083152
H   7.2417744168 -3.6470499670  8.1051474195
H   8.8758212586 -4.7925677870  5.8129312270
H   8.8330751651 -4.4943072860  3.6123544492
H   8.4511893196 -5.5312722081  1.3870389418
H   4.6870022561 -3.8737381958  5.2242683190
H   5.2762061168 -6.2484006078  0.0916140220
H   3.1322220585 -5.1549179903  2.6964357021
H   3.5982494001 -5.1585982646  0.9898551186
H   3.0482518242 -7.3984052909  0.8248392789
H   2.4274305152 -9.8811590471  3.2854671772
H   3.9332650634 -10.1014513455  2.4111155221
H   2.4887995621 -9.5403174950  1.5376701065
H   5.0288092221 -7.6851235933  4.1983301587
H   3.6517477574 -8.5632914451  4.8707872640
H   3.5393428136 -6.8138093810  4.5763221058
84
Scanning combination 100/256: [2.5000, 2.1000]  Energy = -386.2080777880
O   10.6587353968 -5.4141519889  4.8214921415
O   11.9241858167 -0.7531696116  4.3594867720
O   17.9092140618 -3.4537941041 -2.8353860546
O   14.6771289450 -3.0676024087  0.7965095662
C   12.9444298542 -3.7467614500  2.4305943219
C   12.8867327241 -2.4099459566  2.8972007972
C   12.1724853905 -4.7455038864  3.0659227889
C   12.0045618842 -2.0720695923  3.9181632762
C   11.3261549007 -4.4003155880  4.1112638517
C   11.1447803260 -3.0454339528  4.5211093462
C   10.1217891158 -2.6533338464  5.4653454119
C   10.4130622954 -1.7290901015  6.4580418635
C   9.5516604905 -1.2140674384  7.4525356301
C   8.2090254143 -1.6366196783  7.5609535857
C   10.1609793467 -0.2297980619  8.4243163286
C   14.9068761100 -5.0413330810 -0.3884919638
C   15.3757722758 -3.6951619203 -0.2625993606
C   16.3502606564 -3.1494233985 -1.0531458914
C   16.9105614667 -3.9887811847 -2.0404800060
C   16.4674862013 -5.3318907190 -2.2139527678
C   15.4718292279 -5.8524941051 -1.3940118776
C   13.9218269413 -5.2438243317  0.6052459442
C   13.7782496914 -4.0710467459  1.3336267953
H   13.5329276038 -1.6667459027  2.4378549064
H   12.2540978258 -5.7765199115  2.7434680005
H   11.0781902381 -6.2802247219  4.6273109621
H   12.3890662126 -0.1592107842  3.7390634504
H   9.1023131572 -2.9451849075  5.2288272038
H   11.4451151782 -1.3916815194  6.4973280241
H   7.5836059293 -1.6112408089  6.6677607302
H   7.6870737801 -1.4148972899  8.4906036910
H   10.6114954264  0.6129828337  7.8890646531
H   10.9800840958 -0.7008846124  8.9799153016
H   9.4279964249  0.1574061847  9.1387964498
H   16.7091957171 -2.1267514769 -0.9566051825
H   16.9070635215 -5.9568744173 -2.9898644889
H   15.1253838813 -6.8761231746 -1.5192258360
H   13.3726624624 -6.1638396781  0.7390293028
H   18.2443667478 -4.1205825254 -3.4694344141
C   9.8528912954 -4.6403677476  10.8726977814
O   12.0977863087 -5.4657589864  11.3447588745
C   11.1266677560 -5.0505595033  10.4471841421
O   7.6582878198 -3.8130997159  10.2711721330
C   11.4656480084 -5.0540193280  9.0779767683
O   5.9595047094 -3.2520162049  6.0687933166
C   10.5420055912 -4.6415265140  8.1375480573
O   4.3343727362 -4.4021895402  4.4419335151
C   9.2472545684 -4.2073118048  8.5187369540
O   6.2078684414 -6.1195884911  0.3385710257
C   8.9327998775 -4.2279649786  9.9133051836
C   8.2195542367 -3.7359699544  7.6107026080
C   8.1885783460 -4.0533039258  6.2089786187
C   6.9240212956 -3.8744446664  5.5132593339
C   6.7478213590 -4.4536119191  4.1609190115
C   7.8271837896 -4.7436542927  3.3033657453
C   5.4191156724 -4.7123234423  3.6783391306
C   7.6306867725 -5.2934000247  2.0495375563
C   5.2183395302 -5.2910869647  2.4209389349
C   6.3276320559 -5.5705968435  1.5975031904
C   3.7934438168 -5.6310778852  1.9625560599
C   3.4212092584 -7.1108922228  1.8083009275
C   3.4284264575 -8.0433090219  2.7877231407
C   3.0396654920 -9.4655955717  2.4799162046
C   3.9319955949 -7.7581256097  4.1852558895
H   9.5968968321 -4.6375294826  11.9341053152
H   12.4661489842 -5.3776984077  8.8104961058
H   10.8193955918 -4.6551283988  7.0890245793
H   11.7655838122 -5.4245104038  12.2635078042
H   7.5115913564 -3.9108689394  11.2331380264
H   7.2501822652 -3.6600570964  8.0988966828
H   8.8578057588 -4.8089080026  5.8285174196
H   8.8325613745 -4.4923059453  3.6071207427
H   8.4503105370 -5.5292507652  1.3819394106
H   4.6882060401 -3.8725533385  5.2219024526
H   5.2736372335 -6.2478633575  0.0895570910
H   3.1321488177 -5.1563861060  2.6968451221
H   3.5960637047 -5.1590354570  0.9893592255
H   3.0508206667 -7.4003087579  0.8235961918
H   2.4241336319 -9.8801539915  3.2854055411
H   3.9313993607 -10.1031367540  2.4143162929
H   2.4893253494 -9.5415558660  1.5374017162
H   5.0277263285 -7.6839528175  4.1986305767
H   3.6509604097 -8.5630630366  4.8708607680
H   3.5376043201 -6.8137642542  4.5757803317
84
Scanning combination 101/256: [2.5000, 2.0000]  Energy = -386.2150014635
O   10.6438608118 -5.4049784403  4.8152647190
O   11.9122455997 -0.7408622922  4.3280642439
O   17.9010520906 -3.4362707598 -2.8459721442
O   14.6842995861 -3.0672411606  0.8013912268
C   12.9499148734 -3.7481949435  2.4328072965
C   12.8895896396 -2.4093947547  2.8944243678
C   12.1742074391 -4.7457249870  3.0683123714
C   12.0087486004 -2.0675828517  3.9144783185
C   11.3341066950 -4.4001653214  4.1174967704
C   11.1635729667 -3.0435145692  4.5413041989
C   10.1951313784 -2.6779622615  5.5253815210
C   10.4424782647 -1.7004697683  6.4690810944
C   9.5839449838 -1.2261669261  7.4795749209
C   8.2444369095 -1.7099272258  7.6279659151
C   10.1604542930 -0.1934522349  8.4170977532
C   14.9244073987 -5.0418674310 -0.3791444409
C   15.3860629719 -3.6929606744 -0.2563296162
C   16.3537355140 -3.1419652812 -1.0520900870
C   16.9118252273 -3.9776470155 -2.0436686368
C   16.4760985681 -5.3234973980 -2.2136998703
C   15.4892754849 -5.8501155732 -1.3869591050
C   13.9408072576 -5.2478048974  0.6155166695
C   13.7883923928 -4.0734370093  1.3395884417
H   13.5363907004 -1.6676379455  2.4320325508
H   12.2510096654 -5.7771566527  2.7435482314
H   11.0322036184 -6.2804705476  4.6045505689
H   12.3630110605 -0.1520135006  3.6912218729
H   9.1856793164 -3.1728568155  5.4877482033
H   11.4370319213 -1.2594560257  6.4454114413
H   7.5760641519 -1.5624828857  6.7801352587
H   7.7840552531 -1.5099259497  8.5943155725
H   10.5918185023  0.6413951462  7.8518194298
H   10.9911693702 -0.6143951221  8.9995337402
H   9.4128991240  0.2039308206  9.1112843308
H   16.7084543581 -2.1177721035 -0.9574830355
H   16.9141670918 -5.9459224107 -2.9923300955
H   15.1487738150 -6.8758976612 -1.5096699039
H   13.4011245295 -6.1724443420  0.7565082126
H   18.2321920901 -4.0994713935 -3.4859266304
C   9.8513422206 -4.6298422401  10.8692609111
O   12.0810400142 -5.4869031573  11.3479384113
C   11.1187830567 -5.0606699258  10.4462242796
O   7.6870249373 -3.7249511913  10.2642300967
C   11.4582331143 -5.0813921693  9.0774318029
O   5.9826561244 -3.2197232529  6.0303445534
C   10.5374096258 -4.6651779099  8.1333237584
O   4.3306405472 -4.4010929942  4.4274678321
C   9.2497845137 -4.2144746064  8.5127025857
O   6.1819376663 -6.1109468519  0.3090555480
C   8.9420680507 -4.2000292477  9.9071363734
C   8.2247143580 -3.7097069110  7.6090866853
C   8.2089532179 -4.0499929066  6.1756419872
C   6.9292681304 -3.8605543784  5.4771262904
C   6.7422551686 -4.4506296340  4.1333647032
C   7.8168155118 -4.7425295538  3.2698343080
C   5.4105518672 -4.7112816851  3.6559209129
C   7.6122747680 -5.2855276135  2.0140648310
C   5.2029312944 -5.2913538944  2.4001346911
C   6.3074381439 -5.5652513136  1.5688526883
C   3.7777210219 -5.6424552325  1.9503808224
C   3.4188101977 -7.1259687618  1.7980368042
C   3.4195405655 -8.0515999096  2.7838907386
C   3.0255674406 -9.4748962771  2.4876543019
C   3.9191558910 -7.7560492577  4.1808576995
H   9.5894199501 -4.6221311505  11.9282701735
H   12.4531851651 -5.4188839812  8.8113728676
H   10.8185242061 -4.6741616237  7.0854104154
H   11.7508906461 -5.4252828660  12.2670111226
H   7.5410205517 -3.8019164093  11.2269632917
H   7.2449981752 -3.7400040117  8.0754702114
H   8.7654737677 -4.9280018606  5.8872011005
H   8.8230346030 -4.4947507740  3.5758026086
H   8.4244407648 -5.5150789004  1.3365628629
H   4.6862484280 -3.8657533009  5.1996676687
H   5.2472436784 -6.2410677321  0.0626128833
H   3.1166146214 -5.1736436277  2.6885843682
H   3.5704262532 -5.1730846098  0.9778766705
H   3.0694849334 -7.4262524644  0.8087941600
H   2.3911740059 -9.8726198475  3.2869841995
H   3.9128474902 -10.1206016650  2.4497549633
H   2.4928686008 -9.5600004700  1.5359431321
H   5.0141727992 -7.6727195062  4.1953892161
H   3.6429337542 -8.5602330362  4.8691387542
H   3.5170765066 -6.8128488471  4.5666490872
84
Scanning combination 102/256: [2.5000, 1.9000]  Energy = -386.2215741869
O   10.6471090864 -5.4034478023  4.8202249032
O   11.9134857525 -0.7397909745  4.3269981971
O   17.8995664746 -3.4347289501 -2.8455628683
O   14.6834163953 -3.0669225907  0.8019763482
C   12.9512154815 -3.7492857053  2.4347195914
C   12.8892986388 -2.4095610107  2.8929897589
C   12.1747448635 -4.7462383493  3.0700672172
C   12.0088261529 -2.0660179154  3.9115646553
C   11.3345629417 -4.3998148556  4.1179651541
C   11.1659548354 -3.0421469526  4.5399263999
C   10.1998942703 -2.6762488016  5.5220338359
C   10.4481927241 -1.7037036822  6.4720886346
C   9.5930455417 -1.2420253178  7.4828147535
C   8.2474198447 -1.7579701954  7.6317854737
C   10.1513516938 -0.2001287010  8.4122423403
C   14.9239783960 -5.0417246644 -0.3785929027
C   15.3847858799 -3.6921009100 -0.2563901649
C   16.3526661443 -3.1415179212 -1.0508428949
C   16.9113658722 -3.9768929929 -2.0425292877
C   16.4761059847 -5.3231103118 -2.2123422315
C   15.4896897545 -5.8500090868 -1.3858873764
C   13.9422990752 -5.2485264118  0.6178337138
C   13.7902561862 -4.0744782503  1.3423392067
H   13.5366535810 -1.6691847846  2.4299579847
H   12.2506392327 -5.7772183402  2.7437538939
H   11.0298805983 -6.2801336921  4.6028998339
H   12.3575812546 -0.1503007456  3.6861050390
H   9.1861248449 -3.1683771296  5.4787248099
H   11.4413983866 -1.2589396113  6.4426072336
H   7.5800146023 -1.5675504016  6.7918480212
H   7.7853044025 -1.5189732408  8.5878239210
H   10.5817503001  0.6350407907  7.8467598529
H   10.9844636737 -0.6100597734  8.9980071728
H   9.4035503219  0.1974218898  9.1055789165
H   16.7067808124 -2.1168029760 -0.9556781997
H   16.9143393378 -5.9450585122 -2.9916665441
H   15.1497045548 -6.8764292192 -1.5077107647
H   13.4019876120 -6.1728411138  0.7573969830
H   18.2305701089 -4.0976175066 -3.4858425082
C   9.8522570765 -4.6286004946  10.8682460346
O   12.0811020681 -5.4888321779  11.3491654401
C   11.1176715785 -5.0649570563  10.4468881639
O   7.6865451920 -3.7261148313  10.2622259688
C   11.4562159199 -5.0836524171  9.0783067585
O   5.9827856650 -3.2186815085  6.0280070053
C   10.5350069820 -4.6610575829  8.1356227598
O   4.3330803665 -4.3998383118  4.4287793463
C   9.2547868779 -4.1996533350  8.5159795098
O   6.1799414098 -6.1095800047  0.3080124145
C   8.9446677886 -4.1932857911  9.9053088351
C   8.2267784175 -3.6576889587  7.6091241450
C   8.2069122471 -4.0384490689  6.1721442397
C   6.9306871912 -3.8601885285  5.4761518452
C   6.7440473130 -4.4518068124  4.1319991562
C   7.8173106290 -4.7432609204  3.2664392762
C   5.4119282253 -4.7112990307  3.6564552968
C   7.6124490374 -5.2854226071  2.0109614741
C   5.2033594396 -5.2912449917  2.4008170124
C   6.3070181828 -5.5646330285  1.5678351856
C   3.7780908933 -5.6424459042  1.9519981426
C   3.4189189632 -7.1257264124  1.7983418539
C   3.4188981671 -8.0516195587  2.7842375782
C   3.0246432486 -9.4749233837  2.4883435374
C   3.9184433162 -7.7558842933  4.1811292278
H   9.5908286808 -4.6233010661  11.9279649614
H   12.4502524598 -5.4250960930  8.8124622868
H   10.8157035203 -4.6809984034  7.0878928640
H   11.7509051735 -5.4264044135  12.2682178683
H   7.5454717652 -3.7977620022  11.2262226353
H   7.2475598394 -3.7452767815  8.0741168426
H   8.7620807174 -4.9205668682  5.9000973504
H   8.8244007271 -4.4964973752  3.5706160954
H   8.4240605398 -5.5151992843  1.3319910210
H   4.6895411916 -3.8621646847  5.1997923306
H   5.2451463561 -6.2388415204  0.0627926101
H   3.1173848649 -5.1746332776  2.6911605728
H   3.5700909838 -5.1724932598  0.9799855115
H   3.0707446514 -7.4262332863  0.8088743164
H   2.3887981394 -9.8717183596  3.2871529008
H   3.9116861153 -10.1211982961  2.4522934503
H   2.4933113077 -9.5604817680  1.5359222054
H   5.0134110502 -7.6723732454  4.1956287360
H   3.6423076415 -8.5598093481  4.8697880882
H   3.5164823209 -6.8125041175  4.5665280995
84
Scanning combination 103/256: [2.5000, 1.8000]  Energy = -386.2283943888
O   10.6514833933 -5.4002723537  4.8238845178
O   11.9149083099 -0.7380586811  4.3210254638
O   17.8979378050 -3.4324039715 -2.8449408167
O   14.6840191651 -3.0678890315  0.8029717283
C   12.9525469598 -3.7503357134  2.4331425107
C   12.8945931080 -2.4092160741  2.8893902196
C   12.1772336577 -4.7479735527  3.0698115860
C   12.0147801358 -2.0643117971  3.9074730272
C   11.3393605376 -4.3993033287  4.1183244742
C   11.1726938800 -3.0399748653  4.5364989967
C   10.2095319645 -2.6722948485  5.5162384289
C   10.4554321266 -1.7031398586  6.4704596753
C   9.6021600525 -1.2576807660  7.4828206469
C   8.2545327789 -1.8072115363  7.6396608459
C   10.1401155766 -0.2103457651  8.4088589626
C   14.9252344013 -5.0424562095 -0.3767433637
C   15.3845043608 -3.6926566998 -0.2548419149
C   16.3513879617 -3.1399256220 -1.0506689178
C   16.9097147174 -3.9748170238 -2.0418552810
C   16.4766421521 -5.3217096997 -2.2117265091
C   15.4905790026 -5.8502562343 -1.3839330370
C   13.9437852549 -5.2504193217  0.6189044488
C   13.7910123184 -4.0757832990  1.3419502579
H   13.5394541016 -1.6681672083  2.4241164663
H   12.2510225340 -5.7796422906  2.7446482337
H   11.0249182212 -6.2791144059  4.6011818088
H   12.3510125214 -0.1464581693  3.6769311174
H   9.1919132602 -3.1684523254  5.4800047450
H   11.4484129266 -1.2570067589  6.4418113827
H   7.5907551307 -1.5830118855  6.8050638311
H   7.8004685718 -1.5439619546  8.5931524236
H   10.5585073643  0.6265389538  7.8359916726
H   10.9774385438 -0.6033453782  9.0044024540
H   9.3797259393  0.1805319963  9.0930561217
H   16.7049552134 -2.1155664859 -0.9542192376
H   16.9147269091 -5.9436494478 -2.9898505780
H   15.1519777719 -6.8763871372 -1.5052505279
H   13.4040741875 -6.1750819854  0.7603725009
H   18.2281097952 -4.0946540551 -3.4858354002
C   9.8512843115 -4.6242530833  10.8693304871
O   12.0773171462 -5.4936813736  11.3476626394
C   11.1149038868 -5.0641357059  10.4457991805
O   7.6860439551 -3.7204729373  10.2636361182
C   11.4523447636 -5.0857609552  9.0769698709
O   5.9785196944 -3.2138603670  6.0243819931
C   10.5308047294 -4.6566264908  8.1339332445
O   4.3356804624 -4.4001954290  4.4277060898
C   9.2594312114 -4.1845945284  8.5187968472
O   6.1757290785 -6.1076861762  0.3054620697
C   8.9453665035 -4.1830257997  9.9036418567
C   8.2320484167 -3.6068054513  7.6107823269
C   8.2085023388 -4.0205142463  6.1707575979
C   6.9319632328 -3.8517819678  5.4765898069
C   6.7471275988 -4.4502995906  4.1327161097
C   7.8193037625 -4.7438724463  3.2656009152
C   5.4148848413 -4.7120428231  3.6570597172
C   7.6110378631 -5.2855028467  2.0086346449
C   5.2038247376 -5.2917724006  2.4010062603
C   6.3054113793 -5.5642977553  1.5659457593
C   3.7776840686 -5.6425178751  1.9539475253
C   3.4192175842 -7.1257378977  1.7991683087
C   3.4182504039 -8.0514697050  2.7848685281
C   3.0231059942 -9.4748411298  2.4896088849
C   3.9174487705 -7.7555188565  4.1820438809
H   9.5873108570 -4.6242684777  11.9281622837
H   12.4426943198 -5.4360287304  8.8097045458
H   10.8092390069 -4.6804702141  7.0849093904
H   11.7501414605 -5.4280086217  12.2671557831
H   7.5459891554 -3.7910179299  11.2275209243
H   7.2561576596 -3.7534543649  8.0698561888
H   8.7541464185 -4.9165103387  5.9301977016
H   8.8281187453 -4.4990688985  3.5659108106
H   8.4206987675 -5.5141551814  1.3271652595
H   4.6936767979 -3.8602971309  5.1971147270
H   5.2401046110 -6.2359464484  0.0610491332
H   3.1182325992 -5.1761113142  2.6949784561
H   3.5680318306 -5.1709947864  0.9830573319
H   3.0727990815 -7.4260652879  0.8089272616
H   2.3848444537 -9.8700989539  3.2873073830
H   3.9096140617 -10.1220342947  2.4566097733
H   2.4940060527 -9.5609939993  1.5358983883
H   5.0124356634 -7.6721597148  4.1963455557
H   3.6409708516 -8.5591930444  4.8708584852
H   3.5155781109 -6.8118037718  4.5669460432
84
Scanning combination 104/256: [2.5000, 1.7000]  Energy = -386.2341376539
O   10.6555299849 -5.3941654849  4.8262436093
O   11.9195552451 -0.7338063047  4.3093999964
O   17.8966509906 -3.4284463639 -2.8481071967
O   14.6860439892 -3.0695829846  0.8005590992
C   12.9579439644 -3.7518431467  2.4314949109
C   12.8990000751 -2.4090568035  2.8823768976
C   12.1823791468 -4.7488188969  3.0690960715
C   12.0202100105 -2.0615835835  3.8995931221
C   11.3455686342 -4.3980017960  4.1168814844
C   11.1823519235 -3.0379905247  4.5328510831
C   10.2246634243 -2.6757445744  5.5160152543
C   10.4670920012 -1.7070212762  6.4730343190
C   9.6137225257 -1.2808369018  7.4869142402
C   8.2662586107 -1.8663933266  7.6519263389
C   10.1182226561 -0.2151151024  8.4076563714
C   14.9296428041 -5.0445946436 -0.3778287112
C   15.3869019210 -3.6936844953 -0.2569096518
C   16.3521525077 -3.1396453235 -1.0516969985
C   16.9115017388 -3.9737290028 -2.0438635502
C   16.4799853698 -5.3212466254 -2.2125401397
C   15.4962626709 -5.8515102145 -1.3850139053
C   13.9497060261 -5.2538534316  0.6191942222
C   13.7960011503 -4.0788369420  1.3412584149
H   13.5456487649 -1.6707862098  2.4144551118
H   12.2557346575 -5.7808397414  2.7448997668
H   11.0179667289 -6.2760267621  4.5967388317
H   12.3466759851 -0.1429949512  3.6585073891
H   9.2087699860 -3.1825473143  5.4808438005
H   11.4540377363 -1.2428225034  6.4310605832
H   7.5925377719 -1.5961603541  6.8356214219
H   7.8296153370 -1.5897329029  8.6132285367
H   10.5193645897  0.6288402532  7.8314322957
H   10.9601678674 -0.5823655516  9.0147084999
H   9.3404829249  0.1585486874  9.0823961013
H   16.7028060353 -2.1140793804 -0.9551866565
H   16.9189407348 -5.9421646849 -2.9920381537
H   15.1589382585 -6.8787670697 -1.5050252563
H   13.4112795692 -6.1788946848  0.7614557209
H   18.2272834073 -4.0900038458 -3.4900868464
C   9.8472807491 -4.6184439996  10.8683941649
O   12.0686074326 -5.5019204331  11.3416314659
C   11.1067726085 -5.0678451891  10.4423964648
O   7.6870181763 -3.6991684958  10.2650360794
C   11.4435804083 -5.0909762387  9.0741794173
O   5.9833670360 -3.1991445368  6.0178595004
C   10.5257507066 -4.6483306646  8.1335610891
O   4.3391505988 -4.4003769270  4.4337756814
C   9.2576305010 -4.1756451191  8.5218406657
O   6.1725566310 -6.1026407247  0.3056025993
C   8.9450963505 -4.1672237283  9.9044686169
C   8.2349711070 -3.5655922824  7.6115708520
C   8.2135293724 -4.0090380550  6.1701396846
C   6.9372238799 -3.8412200838  5.4741866599
C   6.7500316847 -4.4478586307  4.1323396930
C   7.8207817003 -4.7445967687  3.2647050262
C   5.4168841830 -4.7111849388  3.6598545715
C   7.6110364135 -5.2841904988  2.0077211884
C   5.2041398802 -5.2907350371  2.4041657512
C   6.3043813079 -5.5614434120  1.5667472976
C   3.7775956023 -5.6421555473  1.9587950243
C   3.4198819281 -7.1252903144  1.8011502725
C   3.4168080625 -8.0512927379  2.7867606107
C   3.0202747120 -9.4742215268  2.4919716674
C   3.9155863726 -7.7553801019  4.1839112465
H   9.5832894646 -4.6228582295  11.9271123041
H   12.4283304880 -5.4526922953  8.8023846083
H   10.8006931400 -4.6684984468  7.0843389954
H   11.7450075789 -5.4294981256  12.2621037026
H   7.5441206101 -3.7814139498  11.2272370430
H   7.2584674269 -3.7578689660  8.0603162583
H   8.7393010197 -4.9229080812  5.9503468934
H   8.8312458010 -4.5045687847  3.5650881819
H   8.4189119073 -5.5124689095  1.3237944860
H   4.6970194885 -3.8558086519  5.1997983893
H   5.2368588019 -6.2283637548  0.0613883841
H   3.1190885527 -5.1783802107  2.7023475185
H   3.5654054032 -5.1687341863  0.9894481662
H   3.0765226073 -7.4256800059  0.8099860393
H   2.3775763551 -9.8665554123  3.2875365158
H   3.9055223245 -10.1233317838  2.4647292541
H   2.4954476100 -9.5613802663  1.5361075034
H   5.0105822225 -7.6730732834  4.1985226519
H   3.6380212670 -8.5584599561  4.8728478533
H   3.5147426734 -6.8110456095  4.5682626179
84
Scanning combination 105/256: [2.5000, 1.6000]  Energy = -386.2358487841
O   10.6564899668 -5.3941471012  4.8262957482
O   11.9194882351 -0.7334670054  4.3072526989
O   17.8971813646 -3.4278300511 -2.8498176399
O   14.6871140415 -3.0701809921  0.7996355928
C   12.9590485030 -3.7523849733  2.4308492228
C   12.9001101297 -2.4094428522  2.8812257534
C   12.1837048029 -4.7490853959  3.0691266980
C   12.0219536815 -2.0612672681  3.8983412323
C   11.3473783503 -4.3982651726  4.1168691084
C   11.1853687261 -3.0377506801  4.5315323575
C   10.2285042353 -2.6745085813  5.5112556022
C   10.4667915927 -1.7090814375  6.4719804870
C   9.6166682437 -1.2984069512  7.4900238888
C   8.2739540475 -1.9177440086  7.6571086585
C   10.1055605771 -0.2209834434  8.4043634953
C   14.9314942548 -5.0452809828 -0.3783081632
C   15.3880830875 -3.6943071469 -0.2576312252
C   16.3530246053 -3.1394764556 -1.0532282249
C   16.9121207528 -3.9732327808 -2.0452124802
C   16.4816862163 -5.3212138318 -2.2140287570
C   15.4980749200 -5.8522198017 -1.3855450570
C   13.9515053207 -5.2545471345  0.6186459974
C   13.7971455761 -4.0794547230  1.3406054042
H   13.5459364327 -1.6714425000  2.4128666223
H   12.2570165250 -5.7809842895  2.7453128895
H   11.0174023362 -6.2759933581  4.5951340581
H   12.3458664689 -0.1433251071  3.6550937192
H   9.2108465136 -3.1849776936  5.4811210022
H   11.4492983557 -1.2379898002  6.4304174518
H   7.5987549026 -1.6078845491  6.8546576580
H   7.8388651891 -1.6097803798  8.6111427440
H   10.5046772707  0.6245710742  7.8304158582
H   10.9507338204 -0.5761519367  9.0119765112
H   9.3297539938  0.1532336519  9.0803731622
H   16.7031827100 -2.1138694990 -0.9565559857
H   16.9205464409 -5.9420134628 -2.9929233058
H   15.1614682953 -6.8794170127 -1.5055744122
H   13.4137993282 -6.1800822400  0.7614607507
H   18.2275279365 -4.0890129591 -3.4918070867
C   9.8443153791 -4.6201241443  10.8658583053
O   12.0654185166 -5.5042862452  11.3407867599
C   11.1036639100 -5.0696841204  10.4411131401
O   7.6844596033 -3.6950294167  10.2651756235
C   11.4387392641 -5.0943688261  9.0735279128
O   5.9795890179 -3.1942595533  6.0144513578
C   10.5216769386 -4.6461261642  8.1327125855
O   4.3409767033 -4.4003529969  4.4354071695
C   9.2606879193 -4.1585756307  8.5209728862
O   6.1718028860 -6.1012430990  0.3056216170
C   8.9431019239 -4.1619684347  9.9014348323
C   8.2449524485 -3.5167297481  7.6092038873
C   8.2115495701 -3.9947426422  6.1738915154
C   6.9375812397 -3.8363534013  5.4770614888
C   6.7521058857 -4.4478793926  4.1345437380
C   7.8219312133 -4.7441962012  3.2653015908
C   5.4187408789 -4.7105359815  3.6616526423
C   7.6110365815 -5.2840934641  2.0076856506
C   5.2046720216 -5.2901610371  2.4055029913
C   6.3042565095 -5.5610318331  1.5672180975
C   3.7777040065 -5.6417797907  1.9604926314
C   3.4201338428 -7.1249451990  1.8020283541
C   3.4165383260 -8.0511272154  2.7874055535
C   3.0195281785 -9.4739362138  2.4926590895
C   3.9152048055 -7.7554738967  4.1847065534
H   9.5826656247 -4.6215074788  11.9243557008
H   12.4224994081 -5.4554896113  8.8019573154
H   10.7992046138 -4.6697658788  7.0843787559
H   11.7438697846 -5.4304154276  12.2616033423
H   7.5446285556 -3.7799289955  11.2273476889
H   7.2748523297 -3.7531972110  8.0490568552
H   8.7310369438 -4.9140982507  5.9683484408
H   8.8325221553 -4.5057572506  3.5649990775
H   8.4188591864 -5.5122976190  1.3234039622
H   4.6992012738 -3.8540468681  5.2007655594
H   5.2357480328 -6.2260950066  0.0617473438
H   3.1194064422 -5.1786324943  2.7045932220
H   3.5649447897 -5.1677777719  0.9914705611
H   3.0777917209 -7.4251347371  0.8103846773
H   2.3755409837 -9.8655171196  3.2875482897
H   3.9043750969 -10.1236448614  2.4669283038
H   2.4958761977 -9.5611659037  1.5361441561
H   5.0102506055 -7.6736640805  4.1995015742
H   3.6371283296 -8.5583795498  4.8736440004
H   3.5147924750 -6.8108844425  4.5689621196
84
Scanning combination 106/256: [2.5000, 1.5000]  Energy = -386.2313743826
O   10.6626185881 -5.3888030739  4.8260193760
O   11.9242625573 -0.7314548803  4.2965826767
O   17.8982036313 -3.4253131021 -2.8554473898
O   14.6915899636 -3.0722078787  0.7949820936
C   12.9664856597 -3.7548455668  2.4266250312
C   12.9075848802 -2.4100659641  2.8731937242
C   12.1906489268 -4.7511975224  3.0658013552
C   12.0301013118 -2.0595933663  3.8893874591
C   11.3556722793 -4.3974219364  4.1127873476
C   11.1980810887 -3.0361127434  4.5270712402
C   10.2420396060 -2.6767127009  5.5056318453
C   10.4689904066 -1.7090282159  6.4683280138
C   9.6190695497 -1.3225355349  7.4907840481
C   8.2846228869 -1.9737294540  7.6720409895
C   10.0748862219 -0.2299862383  8.4008187854
C   14.9380873162 -5.0476992197 -0.3811964806
C   15.3925519561 -3.6959599384 -0.2615629761
C   16.3559579344 -3.1391602805 -1.0578106345
C   16.9151376776 -3.9724560574 -2.0499186130
C   16.4869265726 -5.3211907891 -2.2175941123
C   15.5051510385 -5.8539725711 -1.3881944086
C   13.9589369636 -5.2581111627  0.6161136935
C   13.8038708846 -4.0826244160  1.3367649653
H   13.5528341069 -1.6724914366  2.4024189698
H   12.2631341460 -5.7846107016  2.7445601564
H   11.0125066943 -6.2740445988  4.5913748646
H   12.3456172613 -0.1396932201  3.6422020152
H   9.2248958937 -3.1965022609  5.4739195636
H   11.4439823072 -1.2209855367  6.4212217331
H   7.6011903941 -1.6178513194  6.8949837187
H   7.8809572876 -1.6643997314  8.6425513547
H   10.4472536272  0.6198028972  7.8153029191
H   10.9246296078 -0.5586481609  9.0189980401
H   9.2796772987  0.1197419127  9.0673341920
H   16.7041354801 -2.1131366666 -0.9613080967
H   16.9260271750 -5.9416130821 -2.9964264664
H   15.1700926400 -6.8816950553 -1.5071127104
H   13.4224394631 -6.1840783314  0.7611082599
H   18.2284345632 -4.0860525871 -3.4980938862
C   9.8383575848 -4.6135424204  10.8623841931
O   12.0516987756 -5.5171256526  11.3359821223
C   11.0942572348 -5.0727381589  10.4363991974
O   7.6843909556 -3.6726675718  10.2599405496
C   11.4309403545 -5.1006384190  9.0689368707
O   5.9814466318 -3.1735730822  6.0124074649
C   10.5190771956 -4.6404048136  8.1277084198
O   4.3436290439 -4.4025651276  4.4434021507
C   9.2658584509 -4.1394939361  8.5181699576
O   6.1717692597 -6.0940541393  0.3105870452
C   8.9432078973 -4.1442317529  9.8965052257
C   8.2538387597 -3.4719721414  7.6070845970
C   8.2143471052 -3.9765939499  6.1756932689
C   6.9399245015 -3.8194244343  5.4801307791
C   6.7542274423 -4.4409206135  4.1399808083
C   7.8240192743 -4.7424644894  3.2727043523
C   5.4217752799 -4.7090024736  3.6686646090
C   7.6114878243 -5.2823946537  2.0152145877
C   5.2068645265 -5.2895943597  2.4131316308
C   6.3050424919 -5.5580863574  1.5737227488
C   3.7801239403 -5.6405135750  1.9675420952
C   3.4223974998 -7.1232196084  1.8056306912
C   3.4159504055 -8.0502312847  2.7900487438
C   3.0169469635 -9.4724424840  2.4949661835
C   3.9139475803 -7.7558485006  4.1878881063
H   9.5693976363 -4.6210705733  11.9197742891
H   12.4098885617 -5.4755922214  8.7976644737
H   10.7969672707 -4.6690170196  7.0786340242
H   11.7326283832 -5.4316909708  12.2564619462
H   7.5373057748 -3.7767656189  11.2190826962
H   7.2911805687 -3.7533878385  8.0433024961
H   8.7081409891 -4.9170284372  5.9989581769
H   8.8364271936 -4.5098711959  3.5709859676
H   8.4173649301 -5.5090807994  1.3293650212
H   4.6987631639 -3.8491973883  5.2036558325
H   5.2353482018 -6.2167907673  0.0657580715
H   3.1225960626 -5.1793130837  2.7132729542
H   3.5658880249 -5.1641219059  1.0000067183
H   3.0825185160 -7.4221555842  0.8127452984
H   2.3684711914 -9.8615207861  3.2874726948
H   3.9003570526 -10.1242664965  2.4745020047
H   2.4974432784 -9.5600229202  1.5362123819
H   5.0091212476 -7.6761966646  4.2029375689
H   3.6337667350 -8.5582329068  4.8764677154
H   3.5153032721 -6.8102908980  4.5716814838
84
Scanning combination 107/256: [2.4000, 2.9000]  Energy = -386.2177177664
O   10.7429545063 -5.4483496828  4.8783455881
O   11.8503811443 -0.7539753553  4.4105006665
O   17.9321861524 -3.5448991654 -2.7739317464
O   14.6064644318 -3.0305283724  0.7607725761
C   12.8789122002 -3.6973492118  2.4134065252
C   12.8035127206 -2.3643459491  2.8868307246
C   12.1511724504 -4.7164615242  3.0665181797
C   11.9406826535 -2.0609201132  3.9386379168
C   11.3372213433 -4.4025859962  4.1475922639
C   11.1218207885 -3.0599148425  4.5521864095
C   10.0555697528 -2.6468207111  5.4759794820
C   10.3783132654 -1.7768198561  6.5109307447
C   9.4742417658 -1.0858978985  7.3780650566
C   8.1303173667 -1.0828240127  7.1701624122
C   10.1091006029 -0.2753429217  8.5072703093
C   14.8184521614 -5.0203416665 -0.4027930336
C   15.3108818915 -3.6823790913 -0.2830914282
C   16.3169515185 -3.1698592299 -1.0558829253
C   16.8935014580 -4.0413712778 -2.0059739185
C   16.4282302933 -5.3780756505 -2.1703842216
C   15.3938643286 -5.8612047251 -1.3768243567
C   13.8144506181 -5.1944809821  0.5741093385
C   13.6926651333 -4.0181366948  1.3001192027
H   13.4124192443 -1.5982533677  2.4123708398
H   12.2465411192 -5.7406778028  2.7296251870
H   11.1870910792 -6.2948518787  4.6562386754
H   12.3273667635 -0.1419491780  3.8185440889
H   9.0624989850 -2.7107627190  5.0503802436
H   11.4366740152 -1.6254712241  6.6960201164
H   7.6929829016 -1.5671112561  6.3064435155
H   7.4512443414 -0.5274801372  7.8090236563
H   10.5436190657  0.6508749249  8.1123383798
H   10.9328797297 -0.8282216694  8.9715408201
H   9.3808925241 -0.0119337337  9.2803249988
H   16.6915881757 -2.1520063972 -0.9707996275
H   16.8815304065 -6.0281993142 -2.9169444684
H   15.0266259690 -6.8782802847 -1.4952535772
H   13.2341325342 -6.0971100004  0.6940715437
H   18.2823284368 -4.2357390395 -3.3732104311
C   9.8691720941 -4.7542342853  10.8821646668
O   12.1495140631 -5.4444063181  11.3908968403
C   11.1748146161 -5.0780171948  10.4769897870
O   7.6337080375 -4.0867427968  10.2484129790
C   11.5438091200 -5.0344161775  9.1137367424
O   6.0383735305 -3.2489269949  6.0828609057
C   10.6171747270 -4.6745626177  8.1546459187
O   4.3900739303 -4.3691069331  4.4590417903
C   9.2803705704 -4.3203681353  8.5148425054
O   6.2122851221 -6.1752994912  0.3755242312
C   8.9425249295 -4.3898045224  9.9124544370
C   8.2459195032 -3.9449658714  7.6224711640
C   8.2703127674 -4.0610023442  6.2330460821
C   6.9921574973 -3.8774912598  5.5234008544
C   6.8033518068 -4.4718483917  4.1786809517
C   7.8733642629 -4.8112040610  3.3268148525
C   5.4672489688 -4.7104585819  3.6991648406
C   7.6590670361 -5.3801724564  2.0837705031
C   5.2491544030 -5.2963078406  2.4485451858
C   6.3492202678 -5.6178908364  1.6295709320
C   3.8135106644 -5.5979701487  1.9932877020
C   3.3954875742 -7.0666523959  1.8405505668
C   3.4480255369 -8.0208888138  2.7978090921
C   3.0854578766 -9.4438158881  2.4604611233
C   3.9811190022 -7.7582821000  4.1884365471
H   9.5883666499 -4.7954602656  11.9367751764
H   12.5683718846 -5.2954381274  8.8691829863
H   10.9141261747 -4.6535262488  7.1108615772
H   11.7910323677 -5.4494551831  12.3013531490
H   7.4659223161 -4.2394675421  11.1997965372
H   7.3475913274 -3.5836556432  8.1062093590
H   8.9852090180 -4.7257277054  5.7734140873
H   8.8856748609 -4.5841124300  3.6250156149
H   8.4686242107 -5.6589923914  1.4211457335
H   4.7535714318 -3.8400625108  5.2341109150
H   5.2757990162 -6.2439564040  0.1120617687
H   3.1648942935 -5.1026027639  2.7253353339
H   3.6251829358 -5.1232308107  1.0194592792
H   2.9469693566 -7.3254730410  0.8798353226
H   2.5411418505 -9.9128266450  3.2871354750
H   3.9908233979 -10.0459047445  2.3030841272
H   2.4737248139 -9.5018591669  1.5548822997
H   5.0790513929 -7.7204336735  4.1829837906
H   3.6877417704 -8.5558529439  4.8777525838
H   3.6223896472 -6.8028849406  4.5867697884
84
Scanning combination 108/256: [2.4000, 2.8000]  Energy = -386.2148421999
O   10.7355991120 -5.4488303199  4.8754743635
O   11.8534450084 -0.7564695352  4.4060518239
O   17.9293855630 -3.5370383074 -2.7756568746
O   14.6090434040 -3.0340368067  0.7643505282
C   12.8836089641 -3.7032845611  2.4160301844
C   12.8083784246 -2.3695367719  2.8868826527
C   12.1550999771 -4.7220107332  3.0691092820
C   11.9440368489 -2.0640845510  3.9360420208
C   11.3368661428 -4.4059136881  4.1461581143
C   11.1239028925 -3.0621616959  4.5491034601
C   10.0590389742 -2.6461615946  5.4706796331
C   10.3836064264 -1.7759593463  6.5055709077
C   9.4800115462 -1.1024335642  7.3834203957
C   8.1312848801 -1.1398646451  7.1981746673
C   10.1096176065 -0.2783289122  8.5026815937
C   14.8227897169 -5.0221540628 -0.4015624608
C   15.3132370489 -3.6835699003 -0.2803459599
C   16.3175630366 -3.1678499389 -1.0534200517
C   16.8933341203 -4.0366375910 -2.0063549011
C   16.4297815542 -5.3736731686 -2.1726627925
C   15.3978457006 -5.8602196913 -1.3779405885
C   13.8201996792 -5.1992778570  0.5762810194
C   13.6974947258 -4.0236043965  1.3031548681
H   13.4171625887 -1.6046148005  2.4106886089
H   12.2511732450 -5.7468578649  2.7342651947
H   11.1793697579 -6.2965759625  4.6573991641
H   12.3329740165 -0.1454574662  3.8151752464
H   9.0654131874 -2.7087750598  5.0450618391
H   11.4416768258 -1.6165206850  6.6832053479
H   7.6970762779 -1.6069740244  6.3239830126
H   7.4487488323 -0.6010729496  7.8456714332
H   10.5470269911  0.6416911217  8.0977277248
H   10.9311870556 -0.8256745364  8.9769298520
H   9.3773398907 -0.0054344316  9.2685414826
H   16.6907175468 -2.1496711890 -0.9663960210
H   16.8820043505 -6.0214857771 -2.9217662036
H   15.0317203285 -6.8774726728 -1.4973354413
H   13.2413891114 -6.1029001965  0.6963392384
H   18.2792229938 -4.2261569268 -3.3773882700
C   9.8676407434 -4.7473256301  10.8771769538
O   12.1455550885 -5.4472805226  11.3818013014
C   11.1714104600 -5.0750972261  10.4700672426
O   7.6348042556 -4.0652121155  10.2476677717
C   11.5371830268 -5.0364787095  9.1058248326
O   6.0290622339 -3.2504788993  6.0846268753
C   10.6115132973 -4.6683015209  8.1498401089
O   4.3856014814 -4.3737366242  4.4599490122
C   9.2789802922 -4.3006888934  8.5126184840
O   6.2163311395 -6.1718268857  0.3761199125
C   8.9417579336 -4.3739284672  9.9098293435
C   8.2498308045 -3.9050983815  7.6215410779
C   8.2658581575 -4.0477503357  6.2324234165
C   6.9866069947 -3.8733046626  5.5251643707
C   6.7999869611 -4.4694357553  4.1812992429
C   7.8714725976 -4.8037157343  3.3294034154
C   5.4646680767 -4.7105128011  3.7003730506
C   7.6600185903 -5.3727507300  2.0857883465
C   5.2494267419 -5.2962721593  2.4491687384
C   6.3510853505 -5.6142351469  1.6305178586
C   3.8145005439 -5.5993813854  1.9922942919
C   3.3981505563 -7.0683537436  1.8396556793
C   3.4478631253 -8.0216044436  2.7980767161
C   3.0829993314 -9.4440387272  2.4616949056
C   3.9792101375 -7.7588715977  4.1892978354
H   9.5876142063 -4.7906957220  11.9318282949
H   12.5599378026 -5.3032094677  8.8585287238
H   10.9067378842 -4.6485236235  7.1048201648
H   11.7901617731 -5.4464069803  12.2934956488
H   7.4646884239 -4.2267930693  11.1970255065
H   7.3556753271 -3.5399344064  8.1082758210
H   8.9743083006 -4.7271261666  5.7849251188
H   8.8826233386 -4.5738171114  3.6294232976
H   8.4715285274 -5.6482738248  1.4237462688
H   4.7470507901 -3.8441239547  5.2354730380
H   5.2799609126 -6.2444371269  0.1134845959
H   3.1651694234 -5.1046830047  2.7241677617
H   3.6262358509 -5.1243768798  1.0184965350
H   2.9527498632 -7.3281540800  0.8778294313
H   2.5348050655 -9.9103639723  3.2872655013
H   3.9873964140 -10.0485568906  2.3086369191
H   2.4742228430 -9.5021253403  1.5541803021
H   5.0771463167 -7.7217776548  4.1854626181
H   3.6843965631 -8.5563063941  4.8781604648
H   3.6203884427 -6.8033951342  4.5872348821
84
Scanning combination 109/256: [2.4000, 2.7000]  Energy = -386.2119625803
O   10.6987549521 -5.4500409597  4.8577864831
O   11.8736641439 -0.7668244868  4.3848941202
O   17.9202679802 -3.4970773351 -2.7921589952
O   14.6288650465 -3.0558339840  0.7815972226
C   12.9017820189 -3.7343370530  2.4263054811
C   12.8253146626 -2.3983297111  2.8886012874
C   12.1644835767 -4.7448389036  3.0813810817
C   11.9526393576 -2.0798414570  3.9272544886
C   11.3245371536 -4.4148206112  4.1391722470
C   11.1112161783 -3.0662815325  4.5347766930
C   10.0454076954 -2.6457126093  5.4569324543
C   10.3724364892 -1.7547869645  6.4753722327
C   9.4872996046 -1.1052774899  7.3878536686
C   8.1316561236 -1.2296413619  7.2800834449
C   10.1299517459 -0.2556995145  8.4796903949
C   14.8512035200 -5.0338240693 -0.3985150898
C   15.3315020433 -3.6922459271 -0.2710300369
C   16.3251026377 -3.1609911844 -1.0482115703
C   16.8974751780 -4.0145285598 -2.0167190912
C   16.4428554959 -5.3535715425 -2.1913961003
C   15.4240994298 -5.8572621502 -1.3894623140
C   13.8562778646 -5.2254305476  0.5863990282
C   13.7239304967 -4.0538201670  1.3181569659
H   13.4446389034 -1.6419747485  2.4127520404
H   12.2710012594 -5.7740787550  2.7623217131
H   11.1393931167 -6.3027503130  4.6531557823
H   12.3566287601 -0.1676492656  3.7841664895
H   9.0454077056 -2.7371219165  5.0521444187
H   11.4307093996 -1.5634180154  6.6159265570
H   7.6749538110 -1.5710690753  6.3606495035
H   7.4623162525 -0.8920364048  8.0641386904
H   10.5992295397  0.6410568840  8.0575388362
H   10.9323289304 -0.8092971993  8.9789487545
H   9.3985670652  0.0589505620  9.2299016527
H   16.6907486331 -2.1409899975 -0.9524616815
H   16.8918260491 -5.9885120090 -2.9535870463
H   15.0672993680 -6.8770517292 -1.5161769608
H   13.2877746739 -6.1354733004  0.7078793299
H   18.2681926404 -4.1752147634 -3.4071921350
C   9.8662883935 -4.7123310750  10.8714797716
O   12.1299926940 -5.4698518704  11.3584347213
C   11.1571951198 -5.0788135355  10.4534701481
O   7.6507463542 -3.9564693544  10.2576440478
C   11.5154700719 -5.0526171361  9.0865037220
O   6.0107271522 -3.2496517617  6.0985818217
C   10.5911113507 -4.6657698314  8.1366068172
O   4.3715224791 -4.3883992491  4.4694004369
C   9.2664405992 -4.2831672548  8.5095285663
O   6.2354471231 -6.1521165673  0.3817366768
C   8.9414338229 -4.3213107337  9.9100513779
C   8.2309245340 -3.9065011542  7.6182906239
C   8.2532171239 -4.0434511324  6.2280238942
C   6.9686747769 -3.8630089660  5.5308077009
C   6.7840925888 -4.4524151216  4.1862533864
C   7.8624047609 -4.7650385437  3.3364220401
C   5.4536195375 -4.7110543066  3.7071866945
C   7.6632909074 -5.3310302496  2.0911080873
C   5.2490664429 -5.2925582453  2.4522618363
C   6.3581833818 -5.5931197325  1.6360378571
C   3.8198298249 -5.6077103839  1.9877485736
C   3.4136779708 -7.0794251169  1.8331528926
C   3.4452761260 -8.0277157645  2.7971214792
C   3.0685184240 -9.4488498424  2.4678347606
C   3.9673442871 -7.7627510902  4.1914151762
H   9.5941538603 -4.7477782367  11.9287155714
H   12.5271387992 -5.3489076387  8.8282755867
H   10.8784608924 -4.6444242295  7.0897744400
H   11.7875771962 -5.4377980261  12.2746097358
H   7.4703887648 -4.1343300564  11.2023536982
H   7.3234607255 -3.5791372264  8.1051250421
H   8.9508953863 -4.7369170771  5.7817639639
H   8.8669178822 -4.5179957108  3.6409888481
H   8.4835132873 -5.5908762915  1.4336622825
H   4.7264263369 -3.8605073668  5.2487699495
H   5.3009422177 -6.2485945464  0.1201622301
H   3.1622420027 -5.1169941691  2.7148834183
H   3.6354960462 -5.1358985206  1.0119865877
H   2.9887439598 -7.3461146079  0.8639501723
H   2.4980111077 -9.8990729761  3.2874422140
H   3.9678026379 -10.0667886673  2.3404171705
H   2.4770579781 -9.5087939468  1.5491194944
H   5.0651829808 -7.7260161924  4.1954038354
H   3.6669247304 -8.5592567571  4.8790603958
H   3.6061181737 -6.8068381196  4.5855679172
84
Scanning combination 110/256: [2.4000, 2.6000]  Energy = -386.2076691385
O   10.6973189884 -5.4519798633  4.8581176091
O   11.8663362812 -0.7687009247  4.3837977376
O   17.9180864293 -3.4936542064 -2.7924030186
O   14.6294917776 -3.0569434784  0.7847470148
C   12.9014001575 -3.7363675813  2.4275459536
C   12.8243562136 -2.3997208903  2.8891121869
C   12.1617190329 -4.7472884808  3.0801252671
C   11.9503843048 -2.0810134060  3.9252010988
C   11.3222361771 -4.4173399381  4.1375491846
C   11.1123453333 -3.0683142493  4.5325326747
C   10.0529234559 -2.6439467329  5.4543542996
C   10.3809619545 -1.7571363446  6.4753493849
C   9.4927163784 -1.1263882633  7.3930828744
C   8.1341292535 -1.2844220662  7.2980523940
C   10.1288806970 -0.2636759300  8.4738750453
C   14.8528835381 -5.0345083657 -0.3958240029
C   15.3327974302 -3.6924027204 -0.2682370385
C   16.3243384276 -3.1603417433 -1.0462390397
C   16.8963453108 -4.0121337290 -2.0161424773
C   16.4424283925 -5.3515431709 -2.1908971622
C   15.4254514225 -5.8564254342 -1.3879101234
C   13.8579247978 -5.2270652894  0.5890924144
C   13.7250329158 -4.0555589600  1.3209369347
H   13.4445788494 -1.6424609921  2.4170735679
H   12.2682124736 -5.7774051521  2.7642869886
H   11.1384016165 -6.3043772876  4.6526183629
H   12.3520264661 -0.1677202357  3.7879580781
H   9.0516955871 -2.7304336312  5.0523511808
H   11.4378396547 -1.5591521125  6.6153242702
H   7.6722504689 -1.6021587270  6.3722997557
H   7.4677208198 -0.9167742614  8.0713867353
H   10.5957676292  0.6266935079  8.0372129935
H   10.9338029980 -0.8080166440  8.9784720305
H   9.3987043513  0.0584391047  9.2214738559
H   16.6902863719 -2.1398839624 -0.9510954956
H   16.8909253093 -5.9858771443 -2.9539058461
H   15.0690696201 -6.8763868879 -1.5151649634
H   13.2911627702 -6.1380087205  0.7114689316
H   18.2650020999 -4.1711939322 -3.4082838801
C   9.8665421857 -4.7123327649  10.8689075488
O   12.1293140235 -5.4704707736  11.3579341650
C   11.1569583858 -5.0781661250  10.4531909325
O   7.6499295281 -3.9616827084  10.2569512603
C   11.5125893462 -5.0540790915  9.0866584075
O   6.0032879772 -3.2471844329  6.0937256172
C   10.5892393857 -4.6600234653  8.1363219681
O   4.3725758295 -4.3899127643  4.4669061875
C   9.2691088863 -4.2595198928  8.5099407725
O   6.2333857618 -6.1514723716  0.3784223776
C   8.9430274221 -4.3142349167  9.9080032754
C   8.2335941781 -3.8624987814  7.6196898149
C   8.2485325719 -4.0238372759  6.2291301764
C   6.9661939652 -3.8580060620  5.5298485390
C   6.7854177850 -4.4499772896  4.1842627753
C   7.8628167752 -4.7609396667  3.3320118720
C   5.4547360823 -4.7099623753  3.7043944271
C   7.6624892169 -5.3292789181  2.0870885550
C   5.2495013899 -5.2932204284  2.4502824366
C   6.3575278914 -5.5941293393  1.6333175057
C   3.8199773584 -5.6087672920  1.9874208933
C   3.4151135492 -7.0804912316  1.8323057956
C   3.4450230172 -8.0281538596  2.7970246186
C   3.0671820496 -9.4491003071  2.4683181974
C   3.9663579065 -7.7626346370  4.1915341710
H   9.5962587360 -4.7406538167  11.9257133911
H   12.5241523633 -5.3498407252  8.8311244303
H   10.8777238261 -4.6489842409  7.0896274181
H   11.7885619352 -5.4395077164  12.2747751795
H   7.4818789659 -4.1227900920  11.2067117368
H   7.3174691327 -3.5610460458  8.1066891243
H   8.9493175736 -4.7193691345  5.7943939089
H   8.8685374814 -4.5145770833  3.6339176848
H   8.4812034730 -5.5872725221  1.4271356093
H   4.7280387654 -3.8607007127  5.2459810946
H   5.2983694683 -6.2500595072  0.1189458359
H   3.1632637654 -5.1186967543  2.7156802755
H   3.6344724447 -5.1359991272  1.0124818461
H   2.9935121282 -7.3479180363  0.8619716302
H   2.4942473245 -9.8975071266  3.2872249785
H   3.9659620035 -10.0683489038  2.3437361790
H   2.4776819017 -9.5092259858  1.5483460519
H   5.0641738367 -7.7255768462  4.1961164852
H   3.6658532101 -8.5592584697  4.8790138843
H   3.6046537938 -6.8068199556  4.5855309737
84
Scanning combination 111/256: [2.4000, 2.5000]  Energy = -386.2031151052
O   10.6934938653 -5.4496114708  4.8572518130
O   11.8655036329 -0.7684060559  4.3772757357
O   17.9145397797 -3.4886488926 -2.7932015522
O   14.6313024128 -3.0587364848  0.7878025906
C   12.9035247457 -3.7387453127  2.4273825938
C   12.8285725134 -2.4012206258  2.8873848588
C   12.1631814760 -4.7500153193  3.0792413728
C   11.9533281072 -2.0814988768  3.9213611424
C   11.3239130603 -4.4188011876  4.1361687028
C   11.1175971479 -3.0696062219  4.5306622842
C   10.0595294700 -2.6444582278  5.4513650125
C   10.3906476123 -1.7564902420  6.4717211953
C   9.5030333474 -1.1399956826  7.3961860761
C   8.1453946137 -1.3488629617  7.3293044079
C   10.1308299133 -0.2649015967  8.4687424873
C   14.8562810534 -5.0360679975 -0.3933140571
C   15.3344030655 -3.6930106742 -0.2652293621
C   16.3239371830 -3.1588415491 -1.0434025115
C   16.8953008659 -4.0090287510 -2.0149844677
C   16.4427440277 -5.3489053256 -2.1907438657
C   15.4278917827 -5.8562083909 -1.3869051100
C   13.8620858730 -5.2302067096  0.5917009362
C   13.7278280022 -4.0583053902  1.3224938522
H   13.4502892925 -1.6454636358  2.4142175904
H   12.2665150427 -5.7801090973  2.7615470555
H   11.1307796846 -6.3043315121  4.6539786663
H   12.3501018548 -0.1656028492  3.7823797223
H   9.0580563278 -2.7247422689  5.0470339273
H   11.4472931709 -1.5531423151  6.6065563857
H   7.6770418567 -1.6581210067  6.4036305436
H   7.4836678535 -0.9961726669  8.1141642090
H   10.5944303710  0.6198523652  8.0185479775
H   10.9355374870 -0.8025991992  8.9820816304
H   9.3940024585  0.0608248282  9.2083687318
H   16.6884359831 -2.1377039040 -0.9474900768
H   16.8901643878 -5.9820573492 -2.9552641351
H   15.0716458259 -6.8764084095 -1.5133206385
H   13.2970048625 -6.1419497345  0.7156049440
H   18.2608796669 -4.1649332432 -3.4107616360
C   9.8646991239 -4.7014141583  10.8686857518
O   12.1245208772 -5.4730100992  11.3511451547
C   11.1531587565 -5.0708420289  10.4494010860
O   7.6469280664 -3.9510236951  10.2604445804
C   11.5051313789 -5.0504070221  9.0815836188
O   5.9984773903 -3.2454429698  6.0895659941
C   10.5817089639 -4.6497292378  8.1355997221
O   4.3701340931 -4.3924142745  4.4648096994
C   9.2640483713 -4.2482465469  8.5112302444
O   6.2329987271 -6.1505382279  0.3756750205
C   8.9405585879 -4.2999139250  9.9096305998
C   8.2341901851 -3.8303398393  7.6195079479
C   8.2458579239 -4.0113132023  6.2275769898
C   6.9640299305 -3.8528732927  5.5273752486
C   6.7845464872 -4.4474935682  4.1824256599
C   7.8617732775 -4.7564862560  3.3292163617
C   5.4538166145 -4.7093918761  3.7028266576
C   7.6620404347 -5.3248622415  2.0837176577
C   5.2495544372 -5.2941472421  2.4490922446
C   6.3571902679 -5.5912077751  1.6299988088
C   3.8196706823 -5.6104119623  1.9860118882
C   3.4172100420 -7.0827892428  1.8305161310
C   3.4444110428 -8.0290743542  2.7967502626
C   3.0649435772 -9.4496799470  2.4691904574
C   3.9647296814 -7.7625148412  4.1914782469
H   9.5942700093 -4.7354107971  11.9257774283
H   12.5139154045 -5.3538911538  8.8224382258
H   10.8668848336 -4.6398215833  7.0880802729
H   11.7858675606 -5.4404978749  12.2687075204
H   7.4817466261 -4.1059052580  11.2117966645
H   7.3247254072 -3.5162707413  8.1091607717
H   8.9450753557 -4.7148465995  5.8040938580
H   8.8672156487 -4.5090149945  3.6311520357
H   8.4807364532 -5.5805489261  1.4225250777
H   4.7243094359 -3.8610114993  5.2428548265
H   5.2976330134 -6.2519318172  0.1182234075
H   3.1631237203 -5.1224370446  2.7160728467
H   3.6321136461 -5.1364168360  1.0115006204
H   3.0001668362 -7.3517409844  0.8586001268
H   2.4884704385 -9.8952721796  3.2869392420
H   3.9629777949 -10.0706893140  2.3491548522
H   2.4785503539 -9.5102231958  1.5473126024
H   5.0625366524 -7.7250687661  4.1967335728
H   3.6640371907 -8.5592093623  4.8786919809
H   3.6022953187 -6.8068056339  4.5851965393
84
Scanning combination 112/256: [2.4000, 2.4000]  Energy = -386.2001811262
O   10.6719384354 -5.4482378565  4.8490098580
O   11.8566762221 -0.7690197510  4.3414420999
O   17.9026688073 -3.4567046146 -2.8127077496
O   14.6477278585 -3.0747744352  0.8009891655
C   12.9146633725 -3.7596800487  2.4337459305
C   12.8380332960 -2.4206234560  2.8886517968
C   12.1604875552 -4.7624558563  3.0825329685
C   11.9467483481 -2.0892894036  3.9064587235
C   11.3096773246 -4.4218926572  4.1288606482
C   11.1010534058 -3.0699440612  4.5187698279
C   10.0502856364 -2.6467126928  5.4527454210
C   10.3847704964 -1.7389881067  6.4559933258
C   9.5243091139 -1.1515626876  7.4226481399
C   8.1811642097 -1.4763006653  7.4823844846
C   10.1719230509 -0.2190835461  8.4366278063
C   14.8855756952 -5.0469795166 -0.3850922152
C   15.3523411735 -3.7002394208 -0.2560198202
C   16.3307064364 -3.1539940083 -1.0409297625
C   16.8983787091 -3.9922235934 -2.0250522074
C   16.4564870369 -5.3351731361 -2.2029650763
C   15.4563284013 -5.8563823572 -1.3889579082
C   13.8970147491 -5.2518913943  0.6052768228
C   13.7496718297 -4.0807069356  1.3354283784
H   13.4724548595 -1.6716651382  2.4210290762
H   12.2591208700 -5.7946567635  2.7695978886
H   11.1041972421 -6.3057842780  4.6476825971
H   12.3304030717 -0.1753795473  3.7278611763
H   9.0396922808 -2.7470908782  5.0761125823
H   11.4382810753 -1.4949673123  6.5434486638
H   7.6017150560 -1.6244456505  6.5758522982
H   7.6222190592 -1.2931426795  8.3954601102
H   10.6472476386  0.6335724847  7.9385510933
H   10.9741035551 -0.7332859381  8.9798220457
H   9.4419144355  0.1642838091  9.1562979920
H   16.6885114023 -2.1308556728 -0.9418434349
H   16.9009082999 -5.9587866561 -2.9773506035
H   15.1112373895 -6.8799623870 -1.5180094443
H   13.3467237645 -6.1719403404  0.7347119324
H   18.2446892687 -4.1231934705 -3.4432251445
C   9.8526746452 -4.6686715570  10.8725406344
O   12.0994979130 -5.4842992773  11.3476400107
C   11.1310202358 -5.0692331226  10.4479785350
O   7.6477145022 -3.8744314322  10.2659156099
C   11.4810484423 -5.0525574741  9.0797822486
O   6.0034738771 -3.2224437671  6.0698099338
C   10.5602715709 -4.6442361919  8.1357731930
O   4.3700301539 -4.3990959929  4.4613694164
C   9.2419064997 -4.2556433858  8.5112237713
O   6.2303680415 -6.1346507392  0.3610147656
C   8.9275444397 -4.2707187371  9.9118304927
C   8.2033978344 -3.8726571438  7.6120699733
C   8.2377715251 -4.0243466098  6.2124291837
C   6.9630115116 -3.8418664778  5.5089367225
C   6.7812462952 -4.4306795423  4.1631330506
C   7.8587738317 -4.7295638629  3.3075742638
C   5.4517056887 -4.7067741260  3.6919995569
C   7.6587696427 -5.2930451667  2.0605924845
C   5.2471015547 -5.2922575235  2.4391219047
C   6.3545507766 -5.5741775305  1.6143081172
C   3.8195896501 -5.6221860749  1.9803072857
C   3.4347226089 -7.0978213607  1.8186270411
C   3.4400044862 -8.0367148088  2.7922090560
C   3.0477081881 -9.4565232777  2.4758747215
C   3.9515434743 -7.7634527324  4.1889441829
H   9.5909994082 -4.6779435164  11.9326366946
H   12.4842046828 -5.3728661422  8.8164539661
H   10.8451951075 -4.6203825094  7.0888279342
H   11.7634412320 -5.4471640416  12.2654108980
H   7.4962136466 -3.9812361866  11.2258263970
H   7.2596460805 -3.6484260526  8.0930862655
H   8.9431846983 -4.7139188080  5.7774015514
H   8.8628340306 -4.4741281147  3.6077686797
H   8.4765372402 -5.5351137242  1.3933100262
H   4.7223651024 -3.8600086210  5.2340363579
H   5.2954635441 -6.2620323964  0.1145257195
H   3.1605972164 -5.1464286658  2.7159068891
H   3.6239600099 -5.1451774993  1.0093468290
H   3.0520424596 -7.3777682137  0.8360889530
H   2.4440932601 -9.8805188822  3.2858060578
H   3.9391149643 -10.0926500243  2.3902701900
H   2.4839458587 -9.5238340331  1.5404984778
H   5.0489330256 -7.7204101506  4.1995740441
H   3.6501607548 -8.5595044106  4.8765248752
H   3.5832601299 -6.8080910735  4.5778606405
84
Scanning combination 113/256: [2.4000, 2.3000]  Energy = -386.1976753469
O   10.6708872043 -5.4491950936  4.8483269999
O   11.8504005125 -0.7691487156  4.3405078648
O   17.9002885972 -3.4540314907 -2.8118378022
O   14.6474219368 -3.0746494139  0.8024302253
C   12.9127402917 -3.7601601054  2.4336376497
C   12.8344915108 -2.4210261840  2.8881532239
C   12.1582914182 -4.7633286632  3.0815292065
C   11.9461198578 -2.0894860067  3.9072634676
C   11.3109037155 -4.4229660063  4.1300260675
C   11.1043009310 -3.0707059406  4.5205526306
C   10.0544578877 -2.6430338234  5.4481297560
C   10.3873309343 -1.7437604421  6.4586590602
C   9.5278471576 -1.1750614606  7.4321915422
C   8.1834809659 -1.5227018080  7.5009915606
C   10.1680993167 -0.2256802020  8.4296646649
C   14.8859677590 -5.0471237772 -0.3829936888
C   15.3520049825 -3.7002713995 -0.2542862331
C   16.3300325125 -3.1525812835 -1.0392261627
C   16.8971341721 -3.9905514785 -2.0237283614
C   16.4559879522 -5.3339008059 -2.2010104889
C   15.4566167836 -5.8566254576 -1.3867249747
C   13.8983876095 -5.2524016132  0.6078930587
C   13.7508650987 -4.0812597538  1.3378670934
H   13.4704462722 -1.6724202281  2.4237293101
H   12.2578711668 -5.7960085355  2.7702608369
H   11.1039580139 -6.3066228912  4.6474417268
H   12.3251260163 -0.1753187233  3.7281878365
H   9.0424134974 -2.7397442770  5.0731734890
H   11.4390626933 -1.4924267928  6.5449056005
H   7.6006848161 -1.6423574554  6.5904156626
H   7.6214624395 -1.2933978839  8.4021933889
H   10.6443556522  0.6177523911  7.9178334375
H   10.9702732326 -0.7296918915  8.9794124825
H   9.4452297856  0.1647044160  9.1520016770
H   16.6872022055 -2.1295457759 -0.9401479107
H   16.8995770174 -5.9573505415 -2.9756865042
H   15.1114912989 -6.8802976436 -1.5153523046
H   13.3480813431 -6.1724441379  0.7375907744
H   18.2411607852 -4.1210020431 -3.4426544286
C   9.8522998312 -4.6717848930  10.8698213339
O   12.0992621529 -5.4840055963  11.3486296989
C   11.1321818744 -5.0672019652  10.4484160605
O   7.6483470941 -3.8749443336  10.2609977030
C   11.4806359681 -5.0556892796  9.0802419482
O   5.9997423450 -3.2248197472  6.0658243184
C   10.5603468927 -4.6467811418  8.1360618000
O   4.3706895625 -4.3982898266  4.4596019651
C   9.2505970358 -4.2390497132  8.5124820853
O   6.2298976194 -6.1336289632  0.3580729820
C   8.9299256625 -4.2684192158  9.9096470779
C   8.2208659922 -3.8197464382  7.6106827139
C   8.2372125212 -4.0145140900  6.2076448571
C   6.9621842306 -3.8432406472  5.5072244553
C   6.7817656030 -4.4330885578  4.1616412237
C   7.8587300989 -4.7261901830  3.3035150516
C   5.4516003429 -4.7052129845  3.6894421823
C   7.6583987697 -5.2917993647  2.0575542935
C   5.2468928226 -5.2913496294  2.4367246348
C   6.3543162011 -5.5760392468  1.6127331967
C   3.8192592417 -5.6228959373  1.9795742653
C   3.4353932796 -7.0988885799  1.8177327141
C   3.4399037966 -8.0369871358  2.7919816671
C   3.0466439893 -9.4567571610  2.4764206596
C   3.9510316080 -7.7632786096  4.1889973609
H   9.5907950078 -4.6759420939  11.9295561903
H   12.4848875618 -5.3717835577  8.8186909586
H   10.8444740781 -4.6280297051  7.0885858088
H   11.7622730089 -5.4481213804  12.2664597820
H   7.4990856820 -3.9728118120  11.2221897813
H   7.2691040367 -3.6258101233  8.0914050287
H   8.9320259247 -4.7211674621  5.7856372639
H   8.8630937444 -4.4706143281  3.6032102665
H   8.4762401151 -5.5328863989  1.3901563413
H   4.7241558764 -3.8587250383  5.2328140663
H   5.2949323990 -6.2623919648  0.1124763212
H   3.1609450022 -5.1481216702  2.7164658466
H   3.6223685670 -5.1453312750  1.0093081321
H   3.0551774140 -7.3798138508  0.8342826382
H   2.4409803664 -9.8790081581  3.2857702137
H   3.9376340063 -10.0937912224  2.3929651590
H   2.4845048875 -9.5237284812  1.5400153257
H   5.0484267421 -7.7200242175  4.2004507596
H   3.6494511627 -8.5592873422  4.8766007977
H   3.5825547931 -6.8079920541  4.5779786529
84
Scanning combination 114/256: [2.4000, 2.2000]  Energy = -386.1970938440
O   10.6690024737 -5.4476956544  4.8491669252
O   11.8484240010 -0.7688771510  4.3375060399
O   17.8971421499 -3.4517581921 -2.8114934358
O   14.6466357895 -3.0745863994  0.8050516710
C   12.9142599556 -3.7602615780  2.4354108875
C   12.8373921410 -2.4202244429  2.8881551135
C   12.1595701305 -4.7643603417  3.0821730097
C   11.9458506078 -2.0891211870  3.9043679879
C   11.3101843014 -4.4240108592  4.1282438722
C   11.1050934960 -3.0720176193  4.5175008976
C   10.0587916940 -2.6511032555  5.4503045705
C   10.3936961197 -1.7523756687  6.4638329610
C   9.5378093665 -1.1950274422  7.4411318746
C   8.1909402654 -1.5638267255  7.5256915181
C   10.1684532626 -0.2337326006  8.4259982492
C   14.8873333805 -5.0472175786 -0.3794352011
C   15.3518106812 -3.6997690979 -0.2509379584
C   16.3284909114 -3.1514307687 -1.0369639608
C   16.8952991370 -3.9890121656 -2.0221671987
C   16.4555054287 -5.3325363379 -2.1994925554
C   15.4576141427 -5.8557413725 -1.3839684967
C   13.8989856083 -5.2533322366  0.6103974866
C   13.7497631674 -4.0813888947  1.3387495537
H   13.4718207944 -1.6708980997  2.4206866121
H   12.2564533545 -5.7968010745  2.7690023894
H   11.0998421606 -6.3062757180  4.6481892145
H   12.3196641942 -0.1723949134  3.7246097170
H   9.0486393047 -2.7406831208  5.0680797530
H   11.4444322075 -1.4906816689  6.5399636967
H   7.5935712336 -1.6249453487  6.6172678721
H   7.6371295183 -1.3221175515  8.4302111167
H   10.6344619914  0.6017366637  7.8938492407
H   10.9745259102 -0.7269155889  8.9821591334
H   9.4353461330  0.1662070396  9.1329519579
H   16.6849195995 -2.1282038011 -0.9377159005
H   16.8992761907 -5.9555431834 -2.9746229574
H   15.1133921601 -6.8795475596 -1.5120020425
H   13.3507636687 -6.1744774100  0.7414634474
H   18.2381433238 -4.1174969304 -3.4437303915
C   9.8511298175 -4.6694592456  10.8686278587
O   12.0979177122 -5.4835761320  11.3485077823
C   11.1294112988 -5.0706632691  10.4472856748
O   7.6496363627 -3.8675814149  10.2579124473
C   11.4789944951 -5.0568352550  9.0796921105
O   5.9968694930 -3.2261813453  6.0640680557
C   10.5624582295 -4.6338620731  8.1362049383
O   4.3693562100 -4.3985279475  4.4549189187
C   9.2577996445 -4.2151645488  8.5136296774
O   6.2292183744 -6.1337104619  0.3544906901
C   8.9338711083 -4.2540641949  9.9075361730
C   8.2328157385 -3.7618417559  7.6083170826
C   8.2333191062 -4.0142288094  6.2051161945
C   6.9620235426 -3.8434040412  5.5058396115
C   6.7813996597 -4.4339261065  4.1595963377
C   7.8581042932 -4.7271317638  3.3009994333
C   5.4516269494 -4.7074411362  3.6873499482
C   7.6580277085 -5.2897368698  2.0531930574
C   5.2468998247 -5.2925866736  2.4340344338
C   6.3538779040 -5.5737474091  1.6082059508
C   3.8187139131 -5.6242182971  1.9777603597
C   3.4366574502 -7.1006959047  1.8167024106
C   3.4397951089 -8.0376032277  2.7920109436
C   3.0450646476 -9.4567661472  2.4771901685
C   3.9502136651 -7.7628267048  4.1889248734
H   9.5877277211 -4.6783308469  11.9279941533
H   12.4821149776 -5.3764652694  8.8176012994
H   10.8451845849 -4.6338616735  7.0888005781
H   11.7602258188 -5.4488838130  12.2658365293
H   7.5010211969 -3.9641432842  11.2190159144
H   7.2706306998 -3.6221793588  8.0915241369
H   8.9208567953 -4.7371438254  5.7958509430
H   8.8620616155 -4.4663156368  3.5982675420
H   8.4756374144 -5.5299772184  1.3847358292
H   4.7240468099 -3.8598071259  5.2280367492
H   5.2941070177 -6.2628136228  0.1097824449
H   3.1608272140 -5.1506890943  2.7159945525
H   3.6196471755 -5.1457194960  1.0080224192
H   3.0598033941 -7.3826890377  0.8323478834
H   2.4369120896 -9.8769360697  3.2853061169
H   3.9348975583 -10.0953553205  2.3971527068
H   2.4852436920 -9.5245268257  1.5396185727
H   5.0475775512 -7.7193634415  4.2006543098
H   3.6484187701 -8.5588206807  4.8762378419
H   3.5811159628 -6.8075563095  4.5775245741
84
Scanning combination 115/256: [2.4000, 2.1000]  Energy = -386.1996530291
O   10.6603639766 -5.4454235224  4.8430687953
O   11.8432606063 -0.7675491974  4.3255825459
O   17.8897414946 -3.4394046200 -2.8159656427
O   14.6488705989 -3.0760071031  0.8078279331
C   12.9192178648 -3.7646347706  2.4380581145
C   12.8378284010 -2.4231727856  2.8857111221
C   12.1601560035 -4.7681318004  3.0803850280
C   11.9433832720 -2.0898152588  3.8985200644
C   11.3077158188 -4.4258306899  4.1227680803
C   11.1044908099 -3.0733898094  4.5142034083
C   10.0652743442 -2.6631628932  5.4533217848
C   10.3956955806 -1.7541603933  6.4584901973
C   9.5559879208 -1.2206473863  7.4537820368
C   8.2148471074 -1.6433441609  7.5996100047
C   10.1783105529 -0.2215220661  8.4027698419
C   14.8962235811 -5.0493405925 -0.3731212319
C   15.3559932468 -3.7001357949 -0.2466000717
C   16.3277442505 -3.1471063801 -1.0348713146
C   16.8934438681 -3.9813119965 -2.0229766734
C   16.4592796675 -5.3271175483 -2.1976860590
C   15.4677145056 -5.8556788974 -1.3779255987
C   13.9095076906 -5.2582769456  0.6173245144
C   13.7575839938 -4.0859832443  1.3443405676
H   13.4743946176 -1.6762477993  2.4177339579
H   12.2586811771 -5.8008608749  2.7686960152
H   11.0832380149 -6.3079861238  4.6441134805
H   12.2984596891 -0.1719129861  3.6997101485
H   9.0472230375 -2.7876680590  5.1058368704
H   11.4431574627 -1.4746453654  6.5112626435
H   7.5454024428 -1.5401728974  6.7456683414
H   7.7517420278 -1.4669044450  8.5677739959
H   10.6468532504  0.5972628909  7.8468994931
H   10.9825554633 -0.6850349132  8.9879278239
H   9.4399238263  0.2026348917  9.0893135287
H   16.6803591056 -2.1227181126 -0.9347613770
H   16.9026389504 -5.9484106661 -2.9739457676
H   15.1273407531 -6.8810080902 -1.5033596715
H   13.3676004326 -6.1826465662  0.7527104303
H   18.2273122625 -4.1028801331 -3.4520652022
C   9.8472736913 -4.6521113979  10.8691889563
O   12.0820704973 -5.4985304561  11.3463675117
C   11.1217882777 -5.0634767105  10.4467401308
O   7.6682262175 -3.7840372525  10.2603920141
C   11.4714562612 -5.0571510778  9.0798081359
O   6.0021548680 -3.2165775303  6.0508471258
C   10.5560199875 -4.6277988485  8.1371588152
O   4.3690057818 -4.4024380920  4.4463711996
C   9.2572093878 -4.2067601563  8.5160235900
O   6.2273288997 -6.1275432999  0.3407036724
C   8.9371156861 -4.2224194857  9.9076675973
C   8.2301185758 -3.7432512291  7.6034166480
C   8.2305351389 -4.0219904762  6.1932688643
C   6.9620458950 -3.8447162181  5.4964623647
C   6.7799758144 -4.4309751195  4.1481510851
C   7.8556005348 -4.7205265056  3.2876147723
C   5.4510826015 -4.7057034113  3.6758412708
C   7.6548221084 -5.2816588750  2.0393137559
C   5.2455778671 -5.2931037469  2.4236380320
C   6.3516802726 -5.5717532967  1.5962270420
C   3.8181234769 -5.6309361496  1.9702377580
C   3.4424402144 -7.1089012266  1.8095971637
C   3.4377030672 -8.0411522003  2.7892825513
C   3.0370247434 -9.4600620413  2.4812298015
C   3.9454022196 -7.7614039641  4.1863052420
H   9.5759958282 -4.6786379983  11.9262009224
H   12.4653651380 -5.3996876437  8.8142489699
H   10.8440275981 -4.6145448250  7.0910498770
H   11.7478860250 -5.4514555625  12.2646751759
H   7.5041087420 -3.9094687514  11.2156911375
H   7.2518220342 -3.6837247508  8.0795436357
H   8.9082064323 -4.7573772276  5.7912019048
H   8.8595062821 -4.4644281461  3.5884045403
H   8.4710419854 -5.5142308530  1.3674173851
H   4.7201682447 -3.8611675270  5.2174590125
H   5.2922838470 -6.2624701030  0.0984888416
H   3.1597224143 -5.1609522682  2.7100741742
H   3.6151312499 -5.1525960322  1.0014322653
H   3.0794137493 -7.3970984051  0.8218555517
H   2.4165027757 -9.8688243795  3.2858938143
H   3.9233769430 -10.1053159406  2.4174109273
H   2.4876041688 -9.5313802118  1.5378125158
H   5.0425549310 -7.7141171630  4.1999601546
H   3.6445755727 -8.5565611932  4.8749377497
H   3.5730973837 -6.8063621854  4.5722626848
84
Scanning combination 116/256: [2.4000, 2.0000]  Energy = -386.2037976976
O   10.6591313966 -5.4475063975  4.8425294040
O   11.8389812118 -0.7682981851  4.3241837309
O   17.8887052194 -3.4379109041 -2.8172795405
O   14.6497409425 -3.0763760173  0.8092095792
C   12.9157568319 -3.7651111145  2.4363786754
C   12.8357071537 -2.4244285815  2.8862502908
C   12.1595779154 -4.7688005964  3.0818498024
C   11.9437189822 -2.0908838672  3.9001497193
C   11.3082550630 -4.4265861871  4.1255064959
C   11.1043556017 -3.0727912643  4.5152642591
C   10.0679099845 -2.6547984752  5.4483226686
C   10.3971087443 -1.7501735939  6.4586328161
C   9.5620107057 -1.2261077359  7.4566583044
C   8.2187944079 -1.6829359719  7.6127503684
C   10.1746571443 -0.2207040948  8.3976546056
C   14.8977198180 -5.0493920620 -0.3730127493
C   15.3558452271 -3.6994326350 -0.2470464689
C   16.3280043062 -3.1463741282 -1.0349657446
C   16.8942282672 -3.9809680178 -2.0227609991
C   16.4606344384 -5.3271224484 -2.1976947617
C   15.4689368125 -5.8560676117 -1.3782807725
C   13.9131032176 -5.2592065794  0.6195124801
C   13.7577025334 -4.0863957919  1.3449534291
H   13.4720936796 -1.6766437850  2.4209625190
H   12.2584850378 -5.8012279387  2.7693857145
H   11.0849073614 -6.3085166014  4.6416646716
H   12.2951695374 -0.1733973922  3.6988643966
H   9.0466004229 -2.7926230795  5.1107090430
H   11.4448282545 -1.4683737176  6.5081231069
H   7.5482113946 -1.5525792388  6.7629652131
H   7.7534371575 -1.4673033649  8.5731516959
H   10.6476917455  0.5922104635  7.8365249997
H   10.9778254461 -0.6814155905  8.9857234774
H   9.4401635252  0.2047233901  9.0878182752
H   16.6802457014 -2.1216239062 -0.9354410066
H   16.9037990476 -5.9478130256 -2.9748128442
H   15.1300730242 -6.8822637350 -1.5033598136
H   13.3699445609 -6.1827974751  0.7536579568
H   18.2266317974 -4.1009189116 -3.4537062969
C   9.8459901703 -4.6575996279  10.8675065972
O   12.0821055252 -5.4988045629  11.3491784996
C   11.1201024636 -5.0708878372  10.4473077718
O   7.6697319662 -3.7841061921  10.2572249236
C   11.4691770860 -5.0653803722  9.0809207846
O   5.9950926446 -3.2200782730  6.0483174342
C   10.5529435312 -4.6322617740  8.1367670076
O   4.3689573288 -4.4001330876  4.4462252761
C   9.2624414765 -4.1953699474  8.5166732357
O   6.2263395038 -6.1269832988  0.3394309693
C   8.9381544511 -4.2234823590  9.9035757252
C   8.2367798953 -3.6827975640  7.6030380878
C   8.2261092981 -4.0050789963  6.1863706199
C   6.9600689373 -3.8441106209  5.4936675761
C   6.7795661869 -4.4345583947  4.1467481081
C   7.8557464210 -4.7220571289  3.2852933321
C   5.4498230114 -4.7068758338  3.6757910747
C   7.6550672133 -5.2806875265  2.0358904885
C   5.2446533036 -5.2922203923  2.4223211449
C   6.3510052681 -5.5695063204  1.5941712569
C   3.8176053406 -5.6312789716  1.9691566615
C   3.4433563790 -7.1097910312  1.8086436222
C   3.4377023027 -8.0415422088  2.7888239401
C   3.0359280283 -9.4604971511  2.4818208430
C   3.9448398635 -7.7612109953  4.1860271690
H   9.5771289627 -4.6723919740  11.9246234894
H   12.4662149066 -5.3981188303  8.8173624482
H   10.8424994217 -4.6260026107  7.0916772361
H   11.7466707650 -5.4522678366  12.2672772751
H   7.5114203857 -3.8981854792  11.2142110815
H   7.2544213446 -3.7027411836  8.0767403494
H   8.9004792320 -4.7551206105  5.8109599965
H   8.8600390895 -4.4630236030  3.5833699958
H   8.4721570665 -5.5133842903  1.3644148776
H   4.7238914697 -3.8586707600  5.2181307262
H   5.2916682226 -6.2622168474  0.0964989379
H   3.1595178064 -5.1618771221  2.7098316546
H   3.6143317848 -5.1535892218  1.0000479662
H   3.0818589134 -7.3988927276  0.8205243557
H   2.4137594950 -9.8678983469  3.2859665289
H   3.9216745030 -10.1067768634  2.4202428025
H   2.4878999176 -9.5324606326  1.5376421200
H   5.0419585783 -7.7132813035  4.2000243659
H   3.6442305372 -8.5563044762  4.8748709602
H   3.5718874866 -6.8062868819  4.5717024606
84
Scanning combination 117/256: [2.4000, 1.9000]  Energy = -386.2121590372
O   10.6371112430 -5.4309443377  4.8304653927
O   11.8346104369 -0.7543380919  4.2934100996
O   17.8769015471 -3.4125676694 -2.8418154673
O   14.6604498092 -3.0737509574  0.8093013595
C   12.9267379898 -3.7661795391  2.4365456364
C   12.8440029240 -2.4228902927  2.8810434736
C   12.1641003896 -4.7674717171  3.0814422138
C   11.9576234005 -2.0835417537  3.8957597873
C   11.3166240890 -4.4230184395  4.1252680154
C   11.1316313230 -3.0659765286  4.5362917786
C   10.1587011066 -2.6882636720  5.5156670156
C   10.4340730322 -1.7222526315  6.4700585411
C   9.5883814293 -1.2278672367  7.4717238113
C   8.2514223527 -1.7481634256  7.6698050505
C   10.1500850471 -0.1536019024  8.3605920312
C   14.9287829322 -5.0510533557 -0.3609359959
C   15.3715547285 -3.6951074875 -0.2447280394
C   16.3306193966 -3.1343259095 -1.0438256050
C   16.8974939762 -3.9649429269 -2.0346802053
C   16.4807415409 -5.3176897421 -2.1983762175
C   15.5039061830 -5.8553417186 -1.3665232391
C   13.9480670844 -5.2656429769  0.6352404954
C   13.7772057473 -4.0891378303  1.3517887759
H   13.4820146180 -1.6767802339  2.4144264616
H   12.2584334315 -5.8015513556  2.7703329438
H   11.0355646923 -6.3032140557  4.6234619779
H   12.2623448838 -0.1632465064  3.6433639746
H   9.1151509344 -3.0932929572  5.4076456889
H   11.4444713863 -1.3173549374  6.4432828521
H   7.5463214588 -1.5418505179  6.8648896541
H   7.8356565116 -1.5333467378  8.6532284974
H   10.6157145808  0.6378052535  7.7614524284
H   10.9526666088 -0.5530414639  8.9959778590
H   9.3902642898  0.2969108040  9.0065718553
H   16.6731331779 -2.1055660932 -0.9516626950
H   16.9259663970 -5.9367850418 -2.9757843837
H   15.1787922278 -6.8867865421 -1.4840746927
H   13.4225959523 -6.1976395043  0.7813723124
H   18.2113316125 -4.0713596601 -3.4844971710
C   9.8524062472 -4.6509072028  10.8654587230
O   12.0600902701 -5.5598474532  11.3449095347
C   11.1101187212 -5.1077829472  10.4422566555
O   7.6996492427 -3.7184945266  10.2598980523
C   11.4517489485 -5.1251202851  9.0739818234
O   5.9993996127 -3.2103552957  6.0353926151
C   10.5406943458 -4.6790161206  8.1317750559
O   4.3539461604 -4.3970202035  4.4328685217
C   9.2665142667 -4.2021871906  8.5138873678
O   6.2091703378 -6.1036249631  0.3147700402
C   8.9534578148 -4.1970013193  9.9030873172
C   8.2476593953 -3.6471033891  7.6074845950
C   8.2479607570 -3.9906743371  6.1583176270
C   6.9523996267 -3.8335919647  5.4750580028
C   6.7657087203 -4.4275870316  4.1339042015
C   7.8386410918 -4.7132382939  3.2662673692
C   5.4354540968 -4.7014323848  3.6609615497
C   7.6373013185 -5.2618870394  2.0136605438
C   5.2295411717 -5.2856945938  2.4065986884
C   6.3339522272 -5.5530118171  1.5724098814
C   3.8053526527 -5.6427834413  1.9578883109
C   3.4515102867 -7.1263860725  1.7981228837
C   3.4306282305 -8.0488793437  2.7868389129
C   3.0141219930 -9.4667448975  2.4950604641
C   3.9307432179 -7.7572601446  4.1845170893
H   9.5862007756 -4.6575733872  11.9237917679
H   12.4356287711 -5.4930926557  8.8056004872
H   10.8212434310 -4.6948905953  7.0839667924
H   11.7298511305 -5.4876697654  12.2632321820
H   7.5593528056 -3.7785535847  11.2247010518
H   7.2629838726 -3.7491340310  8.0587525036
H   8.8107626601 -4.8639809960  5.8710788695
H   8.8428096117 -4.4587867468  3.5691836495
H   8.4522947097 -5.4902369704  1.3381729461
H   4.7043264096 -3.8586749847  5.2048789210
H   5.2747683781 -6.2348478880  0.0694167825
H   3.1444545010 -5.1836271295  2.7022258556
H   3.5934222243 -5.1677652217  0.9892377367
H   3.1228075433 -7.4302568048  0.8030164502
H   2.3577668561 -9.8450021335  3.2864657825
H   3.8894851571 -10.1295128540  2.4791717547
H   2.4968015809 -9.5494903548  1.5346603398
H   5.0270338712 -7.6949766720  4.2009640044
H   3.6364677279 -8.5535761154  4.8746666052
H   3.5458080050 -6.8052592647  4.5659419091
84
Scanning combination 118/256: [2.4000, 1.8000]  Energy = -386.2191871401
O   10.6389588838 -5.4290670830  4.8313720186
O   11.8396887223 -0.7543817635  4.2928148745
O   17.8741542649 -3.4103615984 -2.8410210155
O   14.6588053425 -3.0733645561  0.8080410794
C   12.9320984178 -3.7676471213  2.4394926426
C   12.8493136345 -2.4235870298  2.8813755633
C   12.1681520671 -4.7685588540  3.0834315267
C   11.9612943386 -2.0830028140  3.8932741349
C   11.3182873530 -4.4228976030  4.1240442224
C   11.1321788804 -3.0643449045  4.5311999437
C   10.1643896974 -2.6852269467  5.5101522276
C   10.4387175105 -1.7229996992  6.4689184657
C   9.5978842876 -1.2422332209  7.4732832544
C   8.2575088336 -1.7956252991  7.6711151813
C   10.1405811447 -0.1602261224  8.3571108482
C   14.9286774113 -5.0512893288 -0.3603386773
C   15.3699582870 -3.6947170710 -0.2449842331
C   16.3299937952 -3.1332944368 -1.0421308812
C   16.8971104760 -3.9641442307 -2.0323276071
C   16.4811023130 -5.3171829795 -2.1960621186
C   15.5043516522 -5.8556840984 -1.3648459629
C   13.9492971171 -5.2667779474  0.6365041878
C   13.7788389736 -4.0900531017  1.3525249777
H   13.4831859359 -1.6779308528  2.4083240145
H   12.2579394559 -5.8018950258  2.7680986818
H   11.0329011631 -6.3026755784  4.6208003456
H   12.2578588844 -0.1624577691  3.6372990236
H   9.1165253585 -3.0975101213  5.4127691999
H   11.4478363390 -1.3167471120  6.4447625965
H   7.5555712526 -1.5561829819  6.8719205300
H   7.8372214831 -1.5429321438  8.6425187299
H   10.6035724269  0.6337566628  7.7592347908
H   10.9469182048 -0.5457957798  8.9963071663
H   9.3787581753  0.2896507099  9.0012564959
H   16.6704128437 -2.1038800515 -0.9503347203
H   16.9255332696 -5.9356869474 -2.9741103887
H   15.1794998491 -6.8873041161 -1.4809943902
H   13.4231107647 -6.1983370285  0.7832214391
H   18.2089324593 -4.0693408969 -3.4832830239
C   9.8493670866 -4.6554190418  10.8632503588
O   12.0609360007 -5.5604412136  11.3428363685
C   11.1070284033 -5.1121370343  10.4409595810
O   7.7015280837 -3.7109410417  10.2595688211
C   11.4462868338 -5.1296719291  9.0721975656
O   5.9962122503 -3.2116078742  6.0354651487
C   10.5362482719 -4.6750592422  8.1309032523
O   4.3561740923 -4.3974539352  4.4341444464
C   9.2707538985 -4.1855471995  8.5154456634
O   6.2065453314 -6.1010013921  0.3136785463
C   8.9531903878 -4.1933329239  9.9001965411
C   8.2499421566 -3.5945166295  7.6093859237
C   8.2464303542 -3.9746091952  6.1575527277
C   6.9520293017 -3.8308170400  5.4752259441
C   6.7676487450 -4.4269924196  4.1334254703
C   7.8401636274 -4.7140475446  3.2649899292
C   5.4365759705 -4.7021187630  3.6617684791
C   7.6372976093 -5.2634604549  2.0124313156
C   5.2294282515 -5.2874431221  2.4080023215
C   6.3329814658 -5.5543255843  1.5727879646
C   3.8043978388 -5.6425535102  1.9596049122
C   3.4502950432 -7.1258317678  1.7989572854
C   3.4301001843 -8.0488303155  2.7871329608
C   3.0134861572 -9.4667626179  2.4956716206
C   3.9303276160 -7.7567909996  4.1848073223
H   9.5842269145 -4.6535337520  11.9223039342
H   12.4323123365 -5.4955428189  8.8076235561
H   10.8162392672 -4.6919817561  7.0822888135
H   11.7341501683 -5.4912525676  12.2625491143
H   7.5627434666 -3.7795866733  11.2241000111
H   7.2699055486 -3.7587257956  8.0544618306
H   8.8027500791 -4.8580310337  5.8975585551
H   8.8457356475 -4.4617064726  3.5656319920
H   8.4511632894 -5.4872876524  1.3337598847
H   4.7096523608 -3.8574399904  5.2049104643
H   5.2719210815 -6.2324943500  0.0686039647
H   3.1435787516 -5.1819344494  2.7030603614
H   3.5925228023 -5.1670855563  0.9912887171
H   3.1252584384 -7.4290869498  0.8024888507
H   2.3558452995 -9.8436466361  3.2865928225
H   3.8878328290 -10.1309139882  2.4820491472
H   2.4972719834 -9.5502593905  1.5347332781
H   5.0265795563 -7.6938890695  4.2019189461
H   3.6367747046 -8.5528674651  4.8753874956
H   3.5447305111 -6.8047955170  4.5655711023
84
Scanning combination 119/256: [2.4000, 1.7000]  Energy = -386.2250987288
O   10.6394771926 -5.4268050202  4.8317241474
O   11.8429766543 -0.7523601411  4.2887634480
O   17.8737909280 -3.4092053654 -2.8411631305
O   14.6594797649 -3.0742725294  0.8089481116
C   12.9321709922 -3.7682691908  2.4377553680
C   12.8511832915 -2.4231509366  2.8772192558
C   12.1682768709 -4.7694324727  3.0816265709
C   11.9665029649 -2.0814368779  3.8908351895
C   11.3213595200 -4.4227131999  4.1237469816
C   11.1419934527 -3.0639247683  4.5315471203
C   10.1759368474 -2.6856381808  5.5084426243
C   10.4490570495 -1.7251443391  6.4701659412
C   9.6082229914 -1.2596801556  7.4749760814
C   8.2690707879 -1.8473822963  7.6781383477
C   10.1286739570 -0.1679706087  8.3553766145
C   14.9297102780 -5.0516340023 -0.3596286298
C   15.3699715423 -3.6947505110 -0.2447487407
C   16.3283982914 -3.1325793578 -1.0431537523
C   16.8960342670 -3.9631168410 -2.0333587495
C   16.4816151144 -5.3167567869 -2.1959051378
C   15.5058686052 -5.8557882283 -1.3638263273
C   13.9511450393 -5.2680620265  0.6375762853
C   13.7801747309 -4.0915013774  1.3531290353
H   13.4869156209 -1.6780695470  2.4061880936
H   12.2601044376 -5.8031918385  2.7687549451
H   11.0294630181 -6.3013555568  4.6185876355
H   12.2569448438 -0.1597937606  3.6313492217
H   9.1281883500 -3.0999953680  5.4058060659
H   11.4563160713 -1.3100613806  6.4370997970
H   7.5701503941 -1.5797256486  6.8834460272
H   7.8500790109 -1.5748862633  8.6472529073
H   10.5817173697  0.6273711371  7.7506659123
H   10.9380040725 -0.5407630137  9.0006881410
H   9.3545990464  0.2734596972  8.9915718957
H   16.6687226849 -2.1033092542 -0.9498902223
H   16.9271980725 -5.9352017483 -2.9733340977
H   15.1820921158 -6.8877372216 -1.4797878471
H   13.4253826242 -6.1997031013  0.7843962680
H   18.2084819313 -4.0675382841 -3.4841377226
C   9.8478787758 -4.6505058753  10.8626799357
O   12.0565363292 -5.5643868495  11.3365023459
C   11.1027421340 -5.1116797701  10.4371189361
O   7.6986009722 -3.7039693462  10.2616538883
C   11.4413478624 -5.1279186084  9.0691661404
O   5.9916066561 -3.2082306655  6.0348428610
C   10.5327320157 -4.6630759927  8.1298218259
O   4.3568781277 -4.3985936103  4.4349228604
C   9.2727451062 -4.1690675356  8.5189921536
O   6.2048011562 -6.1001903800  0.3133178001
C   8.9535001720 -4.1789361165  9.9005801562
C   8.2545791503 -3.5460307816  7.6128093310
C   8.2478800577 -3.9575371635  6.1604181038
C   6.9531671074 -3.8234697366  5.4782502568
C   6.7690505425 -4.4284283775  4.1365513976
C   7.8399855509 -4.7146326167  3.2657825091
C   5.4382164713 -4.7030902625  3.6637834896
C   7.6358128039 -5.2614308001  2.0118831454
C   5.2300053067 -5.2863787199  2.4087001920
C   6.3320809021 -5.5518999036  1.5717271071
C   3.8051026525 -5.6421483630  1.9608418446
C   3.4512566219 -7.1257137800  1.7997084347
C   3.4296523680 -8.0486932867  2.7878268657
C   3.0125007844 -9.4663303596  2.4967047773
C   3.9294971346 -7.7566280169  4.1853261780
H   9.5828498959 -4.6569350178  11.9208852149
H   12.4222803652 -5.5005691466  8.7994135482
H   10.8103935585 -4.6854463771  7.0807783784
H   11.7311668548 -5.4921476162  12.2562398518
H   7.5588162402 -3.7783319036  11.2250746505
H   7.2755711385 -3.7526934761  8.0489952970
H   8.7881179850 -4.8577723733  5.9267201956
H   8.8468462854 -4.4646347621  3.5640598683
H   8.4485903677 -5.4861343051  1.3326617480
H   4.7090496902 -3.8582064440  5.2058852626
H   5.2697641433 -6.2296354155  0.0684746371
H   3.1449107375 -5.1827556166  2.7056801972
H   3.5926298855 -5.1663777772  0.9925916739
H   3.1257606012 -7.4291405005  0.8034596332
H   2.3532262076 -9.8423438330  3.2865874427
H   3.8865827405 -10.1306888780  2.4848836516
H   2.4980314833 -9.5504390908  1.5350442169
H   5.0256244835 -7.6930911969  4.2019006675
H   3.6359868289 -8.5526185869  4.8759047578
H   3.5438841725 -6.8047013907  4.5660105038
84
Scanning combination 120/256: [2.4000, 1.6000]  Energy = -386.2272626158
O   10.6438504340 -5.4234483310  4.8321559560
O   11.8498785332 -0.7510923730  4.2830559829
O   17.8730165225 -3.4068951277 -2.8435965331
O   14.6612309558 -3.0753190573  0.8055534310
C   12.9384330928 -3.7692936520  2.4362542032
C   12.8590403157 -2.4239781149  2.8742419331
C   12.1748406310 -4.7709740680  3.0810507042
C   11.9734902612 -2.0804360074  3.8858156219
C   11.3273803611 -4.4226824458  4.1216000430
C   11.1468580345 -3.0628233486  4.5248304394
C   10.1861622263 -2.6868753957  5.5029828508
C   10.4547082975 -1.7293096815  6.4673761798
C   9.6160683008 -1.2842011246  7.4785156206
C   8.2811295278 -1.9012852966  7.6838231480
C   10.1079430385 -0.1761594534  8.3522134704
C   14.9330121646 -5.0537043745 -0.3610433572
C   15.3721419397 -3.6959906648 -0.2468830778
C   16.3296042251 -3.1322821122 -1.0443339874
C   16.8974447918 -3.9621999837 -2.0341499369
C   16.4843737762 -5.3165490315 -2.1968992750
C   15.5094286329 -5.8572690938 -1.3649736354
C   13.9545751103 -5.2702692833  0.6360816526
C   13.7832703034 -4.0930962197  1.3502915978
H   13.4927886860 -1.6800782590  2.3980400186
H   12.2625002684 -5.8040668443  2.7664950127
H   11.0244850664 -6.3006536002  4.6156211385
H   12.2573538144 -0.1591103725  3.6210023653
H   9.1325008955 -3.1185765966  5.4172454551
H   11.4561512148 -1.3012549992  6.4325879262
H   7.5774598939 -1.5838444105  6.9102885079
H   7.8766263751 -1.6097921471  8.6548424801
H   10.5499358218  0.6251268866  7.7491597212
H   10.9204988634 -0.5226918925  9.0063127492
H   9.3234785247  0.2558255811  8.9816025944
H   16.6670216206 -2.1015949441 -0.9519975868
H   16.9299638595 -5.9347342094 -2.9740601431
H   15.1863921854 -6.8897129371 -1.4791966621
H   13.4299798149 -6.2025330954  0.7850184209
H   18.2078333281 -4.0651961375 -3.4856327126
C   9.8428000047 -4.6485608874  10.8601195984
O   12.0494621841 -5.5701716357  11.3308756519
C   11.0971904557 -5.1110638022  10.4330243583
O   7.6969438912 -3.6891909266  10.2640860735
C   11.4336255362 -5.1295892322  9.0656841279
O   5.9885145102 -3.1998631518  6.0334050731
C   10.5255191374 -4.6571244819  8.1272950773
O   4.3587624981 -4.4010875470  4.4409503511
C   9.2722861299 -4.1529952026  8.5188960114
O   6.2035316274 -6.0950259637  0.3149716030
C   8.9496326317 -4.1698323147  9.8979508421
C   8.2639483477 -3.4994622376  7.6101575026
C   8.2495732947 -3.9421091347  6.1619317132
C   6.9528352388 -3.8147942528  5.4795447412
C   6.7706189108 -4.4241482356  4.1386885672
C   7.8416289230 -4.7136556982  3.2687124995
C   5.4395531779 -4.7021847629  3.6679306000
C   7.6364259894 -5.2611695387  2.0144880287
C   5.2303045625 -5.2865343423  2.4129882183
C   6.3319677295 -5.5513723962  1.5754692999
C   3.8050488569 -5.6415763725  1.9644555048
C   3.4508674957 -7.1247397772  1.8009341308
C   3.4290103560 -8.0483714969  2.7889761907
C   3.0112177909 -9.4658031051  2.4977408641
C   3.9286845792 -7.7561940317  4.1867020371
H   9.5784354420 -4.6565223281  11.9174553925
H   12.4110694225 -5.5069183691  8.7930202534
H   10.8000285663 -4.6718193266  7.0780742297
H   11.7299249935 -5.4954288941  12.2521702709
H   7.5556387033 -3.7787448908  11.2256860639
H   7.2923710707 -3.7541966800  8.0362888725
H   8.7754737646 -4.8558787476  5.9501964014
H   8.8499885598 -4.4688155189  3.5665558497
H   8.4483719766 -5.4825158520  1.3329298502
H   4.7108103631 -3.8576823252  5.2100933266
H   5.2686489183 -6.2247041603  0.0695912105
H   3.1440859984 -5.1826538366  2.7087901964
H   3.5922883985 -5.1650027903  0.9966696856
H   3.1276885008 -7.4276477464  0.8037624015
H   2.3497660981 -9.8401720181  3.2866993621
H   3.8844948230 -10.1313675380  2.4893168907
H   2.4988633643 -9.5502787536  1.5349544314
H   5.0248318015 -7.6927973749  4.2038967375
H   3.6353999432 -8.5525002317  4.8771565573
H   3.5427049123 -6.8044105803  4.5674286971
84
Scanning combination 121/256: [2.4000, 1.5000]  Energy = -386.2229303118
O   10.6447503167 -5.4219224664  4.8316001715
O   11.8529528157 -0.7505318880  4.2772667666
O   17.8743550024 -3.4063995240 -2.8468322931
O   14.6632051187 -3.0767353591  0.8043307338
C   12.9399784059 -3.7716013038  2.4337892807
C   12.8607478618 -2.4249022265  2.8690356119
C   12.1751356081 -4.7726230330  3.0784905006
C   11.9779128551 -2.0800446616  3.8810758184
C   11.3296805819 -4.4231847113  4.1192685607
C   11.1561517440 -3.0623705236  4.5244985311
C   10.1994094821 -2.6866453508  5.5021958082
C   10.4612365605 -1.7274203997  6.4682196064
C   9.6190034600 -1.3002744572  7.4809178940
C   8.2908726239 -1.9528283958  7.6962391763
C   10.0884940616 -0.1811928863  8.3504102685
C   14.9360535193 -5.0545140020 -0.3625841577
C   15.3734024301 -3.6964486036 -0.2490915501
C   16.3300426912 -3.1323550327 -1.0478710440
C   16.8988237485 -3.9622410844 -2.0376390946
C   16.4875686540 -5.3169912039 -2.1990066759
C   15.5134455724 -5.8579292708 -1.3662023635
C   13.9589600973 -5.2724078456  0.6355640704
C   13.7869842319 -4.0955915655  1.3499526733
H   13.4972432664 -1.6815039604  2.3958403464
H   12.2668283382 -5.8067902631  2.7661664727
H   11.0234509647 -6.2997667489  4.6128075677
H   12.2594445266 -0.1577619070  3.6149906983
H   9.1454548978 -3.1267328657  5.4132007492
H   11.4588352079 -1.2883029767  6.4226649436
H   7.5873345775 -1.6004593049  6.9337008550
H   7.8999207444 -1.6517210598  8.6753473957
H   10.5169185893  0.6220356342  7.7386125738
H   10.9031206516 -0.5173657562  9.0099505436
H   9.2903669284  0.2368863383  8.9722491632
H   16.6672586229 -2.1020807685 -0.9546217937
H   16.9337687381 -5.9348134288 -2.9762607424
H   15.1915942022 -6.8905735446 -1.4808212041
H   13.4343574529 -6.2044915895  0.7838594787
H   18.2098861548 -4.0639837503 -3.4897830637
C   9.8376353472 -4.6456715169  10.8566749523
O   12.0418467326 -5.5742266729  11.3245484239
C   11.0885978705 -5.1146702620  10.4280884593
O   7.6935074273 -3.6790120880  10.2618370806
C   11.4270055651 -5.1312322904  9.0612773465
O   5.9849007087 -3.1920852011  6.0335942112
C   10.5237986934 -4.6477376868  8.1244897112
O   4.3588134955 -4.4029838508  4.4442162764
C   9.2760469984 -4.1344281401  8.5174389729
O   6.2037794142 -6.0924648573  0.3176857718
C   8.9491206561 -4.1554183825  9.8951670189
C   8.2733388204 -3.4501878155  7.6096050061
C   8.2522795384 -3.9237672956  6.1643259378
C   6.9530915412 -3.8037990600  5.4844054593
C   6.7713609332 -4.4232060510  4.1448365009
C   7.8413829147 -4.7132707171  3.2736439680
C   5.4407528342 -4.7027783280  3.6726942595
C   7.6357291001 -5.2578012581  2.0183073763
C   5.2314848783 -5.2846613698  2.4164613842
C   6.3321285480 -5.5472635549  1.5775205629
C   3.8066048583 -5.6404960955  1.9677410008
C   3.4527166490 -7.1238189423  1.8032306124
C   3.4289128577 -8.0479770610  2.7903443876
C   3.0101921774 -9.4650326115  2.4988590834
C   3.9278875735 -7.7567293665  4.1882282373
H   9.5719551873 -4.6571194472  11.9143914873
H   12.4021672957 -5.5137584438  8.7874776190
H   10.7998218581 -4.6713903997  7.0745486975
H   11.7227897162 -5.4956795809  12.2455041163
H   7.5494165000 -3.7803589338  11.2219509797
H   7.3061199367 -3.7451905089  8.0251229951
H   8.7592336006 -4.8548695873  5.9754046699
H   8.8507877604 -4.4707123586  3.5693854459
H   8.4471557823 -5.4809588543  1.3369943929
H   4.7091547591 -3.8580459129  5.2126765301
H   5.2685631428 -6.2201644751  0.0724138712
H   3.1462509696 -5.1827969226  2.7133255016
H   3.5938414313 -5.1630892875  1.0002710732
H   3.1290632001 -7.4259835790  0.8060421639
H   2.3466893653 -9.8384958524  3.2864953493
H   3.8829732591 -10.1311767834  2.4922945709
H   2.4997907085 -9.5498838986  1.5351081804
H   5.0239554194 -7.6929866273  4.2049282955
H   3.6339265143 -8.5529852701  4.8782488757
H   3.5421673315 -6.8047531069  4.5686684477
84
Scanning combination 122/256: [2.3000, 2.9000]  Energy = -386.2113760706
O   10.7030084240 -5.5403968320  4.8948152653
O   11.6974570209 -0.8288129589  4.3762653880
O   17.8804520423 -3.4587931952 -2.7503084451
O   14.5900600355 -3.0680204775  0.8299558420
C   12.8604275003 -3.7705042339  2.4615581405
C   12.7448616095 -2.4326482821  2.9113093895
C   12.1476430268 -4.7970074147  3.1189196607
C   11.8418549338 -2.1365089871  3.9290025285
C   11.2989441020 -4.4882723883  4.1783680083
C   11.0395982544 -3.1448675766  4.5464656678
C   9.9646039831 -2.6503693294  5.4409201778
C   10.3471763961 -1.8291491666  6.5180113225
C   9.4679723241 -1.0891696574  7.3589761360
C   8.1193549808 -1.0685157544  7.1663351569
C   10.1241656298 -0.2680085104  8.4691204546
C   14.8317135113 -5.0378314383 -0.3598675541
C   15.3004059055 -3.6929157009 -0.2244665909
C   16.2887334512 -3.1476696588 -0.9988210978
C   16.8641084377 -3.9895637523 -1.9757052571
C   16.4192596773 -5.3306635545 -2.1594089090
C   15.4078615493 -5.8492577608 -1.3580614676
C   13.8381375152 -5.2444056607  0.6226087310
C   13.6934342526 -4.0770541835  1.3584513118
H   13.3513807649 -1.6621473166  2.4415392879
H   12.2815685494 -5.8245552656  2.8059856414
H   11.1469704268 -6.3850047569  4.6667080668
H   12.2346870027 -0.2177471487  3.8386224022
H   9.0754798959 -2.3617202115  4.8788804094
H   11.4009333101 -1.8012001715  6.7758247575
H   7.6551764337 -1.5680144999  6.3257009838
H   7.4580340755 -0.4830062089  7.7970094757
H   10.6305734466  0.6070467720  8.0454668881
H   10.8945295937 -0.8521572640  8.9835381232
H   9.3956154000  0.0772909790  9.2076978192
H   16.6491257999 -2.1265918326 -0.8954068837
H   16.8693948727 -5.9567098990 -2.9279565385
H   15.0573140531 -6.8703772068 -1.4904658293
H   13.2773275703 -6.1600465475  0.7389919177
H   18.2279877668 -4.1293491934 -3.3739125318
C   9.9050996402 -4.7413809162  10.8552824142
O   12.1763516566 -5.4688039858  11.3454943877
C   11.2017854483 -5.0851993022  10.4393892173
O   7.6755162793 -4.0330174431  10.2385262197
C   11.5589330366 -5.0586165750  9.0719205411
O   6.0691937610 -3.2213043485  6.0668908822
C   10.6305267604 -4.6848611846  8.1202655816
O   4.4191469268 -4.3915741998  4.4739783835
C   9.3008345113 -4.3195805544  8.4938341373
O   6.2411950050 -6.1542777196  0.3701119609
C   8.9723469283 -4.3744128241  9.8933387202
C   8.2694719602 -3.9309423057  7.6065421667
C   8.3002384014 -4.0386350079  6.2108547403
C   7.0188462134 -3.8536108918  5.5068588890
C   6.8297273147 -4.4409594009  4.1638425622
C   7.9000318821 -4.7441508032  3.2999836422
C   5.4951981423 -4.7072515900  3.6995383593
C   7.6875420030 -5.3184823280  2.0586342871
C   5.2780164247 -5.2932567654  2.4495588626
C   6.3783809790 -5.5916597215  1.6214572284
C   3.8424707018 -5.6035802106  1.9999076532
C   3.4349957768 -7.0731243858  1.8374269689
C   3.4521971384 -8.0200640328  2.8029356829
C   3.0650349765 -9.4380909517  2.4726712436
C   3.9741941193 -7.7589157576  4.1981783100
H   9.6341400097 -4.7726102765  11.9123083095
H   12.5743957249 -5.3430348687  8.8183698066
H   10.9180837390 -4.6384089327  7.0730742680
H   11.8303755007 -5.4465769155  12.2610213253
H   7.5177706972 -4.1532114892  11.1959169210
H   7.3752225237 -3.5619442053  8.0890267958
H   8.9990558186 -4.7140392542  5.7500470369
H   8.9041881665 -4.4793871411  3.5922372250
H   8.4986399776 -5.5730500027  1.3883367807
H   4.7767443728 -3.8496473164  5.2417679843
H   5.3030970543 -6.2591011496  0.1246871441
H   3.1965020309 -5.1211027379  2.7427733928
H   3.6444729122 -5.1192852266  1.0329241347
H   3.0237439869 -7.3390795499  0.8623212160
H   2.4840524836 -9.8809873406  3.2886618002
H   3.9598767011 -10.0641088536  2.3537028173
H   2.4803274092 -9.4935844772  1.5492829485
H   5.0724381085 -7.7385020162  4.2052901035
H   3.6602358280 -8.5502189129  4.8856252379
H   3.6257606004 -6.7974512961  4.5905172192
84
Scanning combination 123/256: [2.3000, 2.8000]  Energy = -386.2081583735
O   10.7008680667 -5.5406048892  4.8952181045
O   11.6962459455 -0.8298100108  4.3732273228
O   17.8795667419 -3.4568962567 -2.7510558497
O   14.5895538490 -3.0689687027  0.8311163968
C   12.8602125729 -3.7730131151  2.4623084351
C   12.7438206810 -2.4345995725  2.9094193785
C   12.1480902363 -4.7989224924  3.1212130614
C   11.8423996187 -2.1372916435  3.9270652473
C   11.2981385498 -4.4885608224  4.1791427429
C   11.0405784320 -3.1434269874  4.5451530014
C   9.9715843632 -2.6407075043  5.4364675545
C   10.3531741878 -1.8304541914  6.5204684649
C   9.4705985832 -1.1079691212  7.3701591393
C   8.1175004556 -1.1239897716  7.1906376205
C   10.1238307069 -0.2686273173  8.4665985535
C   14.8328299407 -5.0384026580 -0.3594085524
C   15.3007944629 -3.6931331694 -0.2234216823
C   16.2883581591 -3.1480693043 -0.9979651437
C   16.8640167613 -3.9886580387 -1.9757993444
C   16.4200014891 -5.3299978640 -2.1599913987
C   15.4093671355 -5.8490277307 -1.3581092721
C   13.8394834880 -5.2456843928  0.6232634356
C   13.6938013592 -4.0789499027  1.3596796403
H   13.3503541860 -1.6644873110  2.4403186844
H   12.2827439960 -5.8259949190  2.8070976268
H   11.1451500234 -6.3851391716  4.6666252674
H   12.2321118021 -0.2199372520  3.8338285237
H   9.0768416115 -2.3618652725  4.8778214668
H   11.4080484618 -1.7953924723  6.7721216952
H   7.6566735499 -1.5845723944  6.3277547353
H   7.4645391160 -0.5100792623  7.8043436716
H   10.6355272536  0.6042443635  8.0433512846
H   10.8936769958 -0.8502189473  8.9829463849
H   9.3954984463  0.0833746060  9.2023679285
H   16.6478676529 -2.1264342639 -0.8946984157
H   16.8704321348 -5.9551070765 -2.9293011602
H   15.0599270393 -6.8705815024 -1.4908285886
H   13.2803876009 -6.1620466277  0.7402051153
H   18.2275313087 -4.1264031104 -3.3753765924
C   9.9019209928 -4.7456671217  10.8521678286
O   12.1760243925 -5.4671638719  11.3427870491
C   11.1985499519 -5.0904204925  10.4365221572
O   7.6734004033 -4.0319292405  10.2386997632
C   11.5549536781 -5.0621530008  9.0695483954
O   6.0610626355 -3.2236644839  6.0684230675
C   10.6285050063 -4.6765413555  8.1189540347
O   4.4177578290 -4.3910692775  4.4731689699
C   9.3015992507 -4.2972344755  8.4928501697
O   6.2427445559 -6.1533049231  0.3697344642
C   8.9721207888 -4.3641780637  9.8915346958
C   8.2758293860 -3.8888469060  7.6033201221
C   8.2998609648 -4.0193696142  6.2077167232
C   7.0156461720 -3.8485729833  5.5066050375
C   6.8281244751 -4.4429200874  4.1661393177
C   7.8992949140 -4.7441092999  3.3020550154
C   5.4938700159 -4.7080205157  3.7000903383
C   7.6881215799 -5.3157952010  2.0591229734
C   5.2781325628 -5.2929763147  2.4491059582
C   6.3792660434 -5.5899228989  1.6209814307
C   3.8428938559 -5.6041335771  1.9985877559
C   3.4364886658 -7.0739744247  1.8360564043
C   3.4527813274 -8.0203532457  2.8021789882
C   3.0641615962 -9.4382403115  2.4732487136
C   3.9737882154 -7.7589499281  4.1977038437
H   9.6351475735 -4.7712281725  11.9105696989
H   12.5716493100 -5.3430531280  8.8162826971
H   10.9142884040 -4.6390352206  7.0718152088
H   11.8321925469 -5.4472512659  12.2588832499
H   7.5199955060 -4.1518207556  11.1969392080
H   7.3716095227 -3.5462144934  8.0865889861
H   8.9908151539 -4.7146004510  5.7605150375
H   8.9030323934 -4.4760879540  3.5941397874
H   8.4994996582 -5.5701552046  1.3882312728
H   4.7773779447 -3.8500699814  5.2419509101
H   5.3047962577 -6.2602012312  0.1240487493
H   3.1951221895 -5.1227172482  2.7407051373
H   3.6448837732 -5.1204088958  1.0313538077
H   3.0267275493 -7.3409980714  0.8605446309
H   2.4818165230 -9.8803707353  3.2887208422
H   3.9582710490 -10.0653739470  2.3558015539
H   2.4804962069 -9.4945327477  1.5493964392
H   5.0719260764 -7.7384784101  4.2049916745
H   3.6597189768 -8.5498917149  4.8856551342
H   3.6253403484 -6.7973724558  4.5895815881
84
Scanning combination 124/256: [2.3000, 2.7000]  Energy = -386.2041455503
O   10.6964443040 -5.5361227877  4.8958330818
O   11.6969926279 -0.8284653813  4.3626212001
O   17.8773184518 -3.4510586623 -2.7520449359
O   14.5906342473 -3.0728095873  0.8317868249
C   12.8627300916 -3.7775340833  2.4613598352
C   12.7472324431 -2.4372155352  2.9044775051
C   12.1496794121 -4.8024678880  3.1215994798
C   11.8454217564 -2.1373385822  3.9204966870
C   11.2996557719 -4.4887967958  4.1781360471
C   11.0454242714 -3.1434158456  4.5420211787
C   9.9797657073 -2.6413401799  5.4354548084
C   10.3678532208 -1.8253586349  6.5149835918
C   9.4834202201 -1.1217715495  7.3747887470
C   8.1263923695 -1.1779582432  7.2188643828
C   10.1271337824 -0.2739662132  8.4660474092
C   14.8363703809 -5.0413687790 -0.3587715814
C   15.3020052622 -3.6950942080 -0.2227458631
C   16.2879758443 -3.1468964616 -0.9970843739
C   16.8638636708 -3.9855514923 -1.9760831444
C   16.4218743807 -5.3275780425 -2.1608839104
C   15.4132862612 -5.8497754980 -1.3585062525
C   13.8440913091 -5.2512985076  0.6245015015
C   13.6966421219 -4.0843271775  1.3599689623
H   13.3527878251 -1.6683360334  2.4313424020
H   12.2840139939 -5.8313766692  2.8128794087
H   11.1365997182 -6.3831648731  4.6689404165
H   12.2281249535 -0.2172656945  3.8199492454
H   9.0907330315 -2.3481877425  4.8753104720
H   11.4246915392 -1.7802456676  6.7575595949
H   7.6697558555 -1.6479006716  6.3602825450
H   7.4624221974 -0.5941674381  7.8473803006
H   10.6366928335  0.5878605640  8.0216217968
H   10.8949149443 -0.8443206288  8.9993808547
H   9.3914531465  0.0891495687  9.1888609234
H   16.6458624225 -2.1246845873 -0.8927878423
H   16.8719277994 -5.9512288869 -2.9313755449
H   15.0653441134 -6.8717834715 -1.4912476817
H   13.2866680005 -6.1686749650  0.7430041288
H   18.2248906440 -4.1194291338 -3.3777206228
C   9.8988105048 -4.7389137176  10.8483160515
O   12.1712826488 -5.4716579128  11.3323540406
C   11.1931715568 -5.0878464125  10.4295129540
O   7.6713056895 -4.0187857885  10.2408218836
C   11.5461116605 -5.0592436008  9.0617720552
O   6.0489890561 -3.2227224247  6.0693036300
C   10.6205434956 -4.6652307231  8.1151885382
O   4.4124734285 -4.3940059027  4.4705929236
C   9.2984498947 -4.2749330328  8.4931567283
O   6.2473204674 -6.1492793869  0.3695337483
C   8.9694066976 -4.3498810121  9.8905550660
C   8.2761725300 -3.8456525353  7.6071809143
C   8.2931036885 -3.9996519279  6.2102799785
C   7.0076123453 -3.8416214534  5.5088277122
C   6.8236644080 -4.4383096152  4.1679290477
C   7.8962955937 -4.7386964807  3.3059694576
C   5.4908979330 -4.7080418631  3.6997896911
C   7.6878140709 -5.3113157684  2.0628724967
C   5.2779377961 -5.2936758946  2.4485793297
C   6.3805703652 -5.5881490080  1.6221221160
C   3.8439817923 -5.6066348104  1.9952886002
C   3.4397645797 -7.0770922800  1.8330415244
C   3.4527056963 -8.0217592598  2.8008864110
C   3.0619323658 -9.4395708407  2.4740943904
C   3.9729995445 -7.7587372025  4.1964439402
H   9.6300711287 -4.7737466455  11.9058556919
H   12.5597102497 -5.3492145217  8.8062649716
H   10.9050323091 -4.6303301092  7.0671615013
H   11.8306083141 -5.4476943102  12.2494916092
H   7.5183248362 -4.1476951946  11.1980175200
H   7.3754552313 -3.4982363697  8.0943052662
H   8.9814873753 -4.7068076404  5.7794615657
H   8.8992987483 -4.4713345764  3.6003058709
H   8.5003235859 -5.5610527321  1.3920447833
H   4.7691501239 -3.8531247442  5.2406430347
H   5.3099795574 -6.2618598985  0.1242096926
H   3.1946227466 -5.1255558039  2.7361755387
H   3.6470178486 -5.1232869076  1.0275618136
H   3.0345273788 -7.3459140824  0.8561767574
H   2.4763739193 -9.8777745528  3.2893949632
H   3.9551112602 -10.0689417985  2.3609803044
H   2.4805703371 -9.4964291204  1.5487408495
H   5.0711915646 -7.7381887284  4.2046533863
H   3.6583492023 -8.5490597163  4.8846991931
H   3.6241187330 -6.7968569992  4.5872241761
84
Scanning combination 125/256: [2.3000, 2.6000]  Energy = -386.2010697123
O   10.6690890640 -5.5259880608  4.8958426656
O   11.6801909458 -0.8211106930  4.2855773729
O   17.8672581857 -3.4174464058 -2.7712555595
O   14.6002447675 -3.0991982952  0.8370303858
C   12.8697849009 -3.8100433718  2.4617702909
C   12.7410308429 -2.4637052056  2.8806431231
C   12.1547930890 -4.8220660418  3.1390678492
C   11.8307612667 -2.1435000266  3.8849245381
C   11.2893146050 -4.4877484664  4.1806141265
C   11.0310585084 -3.1369680065  4.5312276382
C   9.9692294980 -2.6276849472  5.4412218479
C   10.3773510679 -1.7803197615  6.4980542129
C   9.5187475101 -1.1128153339  7.4096900974
C   8.1559822736 -1.2797663102  7.3728285528
C   10.1794319033 -0.2235162627  8.4565442481
C   14.8676991619 -5.0623526949 -0.3571154392
C   15.3155998015 -3.7100832175 -0.2208224766
C   16.2888839288 -3.1460974953 -1.0005146961
C   16.8679740234 -3.9705950532 -1.9894384943
C   16.4424270569 -5.3174448312 -2.1770864451
C   15.4487126138 -5.8574640890 -1.3669008050
C   13.8822253323 -5.2859876740  0.6331536809
C   13.7166202545 -4.1202882641  1.3679302702
H   13.3509220066 -1.7048192752  2.3976920070
H   12.2972633085 -5.8586009660  2.8586813716
H   11.1063076591 -6.3771470866  4.6799090947
H   12.1935208208 -0.2270991454  3.7070023291
H   9.0735950206 -2.3332161924  4.8923552886
H   11.4427371813 -1.6609431926  6.6758935330
H   7.6531896253 -1.5938700930  6.4671991921
H   7.5261951788 -0.9569942802  8.1957288047
H   10.7323175852  0.5917692782  7.9776519015
H   10.9147349886 -0.7873019051  9.0404103202
H   9.4466181112  0.2108100857  9.1427406812
H   16.6355228000 -2.1201986781 -0.8931754617
H   16.8940059641 -5.9297201028 -2.9562764016
H   15.1162670166 -6.8842307467 -1.5039386964
H   13.3417999990 -6.2127890738  0.7571783909
H   18.2167737903 -4.0751346507 -3.4069861007
C   9.8821155375 -4.7251634116  10.8419088410
O   12.1419883777 -5.5112410506  11.3024739954
C   11.1649658524 -5.1027817643  10.4097519504
O   7.6739095767 -3.9256665231  10.2530736484
C   11.5112668485 -5.0732325915  9.0399215211
O   6.0299762567 -3.2056868883  6.0703729803
C   10.5895542555 -4.6473794314  8.1046007965
O   4.3978528227 -4.4022117244  4.4697927395
C   9.2699663884 -4.2637875755  8.4926020006
O   6.2728212577 -6.1305491653  0.3704212528
C   8.9555870240 -4.3081018970  9.8926842765
C   8.2368429096 -3.8679331032  7.6066611020
C   8.2789308721 -3.9877286979  6.2050053028
C   6.9899096107 -3.8195468174  5.5079903733
C   6.8081318019 -4.4186739265  4.1702525228
C   7.8876717182 -4.7063751335  3.3148031281
C   5.4808282011 -4.7047558028  3.6999093129
C   7.6936843476 -5.2782630472  2.0703815857
C   5.2808999463 -5.2922347686  2.4469136225
C   6.3917428254 -5.5712060964  1.6249093527
C   3.8545239767 -5.6211059818  1.9806848654
C   3.4660519313 -7.0963349762  1.8165325558
C   3.4545463799 -8.0324834684  2.7927013900
C   3.0457350699 -9.4482539581  2.4794785651
C   3.9651033223 -7.7611346793  4.1901715121
H   9.6210842148 -4.7555399225  11.9015536361
H   12.5153025958 -5.3854205043  8.7733025910
H   10.8670067920 -4.5845295159  7.0565071755
H   11.8179302656 -5.4608032744  12.2244404240
H   7.5062208853 -4.0890613082  11.2022324654
H   7.3101852404 -3.5888843702  8.0900799163
H   8.9600869770 -4.7009692132  5.7716856672
H   8.8832571340 -4.4261380751  3.6192990086
H   8.5132443825 -5.5154905678  1.4038088550
H   4.7481183572 -3.8594079287  5.2408042574
H   5.3390062111 -6.2698819342  0.1256397219
H   3.1924239646 -5.1439721822  2.7130097977
H   3.6643784664 -5.1437132423  1.0085000254
H   3.0949606462 -7.3769796340  0.8292931100
H   2.4352782626 -9.8618089383  3.2895464734
H   3.9293840573 -10.0954945418  2.3978196901
H   2.4831055009 -9.5110428964  1.5431169015
H   5.0629974791 -7.7361798087  4.2050137697
H   3.6480314134 -8.5488184319  4.8801323697
H   3.6109411088 -6.7981308870  4.5731451513
84
Scanning combination 126/256: [2.3000, 2.5000]  Energy = -386.1966837641
O   10.6683706979 -5.5246566640  4.9015007125
O   11.6672233176 -0.8211182426  4.2829066958
O   17.8610819170 -3.4140226649 -2.7697840477
O   14.5970919432 -3.0987309614  0.8406664838
C   12.8672413492 -3.8094265396  2.4642143275
C   12.7365837866 -2.4618193554  2.8793294243
C   12.1531658954 -4.8227387878  3.1410095091
C   11.8256985335 -2.1421428691  3.8812767830
C   11.2879364961 -4.4891514156  4.1815130714
C   11.0306099846 -3.1376758029  4.5274502935
C   9.9751924290 -2.6262183003  5.4350909760
C   10.3852427821 -1.7860406347  6.4948933034
C   9.5255409854 -1.1332557461  7.4114394311
C   8.1621952261 -1.3415812688  7.3931874965
C   10.1840034537 -0.2305404665  8.4457011124
C   14.8678217469 -5.0631127268 -0.3504356963
C   15.3141569195 -3.7102860934 -0.2152275238
C   16.2859580525 -3.1449846378 -0.9958686543
C   16.8644423242 -3.9687041513 -1.9857342570
C   16.4404150859 -5.3161079004 -2.1723932898
C   15.4487598198 -5.8575395905 -1.3605738145
C   13.8822462274 -5.2871171268  0.6394696563
C   13.7148224133 -4.1203579893  1.3720999600
H   13.3455218372 -1.7026101587  2.3965135862
H   12.2950877696 -5.8587448414  2.8595924133
H   11.1035628365 -6.3775820600  4.6885204274
H   12.1766057137 -0.2233197362  3.7052684542
H   9.0754162911 -2.3357615956  4.8911854181
H   11.4512350231 -1.6661270256  6.6686250862
H   7.6488133949 -1.6336052771  6.4845827979
H   7.5374158788 -0.9910470614  8.2079293933
H   10.7402963616  0.5778478951  7.9587752401
H   10.9191155266 -0.7886482940  9.0358665380
H   9.4506840896  0.2112088868  9.1259494244
H   16.6299327931 -2.1182375898 -0.8894981282
H   16.8911820201 -5.9279113680 -2.9523132227
H   15.1171240985 -6.8845345836 -1.4969466118
H   13.3441626026 -6.2150787489  0.7655364772
H   18.2106050803 -4.0714807955 -3.4058380516
C   9.8839835603 -4.7203882481  10.8427653592
O   12.1396869598 -5.5164342125  11.3034408650
C   11.1657527462 -5.0995134292  10.4109877923
O   7.6675697608 -3.9456124631  10.2539272503
C   11.5101235880 -5.0697510629  9.0410300132
O   6.0280700056 -3.1971402947  6.0612351774
C   10.5872431131 -4.6418914712  8.1065961676
O   4.3997489037 -4.4028564934  4.4662105148
C   9.2705119688 -4.2498331787  8.4943789119
O   6.2725439413 -6.1334288761  0.3675723000
C   8.9551166960 -4.3063836548  9.8933428753
C   8.2426179293 -3.8311900080  7.6058157078
C   8.2756251714 -3.9724424690  6.2027792195
C   6.9896175992 -3.8126873594  5.5030922460
C   6.8104190034 -4.4146081350  4.1649221023
C   7.8895897957 -4.7006911385  3.3075197163
C   5.4830106785 -4.7024090786  3.6952371936
C   7.6946780585 -5.2744123527  2.0638536326
C   5.2825268797 -5.2909510389  2.4429889328
C   6.3927774979 -5.5699686158  1.6201357899
C   3.8559725457 -5.6224743726  1.9801830988
C   3.4700169124 -7.0978364980  1.8157484126
C   3.4549208707 -8.0326167274  2.7930083280
C   3.0439524242 -9.4477016263  2.4801388099
C   3.9642954965 -7.7611389168  4.1908646345
H   9.6244428617 -4.7533063107  11.9024367309
H   12.5124800749 -5.3844446580  8.7714615592
H   10.8647893759 -4.5859183660  7.0582205291
H   11.8142300342 -5.4672403644  12.2250566314
H   7.5184321771 -4.0700831683  11.2120949077
H   7.3147951742 -3.5516249817  8.0866473239
H   8.9650896323 -4.6749925337  5.7691185033
H   8.8864949782 -4.4197863780  3.6082603751
H   8.5139358628 -5.5141794083  1.3971833030
H   4.7480775858 -3.8554878665  5.2347075644
H   5.3384277920 -6.2706562813  0.1233214293
H   3.1954345733 -5.1484072614  2.7157463018
H   3.6626731376 -5.1433190468  1.0096832673
H   3.1020014504 -7.3795075169  0.8278037020
H   2.4297817143 -9.8593362763  3.2882891706
H   3.9266371860 -10.0965564840  2.4021256617
H   2.4844905020 -9.5104695037  1.5419262270
H   5.0621358491 -7.7355322739  4.2061630984
H   3.6469345394 -8.5491552439  4.8804182731
H   3.6095134153 -6.7984487006  4.5740628013
84
Scanning combination 127/256: [2.3000, 2.4000]  Energy = -386.1926573511
O   10.6667095027 -5.5199145354  4.9026836001
O   11.6552132659 -0.8184608467  4.2652073742
O   17.8533619378 -3.4086449092 -2.7688109113
O   14.5955836268 -3.0994938795  0.8432578866
C   12.8677740390 -3.8109897334  2.4637518097
C   12.7356384569 -2.4611967447  2.8721556925
C   12.1545246906 -4.8248463816  3.1408092283
C   11.8228240929 -2.1406151900  3.8710563834
C   11.2897337812 -4.4887715307  4.1802659834
C   11.0319033258 -3.1372299238  4.5211921767
C   9.9786924078 -2.6245141470  5.4275548376
C   10.3967073670 -1.7863511449  6.4892192819
C   9.5393026726 -1.1510161722  7.4156552638
C   8.1799759304 -1.4064810297  7.4314611962
C   10.1922361826 -0.2327253346  8.4359249250
C   14.8705486652 -5.0652594655 -0.3441548064
C   15.3132243533 -3.7102509077 -0.2115173071
C   16.2813219774 -3.1429252770 -0.9924837802
C   16.8597722052 -3.9654462716 -1.9824891870
C   16.4392944056 -5.3148686796 -2.1672218493
C   15.4514244507 -5.8591677387 -1.3532349800
C   13.8866582714 -5.2910326129  0.6462248322
C   13.7167470402 -4.1228556686  1.3751642443
H   13.3435966224 -1.7029050971  2.3854609793
H   12.2964457328 -5.8614496332  2.8601680903
H   11.1009260922 -6.3746483544  4.6957426346
H   12.1578742367 -0.2188324509  3.6834602837
H   9.0911169842 -2.3093857588  4.8767169084
H   11.4637299036 -1.6555150859  6.6524048109
H   7.6471847768 -1.6569857293  6.5198593820
H   7.5767659468 -1.0985471142  8.2803516847
H   10.7462506884  0.5610888615  7.9248133556
H   10.9239681085 -0.7791197183  9.0426475091
H   9.4538744035  0.2223541519  9.1024861556
H   16.6234586022 -2.1148806759 -0.8848939682
H   16.8896510857 -5.9258360287 -2.9476869034
H   15.1213969799 -6.8873444960 -1.4862197859
H   13.3510599530 -6.2197347216  0.7756625572
H   18.2012707718 -4.0654161628 -3.4057127316
C   9.8774784030 -4.7184640830  10.8431846454
O   12.1351970408 -5.5175085267  11.2961210151
C   11.1580546610 -5.0994698803  10.4073203670
O   7.6600449240 -3.9413399611  10.2576581783
C   11.5012377004 -5.0650115148  9.0373928236
O   6.0276497787 -3.1904393828  6.0565498174
C   10.5790326184 -4.6287895002  8.1067721675
O   4.4024278981 -4.3998269908  4.4615059746
C   9.2637244030 -4.2412279807  8.4980225821
O   6.2744736475 -6.1332730492  0.3640721397
C   8.9483567706 -4.2993485296  9.8956488422
C   8.2422621473 -3.7991266362  7.6081090413
C   8.2751287283 -3.9628599303  6.2001446180
C   6.9905840012 -3.8053403463  5.4988130550
C   6.8124220626 -4.4094755875  4.1606829384
C   7.8913057546 -4.6941501729  3.3027859493
C   5.4857424218 -4.7005498281  3.6916157327
C   7.6960707962 -5.2709619810  2.0594081449
C   5.2848710169 -5.2921346736  2.4403849191
C   6.3944895780 -5.5708310227  1.6172845928
C   3.8576021166 -5.6246276100  1.9788724274
C   3.4740255927 -7.1005507166  1.8130931306
C   3.4554378769 -8.0336741629  2.7922392009
C   3.0410489840 -9.4481369823  2.4813067704
C   3.9631777257 -7.7606580309  4.1905666858
H   9.6186979884 -4.7489455155  11.9031264761
H   12.5019044229 -5.3839047920  8.7665388521
H   10.8533317883 -4.5670825379  7.0581454247
H   11.8103482853 -5.4778695369  12.2182785837
H   7.5170336884 -4.0513664824  11.2184064961
H   7.3118740790 -3.5286914379  8.0915206633
H   8.9518495051 -4.6913859688  5.7875670354
H   8.8875897776 -4.4093736956  3.6013970556
H   8.5141658984 -5.5064879490  1.3907666110
H   4.7513072962 -3.8503045680  5.2284149987
H   5.3403088705 -6.2718976557  0.1194163591
H   3.1974856376 -5.1530752095  2.7166005316
H   3.6602155986 -5.1442050590  1.0095997250
H   3.1153823575 -7.3858788682  0.8225516397
H   2.4207978527 -9.8544899273  3.2874664647
H   3.9214521292 -10.1008418081  2.4103320087
H   2.4865300597 -9.5109614966  1.5402252456
H   5.0609568834 -7.7338951361  4.2078626245
H   3.6456730716 -8.5489180173  4.8797427635
H   3.6072374984 -6.7982101966  4.5735355300
84
Scanning combination 128/256: [2.3000, 2.3000]  Energy = -386.1913076635
O   10.6650642423 -5.5216454327  4.9182976258
O   11.5508782965 -0.8140613359  4.1779494199
O   17.8280073789 -3.3875948526 -2.7848319036
O   14.5865175982 -3.1067999896  0.8460999159
C   12.8560912584 -3.8214001053  2.4647298877
C   12.6938411396 -2.4667471141  2.8459069153
C   12.1520636843 -4.8323861383  3.1550836766
C   11.7636333625 -2.1420061249  3.8275749383
C   11.2774379972 -4.4916725380  4.1861952750
C   10.9981490609 -3.1384245065  4.5061514240
C   9.9604164341 -2.6170318690  5.4279214848
C   10.3950957244 -1.7711819705  6.4811272033
C   9.5747947961 -1.1767394732  7.4619962614
C   8.2361279589 -1.5326977544  7.6228054546
C   10.2530379342 -0.2008487949  8.4092576692
C   14.8936232206 -5.0789156402 -0.3220320731
C   15.3144420475 -3.7166918912 -0.2021663967
C   16.2710229999 -3.1388718996 -0.9929296838
C   16.8529059797 -3.9574132282 -1.9849147788
C   16.4529186523 -5.3139369368 -2.1576130125
C   15.4818090762 -5.8699049607 -1.3306436489
C   13.9143703854 -5.3111171974  0.6726350064
C   13.7210679833 -4.1374463802  1.3878415993
H   13.2974127670 -1.7082458987  2.3548126086
H   12.3091069286 -5.8716627328  2.8932239161
H   11.1057657724 -6.3743320198  4.7179183215
H   12.0287499021 -0.2187158340  3.5715342020
H   9.0676060705 -2.2849394327  4.8987096059
H   11.4630158298 -1.5978914706  6.5968064511
H   7.5725776531 -1.6109595492  6.7633791197
H   7.7684254565 -1.4118976207  8.5962568665
H   10.8316939895  0.5366588715  7.8440661670
H   10.9702445833 -0.7186596282  9.0575621558
H   9.5268400144  0.3231617351  9.0372716771
H   16.5987208340 -2.1064200444 -0.8936351609
H   16.9051827301 -5.9217115040 -2.9396979124
H   15.1702471098 -6.9045624551 -1.4550348353
H   13.3988486975 -6.2496342841  0.8149657566
H   18.1758358979 -4.0397910574 -3.4272758791
C   9.8544509392 -4.7155056339  10.8384475980
O   12.0996600566 -5.5463822046  11.2968058065
C   11.1324387101 -5.1088753029  10.4062984008
O   7.6673909999 -3.8513450641  10.2467850654
C   11.4844535377 -5.0630893490  9.0393456391
O   6.0472588092 -3.1335297895  6.0122822224
C   10.5673862726 -4.6217199864  8.1064687244
O   4.4145780542 -4.3854278990  4.4433807889
C   9.2524001313 -4.2456053306  8.4937382602
O   6.2870166040 -6.1314624134  0.3490532619
C   8.9374803573 -4.2777882890  9.8888157712
C   8.2232303862 -3.8324326585  7.5928580685
C   8.2663710554 -3.9783345524  6.1810873852
C   6.9990408034 -3.7794202502  5.4705722475
C   6.8213944636 -4.3840475317  4.1321824824
C   7.9013351768 -4.6686939411  3.2754024529
C   5.4959673479 -4.6836675872  3.6689672677
C   7.7062436148 -5.2498093569  2.0347900318
C   5.2957054468 -5.2868828407  2.4234900882
C   6.4056070103 -5.5603557282  1.5981892528
C   3.8708778481 -5.6357261002  1.9685371852
C   3.5034393153 -7.1151576502  1.8015803016
C   3.4595791107 -8.0386055849  2.7884543007
C   3.0257209977 -9.4498791456  2.4899051652
C   3.9582576477 -7.7569093662  4.1884363060
H   9.5956573760 -4.7387256371  11.8984703342
H   12.4891387448 -5.3701101682  8.7714258939
H   10.8464702484 -4.5389141214  7.0610172928
H   11.7662152701 -5.5217313664  12.2165123869
H   7.5175183439 -3.9553132122  11.2067517528
H   7.2588269607 -3.6577542588  8.0589721630
H   8.9518793559 -4.6806892863  5.7433486687
H   8.8974605848 -4.3798987593  3.5728457243
H   8.5237626139 -5.4839942275  1.3647583361
H   4.7610904197 -3.8196507453  5.1989275594
H   5.3534195576 -6.2718092958  0.1045205328
H   3.2088257642 -5.1741851159  2.7107424865
H   3.6659958554 -5.1546786488  1.0014586057
H   3.1795613405 -7.4118494643  0.8026313286
H   2.3747458948 -9.8288290017  3.2851397943
H   3.8940533274 -10.1212275502  2.4572434941
H   2.4966351778 -9.5195430078  1.5348366617
H   5.0556716218 -7.7241632353  4.2112724926
H   3.6391708766 -8.5431246926  4.8790864001
H   3.5967569202 -6.7937337098  4.5648510184
84
Scanning combination 129/256: [2.3000, 2.2000]  Energy = -386.1910294291
O   10.6656389507 -5.5217537644  4.9197681523
O   11.5477179276 -0.8139450578  4.1769864497
O   17.8268900279 -3.3875646002 -2.7847177515
O   14.5856733518 -3.1062732948  0.8466943484
C   12.8547848708 -3.8208684816  2.4643601900
C   12.6923585098 -2.4661411355  2.8451040604
C   12.1523622810 -4.8321848917  3.1560794416
C   11.7623684752 -2.1414257925  3.8261891261
C   11.2775752949 -4.4920027426  4.1865742636
C   10.9974992096 -3.1383278094  4.5043569429
C   9.9625329832 -2.6162696095  5.4242343915
C   10.3976182355 -1.7741321437  6.4819325351
C   9.5788894026 -1.1950131798  7.4666739246
C   8.2379777691 -1.5772985251  7.6276108651
C   10.2478846270 -0.2073792168  8.4056045260
C   14.8938443435 -5.0789996995 -0.3208772495
C   15.3139869505 -3.7158486734 -0.2019034592
C   16.2692775495 -3.1389488361 -0.9926124047
C   16.8518450069 -3.9570871042 -1.9842119638
C   16.4527609186 -5.3142235775 -2.1565025285
C   15.4822572648 -5.8699151680 -1.3291769755
C   13.9147738374 -5.3110642207  0.6741497203
C   13.7201037600 -4.1368729416  1.3880347297
H   13.2947258211 -1.7074241200  2.3530570901
H   12.3095367532 -5.8713172940  2.8940736077
H   11.1060069315 -6.3745026676  4.7177762426
H   12.0235394789 -0.2178949357  3.5695663054
H   9.0693387120 -2.2829620215  4.8957856357
H   11.4653512713 -1.5964305861  6.5947164230
H   7.5691673297 -1.6020582104  6.7671537263
H   7.7677560779 -1.4121537512  8.5924499004
H   10.8267076174  0.5304135558  7.8405328664
H   10.9678024035 -0.7172465949  9.0563186794
H   9.5254146370  0.3197281251  9.0349439149
H   16.5973179779 -2.1056721778 -0.8934403891
H   16.9056922849 -5.9218049326 -2.9384739674
H   15.1713138253 -6.9050848319 -1.4529560886
H   13.3997693555 -6.2495752229  0.8167606624
H   18.1748169634 -4.0390713191 -3.4271465535
C   9.8560955854 -4.7124114153  10.8390925686
O   12.0986764109 -5.5486227886  11.2977131099
C   11.1332384096 -5.1074176430  10.4067848457
O   7.6682499768 -3.8516582048  10.2465843163
C   11.4853196198 -5.0632623466  9.0399320685
O   6.0458065755 -3.1354928185  6.0116132093
C   10.5665408817 -4.6234797754  8.1076975621
O   4.4144569217 -4.3836143783  4.4418931431
C   9.2565840820 -4.2372236325  8.4951163488
O   6.2868333040 -6.1313476328  0.3486620881
C   8.9381357570 -4.2785788662  9.8880244540
C   8.2368315345 -3.7770049951  7.5938359484
C   8.2649610597 -3.9730507292  6.1776188699
C   6.9995176100 -3.7801231460  5.4696640964
C   6.8217697927 -4.3839298110  4.1309031632
C   7.9018795055 -4.6690038293  3.2746800985
C   5.4959751984 -4.6836886080  3.6683058955
C   7.7068207372 -5.2499517365  2.0342320133
C   5.2958322887 -5.2871155492  2.4230274849
C   6.4058695655 -5.5600287902  1.5977021742
C   3.8710713463 -5.6357131499  1.9678915433
C   3.5040148817 -7.1151018032  1.8012614794
C   3.4598858540 -8.0381443745  2.7883872924
C   3.0255321411 -9.4494695835  2.4903211727
C   3.9584291592 -7.7562889287  4.1884873117
H   9.5939016456 -4.7405845072  11.8985350624
H   12.4895906256 -5.3736905998  8.7718450702
H   10.8470038912 -4.5444236040  7.0614598779
H   11.7646062409 -5.5230199242  12.2167701887
H   7.5202271268 -3.9516145892  11.2074759777
H   7.2620286981 -3.6599051651  8.0612365375
H   8.9465319896 -4.6848029992  5.7507928999
H   8.8980124037 -4.3782407334  3.5714957871
H   8.5245475603 -5.4833513143  1.3637368604
H   4.7615610797 -3.8177845246  5.1975433126
H   5.3533618619 -6.2712915005  0.1040220091
H   3.2099070626 -5.1738118155  2.7106037811
H   3.6656649879 -5.1545632408  1.0009855536
H   3.1813056054 -7.4125161295  0.8021676355
H   2.3736788102 -9.8277773310  3.2852004878
H   3.8933855527 -10.1215195818  2.4587279150
H   2.4971658339 -9.5193794130  1.5348402838
H   5.0558238495 -7.7236341195  4.2116361564
H   3.6392364803 -8.5424382736  4.8791975829
H   3.5969839332 -6.7930478972  4.5648176987
84
Scanning combination 130/256: [2.3000, 2.1000]  Energy = -386.1929615732
O   10.6678177252 -5.5199889438  4.9219428256
O   11.5397919365 -0.8141922276  4.1716890231
O   17.8239889391 -3.3860555156 -2.7843480814
O   14.5832763898 -3.1050646391  0.8459313832
C   12.8543363551 -3.8202043949  2.4632732919
C   12.6897135919 -2.4641753911  2.8397554505
C   12.1537830334 -4.8328256434  3.1554193187
C   11.7595025370 -2.1405931550  3.8203485702
C   11.2791575447 -4.4922395198  4.1853316203
C   10.9985700500 -3.1388580511  4.5001525839
C   9.9670453402 -2.6171484451  5.4188061177
C   10.4038403215 -1.7814741394  6.4841034919
C   9.5866191957 -1.2140691364  7.4692424987
C   8.2389994147 -1.6192840673  7.6364094856
C   10.2420509712 -0.2209081443  8.4031233511
C   14.8943436538 -5.0791423057 -0.3181950611
C   15.3124072559 -3.7153264754 -0.2009840263
C   16.2670067474 -3.1375070111 -0.9924093231
C   16.8500297843 -3.9561603356 -1.9831930189
C   16.4529260688 -5.3140796604 -2.1535427195
C   15.4836123134 -5.8705300963 -1.3251783903
C   13.9156545456 -5.3114974577  0.6766054505
C   13.7198989598 -4.1364362448  1.3883765301
H   13.2898717133 -1.7043646854  2.3464447562
H   12.3124287742 -5.8723434315  2.8953995711
H   11.1047675387 -6.3740323349  4.7182421274
H   12.0100019440 -0.2147444780  3.5635227416
H   9.0799430581 -2.2726703252  4.8868704913
H   11.4722425647 -1.5952552997  6.5849734091
H   7.5675674767 -1.5599310795  6.7790641248
H   7.7748914271 -1.4213115038  8.6007194335
H   10.8099979825  0.5143488285  7.8242004457
H   10.9668892166 -0.7183386456  9.0609995921
H   9.5070766807  0.3023070147  9.0217338513
H   16.5934495880 -2.1040461583 -0.8938236552
H   16.9064427751 -5.9221124565 -2.9345926415
H   15.1741359801 -6.9062480744 -1.4471197231
H   13.4020101992 -6.2504966893  0.8215547408
H   18.1717734979 -4.0379139261 -3.4267661421
C   9.8573919540 -4.7139677799  10.8401557119
O   12.0981441800 -5.5525733577  11.3007075599
C   11.1335698847 -5.1113005020  10.4086047592
O   7.6707761024 -3.8509166876  10.2460789436
C   11.4852337498 -5.0678592287  9.0421448419
O   6.0437730697 -3.1375099024  6.0122185875
C   10.5680164959 -4.6169729448  8.1101436570
O   4.4151967691 -4.3798588838  4.4372740535
C   9.2666882218 -4.2142846751  8.5007417145
O   6.2873373732 -6.1314538225  0.3465729661
C   8.9447429816 -4.2670627650  9.8887725170
C   8.2471055226 -3.7188874054  7.5982320441
C   8.2637930565 -3.9652000472  6.1750350186
C   7.0003734441 -3.7810423328  5.4708273470
C   6.8229371170 -4.3859600760  4.1312028217
C   7.9025710976 -4.6686308584  3.2734903303
C   5.4975476561 -4.6830571646  3.6663274556
C   7.7077015375 -5.2495040855  2.0322945480
C   5.2972376346 -5.2866605731  2.4208961675
C   6.4070091353 -5.5602758534  1.5956798541
C   3.8721419807 -5.6355260968  1.9665448057
C   3.5056625842 -7.1151880021  1.8005569655
C   3.4605226295 -8.0373987987  2.7885467390
C   3.0249077810 -9.4485150306  2.4914718897
C   3.9588037873 -7.7547050854  4.1885842617
H   9.5925281448 -4.7453197275  11.8982415129
H   12.4868305799 -5.3837074192  8.7728435665
H   10.8470995302 -4.5559080765  7.0625627845
H   11.7623168452 -5.5269161105  12.2193628757
H   7.5260162558 -3.9434907371  11.2077695345
H   7.2622147019 -3.6755389269  8.0635948496
H   8.9332410284 -4.7012656757  5.7705785322
H   8.8984497683 -4.3758368922  3.5691293996
H   8.5252828027 -5.4821718864  1.3614008414
H   4.7629602839 -3.8146136740  5.1932857019
H   5.3534579761 -6.2699233419  0.1023095551
H   3.2111337706 -5.1738877904  2.7096146829
H   3.6655114475 -5.1545338281  0.9997474373
H   3.1856489723 -7.4140470266  0.8010200255
H   2.3707278191 -9.8246123278  3.2854645692
H   3.8918358777 -10.1218835221  2.4628520476
H   2.4985726395 -9.5189156122  1.5349443729
H   5.0562229108 -7.7222418653  4.2120993691
H   3.6392006101 -8.5404542423  4.8795277652
H   3.5974315566 -6.7912273707  4.5644537963
84
Scanning combination 131/256: [2.3000, 2.0000]  Energy = -386.1969045397
O   10.6675501279 -5.5193778862  4.9225385546
O   11.5345677096 -0.8139679195  4.1669065373
O   17.8229742602 -3.3854340689 -2.7851810006
O   14.5825842508 -3.1046942542  0.8449034581
C   12.8537370558 -3.8198898788  2.4624726189
C   12.6877458507 -2.4638911178  2.8376364720
C   12.1551172052 -4.8327742030  3.1561720434
C   11.7580580036 -2.1402705978  3.8175471577
C   11.2803452970 -4.4928110076  4.1854265881
C   10.9987039226 -3.1392981331  4.4976594121
C   9.9689731866 -2.6166920121  5.4124662929
C   10.4084314030 -1.7833867245  6.4810957661
C   9.5974807349 -1.2295706744  7.4701846031
C   8.2454955823 -1.6669472926  7.6425342886
C   10.2342136116 -0.2249529607  8.3967523821
C   14.8954275922 -5.0793281277 -0.3174833208
C   15.3118060850 -3.7153703074 -0.2013373281
C   16.2665879277 -3.1365426568 -0.9933531656
C   16.8498303064 -3.9561032398 -1.9833619465
C   16.4540582702 -5.3143592317 -2.1528295173
C   15.4851760428 -5.8713422500 -1.3240126894
C   13.9173086169 -5.3118646681  0.6774617406
C   13.7198637640 -4.1363021467  1.3878740740
H   13.2867958148 -1.7044847051  2.3425384750
H   12.3151782119 -5.8718177497  2.8954809800
H   11.1036394363 -6.3738198590  4.7181153855
H   12.0039229052 -0.2146503097  3.5576361064
H   9.0829190111 -2.2687653842  4.8814066719
H   11.4756842938 -1.5933709259  6.5814276249
H   7.5681929071 -1.5397772035  6.7985302608
H   7.7889380370 -1.4378449174  8.6027131506
H   10.8051385755  0.5146678822  7.8270454427
H   10.9590145734 -0.7137152026  9.0584173159
H   9.5002719572  0.2968734425  9.0173558919
H   16.5915685144 -2.1032206621 -0.8948123355
H   16.9078388555 -5.9225234040 -2.9335602550
H   15.1765085637 -6.9073341024 -1.4447469927
H   13.4043257470 -6.2512336535  0.8228773976
H   18.1709745425 -4.0373184688 -3.4275024110
C   9.8571888438 -4.7141337709  10.8411676333
O   12.0968964842 -5.5564128668  11.2999670496
C   11.1332518096 -5.1109088152  10.4083618751
O   7.6724980491 -3.8433755587  10.2484952354
C   11.4816105084 -5.0701045520  9.0422519595
O   6.0424032535 -3.1385441088  6.0098762260
C   10.5628810225 -4.6155951546  8.1114023737
O   4.4158244905 -4.3781278078  4.4366874805
C   9.2690614889 -4.2017529866  8.5058804318
O   6.2882373438 -6.1310524026  0.3463107631
C   8.9441437413 -4.2657004608  9.8886388447
C   8.2494401278 -3.6664747312  7.6008370891
C   8.2604216233 -3.9564432219  6.1714866258
C   7.0007626735 -3.7837723607  5.4696379450
C   6.8232711410 -4.3876412407  4.1297707676
C   7.9036332941 -4.6690925576  3.2729784057
C   5.4976652407 -4.6825615464  3.6655736577
C   7.7084319272 -5.2493386328  2.0314683109
C   5.2974921262 -5.2864649239  2.4201957900
C   6.4076287719 -5.5595887377  1.5953315174
C   3.8728774950 -5.6355983947  1.9657959072
C   3.5069044996 -7.1153792994  1.8000916255
C   3.4609145536 -8.0368907742  2.7884919555
C   3.0245065775 -9.4479581611  2.4922119820
C   3.9589307806 -7.7538029101  4.1885869566
H   9.5919935869 -4.7488936396  11.8983482116
H   12.4819380923 -5.3894371629  8.7718722451
H   10.8445999954 -4.5518758569  7.0649748662
H   11.7625435610 -5.5294317885  12.2191094368
H   7.5274952458 -3.9401766933  11.2095424227
H   7.2603093489 -3.6942106268  8.0630050200
H   8.9277773289 -4.7038194815  5.7891401629
H   8.8989934742 -4.3764605363  3.5701520136
H   8.5261410032 -5.4812622216  1.3608679747
H   4.7647395016 -3.8128663335  5.1931158674
H   5.3547459131 -6.2691994769  0.1009747064
H   3.2119317892 -5.1740260023  2.7089303929
H   3.6663874386 -5.1547619702  0.9989374240
H   3.1878059113 -7.4147064498  0.8003764370
H   2.3690661546 -9.8228443697  3.2857128802
H   3.8909361580 -10.1219917503  2.4653537639
H   2.4993221272 -9.5188254527  1.5350770884
H   5.0563561679 -7.7214048839  4.2121764783
H   3.6391977801 -8.5392146854  4.8797552249
H   3.5976251373 -6.7900871278  4.5640755549
84
Scanning combination 132/256: [2.3000, 1.9000]  Energy = -386.2027789350
O   10.6674980219 -5.5169243334  4.9231082646
O   11.5289534567 -0.8144191296  4.1575404509
O   17.8217678625 -3.3846360125 -2.7865422370
O   14.5814883038 -3.1044657416  0.8428213129
C   12.8554548885 -3.8210391908  2.4606921220
C   12.6880261151 -2.4634314891  2.8311020544
C   12.1573674504 -4.8344143165  3.1551927281
C   11.7567347275 -2.1399973775  3.8091138809
C   11.2807381189 -4.4928323530  4.1826785922
C   11.0004672927 -3.1388527062  4.4916216200
C   9.9757068829 -2.6127099160  5.4063972971
C   10.4162132132 -1.7825136277  6.4799971377
C   9.6084524752 -1.2447583029  7.4719713133
C   8.2509137150 -1.7122292463  7.6571903828
C   10.2276595026 -0.2340662206  8.3953483891
C   14.8972484433 -5.0800658818 -0.3170515790
C   15.3120151548 -3.7150964018 -0.2023365126
C   16.2653615418 -3.1362411665 -0.9945159780
C   16.8496454936 -3.9555787387 -1.9840991399
C   16.4556186799 -5.3145986927 -2.1518961137
C   15.4879402718 -5.8719721166 -1.3222748300
C   13.9192855959 -5.3131735366  0.6778543561
C   13.7210560412 -4.1372067421  1.3869713026
H   13.2847455095 -1.7027720133  2.3353247298
H   12.3189879230 -5.8739525928  2.8970908915
H   11.1009677277 -6.3726624633  4.7182724732
H   11.9951588700 -0.2128207766  3.5487467991
H   9.0935450918 -2.2590452012  4.8730092588
H   11.4862829292 -1.5892176014  6.5663556162
H   7.5697659511 -1.5226373722  6.8273921152
H   7.8131607204 -1.4755666517  8.6250870223
H   10.7877148090  0.5083609554  7.8170291746
H   10.9554295783 -0.7105968607  9.0664190009
H   9.4768399480  0.2803250810  9.0019336967
H   16.5894841023 -2.1021426185 -0.8972210252
H   16.9100260098 -5.9230233809 -2.9319418101
H   15.1806072556 -6.9084308228 -1.4417861212
H   13.4074538623 -6.2528325290  0.8250988858
H   18.1701056760 -4.0366062917 -3.4288297475
C   9.8540323655 -4.7156630755  10.8415153277
O   12.0942181387 -5.5605863027  11.2967873379
C   11.1268421651 -5.1180166274  10.4068488664
O   7.6716804431 -3.8352234774  10.2513994894
C   11.4753029191 -5.0720051892  9.0404337153
O   6.0395160084 -3.1390328952  6.0111649535
C   10.5584095958 -4.6023544021  8.1134389174
O   4.4170275781 -4.3773432939  4.4336369740
C   9.2723234273 -4.1818374776  8.5125253174
O   6.2895149037 -6.1308801358  0.3443034530
C   8.9457808042 -4.2501664200  9.8909320563
C   8.2491892262 -3.6115526963  7.6078097924
C   8.2599384156 -3.9403793376  6.1703515419
C   7.0019753791 -3.7798845937  5.4722403303
C   6.8251131469 -4.3892089002  4.1320230493
C   7.9041987029 -4.6710393918  3.2741382964
C   5.4998821059 -4.6839499678  3.6653627220
C   7.7096686476 -5.2493893851  2.0309556497
C   5.2992964689 -5.2863871498  2.4188430090
C   6.4089501335 -5.5595230690  1.5934554156
C   3.8740843350 -5.6354481273  1.9645050415
C   3.5081760949 -7.1153499763  1.7993712628
C   3.4613654137 -8.0363176368  2.7885439441
C   3.0239889360 -9.4472409037  2.4932653365
C   3.9592088245 -7.7523823429  4.1884945128
H   9.5888663610 -4.7544290744  11.8989549735
H   12.4717859932 -5.3979651900  8.7667565753
H   10.8365863831 -4.5469233410  7.0650694222
H   11.7623700710 -5.5325411413  12.2166974644
H   7.5281655464 -3.9353702448  11.2119068234
H   7.2597077280 -3.7119697640  8.0625893909
H   8.9199156246 -4.7076835231  5.8192519169
H   8.8997453485 -4.3793451116  3.5718743231
H   8.5271601100 -5.4804113024  1.3592452338
H   4.7673193075 -3.8126224728  5.1903994872
H   5.3555284471 -6.2680792236  0.0992908186
H   3.2127390776 -5.1740177904  2.7074586508
H   3.6669541165 -5.1549886323  0.9974983586
H   3.1909905673 -7.4158291649  0.7994769279
H   2.3666467061 -9.8202503443  3.2861457737
H   3.8896686135 -10.1223840971  2.4689496584
H   2.5004113524 -9.5187691514  1.5353355169
H   5.0566131277 -7.7201284101  4.2124025319
H   3.6391083243 -8.5374286324  4.8800528127
H   3.5978761318 -6.7885735423  4.5634235869
84
Scanning combination 133/256: [2.3000, 1.8000]  Energy = -386.2093619104
O   10.6677300187 -5.5091897361  4.9229467050
O   11.5127819313 -0.8109612207  4.1266123482
O   17.8208744867 -3.3825648258 -2.7944200484
O   14.5815960790 -3.1062940642  0.8354079516
C   12.8578007702 -3.8231047276  2.4542755476
C   12.6843503021 -2.4638044966  2.8149416762
C   12.1646234755 -4.8354979360  3.1556387726
C   11.7508097932 -2.1376981898  3.7894927735
C   11.2847067671 -4.4903565830  4.1790958703
C   10.9989189030 -3.1359594410  4.4779350214
C   9.9740028435 -2.6092244463  5.3913527093
C   10.4206243469 -1.7821605582  6.4722674811
C   9.6223043680 -1.2685254256  7.4753930157
C   8.2687150442 -1.7801204921  7.6983383014
C   10.2109945663 -0.2359438774  8.3900185893
C   14.9053686551 -5.0840177898 -0.3182534169
C   15.3142260709 -3.7166649276 -0.2081214790
C   16.2643216048 -3.1360713214 -1.0020097519
C   16.8515825993 -3.9552660252 -1.9892124172
C   16.4639703017 -5.3169675968 -2.1533594560
C   15.4987858042 -5.8765642451 -1.3212268243
C   13.9289150912 -5.3183868907  0.6778244569
C   13.7252752221 -4.1407626847  1.3827993111
H   13.2788498453 -1.7056309618  2.3125326538
H   12.3312036867 -5.8755727333  2.9034796906
H   11.0948807172 -6.3680639513  4.7194158481
H   11.9736636500 -0.2112980628  3.5117157021
H   9.1006970760 -2.2404593426  4.8524858896
H   11.4896833613 -1.5663105182  6.5419845376
H   7.5550631234 -1.5240562136  6.9147523234
H   7.8845163863 -1.5423344859  8.6886674749
H   10.7635029863  0.5147155959  7.8141335850
H   10.9377366678 -0.6902912508  9.0786016544
H   9.4444446049  0.2684608220  8.9869628921
H   16.5837182190 -2.0997638457 -0.9066706143
H   16.9205752505 -5.9254513038 -2.9314584611
H   15.1960024258 -6.9146660627 -1.4369349173
H   13.4209661986 -6.2595708248  0.8277728047
H   18.1703921483 -4.0341969557 -3.4355343153
C   9.8469944760 -4.7114271250  10.8441334007
O   12.0794190317 -5.5835949485  11.2861398608
C   11.1153234816 -5.1216889163  10.4027797788
O   7.6738547680 -3.7985408473  10.2632691563
C   11.4605370238 -5.0771388328  9.0358682056
O   6.0411349713 -3.1304234004  6.0080375350
C   10.5438614296 -4.5963714421  8.1142096493
O   4.4204818811 -4.3754081513  4.4352128871
C   9.2620260403 -4.1832720968  8.5207046015
O   6.2966921801 -6.1257225113  0.3450024426
C   8.9396395462 -4.2366171753  9.8967653649
C   8.2427002242 -3.5780302669  7.6163538815
C   8.2599967918 -3.9301591612  6.1707809278
C   7.0054973360 -3.7746093366  5.4735998271
C   6.8285074023 -4.3884547997  4.1346790844
C   7.9085828058 -4.6744039648  3.2799977608
C   5.5033578683 -4.6826514307  3.6671546734
C   7.7153517354 -5.2487233971  2.0352899508
C   5.3043007209 -5.2851784724  2.4203198162
C   6.4148203716 -5.5571665032  1.5955923474
C   3.8801954134 -5.6351492813  1.9633380884
C   3.5144270096 -7.1152674085  1.7982466372
C   3.4634879876 -8.0344673203  2.7887718902
C   3.0223829530 -9.4447927624  2.4964417607
C   3.9597926845 -7.7486196978  4.1888399543
H   9.5791514132 -4.7675505977  11.9002187317
H   12.4492307440 -5.4202822298  8.7553273388
H   10.8199004733 -4.5213681665  7.0661365578
H   11.7568967066 -5.5427418347  12.2084123810
H   7.5255581021 -3.9152964624  11.2213693160
H   7.2519678323 -3.7214320954  8.0623963393
H   8.9192563674 -4.7063098631  5.8386327744
H   8.9046456040 -4.3910950980  3.5846432912
H   8.5331035344 -5.4775724482  1.3627619392
H   4.7714153368 -3.8090589103  5.1912424521
H   5.3632407302 -6.2625578513  0.0976796151
H   3.2181188945 -5.1730064407  2.7051651349
H   3.6750780446 -5.1556357791  0.9954307983
H   3.2005005200 -7.4169553005  0.7977125057
H   2.3594477676 -9.8120949145  3.2873271446
H   3.8856540461 -10.1231707772  2.4800117984
H   2.5037121474 -9.5185367931  1.5360205079
H   5.0571669102 -7.7161651173  4.2134618483
H   3.6388505919 -8.5324205460  4.8811965301
H   3.5982951527 -6.7839837352  4.5616719019
84
Scanning combination 134/256: [2.3000, 1.7000]  Energy = -386.2145215269
O   10.6682894955 -5.5087529793  4.9231630469
O   11.5092310380 -0.8103306612  4.1220466470
O   17.8207100847 -3.3821736713 -2.7960043318
O   14.5816094116 -3.1067269926  0.8340271931
C   12.8577875348 -3.8234049943  2.4534461885
C   12.6826084256 -2.4638253923  2.8125363989
C   12.1649698343 -4.8352926548  3.1558284993
C   11.7489609787 -2.1371595769  3.7865509329
C   11.2846762456 -4.4898128590  4.1787274272
C   10.9990830411 -3.1349541233  4.4765837744
C   9.9763296392 -2.6055775567  5.3870374022
C   10.4197119375 -1.7814543653  6.4709802643
C   9.6260747959 -1.2801753026  7.4781319978
C   8.2746563756 -1.8286838433  7.7034704282
C   10.2034044081 -0.2402282794  8.3873050014
C   14.9069579596 -5.0848406783 -0.3184342181
C   15.3146012478 -3.7172807245 -0.2090949606
C   16.2644947070 -3.1360213233 -1.0035945829
C   16.8522443752 -3.9554825277 -1.9905637561
C   16.4655122262 -5.3174139766 -2.1535435143
C   15.5010928660 -5.8773127844 -1.3212187584
C   13.9306896501 -5.3193637230  0.6780268242
C   13.7260544779 -4.1414305868  1.3824009392
H   13.2764009940 -1.7055182582  2.3100942035
H   12.3330650110 -5.8757036289  2.9059835795
H   11.0967367164 -6.3671936355  4.7196791401
H   11.9694170242 -0.2111752936  3.5061758254
H   9.0998329567 -2.2401522105  4.8517976999
H   11.4867671832 -1.5605649645  6.5388816253
H   7.5589974663 -1.5292571585  6.9351643889
H   7.8873761525 -1.5612582419  8.6863003479
H   10.7566285165  0.5086369917  7.8112903949
H   10.9335529122 -0.6866587044  9.0760045052
H   9.4405363684  0.2691901698  8.9838654465
H   16.5830120384 -2.0997088208 -0.9091653883
H   16.9226234992 -5.9260461935 -2.9315667115
H   15.1992468167 -6.9158126111 -1.4364918139
H   13.4234129971 -6.2608423644  0.8287198186
H   18.1707512817 -4.0339888412 -3.4370507418
C   9.8445701356 -4.7165796514  10.8421155871
O   12.0776729319 -5.5866971109  11.2862635533
C   11.1130546143 -5.1263574668  10.4018865159
O   7.6727101143 -3.7975671445  10.2634611374
C   11.4567500410 -5.0825092553  9.0352319708
O   6.0376510620 -3.1279640481  6.0076559612
C   10.5399274318 -4.5962524495  8.1131459954
O   4.4218687490 -4.3750148255  4.4352755669
C   9.2654386610 -4.1669964216  8.5220426633
O   6.2979087159 -6.1248652996  0.3452397688
C   8.9383069591 -4.2352910938  9.8943171435
C   8.2468289490 -3.5263531976  7.6196315179
C   8.2571692003 -3.9159811651  6.1728639625
C   7.0045630946 -3.7724173380  5.4764471548
C   6.8296274910 -4.3890016269  4.1363570426
C   7.9096002013 -4.6740637477  3.2811237724
C   5.5049782923 -4.6821001621  3.6677651460
C   7.7163185188 -5.2488471325  2.0360491636
C   5.3055777209 -5.2847194686  2.4206732126
C   6.4159185772 -5.5568370420  1.5960767749
C   3.8814799761 -5.6346902210  1.9635277853
C   3.5156451745 -7.1148164453  1.7984109437
C   3.4640093712 -8.0339293239  2.7890137332
C   3.0222320398 -9.4441500925  2.4969788410
C   3.9599909312 -7.7480285589  4.1892220670
H   9.5791466586 -4.7665229458  11.8986982910
H   12.4462720125 -5.4215006865  8.7556239459
H   10.8195449360 -4.5251183468  7.0662399508
H   11.7552576900 -5.5452852121  12.2090754331
H   7.5278126100 -3.9114817823  11.2218597127
H   7.2590671994 -3.7250211073  8.0565306181
H   8.9118833670 -4.6989853487  5.8517086402
H   8.9057939273 -4.3918123394  3.5854031266
H   8.5342713418 -5.4778047707  1.3642078999
H   4.7723724530 -3.8079117207  5.1913015051
H   5.3644004470 -6.2613651085  0.0978181886
H   3.2189608741 -5.1725978242  2.7049535169
H   3.6763218278 -5.1552530250  0.9955691415
H   3.2025765906 -7.4167404174  0.7976565354
H   2.3581800485 -9.8104919186  3.2874167660
H   3.8849435025 -10.1232730711  2.4819012348
H   2.5044774810 -9.5180624368  1.5360906007
H   5.0573434941 -7.7155610987  4.2142443697
H   3.6388010027 -8.5317677621  4.8815934239
H   3.5983972711 -6.7833717544  4.5618312861
84
Scanning combination 135/256: [2.3000, 1.6000]  Energy = -386.2158809896
O   10.6691616178 -5.5021806723  4.9239679239
O   11.5022488436 -0.8082272060  4.1066892143
O   17.8200977147 -3.3813319436 -2.8003467291
O   14.5819253981 -3.1078418492  0.8297501256
C   12.8597861617 -3.8242975935  2.4495806274
C   12.6819951274 -2.4628186247  2.8025773434
C   12.1683455863 -4.8351519165  3.1550315382
C   11.7473871234 -2.1349301220  3.7746006948
C   11.2868107102 -4.4871590075  4.1755883534
C   11.0010091689 -3.1317943825  4.4684678735
C   9.9801381535 -2.6022823120  5.3781477992
C   10.4222972217 -1.7817855268  6.4670722455
C   9.6295317288 -1.3023348425  7.4809354394
C   8.2833371767 -1.8829363882  7.7195535922
C   10.1880897123 -0.2490601083  8.3832088299
C   14.9115068072 -5.0873086573 -0.3188915465
C   15.3161430168 -3.7185544991 -0.2119974853
C   16.2642809943 -3.1361863302 -1.0076592099
C   16.8535110067 -3.9559022452 -1.9937045110
C   16.4697084277 -5.3188348537 -2.1539919152
C   15.5072843406 -5.8796382286 -1.3207133322
C   13.9357889366 -5.3223188492  0.6781112054
C   13.7289029339 -4.1434860165  1.3798831943
H   13.2742282620 -1.7044486103  2.2980006271
H   12.3387709329 -5.8770145503  2.9110521641
H   11.0964624291 -6.3618699497  4.7230432175
H   11.9583224813 -0.2075809996  3.4889833859
H   9.1062550303 -2.2323752095  4.8420047034
H   11.4879925440 -1.5426688458  6.5203266888
H   7.5646982153 -1.5422623498  6.9694076218
H   7.9176170547 -1.6085755037  8.7131731227
H   10.7310713400  0.4996575302  7.7963948879
H   10.9199697708 -0.6790033084  9.0824050901
H   9.4105599642  0.2523536935  8.9673075923
H   16.5804963855 -2.0990839991 -0.9153431147
H   16.9280627247 -5.9277162999 -2.9314213806
H   15.2076692917 -6.9190824236 -1.4343267425
H   13.4304773536 -6.2644892216  0.8313966011
H   18.1712861934 -4.0332892733 -3.4407617606
C   9.8389836057 -4.7171919458  10.8408370298
O   12.0675541613 -5.5984017013  11.2811583710
C   11.1042650768 -5.1334587984  10.3980946040
O   7.6700549397 -3.7897178167  10.2643378251
C   11.4488180502 -5.0893780187  9.0321442102
O   6.0304119212 -3.1182899917  6.0096834770
C   10.5360509160 -4.5924870401  8.1110907733
O   4.4225424401 -4.3756469943  4.4365208473
C   9.2673665408 -4.1515064011  8.5228914591
O   6.3024563725 -6.1212630797  0.3481599114
C   8.9368530381 -4.2252062330  9.8935019214
C   8.2542372987 -3.4798398184  7.6249809393
C   8.2554499689 -3.8958971520  6.1795246930
C   7.0030367864 -3.7597729913  5.4836057443
C   6.8309006783 -4.3845319378  4.1432443698
C   7.9116390899 -4.6729664555  3.2894520886
C   5.5077856102 -4.6815890470  3.6722444241
C   7.7191090520 -5.2479395143  2.0434270380
C   5.3093434206 -5.2842154232  2.4240983009
C   6.4199622011 -5.5551733362  1.6002610975
C   3.8857509470 -5.6336322468  1.9646636769
C   3.5196329815 -7.1136262231  1.7991400277
C   3.4656466571 -8.0323921729  2.7898480977
C   3.0218011948 -9.4420502498  2.4984864237
C   3.9605392176 -7.7463221572  4.1904382037
H   9.5707564155 -4.7704627618  11.8967785100
H   12.4360683899 -5.4338294297  8.7506303863
H   10.8157845519 -4.5286423371  7.0629267088
H   11.7474227492 -5.5514884934  12.2042918803
H   7.5270441885 -3.9037989011  11.2230530517
H   7.2726553780 -3.7226023461  8.0544595038
H   8.9032482787 -4.6928968302  5.8783958189
H   8.9084518612 -4.3937693864  3.5941498724
H   8.5369791516 -5.4768283652  1.3715103496
H   4.7706777590 -3.8059893872  5.1913155603
H   5.3693164091 -6.2573320832  0.0993560083
H   3.2225237280 -5.1712976949  2.7051952479
H   3.6812834916 -5.1541537184  0.9964382435
H   3.2084656951 -7.4157396345  0.7977461345
H   2.3546863792 -9.8057617123  3.2875135817
H   3.8830111002 -10.1231231499  2.4872102289
H   2.5066947116 -9.5165227578  1.5362379995
H   5.0578781009 -7.7137658663  4.2163507356
H   3.6386391313 -8.5298747465  4.8826408826
H   3.5987244352 -6.7815525518  4.5624534197
84
Scanning combination 136/256: [2.3000, 1.5000]  Energy = -386.2105163332
O   10.6692481735 -5.5011164326  4.9236593266
O   11.5011889425 -0.8072405804  4.1038653620
O   17.8201366996 -3.3812408053 -2.8013288928
O   14.5822797498 -3.1079621106  0.8287664015
C   12.8600254892 -3.8240638445  2.4488335507
C   12.6816204254 -2.4626215734  2.8011881425
C   12.1695897934 -4.8349835855  3.1550550276
C   11.7472967243 -2.1339840158  3.7728356271
C   11.2879406988 -4.4871070309  4.1750221392
C   11.0010218145 -3.1312657856  4.4662670716
C   9.9809856143 -2.6021856952  5.3737181143
C   10.4236303996 -1.7846663689  6.4654823900
C   9.6320734731 -1.3168562848  7.4821433921
C   8.2925615454 -1.9325550294  7.7212485675
C   10.1777435105 -0.2539773100  8.3798099534
C   14.9124775693 -5.0877632542 -0.3191170914
C   15.3164847314 -3.7188865904 -0.2127639661
C   16.2644407053 -3.1361934186 -1.0086548190
C   16.8538941602 -3.9560732697 -1.9944497292
C   16.4706654028 -5.3192224412 -2.1543088137
C   15.5084492859 -5.8803031951 -1.3207664748
C   13.9370140748 -5.3227053545  0.6781201131
C   13.7294354005 -4.1435897027  1.3794062904
H   13.2736825577 -1.7051216866  2.2957012132
H   12.3402987948 -5.8765488356  2.9112000776
H   11.0960216449 -6.3613515346  4.7237993991
H   11.9569452460 -0.2075514755  3.4849924374
H   9.1054950442 -2.2315014326  4.8397598739
H   11.4854456175 -1.5389952517  6.5173211919
H   7.5738799659 -1.5545082007  6.9870848349
H   7.9274142977 -1.6255793369  8.7067112164
H   10.7223050072  0.4969359768  7.7983137323
H   10.9124912138 -0.6761329517  9.0800503918
H   9.4029011155  0.2501208165  8.9655311957
H   16.5799509061 -2.0989756929 -0.9163614114
H   16.9292087371 -5.9281196181 -2.9315781029
H   15.2092155945 -6.9199093842 -1.4339213014
H   13.4321156924 -6.2650813733  0.8315607466
H   18.1715101832 -4.0332656417 -3.4416104167
C   9.8361682297 -4.7181217105  10.8374500037
O   12.0656128410 -5.6010091049  11.2806500600
C   11.1021183947 -5.1336986970  10.3971576015
O   7.6669547368 -3.7878689654  10.2642406266
C   11.4443083593 -5.0907934674  9.0307621681
O   6.0263820954 -3.1163509313  6.0084084516
C   10.5310768722 -4.5911918702  8.1104387749
O   4.4230565565 -4.3750519377  4.4384210293
C   9.2683026407 -4.1354447383  8.5214469043
O   6.3040864820 -6.1203192020  0.3497445994
C   8.9339878978 -4.2216882184  9.8901680432
C   8.2619500381 -3.4291705649  7.6258388188
C   8.2518550872 -3.8853311744  6.1823211775
C   7.0015089981 -3.7590278953  5.4879684444
C   6.8315173494 -4.3857381706  4.1459096447
C   7.9119226140 -4.6721305915  3.2913214382
C   5.5083158669 -4.6804828691  3.6741489784
C   7.7201059533 -5.2472948820  2.0451081871
C   5.3100741840 -5.2833051564  2.4255844769
C   6.4208582040 -5.5545400473  1.6020116587
C   3.8866994023 -5.6332215737  1.9654571030
C   3.5204910526 -7.1133005601  1.7993563350
C   3.4659876753 -8.0321247271  2.7900886825
C   3.0217346755 -9.4416758965  2.4987506930
C   3.9606164069 -7.7460807017  4.1907510713
H   9.5702557711 -4.7715732341  11.8940660519
H   12.4318031785 -5.4362037577  8.7499511334
H   10.8154115641 -4.5289722475  7.0632028305
H   11.7462373557 -5.5530652948  12.2043121550
H   7.5264022068 -3.9042943897  11.2231779850
H   7.2891348859 -3.7163032000  8.0455085779
H   8.8954804185 -4.6882557211  5.8920366866
H   8.9085937184 -4.3938017141  3.5969361061
H   8.5385022286 -5.4764557002  1.3737681683
H   4.7714874253 -3.8045859471  5.1937064700
H   5.3710645516 -6.2562403692  0.1003898328
H   3.2229433259 -5.1710687358  2.7056436257
H   3.6828451084 -5.1539532616  0.9969786761
H   3.2095959402 -7.4154271632  0.7978545629
H   2.3539980002 -9.8048906811  3.2875518303
H   3.8827314072 -10.1230521267  2.4881434555
H   2.5071336503 -9.5161154603  1.5362108226
H   5.0579405647 -7.7134657534  4.2168444645
H   3.6386051015 -8.5296293683  4.8829392742
H   3.5987869527 -6.7812732745  4.5626792234
84
Scanning combination 137/256: [2.2000, 2.9000]  Energy = -386.2066010233
O   10.6976135432 -5.5728168222  4.8987519949
O   11.6402102038 -0.8543518588  4.3833466004
O   17.8727278729 -3.4530797506 -2.7427155271
O   14.5808262840 -3.0697269461  0.8434834238
C   12.8448632605 -3.7813527455  2.4714403504
C   12.7170062265 -2.4454031842  2.9241931518
C   12.1361176857 -4.8122236389  3.1273842639
C   11.8021848222 -2.1593352580  3.9351846798
C   11.2803301224 -4.5114849714  4.1858174607
C   11.0006932495 -3.1701544694  4.5472337586
C   9.9246960417 -2.6520450587  5.4368512938
C   10.3274151046 -1.8365814870  6.5264644731
C   9.4566725087 -1.0880168519  7.3623404731
C   8.1067172811 -1.0559468291  7.1718496041
C   10.1249343399 -0.2618116482  8.4646488093
C   14.8274884707 -5.0367126081 -0.3502700609
C   15.2942362964 -3.6911735264 -0.2130385083
C   16.2808931103 -3.1450363842 -0.9889853158
C   16.8567831151 -3.9847999396 -1.9677573127
C   16.4135667759 -5.3263515292 -2.1523863473
C   15.4039122019 -5.8462524075 -1.3500726582
C   13.8335866743 -5.2464331596  0.6313809134
C   13.6840701392 -4.0813126492  1.3694255107
H   13.3218133512 -1.6686545799  2.4626298705
H   12.2805880308 -5.8392055960  2.8174433529
H   11.1505318381 -6.4117375480  4.6673603007
H   12.1884761008 -0.2391110693  3.8632427329
H   9.0902272354 -2.2680758948  4.8441666007
H   11.3784605878 -1.8222295688  6.7926009535
H   7.6297173750 -1.5407832909  6.3289091951
H   7.4686836734 -0.4216388734  7.7796920543
H   10.6424922377  0.6107941098  8.0476070869
H   10.8902137984 -0.8551787757  8.9739518574
H   9.4059302396  0.0922329734  9.2085148994
H   16.6425146328 -2.1237487354 -0.8874777288
H   16.8645137978 -5.9515858196 -2.9213269950
H   15.0550009507 -6.8680281241 -1.4828559473
H   13.2762098023 -6.1640938934  0.7467260845
H   18.2195685278 -4.1227563462 -3.3675564156
C   9.9082099253 -4.7527229273  10.8467131139
O   12.1809573506 -5.4682968114  11.3512856377
C   11.2074595504 -5.0951797019  10.4388203461
O   7.6817834232 -4.0459691032  10.2216690757
C   11.5703061932 -5.0674002612  9.0732933922
O   6.1035569542 -3.2016343288  6.0478490149
C   10.6494381816 -4.6853772236  8.1171683643
O   4.4428561100 -4.3910735831  4.4831820822
C   9.3170003847 -4.3144031037  8.4817843818
O   6.2379170027 -6.1563515303  0.3671810465
C   8.9815545731 -4.3784749990  9.8806379973
C   8.2959040615 -3.9196136941  7.5882911106
C   8.3497801824 -3.9964748848  6.1800428408
C   7.0509007599 -3.8325741330  5.4843814438
C   6.8508262850 -4.4394605518  4.1548896509
C   7.9150655591 -4.7459271671  3.2843599716
C   5.5119126928 -4.7079249296  3.7005576797
C   7.6944470660 -5.3192385571  2.0447778240
C   5.2869261092 -5.2928378008  2.4515044658
C   6.3824641212 -5.5905944808  1.6160493486
C   3.8493138303 -5.6018255775  2.0068235903
C   3.4406570453 -7.0708311818  1.8400450952
C   3.4538259065 -8.0190585171  2.8042522024
C   3.0641020613 -9.4363177695  2.4736689658
C   3.9746674055 -7.7590470927  4.1999121635
H   9.6383969133 -4.7714219319  11.9042914141
H   12.5886583510 -5.3474148408  8.8266302147
H   10.9394921213 -4.6490221994  7.0707867635
H   11.8324463632 -5.4480574230  12.2657244782
H   7.5290884876 -4.1507420190  11.1818699712
H   7.3832762948 -3.5865042070  8.0634779342
H   9.0132408922 -4.7221323921  5.7387781685
H   8.9205975453 -4.4779495997  3.5689202327
H   8.5008428007 -5.5785620175  1.3704229820
H   4.8090265763 -3.8464847451  5.2460734944
H   5.2984762447 -6.2599263651  0.1265660988
H   3.2048148101 -5.1216055633  2.7526158510
H   3.6504074067 -5.1157752196  1.0409206608
H   3.0314792913 -7.3348545471  0.8635048772
H   2.4807310693 -9.8783119109  3.2885174984
H   3.9577711876 -10.0642290121  2.3566690170
H   2.4811220984 -9.4919729384  1.5493041792
H   5.0727921400 -7.7399935608  4.2070347046
H   3.6587962828 -8.5495371437  4.8874808326
H   3.6279557031 -6.7964715202  4.5910541079
84
Scanning combination 138/256: [2.2000, 2.8000]  Energy = -386.2036477324
O   10.6901132259 -5.5700671967  4.9040064838
O   11.6304751454 -0.8544379876  4.3691233384
O   17.8663490926 -3.4464979800 -2.7404549793
O   14.5759757393 -3.0725979911  0.8475663573
C   12.8431164691 -3.7869167631  2.4755752332
C   12.7105716686 -2.4496111817  2.9203948557
C   12.1374082964 -4.8164754249  3.1354055060
C   11.7973678319 -2.1613470392  3.9301589239
C   11.2807743126 -4.5125528651  4.1929788193
C   11.0016385244 -3.1705831422  4.5495751132
C   9.9330515887 -2.6426480317  5.4354087089
C   10.3449442721 -1.8336696661  6.5265555358
C   9.4716047362 -1.1019687288  7.3707889234
C   8.1170761361 -1.1082359860  7.1998280145
C   10.1303802671 -0.2667585724  8.4661179377
C   14.8272837435 -5.0392249084 -0.3467538042
C   15.2907917818 -3.6928790870 -0.2083063669
C   16.2774201661 -3.1453012588 -0.9826548524
C   16.8544491599 -3.9826681726 -1.9632242132
C   16.4140657292 -5.3246322805 -2.1499740176
C   15.4055531101 -5.8468825118 -1.3476049153
C   13.8351791158 -5.2515825388  0.6362570531
C   13.6834910215 -4.0869850878  1.3750517759
H   13.3165483913 -1.6744647772  2.4595161548
H   12.2822784270 -5.8408520876  2.8179409050
H   11.1415910836 -6.4086815605  4.6702397297
H   12.1775412830 -0.2441613275  3.8423897446
H   9.1041519451 -2.2474655803  4.8412371919
H   11.3998116646 -1.8224551527  6.7813043992
H   7.6461394672 -1.5978814831  6.3606846740
H   7.4641126330 -0.4904944896  7.8086008578
H   10.6450198687  0.5936907342  8.0246781328
H   10.8946398328 -0.8505084741  8.9893545512
H   9.3990909836  0.0975711470  9.1927717008
H   16.6339271621 -2.1225830934 -0.8794439101
H   16.8645982571 -5.9461479274 -2.9225841769
H   15.0592781015 -6.8691465130 -1.4826629704
H   13.2803717954 -6.1706967602  0.7503630167
H   18.2158587850 -4.1130006554 -3.3672790668
C   9.9053082422 -4.7449035881  10.8414786228
O   12.1767345887 -5.4720487526  11.3383735026
C   11.2030549960 -5.0917642653  10.4296246169
O   7.6777518623 -4.0363010710  10.2216654335
C   11.5657245612 -5.0645316802  9.0637300822
O   6.0983168159 -3.1987686986  6.0471831731
C   10.6445651486 -4.6772119288  8.1113112489
O   4.4422258736 -4.3976399031  4.4808130937
C   9.3154132974 -4.2984551559  8.4797946031
O   6.2396772047 -6.1531636113  0.3627756438
C   8.9783013875 -4.3660901769  9.8782614203
C   8.3033253811 -3.8749181845  7.5878881927
C   8.3498634458 -3.9771482266  6.1789204642
C   7.0497439418 -3.8206357319  5.4815064650
C   6.8515481780 -4.4300239059  4.1512245470
C   7.9164542403 -4.7406122842  3.2824630393
C   5.5139734045 -4.7071120651  3.6977293855
C   7.6968353726 -5.3204379997  2.0447357566
C   5.2898197688 -5.2963754412  2.4502908111
C   6.3854162333 -5.5953014990  1.6155330910
C   3.8515221499 -5.6037380826  2.0045349554
C   3.4432352466 -7.0724628074  1.8375785961
C   3.4544834411 -8.0189346651  2.8036088621
C   3.0623162905 -9.4359763379  2.4747277055
C   3.9748166073 -7.7582498238  4.1997768612
H   9.6311582952 -4.7760693817  11.8983944286
H   12.5822068229 -5.3513032342  8.8143599426
H   10.9322288452 -4.6351128446  7.0646775470
H   11.8300600677 -5.4482420684  12.2533935976
H   7.5240176834 -4.1481850570  11.1812015003
H   7.3961805355 -3.5414099998  8.0699930415
H   9.0103207991 -4.7187347753  5.7590624423
H   8.9221951818 -4.4746277925  3.5682152972
H   8.5035638549 -5.5715209937  1.3672823827
H   4.8006119431 -3.8472951388  5.2413642981
H   5.3002601553 -6.2626611226  0.1241305788
H   3.2073148260 -5.1241848882  2.7506723020
H   3.6478999122 -5.1155138621  1.0406376841
H   3.0395061727 -7.3388314531  0.8592312101
H   2.4756841321 -9.8750883292  3.2887416642
H   3.9545796572 -10.0665858862  2.3616556914
H   2.4815517861 -9.4915048583  1.5489544288
H   5.0729844316 -7.7408186566  4.2087752204
H   3.6580023760 -8.5480552731  4.8876240493
H   3.6289369852 -6.7954295791  4.5911553577
84
Scanning combination 139/256: [2.2000, 2.7000]  Energy = -386.2000230547
O   10.6841975217 -5.5649569774  4.9095133494
O   11.6140387275 -0.8511924400  4.3375263329
O   17.8587855358 -3.4325612251 -2.7367049943
O   14.5740851652 -3.0827448335  0.8525424367
C   12.8432898978 -3.7987182031  2.4754555578
C   12.7109050399 -2.4570490332  2.9098314811
C   12.1366205224 -4.8256823576  3.1390169894
C   11.7932219813 -2.1616883885  3.9132664853
C   11.2788853924 -4.5140255839  4.1925924928
C   11.0014895384 -3.1697634183  4.5419878734
C   9.9407097374 -2.6413580649  5.4377403294
C   10.3622447461 -1.8264427384  6.5247535294
C   9.4909718036 -1.1114204584  7.3824838756
C   8.1301242981 -1.1705478190  7.2493841466
C   10.1459363313 -0.2587461279  8.4651354398
C   14.8321043208 -5.0471976145 -0.3423592774
C   15.2896840903 -3.6984669508 -0.2030999342
C   16.2712814076 -3.1429487092 -0.9774535114
C   16.8494484411 -3.9749844860 -1.9608127345
C   16.4147160243 -5.3188334481 -2.1493658538
C   15.4113908215 -5.8492852239 -1.3458542589
C   13.8415015188 -5.2652292923  0.6410106507
C   13.6852731351 -4.1005895129  1.3781632546
H   13.3179649672 -1.6873697317  2.4394123995
H   12.2820374899 -5.8551162555  2.8365465522
H   11.1256837504 -6.4094027096  4.6776188959
H   12.1504204157 -0.2372300089  3.8038203016
H   9.1178157056 -2.2290144798  4.8477048365
H   11.4208956205 -1.7934601953  6.7639151085
H   7.6579811727 -1.6630614700  6.4137321044
H   7.4715865187 -0.5983066083  7.8937221669
H   10.6707483658  0.5885976846  8.0112965817
H   10.9009297012 -0.8349034043  9.0114825441
H   9.4097344760  0.1265044125  9.1759972383
H   16.6246480581 -2.1194530774 -0.8696953822
H   16.8670255147 -5.9370742309 -2.9229292396
H   15.0691189528 -6.8729660855 -1.4807744203
H   13.2903744772 -6.1863757194  0.7587771806
H   18.2075600338 -4.0958095807 -3.3671061963
C   9.8992091074 -4.7429040597  10.8350468847
O   12.1691917541 -5.4808339651  11.3233946480
C   11.1940486539 -5.0952742554  10.4180279713
O   7.6765058773 -4.0092326343  10.2218570698
C   11.5537506487 -5.0626361180  9.0517531855
O   6.0903365229 -3.1901922139  6.0397943606
C   10.6327370265 -4.6625895663  8.1042157688
O   4.4412939825 -4.3994153575  4.4779289283
C   9.3055345103 -4.2823451684  8.4767493684
O   6.2489424276 -6.1514258342  0.3628909262
C   8.9725499371 -4.3523386656  9.8747390783
C   8.2975682006 -3.8442448970  7.5857219771
C   8.3437087963 -3.9627640595  6.1750729463
C   7.0438775723 -3.8121094783  5.4773482542
C   6.8499412090 -4.4268846867  4.1499992570
C   7.9171796418 -4.7327282511  3.2829198694
C   5.5137138534 -4.7075727833  3.6960378414
C   7.7005696241 -5.3093451369  2.0436968155
C   5.2929996263 -5.2946901146  2.4473246433
C   6.3904607572 -5.5876623031  1.6131361690
C   3.8565363284 -5.6072486091  2.0012144939
C   3.4526483480 -7.0770804790  1.8337542111
C   3.4557723713 -8.0208649952  2.8024069230
C   3.0578060164 -9.4370339437  2.4772049312
C   3.9741807550 -7.7585850217  4.1987638205
H   9.6272338439 -4.7805187081  11.8923729104
H   12.5655958544 -5.3590380918  8.7965735651
H   10.9194372767 -4.6101006370  7.0581039985
H   11.8268630361 -5.4508906580  12.2397319726
H   7.5170900324 -4.1427910747  11.1774574862
H   7.3909391144 -3.5059095343  8.0677745903
H   8.9991766483 -4.7131403905  5.7629722887
H   8.9218567606 -4.4624449289  3.5689857000
H   8.5083892655 -5.5628744461  1.3688378901
H   4.8001407928 -3.8496048088  5.2396152544
H   5.3101676836 -6.2658341698  0.1238240374
H   3.2102069931 -5.1313492403  2.7480219852
H   3.6538136130 -5.1193315294  1.0371131125
H   3.0562633282 -7.3461696279  0.8533048878
H   2.4642909655 -9.8693883782  3.2898962685
H   3.9476373118 -10.0723832835  2.3721689820
H   2.4820783190 -9.4935820960  1.5483994381
H   5.0723297329 -7.7424528023  4.2086471469
H   3.6546915748 -8.5465949240  4.8874441083
H   3.6290364804 -6.7945129985  4.5874617570
84
Scanning combination 140/256: [2.2000, 2.6000]  Energy = -386.1973553892
O   10.6636748522 -5.5578123839  4.9322622791
O   11.5493116543 -0.8422932970  4.2334605557
O   17.8352378376 -3.3920244845 -2.7442457961
O   14.5665080176 -3.1116062100  0.8641109879
C   12.8339856111 -3.8326940597  2.4798922303
C   12.6791660723 -2.4831587457  2.8794063721
C   12.1313900218 -4.8470767258  3.1656224405
C   11.7497518961 -2.1672989268  3.8660993723
C   11.2626339154 -4.5156512846  4.2068615205
C   10.9744270374 -3.1650623961  4.5325047492
C   9.9267076638 -2.6231015757  5.4454197601
C   10.3728066113 -1.7768606112  6.5062393420
C   9.5367458878 -1.1046782787  7.4288876857
C   8.1725469525 -1.2787499967  7.4337644356
C   10.2219874763 -0.2030715236  8.4511333330
C   14.8564499586 -5.0726076767 -0.3277008630
C   15.2911221213 -3.7162498799 -0.1902828257
C   16.2591946706 -3.1412021774 -0.9686264012
C   16.8434193786 -3.9570968415 -1.9614998471
C   16.4297062100 -5.3071887646 -2.1520980025
C   15.4435578572 -5.8592929957 -1.3405331243
C   13.8714299131 -5.3059887973  0.6613147535
C   13.6909042246 -4.1404285144  1.3931824886
H   13.2843987949 -1.7218760613  2.3946281138
H   12.2869365838 -5.8833154305  2.8924166951
H   11.1029247572 -6.4063539454  4.7116640844
H   12.0456312227 -0.2447891940  3.6443729586
H   9.0947166351 -2.2102881947  4.8700984554
H   11.4420927790 -1.6678267874  6.6700252026
H   7.6429625688 -1.5974712287  6.5451584832
H   7.5692416698 -0.9687302473  8.2803856291
H   10.7887832965  0.5901974223  7.9516216072
H   10.9495882809 -0.7679520287  9.0448909523
H   9.4992736905  0.2650253850  9.1255154390
H   16.5965151059 -2.1127157941 -0.8575489591
H   16.8838930819 -5.9127623889 -2.9349704247
H   15.1203564363 -6.8886102860 -1.4795584936
H   13.3417736918 -6.2389858138  0.7869684849
H   18.1877072180 -4.0438339422 -3.3844879128
C   9.8787689582 -4.7388181803  10.8266040036
O   12.1349992046 -5.5293720252  11.3001144254
C   11.1649329985 -5.1147860976  10.4021401900
O   7.6714054757 -3.9432438595  10.2252753636
C   11.5210016618 -5.0753898811  9.0348595452
O   6.0924003232 -3.1444293349  6.0110484350
C   10.6051950121 -4.6457563709  8.0965602761
O   4.4447886370 -4.3991390394  4.4677249317
C   9.2811077442 -4.2673933305  8.4745868280
O   6.2762957003 -6.1460899182  0.3568481669
C   8.9554147841 -4.3243736923  9.8724951275
C   8.2601332716 -3.8731958927  7.5786871078
C   8.3323138827 -3.9573790988  6.1650009983
C   7.0410480592 -3.7827628749  5.4600948574
C   6.8508138044 -4.3993408486  4.1339800628
C   7.9227092399 -4.6953478731  3.2702836906
C   5.5188468648 -4.6978792386  3.6832105517
C   7.7149937703 -5.2811724857  2.0347128184
C   5.3059907304 -5.2946629791  2.4376198360
C   6.4085231281 -5.5774141958  1.6055776603
C   3.8744448020 -5.6225490363  1.9872210344
C   3.4858614222 -7.0962648620  1.8185294651
C   3.4613461041 -8.0296507602  2.7967207659
C   3.0406534905 -9.4422316849  2.4856578220
C   3.9718819332 -7.7591704665  4.1943124181
H   9.6130493041 -4.7721698905  11.8852393466
H   12.5270001013 -5.3845637390  8.7720437125
H   10.8888672735 -4.5625360596  7.0524141479
H   11.8040175169 -5.4796747990  12.2196979498
H   7.5049345322 -4.0897998613  11.1774378202
H   7.3185905546 -3.6172003052  8.0457145982
H   8.9886867350 -4.6984002292  5.7387376988
H   8.9230677844 -4.4093793282  3.5561066284
H   8.5271845029 -5.5278951743  1.3627220720
H   4.7985378945 -3.8342364854  5.2200841120
H   5.3396369646 -6.2763684825  0.1186489853
H   3.2213123769 -5.1525756859  2.7319273991
H   3.6721157856 -5.1369439408  1.0218966555
H   3.1258989994 -7.3780388507  0.8277730989
H   2.4195243546 -9.8467359761  3.2919889260
H   3.9183464572 -10.0984216002  2.4140012690
H   2.4850853031 -9.5037373328  1.5450667035
H   5.0699120228 -7.7437886089  4.2104310830
H   3.6459983381 -8.5423290725  4.8852715324
H   3.6266339726 -6.7916955984  4.5745560505
84
Scanning combination 141/256: [2.2000, 2.5000]  Energy = -386.1930421587
O   10.6638087850 -5.5589424356  4.9358127404
O   11.5342509498 -0.8434020816  4.2289818019
O   17.8303881231 -3.3902511597 -2.7429157364
O   14.5637572793 -3.1106393185  0.8671851512
C   12.8284805766 -3.8323904646  2.4793922334
C   12.6715227927 -2.4819733775  2.8762165770
C   12.1280526493 -4.8479563638  3.1665707270
C   11.7439978723 -2.1672115018  3.8631389457
C   11.2620960617 -4.5169073820  4.2092944886
C   10.9744842294 -3.1655218164  4.5320655224
C   9.9338080550 -2.6161164682  5.4403522807
C   10.3825513758 -1.7816575796  6.5062236166
C   9.5452907424 -1.1258001803  7.4335245290
C   8.1791570510 -1.3399589009  7.4477249511
C   10.2252507703 -0.2093449189  8.4426487967
C   14.8561459323 -5.0725045859 -0.3228180964
C   15.2890427041 -3.7155727270 -0.1865902204
C   16.2561892202 -3.1399927683 -0.9659171966
C   16.8402879240 -3.9561556189 -1.9586950270
C   16.4282974923 -5.3067950500 -2.1479968111
C   15.4433859650 -5.8597726003 -1.3351511005
C   13.8718715252 -5.3062601787  0.6663713878
C   13.6887338240 -4.1400431918  1.3960256800
H   13.2755949116 -1.7188033543  2.3936312042
H   12.2845002350 -5.8850345062  2.8967861229
H   11.1050036660 -6.4069503856  4.7168749085
H   12.0291229622 -0.2429898334  3.6425557540
H   9.0972576316 -2.2011503497  4.8727706126
H   11.4513823066 -1.6668421152  6.6647141447
H   7.6434726702 -1.6222715703  6.5501214754
H   7.5754311526 -0.9816402445  8.2757026917
H   10.7962043218  0.5758110704  7.9336969630
H   10.9505767494 -0.7658824795  9.0452899941
H   9.5056543734  0.2578219884  9.1201237841
H   16.5925755889 -2.1113216687 -0.8562304473
H   16.8823704666 -5.9118598394 -2.9309631802
H   15.1219582356 -6.8895832459 -1.4733244981
H   13.3436683463 -6.2398180091  0.7938104935
H   18.1829315467 -4.0416931760 -3.3834429387
C   9.8784287983 -4.7350115890  10.8257046367
O   12.1314686809 -5.5323456708  11.2995902342
C   11.1647733184 -5.1094149910  10.4022019039
O   7.6646493934 -3.9633207731  10.2253496356
C   11.5218154327 -5.0716558372  9.0359162658
O   6.0865238384 -3.1449131148  6.0074800837
C   10.6056063434 -4.6417457710  8.0956982334
O   4.4457013299 -4.3962173612  4.4621079650
C   9.2831978591 -4.2580429138  8.4748721998
O   6.2760332142 -6.1481229523  0.3536861883
C   8.9543983965 -4.3243069417  9.8709562422
C   8.2668686522 -3.8348437491  7.5807155936
C   8.3304658649 -3.9375765456  6.1636933357
C   7.0403707987 -3.7767809218  5.4569599003
C   6.8530085128 -4.3964529226  4.1302784368
C   7.9244937475 -4.6917823135  3.2649014544
C   5.5207562656 -4.6956724319  3.6791289516
C   7.7160829158 -5.2801814621  2.0296567779
C   5.3075334671 -5.2944632208  2.4342645171
C   6.4094238286 -5.5783770414  1.6019849718
C   3.8753831808 -5.6232945494  1.9855560242
C   3.4874962381 -7.0972714385  1.8171882500
C   3.4618561916 -8.0295511806  2.7964857316
C   3.0395896408 -9.4420393900  2.4865949040
C   3.9721239016 -7.7586726235  4.1943757031
H   9.6107808957 -4.7706178213  11.8830675989
H   12.5260074869 -5.3843599071  8.7738686037
H   10.8920721197 -4.5672041926  7.0523180663
H   11.8010414447 -5.4860330677  12.2195398392
H   7.5145761837 -4.0780152988  11.1844667121
H   7.3258248905 -3.5923946653  8.0534722923
H   8.9889563342 -4.6820223690  5.7514645353
H   8.9255852709 -4.4054141427  3.5478655499
H   8.5277940078 -5.5260315012  1.3564708241
H   4.7973751778 -3.8312243776  5.2155695563
H   5.3392183579 -6.2777738008  0.1156671496
H   3.2240442753 -5.1540585857  2.7323383871
H   3.6709180093 -5.1372834383  1.0208228334
H   3.1316090728 -7.3810053054  0.8253044655
H   2.4157219469 -9.8441481174  3.2921095747
H   3.9162540901 -10.0999897655  2.4177127923
H   2.4861370841 -9.5030682615  1.5447507767
H   5.0701340508 -7.7428690914  4.2117277462
H   3.6463080764 -8.5415494214  4.8857889927
H   3.6267678040 -6.7912935595  4.5747452907
84
Scanning combination 142/256: [2.2000, 2.4000]  Energy = -386.1889685389
O   10.6640523178 -5.5556876421  4.9392120032
O   11.5275806718 -0.8421036147  4.2203328040
O   17.8267635808 -3.3881026100 -2.7421573666
O   14.5610015795 -3.1104957728  0.8671879420
C   12.8291243293 -3.8325152054  2.4798831665
C   12.6707749127 -2.4807181994  2.8718272148
C   12.1293913804 -4.8487543695  3.1669171688
C   11.7404367627 -2.1656794055  3.8550664777
C   11.2615133467 -4.5169539788  4.2071388028
C   10.9727481528 -3.1655124941  4.5245768207
C   9.9389921657 -2.6173809491  5.4369446669
C   10.3931072019 -1.7832531744  6.5045785347
C   9.5540007193 -1.1432196882  7.4377493543
C   8.1916110334 -1.3926716046  7.4666690759
C   10.2247009072 -0.2187836453  8.4423834119
C   14.8568740961 -5.0733663889 -0.3192129215
C   15.2878162134 -3.7157439732 -0.1843779306
C   16.2539922759 -3.1387428580 -0.9642586367
C   16.8380732026 -3.9548858942 -1.9569231666
C   16.4276530131 -5.3062538935 -2.1450140085
C   15.4444856403 -5.8602579049 -1.3309868221
C   13.8720867291 -5.3077777354  0.6689737850
C   13.6877546298 -4.1406349084  1.3965209481
H   13.2720935481 -1.7178042352  2.3848396329
H   12.2856428021 -5.8854198855  2.8957704646
H   11.1027948644 -6.4053775164  4.7216100012
H   12.0182705394 -0.2391486204  3.6327430746
H   9.1108104729 -2.1917094283  4.8657036698
H   11.4627011938 -1.6620230859  6.6571036492
H   7.6517950762 -1.6528159868  6.5625706531
H   7.5906722047 -1.0411763069  8.3007329305
H   10.7873310340  0.5623349125  7.9228756916
H   10.9564757521 -0.7690648363  9.0449413366
H   9.5005543880  0.2639437655  9.1047446357
H   16.5885447634 -2.1096146365 -0.8544443040
H   16.8815596063 -5.9118613548 -2.9277523727
H   15.1233488644 -6.8903354544 -1.4671472183
H   13.3457450408 -6.2421571091  0.7986951050
H   18.1787004591 -4.0399615600 -3.3827594218
C   9.8765953423 -4.7383060831  10.8262445257
O   12.1317411099 -5.5311582588  11.2990123292
C   11.1621574326 -5.1140032665  10.4016382692
O   7.6615644959 -3.9674586370  10.2239963779
C   11.5158741693 -5.0719427280  9.0345830685
O   6.0825473075 -3.1434352699  6.0058143440
C   10.6013297614 -4.6297033291  8.0992094936
O   4.4458852919 -4.3950017019  4.4581534960
C   9.2836458748 -4.2367014607  8.4797717983
O   6.2781570280 -6.1490193949  0.3530012165
C   8.9544173141 -4.3174107760  9.8729787401
C   8.2718596436 -3.7884007605  7.5844782625
C   8.3272955687 -3.9267886958  6.1636293499
C   7.0386062976 -3.7737832512  5.4568645752
C   6.8532221595 -4.3943381532  4.1295896469
C   7.9247967921 -4.6891023880  3.2644855946
C   5.5216041431 -4.6947296350  3.6770634663
C   7.7165251036 -5.2771209470  2.0289553404
C   5.3088260549 -5.2942384590  2.4325047344
C   6.4106872697 -5.5770168106  1.6003447534
C   3.8769869769 -5.6242913100  1.9843293064
C   3.4910070919 -7.0984751007  1.8165826816
C   3.4627342801 -8.0296080924  2.7965620577
C   3.0384390509 -9.4415982392  2.4875023414
C   3.9722992344 -7.7577683347  4.1943598667
H   9.6109970722 -4.7709447145  11.8843843960
H   12.5213751944 -5.3824117432  8.7708631580
H   10.8837445574 -4.5606819714  7.0541653140
H   11.7974738299 -5.4906567966  12.2176714674
H   7.5138308935 -4.0716573549  11.1844856674
H   7.3220876463 -3.5551209091  8.0492420347
H   8.9812542722 -4.6819723830  5.7609403297
H   8.9262405068 -4.4018866085  3.5460487118
H   8.5276873648 -5.5231086499  1.3553671353
H   4.7987457591 -3.8292389174  5.2110571888
H   5.3412892574 -6.2782239023  0.1144297623
H   3.2247385820 -5.1561252346  2.7308557802
H   3.6711072305 -5.1381878097  1.0200474830
H   3.1367441910 -7.3831611965  0.8246607761
H   2.4123524910 -9.8417500360  3.2921427450
H   3.9141166762 -10.1010115913  2.4215061822
H   2.4867582940 -9.5035586323  1.5446180692
H   5.0703300167 -7.7419006354  4.2111634558
H   3.6460712451 -8.5408466162  4.8852548727
H   3.6264080635 -6.7902609945  4.5741629814
84
Scanning combination 143/256: [2.2000, 2.3000]  Energy = -386.1881779428
O   10.6774253907 -5.5444190915  4.9658786033
O   11.4045407711 -0.8323915387  4.1038164175
O   17.7992421631 -3.3716691251 -2.7624271852
O   14.5408386737 -3.1143044599  0.8547981593
C   12.8089334896 -3.8378084762  2.4663102016
C   12.6088806277 -2.4794269823  2.8159534991
C   12.1334986082 -4.8508835254  3.1814693521
C   11.6698930046 -2.1602586150  3.7905824408
C   11.2602303480 -4.5110838290  4.2157534718
C   10.9438818852 -3.1593351652  4.5041336581
C   9.9147612739 -2.6089871147  5.4260558740
C   10.3809357840 -1.7645598658  6.4856200506
C   9.5873299189 -1.1813943177  7.4878287713
C   8.2493784461 -1.5372088236  7.6715280694
C   10.2893441052 -0.2083354761  8.4224635765
C   14.8813445096 -5.0899759610 -0.2984398908
C   15.2829942831 -3.7211405050 -0.1851917282
C   16.2358813472 -3.1359807365 -0.9740819287
C   16.8300841520 -3.9507184418 -1.9617510209
C   16.4471448926 -5.3126396891 -2.1306621782
C   15.4818386674 -5.8773638582 -1.3027983856
C   13.9015761274 -5.3292210454  0.6946786198
C   13.6853591878 -4.1523501975  1.3981373802
H   13.1887140717 -1.7157154939  2.3050558427
H   12.3106683336 -5.8910462186  2.9368435237
H   11.1228337963 -6.3927066964  4.7579576027
H   11.8607275186 -0.2353329313  3.4829559001
H   9.0890497059 -2.1735512884  4.8600348730
H   11.4495669838 -1.5712520534  6.5667870569
H   7.5670367832 -1.6163830302  6.8276619335
H   7.7995899259 -1.4089596801  8.6511636177
H   10.8665083633  0.5166381390  7.8392046820
H   11.0122207340 -0.7265910965  9.0646365276
H   9.5802869594  0.3289145049  9.0586187541
H   16.5522911439 -2.0994876471 -0.8763330206
H   16.9080929791 -5.9165933163 -2.9107108079
H   15.1852535939 -6.9169036202 -1.4234919224
H   13.3979394351 -6.2733642106  0.8417854758
H   18.1545296578 -4.0195469988 -3.4048787778
C   9.8461292283 -4.7300490283  10.8291159739
O   12.0822548872 -5.5724994401  11.3061927283
C   11.1291015495 -5.1199588590  10.4080645156
O   7.6633730144 -3.8691240381  10.2188347348
C   11.4988931214 -5.0612524017  9.0455253455
O   6.1032211616 -3.0803454544  5.9670428264
C   10.5870675222 -4.6235114239  8.1053202578
O   4.4578720030 -4.3610790327  4.4309286534
C   9.2632175307 -4.2620532789  8.4788821994
O   6.3036532371 -6.1460900214  0.3416766546
C   8.9359548358 -4.2960771164  9.8716537506
C   8.2458442234 -3.8351464501  7.5750190202
C   8.3189676737 -3.9398550663  6.1488410962
C   7.0473648647 -3.7400001014  5.4316902428
C   6.8632598032 -4.3602364938  4.1034935418
C   7.9383647960 -4.6617800712  3.2447603567
C   5.5345412002 -4.6676945253  3.6526395212
C   7.7348896471 -5.2540103289  2.0110686767
C   5.3266764742 -5.2837898769  2.4151219678
C   6.4310742946 -5.5641685119  1.5848521717
C   3.8989495823 -5.6313817109  1.9683939997
C   3.5283935023 -7.1099293433  1.8040002751
C   3.4744105914 -8.0288443199  2.7945858833
C   3.0258062212 -9.4367278816  2.5020554053
C   3.9766384051 -7.7455939455  4.1928865986
H   9.5688433890 -4.7761960711  11.8840075202
H   12.5072999835 -5.3662934637  8.7869389528
H   10.8736389893 -4.5327845497  7.0629258486
H   11.7373356975 -5.5516110448  12.2214667036
H   7.5091099017 -3.9630349944  11.1792963409
H   7.2739480554 -3.6811849321  8.0324114057
H   8.9764315007 -4.6819877978  5.7318617833
H   8.9392864859 -4.3782143990  3.5299907429
H   8.5476028683 -5.4963114846  1.3378718806
H   4.8077078047 -3.7809119910  5.1731755572
H   5.3684969173 -6.2804333963  0.1005830315
H   3.2435041956 -5.1678354732  2.7149572531
H   3.6892799285 -5.1498828031  1.0024982494
H   3.2118881913 -7.4103055896  0.8039617568
H   2.3673557932 -9.8038244248  3.2966223489
H   3.8859989188 -10.1186981035  2.4769601551
H   2.4996172117 -9.5060943613  1.5454013652
H   5.0743602514 -7.7230981576  4.2151119116
H   3.6500094635 -8.5255967785  4.8869120516
H   3.6254509924 -6.7769598464  4.5654337416
84
Scanning combination 144/256: [2.2000, 2.2000]  Energy = -386.1881502863
O   10.6790519972 -5.5442139180  4.9669785767
O   11.3978873429 -0.8320338245  4.0998174188
O   17.7970542783 -3.3708433127 -2.7617826795
O   14.5381829794 -3.1123095253  0.8535473034
C   12.8087811084 -3.8358847827  2.4665052942
C   12.6059305306 -2.4771038407  2.8125522735
C   12.1344186544 -4.8499250389  3.1813715944
C   11.6676851512 -2.1589382146  3.7870457847
C   11.2614253993 -4.5112714479  4.2152012471
C   10.9447414441 -3.1592181085  4.5004702643
C   9.9194804626 -2.6080399029  5.4196178019
C   10.3875645233 -1.7726608535  6.4865362923
C   9.5936297628 -1.2005635370  7.4893356634
C   8.2510226501 -1.5773793152  7.6715079980
C   10.2830064636 -0.2167967497  8.4169682659
C   14.8810196231 -5.0896426557 -0.2959544816
C   15.2813693446 -3.7201680662 -0.1848426049
C   16.2328643984 -3.1345608475 -0.9745770530
C   16.8277360500 -3.9496401488 -1.9611296758
C   16.4469649516 -5.3126887144 -2.1274740146
C   15.4829863516 -5.8779826804 -1.2983700161
C   13.9011141709 -5.3283335913  0.6968419754
C   13.6852421160 -4.1508534686  1.3992609823
H   13.1834746732 -1.7126209515  2.3008773745
H   12.3143939371 -5.8896155635  2.9381937712
H   11.1230691217 -6.3933147438  4.7589307091
H   11.8525349318 -0.2343123086  3.4786698925
H   9.0880098078 -2.1749722807  4.8592653954
H   11.4560112120 -1.5746610610  6.5620067518
H   7.5708515423 -1.5966743985  6.8201907402
H   7.7945325919 -1.4235974404  8.6458031989
H   10.8595441561  0.5125567981  7.8394041307
H   11.0073637697 -0.7313573919  9.0583632367
H   9.5732354413  0.3189306475  9.0525384197
H   16.5486545341 -2.0977402373 -0.8771866693
H   16.9083447552 -5.9176885010 -2.9062444822
H   15.1866798048 -6.9177651076 -1.4175066672
H   13.3992820554 -6.2731154047  0.8463007032
H   18.1515959265 -4.0196039638 -3.4034806692
C   9.8442920882 -4.7386109501  10.8306011973
O   12.0839033177 -5.5707019613  11.3081279286
C   11.1275789817 -5.1254718336  10.4096187914
O   7.6642420874 -3.8699968436  10.2208788050
C   11.4965203447 -5.0677329020  9.0475810061
O   6.1011612469 -3.0834348096  5.9678419096
C   10.5871865368 -4.6212897919  8.1080781430
O   4.4583878118 -4.3572285538  4.4275801043
C   9.2713799004 -4.2427366744  8.4843422332
O   6.3041942750 -6.1458905662  0.3399712511
C   8.9378860932 -4.2951470325  9.8734659529
C   8.2631583527 -3.7753494928  7.5786078578
C   8.3201422893 -3.9323629609  6.1465779399
C   7.0482761461 -3.7418130744  5.4330674198
C   6.8639960894 -4.3621859141  4.1039718767
C   7.9384851922 -4.6615345499  3.2441158376
C   5.5353138428 -4.6661282023  3.6507655694
C   7.7351433863 -5.2535989725  2.0099935942
C   5.3269573671 -5.2824990732  2.4131501151
C   6.4315192058 -5.5645270940  1.5835556429
C   3.8987734453 -5.6305300404  1.9675187250
C   3.5291608127 -7.1093634217  1.8034632254
C   3.4749164934 -8.0276085100  2.7949128979
C   3.0255881496 -9.4355362587  2.5033773049
C   3.9772554857 -7.7437303961  4.1931841446
H   9.5706701263 -4.7743223714  11.8868054790
H   12.5048229311 -5.3692386405  8.7881779688
H   10.8747555238 -4.5362430429  7.0654649729
H   11.7377022393 -5.5553858729  12.2226582826
H   7.5126599259 -3.9568722546  11.1823794905
H   7.2790896716 -3.6876772102  8.0305902979
H   8.9677627903 -4.6900115123  5.7430396519
H   8.9394744088 -4.3792446858  3.5303944165
H   8.5481469467 -5.4955338627  1.3371199026
H   4.8082388096 -3.7784523886  5.1711910701
H   5.3688466987 -6.2792030135  0.0990861852
H   3.2425408021 -5.1679078818  2.7140856178
H   3.6881501582 -5.1491419151  1.0018221790
H   3.2149156975 -7.4110395959  0.8030998634
H   2.3654231567 -9.8010188133  3.2974138799
H   3.8853814581 -10.1181738781  2.4803017527
H   2.5009794381 -9.5051509904  1.5458670110
H   5.0749813033 -7.7213588096  4.2154147441
H   3.6506372105 -8.5233650199  4.8877866488
H   3.6263972984 -6.7748396893  4.5653791040
84
Scanning combination 145/256: [2.2000, 2.1000]  Energy = -386.1904324289
O   10.6811885232 -5.5398296503  4.9681046983
O   11.3904058066 -0.8312157659  4.0913229913
O   17.7940918046 -3.3706275142 -2.7629619228
O   14.5357323152 -3.1099705119  0.8512292130
C   12.8090780807 -3.8345336004  2.4640427808
C   12.6040583421 -2.4746011077  2.8059696998
C   12.1388994558 -4.8501988123  3.1807955778
C   11.6651336379 -2.1573083512  3.7792246569
C   11.2648985622 -4.5105446589  4.2127677020
C   10.9460521371 -3.1595572713  4.4942432192
C   9.9247258932 -2.6125031637  5.4146536169
C   10.3964991850 -1.7750060764  6.4824042500
C   9.6036421469 -1.2183095120  7.4854598993
C   8.2560598883 -1.6232976238  7.6706945282
C   10.2744215162 -0.2305987851  8.4142328342
C   14.8820553759 -5.0892142796 -0.2939293002
C   15.2794686935 -3.7185201048 -0.1856779858
C   16.2304416919 -3.1330029622 -0.9757907621
C   16.8266547958 -3.9495397532 -1.9602838268
C   16.4478033141 -5.3134062996 -2.1244645181
C   15.4843776561 -5.8785616106 -1.2946774084
C   13.9035936794 -5.3284189664  0.6994695869
C   13.6852587614 -4.1493653012  1.3980258834
H   13.1796841292 -1.7098650692  2.2918304126
H   12.3209859354 -5.8902903909  2.9390724892
H   11.1227413141 -6.3899988406  4.7595083195
H   11.8419567912 -0.2302532201  3.4711723560
H   9.1016176258 -2.1680497467  4.8523555420
H   11.4652507103 -1.5715749129  6.5519912817
H   7.5681287543 -1.5399912972  6.8296920367
H   7.8133354038 -1.4499431554  8.6480744684
H   10.8400380030  0.4991878705  7.8270120534
H   11.0027396461 -0.7308950560  9.0650463815
H   9.5507100011  0.2963754567  9.0418443968
H   16.5435887466 -2.0952603541 -0.8800944240
H   16.9105049722 -5.9189778120 -2.9017915336
H   15.1905913805 -6.9194324726 -1.4102178618
H   13.4023072137 -6.2731585308  0.8506649056
H   18.1498041366 -4.0195443357 -3.4038481694
C   9.8470378988 -4.7371761314  10.8336965190
O   12.0839372841 -5.5772949667  11.3105056603
C   11.1286628312 -5.1284444689  10.4117643815
O   7.6668973141 -3.8660952715  10.2242270175
C   11.4941750202 -5.0704507403  9.0493749468
O   6.0988581356 -3.0866118751  5.9669636307
C   10.5853048602 -4.6129534025  8.1135260721
O   4.4580448617 -4.3534548978  4.4240676794
C   9.2758326418 -4.2227970525  8.4921753115
O   6.3048636973 -6.1448016788  0.3389540443
C   8.9423090532 -4.2853319792  9.8773151177
C   8.2656887541 -3.7215514222  7.5864586331
C   8.3176172164 -3.9257967636  6.1444801838
C   7.0480104815 -3.7442432679  5.4329498649
C   6.8641886772 -4.3647337382  4.1041251563
C   7.9391697960 -4.6646850756  3.2452473313
C   5.5353434102 -4.6655765348  3.6496183477
C   7.7357565748 -5.2537338326  2.0093317800
C   5.3274836872 -5.2811835991  2.4114567072
C   6.4321185197 -5.5629752395  1.5822075506
C   3.8997118584 -5.6296555742  1.9659952395
C   3.5309714943 -7.1086300171  1.8027971254
C   3.4758607500 -8.0258854805  2.7953717756
C   3.0252855752 -9.4337491961  2.5051446683
C   3.9781813368 -7.7408229081  4.1934008497
H   9.5692698984 -4.7833423887  11.8875105327
H   12.4998111125 -5.3825829108  8.7883087415
H   10.8730232276 -4.5351689903  7.0698446269
H   11.7381346386 -5.5610794496  12.2256224901
H   7.5162768558 -3.9528938939  11.1854331382
H   7.2722232581 -3.7052224489  8.0329903479
H   8.9514267244 -4.7088896081  5.7712629233
H   8.9397555531 -4.3829335309  3.5322755439
H   8.5484594836 -5.4945175275  1.3358280773
H   4.8101271397 -3.7759906160  5.1685258497
H   5.3696557574 -6.2773761961  0.0968346905
H   3.2445373588 -5.1669063481  2.7133385878
H   3.6882805551 -5.1487516678  1.0002286357
H   3.2186906660 -7.4120735737  0.8024713964
H   2.3630584671 -9.7970917631  3.2984553644
H   3.8842848373 -10.1174572504  2.4854054971
H   2.5025267091 -9.5044592100  1.5466671818
H   5.0759258362 -7.7189611181  4.2153607982
H   3.6511037782 -8.5200471325  4.8883315008
H   3.6273240128 -6.7716180900  4.5649625107
84
Scanning combination 146/256: [2.2000, 2.0000]  Energy = -386.1947315927
O   10.6820410001 -5.5398439857  4.9686338519
O   11.3876074989 -0.8311457129  4.0880820639
O   17.7941856315 -3.3700116309 -2.7636856911
O   14.5354615582 -3.1097822746  0.8493926521
C   12.8098119298 -3.8341603107  2.4635645326
C   12.6030911926 -2.4742733374  2.8037483814
C   12.1396714109 -4.8496942509  3.1805884117
C   11.6650672630 -2.1567855100  3.7767857142
C   11.2661166556 -4.5109596977  4.2122781395
C   10.9474012021 -3.1590927668  4.4920439320
C   9.9273365912 -2.6109371732  5.4079171693
C   10.4000333972 -1.7794513103  6.4829930877
C   9.6112476987 -1.2338829394  7.4885538170
C   8.2580713828 -1.6683421342  7.6785703071
C   10.2673239426 -0.2345295174  8.4084507786
C   14.8829865451 -5.0895810352 -0.2941241625
C   15.2799831885 -3.7187998188 -0.1866351906
C   16.2300780352 -3.1325543313 -0.9772538745
C   16.8264407717 -3.9490830647 -1.9616108840
C   16.4488934223 -5.3135722853 -2.1241043982
C   15.4865888167 -5.8792547526 -1.2936968014
C   13.9039868121 -5.3283049430  0.6989837047
C   13.6861563691 -4.1493460148  1.3977692532
H   13.1779966509 -1.7096406966  2.2892965108
H   12.3234135325 -5.8892791157  2.9398384543
H   11.1225078324 -6.3907506346  4.7600176786
H   11.8396220591 -0.2310314990  3.4673408046
H   9.0999530659 -2.1693134546  4.8495660536
H   11.4663790371 -1.5687146684  6.5463768945
H   7.5701262902 -1.5308511956  6.8439976186
H   7.8189631862 -1.4604154700  8.6504091960
H   10.8365452687  0.5012000009  7.8317993105
H   10.9966382343 -0.7291340285  9.0610291786
H   9.5448474300  0.2928878730  9.0375669199
H   16.5427330420 -2.0947185109 -0.8817538829
H   16.9115908820 -5.9197222833 -2.9010981232
H   15.1920524978 -6.9200488785 -1.4089635941
H   13.4041086688 -6.2735874351  0.8514051473
H   18.1493164316 -4.0199088508 -3.4041241298
C   9.8450458114 -4.7400203645  10.8338766468
O   12.0827081720 -5.5792051046  11.3086784209
C   11.1265329162 -5.1285830336  10.4118040250
O   7.6666376049 -3.8626794803  10.2269832663
C   11.4907533501 -5.0717989921  9.0492483350
O   6.0991065794 -3.0858092315  5.9660517880
C   10.5806619082 -4.6109014626  8.1141212931
O   4.4589713572 -4.3528492867  4.4232986767
C   9.2796284680 -4.2106044336  8.4974387014
O   6.3054340343 -6.1442592341  0.3377318480
C   8.9415518909 -4.2838349058  9.8773226995
C   8.2718373516 -3.6662765384  7.5895039932
C   8.3160772872 -3.9178155167  6.1401040627
C   7.0487366569 -3.7448762446  5.4335608403
C   6.8649571952 -4.3663135316  4.1042506127
C   7.9395562136 -4.6647168773  3.2449780214
C   5.5361817392 -4.6651295812  3.6489478020
C   7.7362459303 -5.2539376948  2.0092113616
C   5.3279724304 -5.2809599256  2.4108219768
C   6.4326623828 -5.5636435464  1.5817315205
C   3.8998093606 -5.6294007317  1.9655164354
C   3.5311630510 -7.1086201875  1.8027448466
C   3.4759419516 -8.0253395871  2.7952742384
C   3.0252317634 -9.4332578398  2.5058649592
C   3.9782978056 -7.7401773665  4.1933813485
H   9.5690443762 -4.7849342448  11.8890586390
H   12.4950681614 -5.3847180604  8.7866344858
H   10.8704404191 -4.5322232587  7.0703674391
H   11.7382645471 -5.5624760185  12.2244746941
H   7.5168016453 -3.9519386876  11.1883131763
H   7.2749147669 -3.7172149856  8.0307052876
H   8.9451668036 -4.7107008219  5.7845828797
H   8.9400679992 -4.3852752446  3.5350536682
H   8.5491896058 -5.4943341987  1.3358178331
H   4.8102301985 -3.7752585902  5.1682699870
H   5.3700042553 -6.2765460814  0.0963752316
H   3.2437879969 -5.1667904264  2.7123359186
H   3.6883843552 -5.1485293010  0.9997194397
H   3.2197282174 -7.4121932506  0.8019820798
H   2.3622499431 -9.7957589052  3.2989130661
H   3.8839836236 -10.1173115755  2.4868806134
H   2.5031745198 -9.5041989204  1.5470594058
H   5.0760299919 -7.7181341075  4.2156155209
H   3.6513837961 -8.5189725848  4.8887143289
H   3.6277387678 -6.7708641276  4.5647118385
84
Scanning combination 147/256: [2.2000, 1.9000]  Energy = -386.2010515924
O   10.6833272015 -5.5356307186  4.9699395087
O   11.3836148265 -0.8309050905  4.0775093239
O   17.7934849057 -3.3702370307 -2.7665723993
O   14.5351331233 -3.1091363292  0.8463583008
C   12.8115199474 -3.8346043506  2.4605278871
C   12.6040298111 -2.4735814155  2.7970260061
C   12.1441540298 -4.8506823887  3.1801544990
C   11.6648416730 -2.1561508548  3.7679821114
C   11.2687314219 -4.5102834801  4.2098390810
C   10.9490010566 -3.1585587857  4.4850379564
C   9.9319565033 -2.6093380199  5.4007432830
C   10.4078146970 -1.7752953863  6.4764244395
C   9.6243268806 -1.2470926472  7.4867213007
C   8.2672497890 -1.7172196423  7.6904757178
C   10.2592386527 -0.2426408987  8.4073939639
C   14.8856269415 -5.0900061067 -0.2943617217
C   15.2799519242 -3.7181191168 -0.1891008104
C   16.2293150162 -3.1319087381 -0.9803325964
C   16.8272227598 -3.9495443143 -1.9630055643
C   16.4513698029 -5.3145756480 -2.1239084647
C   15.4895187726 -5.8801376314 -1.2931146994
C   13.9077267294 -5.3294461186  0.6993023006
C   13.6874478131 -4.1495858925  1.3952061764
H   13.1766890273 -1.7082286878  2.2804115633
H   12.3296192271 -5.8907917546  2.9409939310
H   11.1212236296 -6.3876267758  4.7600743756
H   11.8337203747 -0.2287716610  3.4574076894
H   9.1102796977 -2.1629596352  4.8385824351
H   11.4757966886 -1.5602699006  6.5301437544
H   7.5721515514 -1.5124128955  6.8765327519
H   7.8454192057 -1.4972580664  8.6678612434
H   10.8178404429  0.4958624912  7.8240192633
H   10.9905496195 -0.7251997302  9.0689851658
H   9.5197412865  0.2743940405  9.0250263901
H   16.5404437112 -2.0934418289 -0.8861978783
H   16.9153109262 -5.9209534074 -2.8999770208
H   15.1973822254 -6.9218127415 -1.4061182444
H   13.4080298091 -6.2746659961  0.8526638020
H   18.1500223763 -4.0199437117 -3.4064890476
C   9.8427227147 -4.7410732890  10.8351562046
O   12.0800047126 -5.5848856032  11.3051767868
C   11.1213195285 -5.1344632259  10.4100728191
O   7.6651968039 -3.8553725683  10.2309687550
C   11.4838359881 -5.0740495752  9.0476523766
O   6.0941353656 -3.0853449735  5.9644352653
C   10.5745453066 -4.5980204759  8.1170037115
O   4.4595043874 -4.3516384827  4.4215587582
C   9.2805910102 -4.1922139180  8.5062376521
O   6.3064699241 -6.1427393334  0.3367916966
C   8.9419877912 -4.2706997846  9.8809201630
C   8.2661544567 -3.6150410782  7.6002339216
C   8.3133946662 -3.9021149948  6.1418036512
C   7.0489291995 -3.7416507468  5.4349305413
C   6.8659277819 -4.3679025258  4.1058078236
C   7.9403793647 -4.6688848609  3.2475004785
C   5.5369189771 -4.6658823013  3.6490922913
C   7.7375335105 -5.2547677414  2.0095894258
C   5.3290325106 -5.2804946587  2.4099860119
C   6.4337163132 -5.5623039362  1.5808039998
C   3.9010039117 -5.6288551391  1.9641991904
C   3.5324866646 -7.1082011091  1.8023037873
C   3.4766305355 -8.0240549058  2.7954785559
C   3.0249705571 -9.4320174242  2.5072168462
C   3.9788793693 -7.7380613119  4.1935482899
H   9.5658270150 -4.7918770426  11.8893372340
H   12.4847617916 -5.3927606486  8.7814598995
H   10.8603259615 -4.5256721715  7.0720850430
H   11.7380999409 -5.5660203325  12.2221071231
H   7.5161841136 -3.9495741107  11.1914912385
H   7.2702043098 -3.7377735841  8.0325443804
H   8.9339500024 -4.7151850964  5.8217158529
H   8.9409566097 -4.3921616943  3.5397711410
H   8.5506367773 -5.4941724404  1.3355550201
H   4.8135046625 -3.7741093553  5.1665836134
H   5.3711787864 -6.2748592241  0.0945436678
H   3.2452018173 -5.1659585652  2.7109920694
H   3.6894470614 -5.1484576203  0.9982021820
H   3.2219907822 -7.4127137469  0.8015416389
H   2.3605262214 -9.7928382758  3.2997912318
H   3.8830946471 -10.1168971356  2.4908492267
H   2.5042425084 -9.5039386590  1.5477004890
H   5.0766477073 -7.7163823641  4.2156668761
H   3.6516702175 -8.5164854449  4.8891498939
H   3.6281874564 -6.7684685579  4.5642602472
84
Scanning combination 148/256: [2.2000, 1.8000]  Energy = -386.2080227133
O   10.6873570349 -5.5259790766  4.9717740085
O   11.3736381982 -0.8275759503  4.0479379447
O   17.7943324280 -3.3697849775 -2.7757349001
O   14.5362572919 -3.1103205605  0.8364288875
C   12.8164045278 -3.8361487507  2.4533977460
C   12.6031666836 -2.4737598988  2.7799900296
C   12.1531364607 -4.8509479871  3.1797380426
C   11.6609640999 -2.1535244765  3.7478477695
C   11.2737414286 -4.5062526593  4.2052654629
C   10.9488417243 -3.1547206914  4.4714002468
C   9.9310147952 -2.6072740468  5.3876988593
C   10.4083850646 -1.7730555752  6.4684553404
C   9.6362725631 -1.2714437395  7.4925225559
C   8.2835716659 -1.7825481020  7.7290499215
C   10.2419751920 -0.2476532971  8.4051028751
C   14.8939966977 -5.0932425520 -0.2976139110
C   15.2825569734 -3.7196306240 -0.1970426774
C   16.2293810274 -3.1312631114 -0.9906689758
C   16.8303764878 -3.9503236267 -1.9704025650
C   16.4603372447 -5.3174297763 -2.1261905353
C   15.5010066102 -5.8843287992 -1.2934657372
C   13.9174423580 -5.3335831848  0.6969911247
C   13.6930789787 -4.1524722094  1.3893396410
H   13.1739200728 -1.7105033370  2.2576194677
H   12.3441278507 -5.8917661959  2.9484974781
H   11.1159119285 -6.3822674001  4.7619466365
H   11.8219058821 -0.2274638164  3.4244661578
H   9.1161614393 -2.1529977570  4.8222456250
H   11.4729848044 -1.5307847297  6.4966243683
H   7.5629371607 -1.5142059639  6.9576615631
H   7.9107178883 -1.5599487652  8.7268529771
H   10.7879233807  0.5016445161  7.8223720496
H   10.9752199939 -0.7071049631  9.0829389942
H   9.4818912530  0.2556756564  9.0101434064
H   16.5357727338 -2.0915526678 -0.8995799001
H   16.9266672787 -5.9248572065 -2.9000240706
H   15.2124580390 -6.9273892060 -1.4024062074
H   13.4209433015 -6.2800392199  0.8538727080
H   18.1529355659 -4.0204828304 -3.4136401555
C   9.8344785109 -4.7372794557  10.8395106202
O   12.0662828676 -5.6050604912  11.2936058689
C   11.1096000800 -5.1369331437  10.4051771197
O   7.6634759710 -3.8261949869  10.2449201780
C   11.4688507929 -5.0750729574  9.0423648486
O   6.0981245157 -3.0769300609  5.9646114558
C   10.5583284448 -4.5899727171  8.1176276839
O   4.4617094062 -4.3493416576  4.4229339143
C   9.2691238961 -4.1904745307  8.5154121486
O   6.3126697390 -6.1357369958  0.3373607726
C   8.9332350202 -4.2603260691  9.8876450451
C   8.2607430614 -3.5783480772  7.6088040141
C   8.3142235170 -3.8937795054  6.1433938140
C   7.0528130381 -3.7374405462  5.4381467783
C   6.8683420685 -4.3679692580  4.1104998973
C   7.9436739188 -4.6751934352  3.2564185124
C   5.5403040741 -4.6647699899  3.6518063680
C   7.7422420505 -5.2563405302  2.0162494622
C   5.3332292345 -5.2790309730  2.4121320320
C   6.4389345626 -5.5600684458  1.5838975104
C   3.9059846832 -5.6271935392  1.9633974861
C   3.5367107108 -7.1065012259  1.8019029024
C   3.4785495990 -8.0212328689  2.7963491954
C   3.0244783314 -9.4287972594  2.5106835313
C   3.9800902835 -7.7334492600  4.1941889939
H   9.5552607243 -4.8056398925  11.8923427685
H   12.4629214550 -5.4102014789  8.7685382051
H   10.8414445191 -4.4988298900  7.0730832438
H   11.7332640561 -5.5750205226  12.2125308722
H   7.5091676759 -3.9403226938  11.2019724873
H   7.2640718973 -3.7445401688  8.0312213659
H   8.9318424741 -4.7154172217  5.8398873585
H   8.9444935199 -4.4096681408  3.5569928491
H   8.5558552634 -5.4939549547  1.3423302335
H   4.8147884162 -3.7706863023  5.1668238990
H   5.3778901408 -6.2680128294  0.0938277925
H   3.2487876668 -5.1632253553  2.7082892510
H   3.6962326032 -5.1478894722  0.9963421567
H   3.2278947968 -7.4120988065  0.8010015862
H   2.3560382888 -9.7850813999  3.3020076392
H   3.8809039811 -10.1158772158  2.5003788774
H   2.5073391285 -9.5028725796  1.5494625227
H   5.0778271425 -7.7117722347  4.2166889793
H   3.6523179144 -8.5107495878  4.8907314353
H   3.6294796563 -6.7631965818  4.5630768374
84
Scanning combination 149/256: [2.2000, 1.7000]  Energy = -386.2135344740
O   10.6878648151 -5.5259527044  4.9722038138
O   11.3704885909 -0.8270130599  4.0445309896
O   17.7946925571 -3.3696149755 -2.7774206397
O   14.5360792573 -3.1105869724  0.8349614304
C   12.8161339302 -3.8363262612  2.4530926025
C   12.6009249167 -2.4739647277  2.7785133650
C   12.1532675548 -4.8503606677  3.1803638060
C   11.6598629585 -2.1530357999  3.7464619358
C   11.2743204498 -4.5060327098  4.2058939973
C   10.9492578033 -3.1536902569  4.4708632250
C   9.9329060468 -2.6041680708  5.3828306997
C   10.4090643913 -1.7741893727  6.4677109954
C   9.6387918354 -1.2829628982  7.4933713619
C   8.2873834847 -1.8308890718  7.7292593651
C   10.2334189512 -0.2513467167  8.4013524155
C   14.8951442824 -5.0939741553 -0.2980350832
C   15.2832612786 -3.7200622805 -0.1981928292
C   16.2294775407 -3.1318034869 -0.9921378273
C   16.8309023255 -3.9502941739 -1.9718395254
C   16.4618512340 -5.3179533739 -2.1268122043
C   15.5030430572 -5.8851811969 -1.2934481634
C   13.9185706596 -5.3340433266  0.6970030179
C   13.6937951712 -4.1528368088  1.3893878622
H   13.1713702405 -1.7111947823  2.2561474731
H   12.3460012128 -5.8910850744  2.9504698926
H   11.1179307363 -6.3816303075  4.7614525728
H   11.8193175702 -0.2282617981  3.4201542283
H   9.1129166946 -2.1538104854  4.8215929796
H   11.4703921149 -1.5249698132  6.4961869441
H   7.5654772577 -1.5179490114  6.9733268380
H   7.9127219995 -1.5756055584  8.7195487542
H   10.7831344721  0.4982700682  7.8232144412
H   10.9704813901 -0.7035591823  9.0785354424
H   9.4812417361  0.2583945481  9.0108486437
H   16.5351628584 -2.0914861067 -0.9020322383
H   16.9285856621 -5.9255070318 -2.9002377293
H   15.2150604676 -6.9284687969 -1.4022627491
H   13.4231845479 -6.2809012863  0.8542901488
H   18.1534403988 -4.0205829760 -3.4147782655
C   9.8323428455 -4.7432203322  10.8367880230
O   12.0654773558 -5.6070352499  11.2945649370
C   11.1079211118 -5.1408352502  10.4051058297
O   7.6623729255 -3.8267783179  10.2451885133
C   11.4651680755 -5.0799145749  9.0421433703
O   6.0935858139 -3.0757377807  5.9632622962
C   10.5545755022 -4.5902905585  8.1171956182
O   4.4630653780 -4.3484079900  4.4231851631
C   9.2721028465 -4.1757990646  8.5163365481
O   6.3135664714 -6.1350818808  0.3372495803
C   8.9320834210 -4.2594932074  9.8852160365
C   8.2642646701 -3.5267116212  7.6129151944
C   8.3110350101 -3.8803130166  6.1451781361
C   7.0515725991 -3.7359698489  5.4411029584
C   6.8694879781 -4.3698027788  4.1124295353
C   7.9444689257 -4.6752183942  3.2571232662
C   5.5413590792 -4.6641029442  3.6524247347
C   7.7429340348 -5.2567298139  2.0167211400
C   5.3340885169 -5.2780600004  2.4121392572
C   6.4396119970 -5.5601411557  1.5841270228
C   3.9067649712 -5.6265851689  1.9636106358
C   3.5375553215 -7.1060838566  1.8021384121
C   3.4789621754 -8.0206677177  2.7965546924
C   3.0244715124 -9.4282124946  2.5112138993
C   3.9802917998 -7.7328633847  4.1944945172
H   9.5567625882 -4.8049143187  11.8906791102
H   12.4604564882 -5.4101636798  8.7695603654
H   10.8415933536 -4.5019016272  7.0734480215
H   11.7326951289 -5.5772249919  12.2141474609
H   7.5110845858 -3.9393740212  11.2029985585
H   7.2721767093 -3.7467851482  8.0251049736
H   8.9256506156 -4.7074514271  5.8539451124
H   8.9455898621 -4.4107364160  3.5572228453
H   8.5568263751 -5.4948124608  1.3434265326
H   4.8166238823 -3.7693495790  5.1677511152
H   5.3785675998 -6.2668261831  0.0938951514
H   3.2493041381 -5.1626250301  2.7083151020
H   3.6974299929 -5.1475041176  0.9963760918
H   3.2290071128 -7.4117066284  0.8010951598
H   2.3553143412 -9.7838505355  3.3022349688
H   3.8805728995 -10.1157119211  2.5017458296
H   2.5079295200 -9.5024377321  1.5496967901
H   5.0780097445 -7.7111596714  4.2172092554
H   3.6523766105 -8.5100201808  4.8911216181
H   3.6297094679 -6.7625595010  4.5632274356
84
Scanning combination 150/256: [2.2000, 1.6000]  Energy = -386.2150844332
O   10.6882391300 -5.5232125840  4.9735067813
O   11.3671354071 -0.8268171596  4.0375613324
O   17.7945003609 -3.3696192809 -2.7797015828
O   14.5360244472 -3.1109891271  0.8329106017
C   12.8169686677 -3.8368012729  2.4514620958
C   12.6010120354 -2.4737098739  2.7740007100
C   12.1550433981 -4.8505176554  3.1807047796
C   11.6595665748 -2.1523705721  3.7406919314
C   11.2750412587 -4.5050025327  4.2050224334
C   10.9501281079 -3.1523527661  4.4662641019
C   9.9369904036 -2.5999253572  5.3767069712
C   10.4133430113 -1.7734815711  6.4656945257
C   9.6421828868 -1.2995331223  7.4949143911
C   8.2945556418 -1.8808173993  7.7368788019
C   10.2221163594 -0.2585226886  8.3996363807
C   14.8972132424 -5.0949390501 -0.2982647462
C   15.2836014651 -3.7206510381 -0.1996325048
C   16.2293604687 -3.1317626828 -0.9945773400
C   16.8316132327 -3.9508465622 -1.9735497876
C   16.4640316672 -5.3188221047 -2.1272145181
C   15.5058379753 -5.8862781630 -1.2933012755
C   13.9209661359 -5.3352159072  0.6970121973
C   13.6947112373 -4.1536905581  1.3880903985
H   13.1697712758 -1.7103589560  2.2506132051
H   12.3490191965 -5.8914814293  2.9532493087
H   11.1179232482 -6.3789928122  4.7623771434
H   11.8144583717 -0.2272165883  3.4132721699
H   9.1167456955 -2.1488361806  4.8156313750
H   11.4744889493 -1.5139189349  6.4858170104
H   7.5757454717 -1.5343905875  6.9896091893
H   7.9266329510 -1.6116797403  8.7301270477
H   10.7649361832  0.4909411861  7.8140459691
H   10.9620825412 -0.7028161671  9.0802381109
H   9.4618404117  0.2470733880  9.0027310151
H   16.5338900554 -2.0914025375 -0.9056836791
H   16.9314349338 -5.9265192884 -2.9002229028
H   15.2192767290 -6.9299517032 -1.4014494101
H   13.4264504175 -6.2824324376  0.8554783133
H   18.1542808558 -4.0206707019 -3.4167005303
C   9.8274945650 -4.7451358233  10.8346424014
O   12.0600707571 -5.6104841754  11.2911656150
C   11.1013921585 -5.1461390320  10.4023567903
O   7.6583643668 -3.8260177517  10.2455744515
C   11.4594481195 -5.0838724665  9.0406142670
O   6.0842135827 -3.0720175294  5.9640047838
C   10.5531904717 -4.5833107166  8.1163394599
O   4.4635784773 -4.3484499396  4.4230318803
C   9.2760542602 -4.1560587376  8.5175227086
O   6.3149560330 -6.1334794209  0.3383417464
C   8.9317596504 -4.2489581902  9.8838202236
C   8.2724943126 -3.4761757796  7.6175628700
C   8.3090816127 -3.8615575686  6.1502587328
C   7.0490814036 -3.7278437833  5.4462928271
C   6.8705312027 -4.3693861853  4.1173894062
C   7.9455296456 -4.6759498346  3.2616983890
C   5.5431087044 -4.6647027611  3.6550472325
C   7.7441567395 -5.2568704518  2.0203155018
C   5.3360351101 -5.2776085083  2.4137036915
C   6.4412493028 -5.5592338231  1.5857453149
C   3.9087525982 -5.6256577234  1.9641834590
C   3.5390806613 -7.1050835391  1.8025393772
C   3.4797036107 -8.0196564310  2.7970858303
C   3.0244858992 -9.4270147114  2.5120197028
C   3.9807031728 -7.7317434677  4.1950842378
H   9.5526427624 -4.8073149084  11.8880663482
H   12.4535596009 -5.4144866974  8.7666801729
H   10.8396102526 -4.5053612593  7.0712572816
H   11.7297521889 -5.5798978172  12.2111197638
H   7.5113610662 -3.9393026384  11.2038313978
H   7.2857813629 -3.7400066094  8.0200353476
H   8.9194909213 -4.6992400468  5.8817400398
H   8.9476327132 -4.4125481667  3.5601911828
H   8.5577599983 -5.4954551401  1.3465049562
H   4.8169439445 -3.7684510481  5.1676896771
H   5.3800492841 -6.2647615859  0.0940785262
H   3.2508716280 -5.1615037695  2.7083445775
H   3.6994745998 -5.1468342420  0.9967346285
H   3.2310160966 -7.4108431562  0.8014496187
H   2.3541959896 -9.7816747210  3.3025516315
H   3.8800124612 -10.1152664291  2.5040780994
H   2.5089211077 -9.5016222257  1.5500126379
H   5.0784135559 -7.7101433752  4.2180796275
H   3.6524795546 -8.5087819265  4.8916947462
H   3.6300879071 -6.7613681552  4.5635513595
84
Scanning combination 151/256: [2.2000, 1.5000]  Energy = -386.2105773684
O   10.6923167154 -5.5082752651  4.9736552235
O   11.3545312072 -0.8208381013  3.9963603347
O   17.7949544671 -3.3698434536 -2.7925690210
O   14.5382701288 -3.1140480361  0.8194395405
C   12.8235813966 -3.8386628333  2.4410965180
C   12.5988385204 -2.4735431545  2.7494392817
C   12.1668993448 -4.8500068177  3.1788235082
C   11.6546155372 -2.1475893018  3.7118995621
C   11.2826086005 -4.4988811191  4.1970957139
C   10.9521565633 -3.1464163847  4.4465411229
C   9.9378116686 -2.6001413761  5.3583230782
C   10.4151539590 -1.7709685021  6.4509973448
C   9.6514261032 -1.3275609793  7.4913526789
C   8.3174167184 -1.9459986331  7.7604842204
C   10.1781496302 -0.2592267001  8.3933804681
C   14.9092798708 -5.1014472214 -0.3020004264
C   15.2883289411 -3.7243086102 -0.2103358572
C   16.2294642942 -3.1333442527 -1.0079351527
C   16.8358180875 -3.9530071223 -1.9833767694
C   16.4758645337 -5.3239845415 -2.1305421644
C   15.5215302692 -5.8934649339 -1.2937488539
C   13.9351342990 -5.3424048849  0.6954452651
C   13.7033329303 -4.1584732362  1.3806399585
H   13.1658394915 -1.7137263827  2.2189779321
H   12.3684589235 -5.8921193354  2.9632004098
H   11.1117396295 -6.3698500301  4.7666343389
H   11.7977209212 -0.2240274146  3.3660832647
H   9.1257486683 -2.1339865915  4.7979992888
H   11.4656909522 -1.4735926687  6.4434046823
H   7.5765329123 -1.5289062555  7.0720927572
H   8.0036850876 -1.6752589759  8.7725953592
H   10.7005524695  0.5125785726  7.8201097180
H   10.9156843171 -0.6670984627  9.0984739298
H   9.3829145944  0.2129416058  8.9773699418
H   16.5273178329 -2.0902531607 -0.9234165497
H   16.9462527456 -5.9325214488 -2.9009250451
H   15.2400100743 -6.9391521494 -1.3967421753
H   13.4454099516 -6.2911067665  0.8594175482
H   18.1580930166 -4.0218597471 -3.4263561833
C   9.8165785137 -4.7506167253  10.8287237342
O   12.0361444013 -5.6445177635  11.2853313000
C   11.0881247020 -5.1591859005  10.3965943973
O   7.6584745975 -3.8004272785  10.2385816464
C   11.4482329834 -5.1029412174  9.0350056492
O   6.0859246070 -3.0517107616  5.9714308369
C   10.5477108645 -4.5894643064  8.1097982006
O   4.4629179514 -4.3464414238  4.4392829664
C   9.2769592839 -4.1533626247  8.5139244662
O   6.3315697787 -6.1211551803  0.3549126666
C   8.9269641764 -4.2444102007  9.8775958164
C   8.2833268417 -3.4390219037  7.6204215937
C   8.3104744486 -3.8483602762  6.1545066916
C   7.0491047306 -3.7137830412  5.4581255725
C   6.8688741798 -4.3620439147  4.1334867317
C   7.9476714990 -4.6731038658  3.2862544798
C   5.5440830336 -4.6591728538  3.6705774983
C   7.7529461680 -5.2546249533  2.0452054157
C   5.3425124317 -5.2731680117  2.4291133481
C   6.4517086469 -5.5536080238  1.6055403436
C   3.9182981683 -5.6205838984  1.9713719853
C   3.5480875031 -7.0997836639  1.8067960401
C   3.4842025129 -8.0145419765  2.8005709185
C   3.0247958736 -9.4206495625  2.5160048747
C   3.9826178220 -7.7273868994  4.1997307056
H   9.5316545988 -4.8237039991  11.8779914078
H   12.4332982272 -5.4547733090  8.7585308338
H   10.8388176945 -4.5026297970  7.0665489223
H   11.7068378776 -5.5946456214  12.2051793286
H   7.4911051346 -3.9484953589  11.1881982525
H   7.3051855593 -3.7459786629  8.0147962151
H   8.9025801481 -4.7033653091  5.8980089801
H   8.9466910632 -4.4175735587  3.5969199479
H   8.5701676981 -5.4935462233  1.3771051529
H   4.8113107702 -3.7610517311  5.1809191687
H   5.3978492206 -6.2495503202  0.1053662335
H   3.2566621446 -5.1558898758  2.7119078173
H   3.7164119448 -5.1415672206  1.0025099206
H   3.2423671067 -7.4039787956  0.8042905906
H   2.3484071759 -9.7702155389  3.3036551018
H   3.8775081441 -10.1123590053  2.5152867148
H   2.5145368461 -9.4956927595  1.5512329953
H   5.0803042443 -7.7056596886  4.2243766011
H   3.6528225076 -8.5040643874  4.8958860558
H   3.6317745002 -6.7566201173  4.5670000721
84
Scanning combination 152/256: [2.1000, 2.9000]  Energy = -386.2044156786
O   10.6819967769 -5.6008833121  4.9112914039
O   11.5701495847 -0.8740790119  4.3665814502
O   17.8523035415 -3.4338139718 -2.7270924183
O   14.5619636390 -3.0779625383  0.8654713360
C   12.8246675871 -3.7999815286  2.4883781198
C   12.6799833235 -2.4636384854  2.9336299383
C   12.1217738348 -4.8331259843  3.1463079396
C   11.7545675070 -2.1819155559  3.9358120237
C   11.2602060269 -4.5350435796  4.2028063251
C   10.9630789228 -3.1951650153  4.5534310687
C   9.8850950935 -2.6601417681  5.4430859554
C   10.3160925315 -1.8401657064  6.5356970518
C   9.4578661091 -1.0827384170  7.3682486092
C   8.1054256859 -1.0413217229  7.1880729598
C   10.1371946532 -0.2534679955  8.4619069899
C   14.8216834691 -5.0413027338 -0.3315892919
C   15.2805185722 -3.6935694332 -0.1913812667
C   16.2643560015 -3.1407004773 -0.9667179216
C   16.8424849239 -3.9741364014 -1.9499366252
C   16.4059356210 -5.3171772052 -2.1382861656
C   15.4008672193 -5.8448843030 -1.3351504952
C   13.8293532362 -5.2588872919  0.6502782475
C   13.6709441681 -4.0957719376  1.3898824096
H   13.2829524621 -1.6840178637  2.4753982438
H   12.2750097885 -5.8590916607  2.8378922176
H   11.1392158349 -6.4361227092  4.6764115134
H   12.1224788165 -0.2594337638  3.8505085477
H   9.1004328944 -2.2043122202  4.8308887078
H   11.3687911848 -1.8353107034  6.7926850342
H   7.6162213090 -1.5338505687  6.3579933861
H   7.4759244190 -0.3959165375  7.7950619258
H   10.6708466000  0.6018946865  8.0308512392
H   10.8898448729 -0.8533322431  8.9822670860
H   9.4205020140  0.1243238249  9.1956255619
H   16.6202470668 -2.1177895640 -0.8632561003
H   16.8569456390 -5.9363818703 -2.9121507638
H   15.0571474165 -6.8679177724 -1.4715698571
H   13.2787405725 -6.1808180866  0.7642021710
H   18.2007474956 -4.0987431381 -3.3562483477
C   9.9138048447 -4.7563715745  10.8321139267
O   12.1833988164 -5.4761745462  11.3450802297
C   11.2144373444 -5.1006955136  10.4290224271
O   7.6908064613 -4.0460613837  10.1991608227
C   11.5829105020 -5.0742306552  9.0649363193
O   6.1430565179 -3.1688434272  6.0182730133
C   10.6682894711 -4.6880838811  8.1069871367
O   4.4717534596 -4.3966495740  4.4886183479
C   9.3331111144 -4.3159375852  8.4652314899
O   6.2377058801 -6.1571622229  0.3579120980
C   8.9918123647 -4.3794017400  9.8636492598
C   8.3223872500 -3.9076763052  7.5711423641
C   8.3978905869 -3.9627869456  6.1512632466
C   7.0851004228 -3.8024052471  5.4545375880
C   6.8770906652 -4.4258180872  4.1362520177
C   7.9348194933 -4.7363374734  3.2587656659
C   5.5351067012 -4.7061176356  3.6949314099
C   7.7061962200 -5.3168436121  2.0239516963
C   5.3018459660 -5.2945258312  2.4492504784
C   6.3914879521 -5.5915430789  1.6056401248
C   3.8609952043 -5.6021862242  2.0121951397
C   3.4528087972 -7.0705777495  1.8406076590
C   3.4568276216 -8.0177913679  2.8058435183
C   3.0601329674 -9.4335373278  2.4767087019
C   3.9758841955 -7.7580302915  4.2023556321
H   9.6388469656 -4.7773785508  11.8883302479
H   12.6018514477 -5.3580494855  8.8219754846
H   10.9626523094 -4.6495461971  7.0618618411
H   11.8325471098 -5.4514693889  12.2581760708
H   7.5361704052 -4.1433359216  11.1599764647
H   7.4057554030 -3.5868779442  8.0422344903
H   9.0215372506 -4.7380018193  5.7345765202
H   8.9427774628 -4.4662119631  3.5329963031
H   8.5077122159 -5.5761056427  1.3435906059
H   4.8391873434 -3.8411439589  5.2416216595
H   5.2963780189 -6.2645028916  0.1260948269
H   3.2213854519 -5.1262783636  2.7648282110
H   3.6548382363 -5.1106925436  1.0505050290
H   3.0540775214 -7.3351772995  0.8599158481
H   2.4685787395 -9.8693783217  3.2889458937
H   3.9503002238 -10.0678167662  2.3680854785
H   2.4829045409 -9.4887177476  1.5487309144
H   5.0740202911 -7.7424186824  4.2118139106
H   3.6558062261 -8.5465696400  4.8901501534
H   3.6321888345 -6.7936287051  4.5918545091
84
Scanning combination 153/256: [2.1000, 2.8000]  Energy = -386.2016657587
O   10.6774198443 -5.5937248160  4.9208901365
O   11.5602196204 -0.8707837398  4.3426752596
O   17.8436077548 -3.4228088022 -2.7206273844
O   14.5564529482 -3.0849138155  0.8707942662
C   12.8223834741 -3.8071679366  2.4894612939
C   12.6778990148 -2.4673471426  2.9251819623
C   12.1207501013 -4.8386052862  3.1512199461
C   11.7522618459 -2.1817495635  3.9245274152
C   11.2609224094 -4.5354327793  4.2070314643
C   10.9656320918 -3.1946069234  4.5507454395
C   9.8940268558 -2.6563015599  5.4414125839
C   10.3360670528 -1.8352665780  6.5318799063
C   9.4765514571 -1.0953671302  7.3753227661
C   8.1193537720 -1.1019203749  7.2222090502
C   10.1486634094 -0.2551844377  8.4616623348
C   14.8219697361 -5.0470574108 -0.3261326898
C   15.2760843017 -3.6974472224 -0.1851190718
C   16.2566706742 -3.1394218026 -0.9590464897
C   16.8363451849 -3.9685682707 -1.9441831467
C   16.4043152581 -5.3130062867 -2.1343554531
C   15.4027153559 -5.8465541127 -1.3309847322
C   13.8307512163 -5.2689858034  0.6559457482
C   13.6690097029 -4.1054299444  1.3938935143
H   13.2811479369 -1.6913156204  2.4595698832
H   12.2733127209 -5.8661568828  2.8470446921
H   11.1242553543 -6.4337810052  4.6849452985
H   12.1011207123 -0.2554698950  3.8147378607
H   9.1238485962 -2.1798431123  4.8270019357
H   11.3934326900 -1.8158923793  6.7698301868
H   7.6355478155 -1.6133311724  6.4031451368
H   7.4734074100 -0.4922036599  7.8461716955
H   10.6822872042  0.5873923085  8.0089289008
H   10.8976908476 -0.8437877135  9.0020885375
H   9.4219818619  0.1363712135  9.1786018993
H   16.6083682038 -2.1153525590 -0.8508919806
H   16.8567512894 -5.9290156782 -2.9095197549
H   15.0627089827 -6.8707702901 -1.4677928323
H   13.2827241313 -6.1920721625  0.7726854323
H   18.1927342416 -4.0844418035 -3.3524723019
C   9.9090728164 -4.7496398104  10.8281683359
O   12.1775136792 -5.4826123759  11.3303547510
C   11.2070867500 -5.0994752901  10.4193890958
O   7.6860678142 -4.0302342979  10.2011263632
C   11.5748004160 -5.0681502763  9.0546198191
O   6.1390797737 -3.1644036274  6.0139018533
C   10.6580415703 -4.6745983295  8.1010453213
O   4.4723688906 -4.3999740303  4.4848466314
C   9.3252318482 -4.3018230909  8.4640370042
O   6.2432308056 -6.1562257254  0.3552981395
C   8.9858815519 -4.3667837872  9.8626995293
C   8.3229967503 -3.8725801509  7.5711844270
C   8.3973634612 -3.9486226578  6.1485770922
C   7.0842971973 -3.7931029607  5.4498232124
C   6.8786210006 -4.4173205478  4.1315272808
C   7.9376512074 -4.7278310423  3.2554364218
C   5.5379495402 -4.7051118508  3.6916624865
C   7.7098267627 -5.3122212928  2.0220123081
C   5.3058145822 -5.2962468321  2.4470967927
C   6.3959166593 -5.5912418517  1.6037437550
C   3.8648269566 -5.6046049784  2.0105135083
C   3.4582968354 -7.0728506124  1.8382038205
C   3.4581862250 -8.0175556025  2.8058205047
C   3.0574567226 -9.4324389217  2.4789228686
C   3.9767185624 -7.7572168283  4.2024783769
H   9.6312714197 -4.7848683795  11.8844700001
H   12.5892176705 -5.3622670245  8.8059386199
H   10.9486463399 -4.6282521793  7.0561442056
H   11.8290575384 -5.4533242767  12.2447520281
H   7.5276348704 -4.1420469669  11.1597821130
H   7.4119903668 -3.5408792268  8.0470338224
H   9.0164529987 -4.7371786368  5.7483866517
H   8.9455079639 -4.4556520490  3.5286368994
H   8.5112735931 -5.5684765094  1.3406035660
H   4.8331920971 -3.8407187318  5.2369861371
H   5.3024534845 -6.2671842861  0.1227487839
H   3.2255705143 -5.1317972862  2.7653739306
H   3.6556316682 -5.1110790772  1.0505516909
H   3.0654718811 -7.3406747996  0.8559722508
H   2.4610021851 -9.8635122918  3.2900558039
H   3.9458217344 -10.0700670695  2.3755274665
H   2.4837490107 -9.4871231463  1.5487692980
H   5.0748843744 -7.7436093908  4.2133174742
H   3.6545752462 -8.5447745901  4.8903586736
H   3.6346368004 -6.7921096972  4.5916056543
84
Scanning combination 154/256: [2.1000, 2.7000]  Energy = -386.1994293924
O   10.6543647749 -5.5840805986  4.9574051642
O   11.4646919218 -0.8612836298  4.1977120085
O   17.8107188194 -3.3689085519 -2.7193949603
O   14.5370270326 -3.1251884432  0.8846012293
C   12.8042063240 -3.8560159507  2.4923488525
C   12.6342331529 -2.5046299805  2.8792325680
C   12.1094907220 -4.8700641263  3.1861702660
C   11.6949555100 -2.1888133943  3.8573331121
C   11.2416840123 -4.5372411910  4.2290553822
C   10.9371248535 -3.1869082649  4.5396708824
C   9.8805870553 -2.6328081678  5.4518293073
C   10.3436847099 -1.7872369866  6.5220915298
C   9.5168089434 -1.0943642151  7.4364131816
C   8.1516473122 -1.2156083164  7.4357554492
C   10.2258586812 -0.1959054020  8.4510476221
C   14.8451709556 -5.0826696568 -0.3084332695
C   15.2684707723 -3.7228377667 -0.1680710383
C   16.2327349605 -3.1374613791 -0.9429520692
C   16.8235756916 -3.9448148648 -1.9385962440
C   16.4209675949 -5.2976082549 -2.1336677060
C   15.4398269738 -5.8608804756 -1.3234559978
C   13.8605105570 -5.3253035579  0.6794648325
C   13.6681262842 -4.1609497106  1.4105269006
H   13.2356407947 -1.7420342523  2.3920109886
H   12.2730992879 -5.9070670326  2.9204400510
H   11.0932322840 -6.4312449145  4.7300764298
H   11.9573333972 -0.2655713765  3.6039295053
H   9.1028224108 -2.1521088309  4.8505080652
H   11.4130586076 -1.6814314515  6.6778725528
H   7.6142108189 -1.6410856856  6.5995069110
H   7.5481990070 -0.7558920064  8.2111231062
H   10.8070245012  0.5813153025  7.9438051807
H   10.9458579283 -0.7732333438  9.0409709568
H   9.5192161665  0.2932399833  9.1276016977
H   16.5624282027 -2.1069123986 -0.8267108881
H   16.8797266477 -5.8965731492 -2.9190348046
H   15.1261008978 -6.8926220145 -1.4655663958
H   13.3393139920 -6.2631135397  0.8048371229
H   18.1670507198 -4.0141463951 -3.3640319770
C   9.8852224834 -4.7617571675  10.8171104472
O   12.1451069336 -5.5345393662  11.3041023332
C   11.1765510691 -5.1304239840  10.3999469859
O   7.6784943518 -3.9737416478  10.2032324465
C   11.5432775672 -5.0819528913  9.0356209439
O   6.1561032566 -3.0919817498  5.9696041528
C   10.6324314366 -4.6545323667  8.0930401570
O   4.4894524655 -4.3922988200  4.4762876263
C   9.2986360245 -4.2932569352  8.4598980932
O   6.2793159573 -6.1518301585  0.3492398185
C   8.9652830527 -4.3521976710  9.8580365898
C   8.2871961649 -3.9093599294  7.5588221668
C   8.3889577255 -3.9434902115  6.1354456480
C   7.0903476259 -3.7519497428  5.4236402306
C   6.8896891964 -4.3816520527  4.1090771919
C   7.9530435740 -4.6805104767  3.2347501811
C   5.5535818564 -4.6901691063  3.6771845017
C   7.7336157211 -5.2735053703  2.0052380773
C   5.3285774390 -5.2918904766  2.4364552229
C   6.4230002819 -5.5745113041  1.5927221624
C   3.8924859367 -5.6179177495  1.9986566715
C   3.5025549427 -7.0903244421  1.8248196852
C   3.4694283524 -8.0231841163  2.8031681197
C   3.0386027491 -9.4329684511  2.4933102588
C   3.9817664521 -7.7547509018  4.2004319863
H   9.6143249924 -4.7976788600  11.8747023682
H   12.5548044940 -5.3799863636  8.7780542385
H   10.9219168976 -4.5634938276  7.0519146351
H   11.8083242038 -5.4875974709  12.2214850892
H   7.5097653138 -4.1142093992  11.1564501529
H   7.3387877968 -3.6647661366  8.0166570042
H   9.0071074869 -4.7238601517  5.7170168632
H   8.9563340527 -4.3900256442  3.5041593454
H   8.5392344503 -5.5227017344  1.3257346024
H   4.8487114149 -3.8117159950  5.2135354770
H   5.3406411120 -6.2790320124  0.1178910370
H   3.2469202236 -5.1529714607  2.7530442802
H   3.6812319553 -5.1260163308  1.0385131455
H   3.1501824631 -7.3716980965  0.8313245482
H   2.4103477332 -9.8303835475  3.2976543160
H   3.9109497429 -10.0968324226  2.4277564942
H   2.4868840265 -9.4924646002  1.5503489017
H   5.0798701089 -7.7464577955  4.2166733338
H   3.6501931913 -8.5348567039  4.8920215730
H   3.6436957032 -6.7842737007  4.5797789815
84
Scanning combination 155/256: [2.1000, 2.6000]  Energy = -386.1959036585
O   10.6612804087 -5.5828736932  4.9679035183
O   11.4155727074 -0.8607466637  4.1777653355
O   17.7922408093 -3.3654091933 -2.7208101653
O   14.5268679983 -3.1146207074  0.8886252843
C   12.7952465853 -3.8471209341  2.4939660867
C   12.6083878518 -2.4935549849  2.8652307000
C   12.1113519641 -4.8669668543  3.1904868728
C   11.6681388671 -2.1851837547  3.8413332248
C   11.2418571140 -4.5384200034  4.2314049125
C   10.9257414346 -3.1892169474  4.5288980412
C   9.8825997251 -2.6302506988  5.4415865523
C   10.3668701071 -1.7933185120  6.5093161455
C   9.5509338077 -1.1103208570  7.4316409987
C   8.1838993009 -1.2766621179  7.4529757027
C   10.2576108905 -0.2035054564  8.4343446450
C   14.8483598408 -5.0800389219 -0.2879999098
C   15.2626642906 -3.7159827156 -0.1586586113
C   16.2214017151 -3.1311219343 -0.9387510492
C   16.8125790084 -3.9418919420 -1.9312199239
C   16.4175268170 -5.2987129785 -2.1155508752
C   15.4435866589 -5.8626822210 -1.2979677106
C   13.8669374290 -5.3222271812  0.7013217891
C   13.6655605133 -4.1527405564  1.4203800149
H   13.1972532737 -1.7261465176  2.3702924334
H   12.2830850569 -5.9026196693  2.9246471917
H   11.1078624911 -6.4287695007  4.7519917148
H   11.8976731198 -0.2575591719  3.5839818795
H   9.1026971672 -2.1415847906  4.8488319338
H   11.4395464285 -1.6955960951  6.6518273433
H   7.6419588629 -1.6045097129  6.5750181685
H   7.5867445581 -0.9386197168  8.2926957209
H   10.8453591707  0.5639529392  7.9183536758
H   10.9691521882 -0.7758176875  9.0386228689
H   9.5473896396  0.2870321132  9.1044184402
H   16.5453668705 -2.0977340849 -0.8290121695
H   16.8759513787 -5.8998397448 -2.8991012600
H   15.1345583581 -6.8974050813 -1.4297369138
H   13.3527064606 -6.2625104780  0.8349192546
H   18.1475180937 -4.0124291401 -3.3639786363
C   9.8801704832 -4.7566463036  10.8193187122
O   12.1349032838 -5.5400287014  11.3111036382
C   11.1721668167 -5.1248341073  10.4058254531
O   7.6700162201 -3.9856638202  10.2006326420
C   11.5429100244 -5.0751896831  9.0423450918
O   6.1441716139 -3.1094194711  5.9730765860
C   10.6328920341 -4.6511524228  8.0972701328
O   4.4818938065 -4.3722488672  4.4502144364
C   9.2999033687 -4.2873835893  8.4606061288
O   6.2819728840 -6.1521334105  0.3390743610
C   8.9616673076 -4.3483674946  9.8581450076
C   8.2971791185 -3.8720297004  7.5581338989
C   8.3879076112 -3.9343083812  6.1311558556
C   7.0852581649 -3.7546792189  5.4216715124
C   6.8865284733 -4.3801744924  4.1022667988
C   7.9504637048 -4.6816793047  3.2294134135
C   5.5506786324 -4.6804340264  3.6619959204
C   7.7323586796 -5.2676234529  1.9955594124
C   5.3279368061 -5.2861969830  2.4224289931
C   6.4231446383 -5.5710190681  1.5811808356
C   3.8927610055 -5.6207641766  1.9876514895
C   3.5109759595 -7.0957640273  1.8190364262
C   3.4724431326 -8.0222479812  2.8032796907
C   3.0334261017 -9.4312251513  2.5007134210
C   3.9852584145 -7.7490730676  4.1999109149
H   9.6065135896 -4.7955856475  11.8763368055
H   12.5542242675 -5.3746492434  8.7870745258
H   10.9242472652 -4.5656241625  7.0560283809
H   11.7887525643 -5.5190004611  12.2261397998
H   7.5168455601 -4.0787142642  11.1624284756
H   7.3578416285 -3.6073932698  8.0193560476
H   9.0041167970 -4.7214902223  5.7252961819
H   8.9551929122 -4.4026305550  3.5033656940
H   8.5379613382 -5.5117990289  1.3145746492
H   4.8378532810 -3.7989439707  5.1940316996
H   5.3439120528 -6.2807932147  0.1062624958
H   3.2467692911 -5.1588283676  2.7435264985
H   3.6757354168 -5.1321953163  1.0270568363
H   3.1725805700 -7.3870969174  0.8233525454
H   2.3934759035 -9.8168595173  3.3017133652
H   3.9011131846 -10.1024353156  2.4491942892
H   2.4909476998 -9.4924332827  1.5525012813
H   5.0833493336 -7.7382797595  4.2159448304
H   3.6553434770 -8.5284187757  4.8934131663
H   3.6459298733 -6.7785988041  4.5783818522
84
Scanning combination 156/256: [2.1000, 2.5000]  Energy = -386.1915298697
O   10.6614978906 -5.5827400353  4.9676154864
O   11.4105726439 -0.8596350078  4.1730790688
O   17.7918899698 -3.3644774200 -2.7221470788
O   14.5262698636 -3.1149553410  0.8873171196
C   12.7948264828 -3.8470345838  2.4933079520
C   12.6064458753 -2.4930770185  2.8633555295
C   12.1110022107 -4.8666717165  3.1903500263
C   11.6656969763 -2.1840498694  3.8380179019
C   11.2412494620 -4.5381704299  4.2301351686
C   10.9263569033 -3.1887305434  4.5267986639
C   9.8898005423 -2.6285786037  5.4403467875
C   10.3733980253 -1.7924126519  6.5075932268
C   9.5562843733 -1.1281742781  7.4385384963
C   8.1891136173 -1.3315601907  7.4692193597
C   10.2563970442 -0.2104931383  8.4337334879
C   14.8497494466 -5.0808618988 -0.2875136228
C   15.2631241171 -3.7164788232 -0.1591719212
C   16.2211774370 -3.1307371139 -0.9401112996
C   16.8127883945 -3.9414307357 -1.9322830653
C   16.4189533962 -5.2987388911 -2.1154906360
C   15.4458868483 -5.8633459579 -1.2971921575
C   13.8676207322 -5.3229878818  0.7014838816
C   13.6651049057 -4.1530487850  1.4196388439
H   13.1939302387 -1.7254468179  2.3680244046
H   12.2831446891 -5.9032717070  2.9297724902
H   11.1104559699 -6.4274774800  4.7516600001
H   11.8926414259 -0.2566672829  3.5791794656
H   9.1070359240 -2.1408548148  4.8527030551
H   11.4447288221 -1.6893818416  6.6466966564
H   7.6433526863 -1.6253215625  6.5809970414
H   7.5948835005 -0.9630653077  8.2992943671
H   10.8414532728  0.5537075377  7.9112327005
H   10.9724280830 -0.7737316239  9.0413883811
H   9.5476179183  0.2875171740  9.1000876720
H   16.5448906084 -2.0972045099 -0.8317354616
H   16.8776932983 -5.9002463022 -2.8985454554
H   15.1380578480 -6.8984353734 -1.4284415295
H   13.3548159251 -6.2639231806  0.8370720303
H   18.1467439432 -4.0120660670 -3.3650038187
C   9.8779442384 -4.7589669198  10.8160926194
O   12.1325329225 -5.5413090600  11.3094691129
C   11.1705507279 -5.1240300602  10.4042484955
O   7.6681883993 -3.9879740062  10.1991193751
C   11.5389592626 -5.0754580067  9.0412516332
O   6.1382608663 -3.1096272289  5.9710981012
C   10.6300428804 -4.6438893614  8.0962304397
O   4.4822506539 -4.3727959933  4.4480963486
C   9.3033960605 -4.2606073066  8.4634119404
O   6.2813704372 -6.1503383421  0.3370742583
C   8.9619108694 -4.3422617885  9.8562256663
C   8.2993761504 -3.8272698949  7.5646420402
C   8.3836574188 -3.9170828470  6.1342246478
C   7.0834739169 -3.7524595126  5.4226273226
C   6.8871439091 -4.3799788150  4.1024205611
C   7.9507226950 -4.6809762111  3.2290663967
C   5.5513046210 -4.6796843813  3.6603593691
C   7.7322341777 -5.2686755968  1.9956145856
C   5.3285114846 -5.2870835558  2.4215397241
C   6.4234427878 -5.5727329146  1.5807218060
C   3.8933617055 -5.6210469757  1.9867938215
C   3.5117596960 -7.0960421869  1.8186533758
C   3.4728280644 -8.0221798985  2.8031665479
C   3.0330097734 -9.4310856040  2.5015557101
C   3.9856116250 -7.7481969028  4.1996592326
H   9.6029447403 -4.7949625946  11.8715596312
H   12.5502130931 -5.3746722779  8.7885454412
H   10.9242705055 -4.5675211750  7.0555613785
H   11.7863354221 -5.5203265787  12.2244174283
H   7.5187598336 -4.0782570740  11.1611932342
H   7.3481499966 -3.5971744947  8.0214505140
H   8.9982260001 -4.7108620729  5.7417765219
H   8.9559679092 -4.4037780052  3.5032593582
H   8.5373113301 -5.5112077955  1.3135622452
H   4.8389736511 -3.7994460719  5.1921372046
H   5.3431185769 -6.2801302955  0.1054187496
H   3.2476831997 -5.1577903580  2.7420508761
H   3.6768286639 -5.1324173134  1.0261848004
H   3.1750568436 -7.3875355264  0.8225258600
H   2.3921760420 -9.8150792376  3.3025765961
H   3.9000284706 -10.1032325524  2.4518475745
H   2.4912188339 -9.4932734543  1.5530045114
H   5.0837170711 -7.7372181268  4.2156603908
H   3.6559511862 -8.5273146633  4.8934599906
H   3.6458752299 -6.7775701838  4.5774247434
84
Scanning combination 157/256: [2.1000, 2.4000]  Energy = -386.1876236197
O   10.6617080604 -5.5777877899  4.9686888507
O   11.4052138194 -0.8587904498  4.1614298685
O   17.7903845290 -3.3636473151 -2.7247010693
O   14.5254803227 -3.1148542060  0.8843191877
C   12.7952233281 -3.8474747163  2.4895208482
C   12.6056201815 -2.4920890096  2.8550718289
C   12.1143919018 -4.8674730663  3.1896561414
C   11.6652109556 -2.1830115041  3.8294708757
C   11.2444642250 -4.5369943434  4.2287305740
C   10.9285771029 -3.1875101441  4.5216213430
C   9.8952645631 -2.6261756730  5.4361456648
C   10.3853882967 -1.7944758109  6.5068160307
C   9.5679166417 -1.1493621364  7.4465650556
C   8.2027697933 -1.3928830571  7.4962014866
C   10.2568055154 -0.2176915763  8.4319423701
C   14.8526741363 -5.0816558158 -0.2874254609
C   15.2634040711 -3.7163063581 -0.1610554968
C   16.2206087469 -3.1305079498 -0.9424557253
C   16.8130477640 -3.9417264261 -1.9335953238
C   16.4214099275 -5.2998415283 -2.1148789186
C   15.4495946658 -5.8648716112 -1.2956350397
C   13.8714762561 -5.3246596262  0.7019097617
C   13.6663704318 -4.1540699894  1.4175487415
H   13.1924476703 -1.7241333340  2.3583700331
H   12.2878532678 -5.9047256261  2.9312881830
H   11.1085579148 -6.4238399978  4.7545995522
H   11.8838653931 -0.2536255696  3.5671685176
H   9.1187060312 -2.1286405259  4.8480110755
H   11.4574087657 -1.6738395840  6.6311486993
H   7.6483238191 -1.6543154923  6.6018634177
H   7.6117873730 -1.0379205912  8.3345728976
H   10.8352461155  0.5393929950  7.8929241309
H   10.9730474574 -0.7700372785  9.0496006286
H   9.5402208454  0.2812297052  9.0893973070
H   16.5419190803 -2.0962338379 -0.8348096489
H   16.8810890911 -5.9008255217 -2.8975575519
H   15.1440868586 -6.9008145985 -1.4252818496
H   13.3595697113 -6.2656610408  0.8393554145
H   18.1461356094 -4.0106156200 -3.3675327899
C   9.8739509902 -4.7514279213  10.8181603100
O   12.1262836449 -5.5453806407  11.3043194865
C   11.1639029888 -5.1222203342  10.4019797973
O   7.6617692760 -3.9847104246  10.2019856655
C   11.5320558598 -5.0680822538  9.0389089840
O   6.1303499213 -3.1058685078  5.9683594662
C   10.6247343180 -4.6268164787  8.0983575430
O   4.4803729692 -4.3738765620  4.4462830551
C   9.2992518544 -4.2456172063  8.4674420630
O   6.2830565114 -6.1480453071  0.3361312734
C   8.9585558325 -4.3291010730  9.8596961862
C   8.2998735827 -3.7897806206  7.5689335731
C   8.3793946105 -3.9009453704  6.1341981583
C   7.0798572040 -3.7440589010  5.4212921102
C   6.8862829489 -4.3781521361  4.1032356327
C   7.9509163402 -4.6823340288  3.2319027164
C   5.5509090882 -4.6807345462  3.6606444177
C   7.7334426727 -5.2682421293  1.9969540197
C   5.3294313089 -5.2872753156  2.4210034592
C   6.4247288269 -5.5705913554  1.5799886399
C   3.8946141724 -5.6215617188  1.9846816983
C   3.5134029866 -7.0968020841  1.8174218830
C   3.4732823902 -8.0218442138  2.8029407145
C   3.0321234168 -9.4306378497  2.5033491468
C   3.9860841599 -7.7467509612  4.1991470905
H   9.5968232679 -4.8008646004  11.8732101022
H   12.5396651793 -5.3775997655  8.7808440972
H   10.9140335286 -4.5551576919  7.0555012670
H   11.7817876355 -5.5230446232  12.2196062448
H   7.5127543461 -4.0766411326  11.1641221185
H   7.3482237809 -3.5659433924  8.0285148272
H   8.9907497915 -4.7051292528  5.7600561292
H   8.9562904793 -4.4060951000  3.5070726587
H   8.5387470527 -5.5105357670  1.3146478372
H   4.8360777913 -3.7992390110  5.1901521362
H   5.3448782559 -6.2783529951  0.1041673803
H   3.2484183568 -5.1581116941  2.7394036779
H   3.6786367414 -5.1335442226  1.0234643739
H   3.1783980721 -7.3894476071  0.8210535095
H   2.3893058265 -9.8119560300  3.3040032276
H   3.8981888341 -10.1041695425  2.4568733226
H   2.4919672127 -9.4941332718  1.5540350857
H   5.0841604496 -7.7350438300  4.2151159131
H   3.6567844661 -8.5253690691  4.8936003857
H   3.6459438129 -6.7760713321  4.5762124055
84
Scanning combination 158/256: [2.1000, 2.3000]  Energy = -386.1869724985
O   10.6846827200 -5.5601972682  4.9895034181
O   11.3424037218 -0.8470886131  4.0682169664
O   17.7845529239 -3.3578044949 -2.7555136719
O   14.5193896525 -3.1178999817  0.8573410609
C   12.7948510789 -3.8509759572  2.4725200370
C   12.5750141029 -2.4920659457  2.8072027689
C   12.1312607900 -4.8645920299  3.1983999696
C   11.6279341744 -2.1759973707  3.7757380533
C   11.2532851150 -4.5252818308  4.2306414144
C   10.9153131970 -3.1757583141  4.5014897044
C   9.8764828720 -2.6186320188  5.4241643687
C   10.3655679308 -1.7581328496  6.4808960135
C   9.5861269271 -1.1756217419  7.4879731993
C   8.2460445350 -1.5254360542  7.6717708169
C   10.2935654053 -0.2106774836  8.4279497677
C   14.8807716219 -5.0947638846 -0.2869655334
C   15.2690149590 -3.7214298478 -0.1792355264
C   16.2158622328 -3.1302760767 -0.9704516190
C   16.8194196227 -3.9426575886 -1.9540686153
C   16.4505629793 -5.3091435913 -2.1170763307
C   15.4905328115 -5.8798101056 -1.2873437684
C   13.9018405921 -5.3395247634  0.7062179699
C   13.6745907941 -4.1623997002  1.4056878302
H   13.1454374590 -1.7253482352  2.2899180924
H   12.3233723353 -5.9049494090  2.9663424735
H   11.1314930403 -6.4067982300  4.7781840034
H   11.8004340480 -0.2528313252  3.4464273730
H   9.1004881511 -2.1287922024  4.8308157394
H   11.4313600530 -1.5481122174  6.5293473826
H   7.5665021405 -1.6007775458  6.8255110920
H   7.7988168809 -1.4291245654  8.6554165698
H   10.8754811812  0.5182494971  7.8546746514
H   11.0100793469 -0.7425423817  9.0658595861
H   9.5819262089  0.3238798690  9.0637177945
H   16.5224756700 -2.0901723536 -0.8770424095
H   16.9186768137 -5.9119336802 -2.8936715700
H   15.2041212593 -6.9225199367 -1.4048775522
H   13.4076456894 -6.2879831540  0.8577607882
H   18.1465723768 -4.0045694815 -3.3951870389
C   9.8367797968 -4.7505499429  10.8224183551
O   12.0784374640 -5.5784058893  11.3041207706
C   11.1236093037 -5.1324201357  10.4045889215
O   7.6539436881 -3.8920186632  10.2090376395
C   11.5012766259 -5.0600259147  9.0452131858
O   6.1442572438 -3.0463429399  5.9378560219
C   10.5983361008 -4.6052139942  8.1061857108
O   4.4832495569 -4.3586163874  4.4384370416
C   9.2708874674 -4.2493435208  8.4735975691
O   6.3006977557 -6.1362465945  0.3321864947
C   8.9311936316 -4.3068247668  9.8642432829
C   8.2670641753 -3.8227063821  7.5624500156
C   8.3709154090 -3.9053711198  6.1225524259
C   7.0810720457 -3.7146399851  5.4060168237
C   6.8870597945 -4.3569146009  4.0932353588
C   7.9567188890 -4.6784571390  3.2347260851
C   5.5545694607 -4.6644738247  3.6515331762
C   7.7453062014 -5.2666959766  2.0009490019
C   5.3382975257 -5.2789298618  2.4149207059
C   6.4374000489 -5.5621245343  1.5778393800
C   3.9074694908 -5.6225549529  1.9750126737
C   3.5330733034 -7.1002691019  1.8127272880
C   3.4809774557 -8.0182230511  2.8042308169
C   3.0252779798 -9.4249776350  2.5172079162
C   3.9904477428 -7.7350535261  4.1999808123
H   9.5572216349 -4.8031265858  11.8766457863
H   12.5111327394 -5.3610952781  8.7876964636
H   10.8886020716 -4.5009470971  7.0665971229
H   11.7346504440 -5.5565787962  12.2196113014
H   7.4886944464 -4.0169708916  11.1647670382
H   7.2854287237 -3.6866444948  8.0025534716
H   8.9834671005 -4.7008801119  5.7330580467
H   8.9619811331 -4.4161078799  3.5206453689
H   8.5549391655 -5.5164241300  1.3264655243
H   4.8347466395 -3.7732915836  5.1740199022
H   5.3636375260 -6.2602745391  0.0928560914
H   3.2558624472 -5.1571799331  2.7237971114
H   3.6959663197 -5.1412277951  1.0095593342
H   3.2127530097 -7.4007939378  0.8140157205
H   2.3626237001 -9.7841797337  3.3120570762
H   3.8816841740 -10.1119017484  2.4986021608
H   2.5012048877 -9.4966024149  1.5595778027
H   5.0883429483 -7.7169289336  4.2170556798
H   3.6635555236 -8.5124787122  4.8967852134
H   3.6449690479 -6.7642794618  4.5720937845
84
Scanning combination 159/256: [2.1000, 2.2000]  Energy = -386.1873010393
O   10.6852108697 -5.5587264601  4.9902556541
O   11.3370785272 -0.8465654034  4.0666814460
O   17.7825178341 -3.3569185663 -2.7548239745
O   14.5176597297 -3.1167092465  0.8571007315
C   12.7935638980 -3.8496092995  2.4726296728
C   12.5718477424 -2.4907223650  2.8057571037
C   12.1318663423 -4.8637020301  3.1990071067
C   11.6267760742 -2.1747037197  3.7748499258
C   11.2552870285 -4.5246414150  4.2314821122
C   10.9167959703 -3.1750882544  4.4999578944
C   9.8802112469 -2.6157420277  5.4162765777
C   10.3691417785 -1.7627921179  6.4800114739
C   9.5896642525 -1.1949773023  7.4898662616
C   8.2468747170 -1.5705711832  7.6785946598
C   10.2869659349 -0.2190256308  8.4217808926
C   14.8801810600 -5.0946773429 -0.2851979840
C   15.2671526461 -3.7211265320 -0.1788071621
C   16.2142344964 -3.1291526943 -0.9700874969
C   16.8181620863 -3.9423042964 -1.9529905144
C   16.4502889589 -5.3093685482 -2.1148433382
C   15.4904634631 -5.8807030737 -1.2848078046
C   13.9023579552 -5.3391397922  0.7089011112
C   13.6744939523 -4.1613894552  1.4071883194
H   13.1417064898 -1.7247650338  2.2879838543
H   12.3249224083 -5.9037009979  2.9669101617
H   11.1332716779 -6.4051766275  4.7806583280
H   11.7935764847 -0.2529114050  3.4434337808
H   9.1029928639 -2.1252614967  4.8251192510
H   11.4338536657 -1.5467458628  6.5263685185
H   7.5650803339 -1.5881649842  6.8284920600
H   7.7965204051 -1.4249179697  8.6550839196
H   10.8693021258  0.5098445496  7.8499277840
H   11.0063493846 -0.7393885782  9.0637345224
H   9.5824364411  0.3176020596  9.0626050458
H   16.5195758030 -2.0890426793 -0.8769137207
H   16.9185105104 -5.9127149243 -2.8910148238
H   15.2044948849 -6.9238313307 -1.4007614781
H   13.4083457094 -6.2876671071  0.8608866513
H   18.1443157168 -4.0047274525 -3.3938401100
C   9.8377101067 -4.7534478510  10.8219104486
O   12.0777937837 -5.5811188818  11.3064343004
C   11.1261348144 -5.1293026101  10.4064791799
O   7.6557972846 -3.8939844218  10.2058716905
C   11.5017369073 -5.0604406506  9.0467073404
O   6.1450249935 -3.0487901457  5.9364894362
C   10.5980348289 -4.6090552406  8.1076429507
O   4.4852930864 -4.3553619702  4.4355197033
C   9.2764966271 -4.2411947157  8.4762102165
O   6.2997991040 -6.1372463130  0.3302769376
C   8.9331904461 -4.3100726185  9.8635054013
C   8.2801837664 -3.7674967008  7.5678725281
C   8.3719554607 -3.8967793080  6.1193304506
C   7.0830669496 -3.7165830676  5.4055076480
C   6.8887238620 -4.3592258262  4.0923976098
C   7.9568247615 -4.6770998371  3.2316263265
C   5.5559486081 -4.6626099356  3.6490159546
C   7.7443608231 -5.2674374378  1.9992650367
C   5.3384739360 -5.2779496116  2.4129156183
C   6.4369769689 -5.5646541933  1.5766367407
C   3.9072463857 -5.6219474721  1.9744852417
C   3.5331552177 -7.0999579216  1.8125609044
C   3.4811752498 -8.0175217193  2.8045645575
C   3.0251667846 -9.4243311348  2.5178768799
C   3.9907931503 -7.7340725971  4.2003795059
H   9.5562958262 -4.8029741808  11.8754509182
H   12.5111523406 -5.3635277009  8.7905857822
H   10.8927639539 -4.5059809215  7.0681010675
H   11.7318960523 -5.5593866014  12.2213882000
H   7.4914843070 -4.0108702301  11.1624813148
H   7.2872967360 -3.6979702245  8.0027017763
H   8.9745628604 -4.7062684376  5.7460793259
H   8.9620347012 -4.4150114084  3.5176971125
H   8.5533854736 -5.5169551415  1.3247061045
H   4.8373284954 -3.7699645218  5.1713102402
H   5.3624244404 -6.2597576757  0.0917061381
H   3.2561941040 -5.1569856546  2.7240100661
H   3.6940729641 -5.1405887126  1.0093738840
H   3.2145853602 -7.4014083256  0.8134231269
H   2.3614973499 -9.7825994706  3.3123690617
H   3.8813697653 -10.1116044040  2.5004033768
H   2.5021273253 -9.4955895554  1.5596259462
H   5.0887100037 -7.7159813888  4.2177071752
H   3.6639999327 -8.5115194832  4.8973150747
H   3.6454379008 -6.7632580578  4.5726080897
84
Scanning combination 160/256: [2.1000, 2.1000]  Energy = -386.1899365183
O   10.6870214351 -5.5557081059  4.9920261800
O   11.3318581134 -0.8458478276  4.0597029876
O   17.7792561478 -3.3569506517 -2.7545176900
O   14.5151140045 -3.1150289181  0.8560502093
C   12.7949635927 -3.8480685196  2.4718701228
C   12.5723257079 -2.4877671426  2.8004299052
C   12.1351419112 -4.8633996761  3.1989801745
C   11.6255573045 -2.1729839096  3.7675102368
C   11.2571048302 -4.5238968316  4.2294099421
C   10.9172986061 -3.1746625157  4.4934379893
C   9.8834093881 -2.6167927520  5.4096621762
C   10.3741329740 -1.7685550612  6.4810646241
C   9.5977146530 -1.2120496892  7.4921518717
C   8.2498036977 -1.6159928630  7.6860253379
C   10.2815021084 -0.2304311160  8.4197705362
C   14.8805197999 -5.0946014003 -0.2820870512
C   15.2653335678 -3.7201195333 -0.1781308958
C   16.2109377484 -3.1281118140 -0.9702511181
C   16.8156733728 -3.9420980544 -1.9517290174
C   16.4498060811 -5.3098029218 -2.1112240831
C   15.4913481904 -5.8810802252 -1.2800913409
C   13.9029556723 -5.3392691875  0.7115770633
C   13.6741105379 -4.1602898983  1.4068853532
H   13.1387591907 -1.7201125690  2.2801271547
H   12.3287149994 -5.9037738411  2.9681516347
H   11.1349408441 -6.4028341400  4.7850396591
H   11.7824375722 -0.2481571381  3.4362062722
H   9.1145766042 -2.1177486114  4.8147262154
H   11.4380396891 -1.5423844825  6.5152374562
H   7.5620009290 -1.5467152228  6.8431601465
H   7.8055482025 -1.4433046402  8.6626652296
H   10.8518601182  0.4972393849  7.8347278017
H   11.0066523485 -0.7431912319  9.0646559671
H   9.5628255291  0.3021849287  9.0487252228
H   16.5149072258 -2.0874968594 -0.8779802543
H   16.9188154903 -5.9136853549 -2.8862464056
H   15.2066038229 -6.9245533399 -1.3940132592
H   13.4104102421 -6.2880630421  0.8664534263
H   18.1418461305 -4.0047151019 -3.3929949744
C   9.8377964231 -4.7572904699  10.8242225810
O   12.0782348120 -5.5827700029  11.3106573804
C   11.1247495229 -5.1380859570  10.4086847127
O   7.6562351981 -3.8967147175  10.2048510095
C   11.5019572089 -5.0666190660  9.0497583578
O   6.1427760699 -3.0493825608  5.9341682689
C   10.6009746771 -4.5989557703  8.1120692580
O   4.4863124668 -4.3499000467  4.4310640325
C   9.2858330914 -4.2191853133  8.4833025738
O   6.2981945788 -6.1394187579  0.3289607521
C   8.9387305297 -4.3006652389  9.8651959390
C   8.2869502850 -3.7126837705  7.5748283388
C   8.3703669875 -3.8903011713  6.1161009764
C   7.0844718856 -3.7155284498  5.4035217227
C   6.8903818170 -4.3592930724  4.0901795637
C   7.9584384049 -4.6796658481  3.2297555094
C   5.5569829738 -4.6618773031  3.6469838430
C   7.7451633647 -5.2684020522  1.9959517847
C   5.3388939763 -5.2775466070  2.4110492398
C   6.4368399756 -5.5636585436  1.5738441531
C   3.9070886808 -5.6211951801  1.9739128800
C   3.5338543020 -7.0993016112  1.8126233312
C   3.4816783707 -8.0160942505  2.8052471051
C   3.0249948774 -9.4227427487  2.5191588287
C   3.9913938868 -7.7320390032  4.2009043933
H   9.5553251882 -4.8076788991  11.8774881871
H   12.5110983610 -5.3697075942  8.7925548645
H   10.8938306243 -4.5124077565  7.0707327215
H   11.7299422359 -5.5651840807  12.2248125725
H   7.4949269436 -4.0034304023  11.1625515310
H   7.2862797131 -3.7204864414  8.0014185143
H   8.9613286196 -4.7199903132  5.7715598913
H   8.9638436247 -4.4155698226  3.5145929366
H   8.5534490692 -5.5186279297  1.3200445793
H   4.8418083756 -3.7650028317  5.1666077705
H   5.3607458199 -6.2591829039  0.0888346373
H   3.2568409666 -5.1566299689  2.7244588597
H   3.6920414976 -5.1397743455  1.0091870056
H   3.2175573658 -7.4022253424  0.8132623822
H   2.3596056479 -9.7797330906  3.3126851584
H   3.8805183225 -10.1108157274  2.5039380224
H   2.5035553686 -9.4946172914  1.5601141473
H   5.0893270655 -7.7141355119  4.2180418028
H   3.6644831975 -8.5093503717  4.8978744954
H   3.6461044461 -6.7611145230  4.5730616710
84
Scanning combination 161/256: [2.1000, 2.0000]  Energy = -386.1950157877
O   10.6928675607 -5.5469343066  4.9957455197
O   11.3179349324 -0.8431376868  4.0365607846
O   17.7759173224 -3.3567754219 -2.7595192321
O   14.5131036493 -3.1127844632  0.8493154039
C   12.7977684536 -3.8461455330  2.4674523071
C   12.5691820626 -2.4846333267  2.7870044331
C   12.1438085123 -4.8619455846  3.1992731391
C   11.6204785729 -2.1697995901  3.7514265777
C   11.2634133493 -4.5204008338  4.2265976383
C   10.9181104962 -3.1723271829  4.4819610205
C   9.8835875182 -2.6184968486  5.3959404014
C   10.3772563031 -1.7682178651  6.4700743410
C   9.6090556443 -1.2345245470  7.4903325026
C   8.2589491406 -1.6741639215  7.7075776281
C   10.2685280680 -0.2374728199  8.4106759263
C   14.8854257119 -5.0958038570 -0.2803102572
C   15.2648624411 -3.7191894689 -0.1821992814
C   16.2077674524 -3.1265094076 -0.9759823409
C   16.8149388052 -3.9422724026 -1.9540651856
C   16.4541397654 -5.3122344754 -2.1081410748
C   15.4982279535 -5.8841824286 -1.2746456775
C   13.9099121560 -5.3406607534  0.7147582921
C   13.6774495314 -4.1593988908  1.4046116783
H   13.1327745281 -1.7177140256  2.2622313189
H   12.3426696670 -5.9021692948  2.9722983450
H   11.1377068601 -6.3959768674  4.7914035493
H   11.7640423828 -0.2456030096  3.4098321345
H   9.1221608716 -2.1123362568  4.7981461698
H   11.4388720800 -1.5265614535  6.4865694003
H   7.5491560435 -1.4892621173  6.9020514945
H   7.8601265805 -1.5049664852  8.7041058899
H   10.8290560845  0.4994771869  7.8269802129
H   10.9960827888 -0.7312527311  9.0682001552
H   9.5323994974  0.2807975462  9.0312959019
H   16.5071621310 -2.0841218499 -0.8865672107
H   16.9247786520 -5.9175036011 -2.8807896221
H   15.2165959489 -6.9291403542 -1.3830140031
H   13.4202142599 -6.2900652281  0.8739383616
H   18.1398567774 -4.0059041063 -3.3956341973
C   9.8359607458 -4.7577082824  10.8313439015
O   12.0724550291 -5.5980959384  11.3101852706
C   11.1207858625 -5.1409178122  10.4116267844
O   7.6585483880 -3.8805758856  10.2164297444
C   11.4956022221 -5.0669117062  9.0524931751
O   6.1508263420 -3.0374786290  5.9259894080
C   10.5930176708 -4.5910552586  8.1181581815
O   4.4904528335 -4.3402269514  4.4247463563
C   9.2840216554 -4.2103116481  8.4954075013
O   6.2985885863 -6.1400252599  0.3263246591
C   8.9379107767 -4.2935610698  9.8731270358
C   8.2816687564 -3.6701616112  7.5837178882
C   8.3710000084 -3.8860686655  6.1139358696
C   7.0898745050 -3.7127406247  5.4003063475
C   6.8942147577 -4.3583959362  4.0875727554
C   7.9615384019 -4.6841275426  3.2292725960
C   5.5608985600 -4.6572362587  3.6427433979
C   7.7470641529 -5.2703210805  1.9939215618
C   5.3413453575 -5.2749150412  2.4078599064
C   6.4385342120 -5.5636352752  1.5709416428
C   3.9089039427 -5.6192435696  1.9724411611
C   3.5361441408 -7.0977031119  1.8122561269
C   3.4826578662 -8.0129163850  2.8063973920
C   3.0243489233 -9.4195786446  2.5227662946
C   3.9925651012 -7.7271106201  4.2017445729
H   9.5488471719 -4.8249307260  11.8823417284
H   12.4981050669 -5.3873900298  8.7907765010
H   10.8857384976 -4.4976349012  7.0769399167
H   11.7274169033 -5.5793449255  12.2256065705
H   7.4980881102 -3.9915128771  11.1732547921
H   7.2776671333 -3.7638590498  7.9991596127
H   8.9453454999 -4.7406358839  5.8057768675
H   8.9669867635 -4.4288221177  3.5208180572
H   8.5541999989 -5.5199962279  1.3167840204
H   4.8473291536 -3.7542489279  5.1584467601
H   5.3608059489 -6.2558102279  0.0850916254
H   3.2593710462 -5.1553685887  2.7240384976
H   3.6912486491 -5.1380822126  1.0080498975
H   3.2231479925 -7.4029570382  0.8124870676
H   2.3550703015 -9.7728298669  3.3147544239
H   3.8785886741 -10.1093453064  2.5132115995
H   2.5066528350 -9.4931510681  1.5618371946
H   5.0905013667 -7.7095723885  4.2187160588
H   3.6655140486 -8.5034099327  4.8997983382
H   3.6478405301 -6.7555636710  4.5728915569
84
Scanning combination 162/256: [2.1000, 1.9000]  Energy = -386.2016841169
O   10.6938279110 -5.5469594168  4.9965404543
O   11.3137336325 -0.8425242930  4.0329358709
O   17.7761756657 -3.3566217169 -2.7613415375
O   14.5130246957 -3.1127789948  0.8479991923
C   12.7972855987 -3.8459882068  2.4670927755
C   12.5669209167 -2.4847986852  2.7858409203
C   12.1444428734 -4.8615785975  3.1999548985
C   11.6191106230 -2.1690241639  3.7498200360
C   11.2645546504 -4.5205208137  4.2270608695
C   10.9183038573 -3.1717519114  4.4803179211
C   9.8857287600 -2.6162336301  5.3902077530
C   10.3798666699 -1.7686768983  6.4685213486
C   9.6156385474 -1.2470877522  7.4917052413
C   8.2621823810 -1.7230901723  7.7152758186
C   10.2603189744 -0.2417344669  8.4062077777
C   14.8866069736 -5.0963094115 -0.2804242167
C   15.2652156565 -3.7194566503 -0.1833546652
C   16.2078830615 -3.1264535548 -0.9777350716
C   16.8156289537 -3.9423994762 -1.9555094220
C   16.4556487276 -5.3127730700 -2.1084553271
C   15.5002059328 -5.8849724984 -1.2745399434
C   13.9114452361 -5.3408085605  0.7152291784
C   13.6779763657 -4.1594623050  1.4046183477
H   13.1300827806 -1.7186263591  2.2607575761
H   12.3447972678 -5.9015638591  2.9744745178
H   11.1395310088 -6.3957667375  4.7916462515
H   11.7609778627 -0.2465197041  3.4053268824
H   9.1189441579 -2.1126069472  4.7975904831
H   11.4385054076 -1.5201137626  6.4840825742
H   7.5497025976 -1.5004406380  6.9213882915
H   7.8627618477 -1.5193518091  8.7053268485
H   10.8234702800  0.4957216468  7.8271234804
H   10.9911952364 -0.7269862191  9.0644114999
H   9.5317231359  0.2811078214  9.0317339393
H   16.5065425536 -2.0838296968 -0.8892374217
H   16.9267360162 -5.9183486012 -2.8808580129
H   15.2192922326 -6.9303683440 -1.3822343843
H   13.4226199865 -6.2908039563  0.8745376770
H   18.1403012134 -4.0062800999 -3.3969565936
C   9.8337958013 -4.7621933935  10.8287735419
O   12.0713143312 -5.6003798912  11.3093712789
C   11.1192481133 -5.1422497298  10.4112375712
O   7.6577750068 -3.8785708485  10.2159452718
C   11.4914126030 -5.0697777684  9.0520926075
O   6.1506758035 -3.0370795253  5.9242304873
C   10.5878252271 -4.5906399206  8.1188651899
O   4.4917469059 -4.3380653360  4.4252416114
C   9.2868335883 -4.1994099259  8.4992078046
O   6.2995096529 -6.1392673473  0.3258619737
C   8.9370966569 -4.2917231029  9.8709888767
C   8.2845102671 -3.6186321540  7.5876316064
C   8.3685015145 -3.8762275923  6.1117432540
C   7.0909469677 -3.7140376025  5.4009909475
C   6.8950004081 -4.3611169503  4.0877159956
C   7.9619588619 -4.6846701707  3.2285652375
C   5.5612774162 -4.6558479781  3.6423677836
C   7.7474217047 -5.2709680864  1.9935213442
C   5.3415057636 -5.2739336264  2.4074537525
C   6.4388871594 -5.5641315085  1.5710319539
C   3.9093351214 -5.6188628480  1.9724720854
C   3.5368646499 -7.0974400335  1.8124214191
C   3.4829652026 -8.0123639098  2.8066219342
C   3.0242782165 -9.4189827395  2.5234196994
C   3.9927863513 -7.7262512670  4.2019338282
H   9.5491824198 -4.8253127877  11.8806467332
H   12.4944679571 -5.3861254817  8.7906120695
H   10.8832047195 -4.4966156790  7.0785814866
H   11.7263746593 -5.5814389471  12.2249238050
H   7.4993158662 -3.9890338997  11.1735846663
H   7.2833794313 -3.7611684209  7.9955399674
H   8.9411744565 -4.7341785139  5.8163723331
H   8.9677485464 -4.4318663455  3.5208935192
H   8.5550522264 -5.5205568496  1.3172688200
H   4.8491643840 -3.7510720405  5.1588100667
H   5.3616635152 -6.2547276622  0.0852926716
H   3.2599871890 -5.1547482882  2.7240841562
H   3.6922577301 -5.1377745752  1.0080228276
H   3.2240335144 -7.4026109866  0.8125543488
H   2.3543713907 -9.7714228276  3.3152220664
H   3.8782851232 -10.1090336867  2.5148214890
H   2.5071583406 -9.4928850204  1.5621869455
H   5.0907126384 -7.7087936671  4.2189164002
H   3.6655699482 -8.5023314191  4.9001122091
H   3.6482474505 -6.7545002911  4.5727476251
84
Scanning combination 163/256: [2.1000, 1.8000]  Energy = -386.2092424627
O   10.7072749046 -5.5307632945  5.0049314545
O   11.2746800569 -0.8370440600  3.9674063188
O   17.7747541010 -3.3577304604 -2.7824044619
O   14.5131865863 -3.1140814613  0.8292365722
C   12.8034199566 -3.8467744219  2.4559710082
C   12.5553640520 -2.4835665382  2.7538139383
C   12.1616766718 -4.8578780613  3.2047673883
C   11.6004689190 -2.1637844854  3.7108409088
C   11.2740929091 -4.5107538346  4.2242535438
C   10.9134738030 -3.1622530054  4.4607328391
C   9.8807871270 -2.6080760931  5.3745752953
C   10.3699849453 -1.7567263750  6.4581834109
C   9.6172244150 -1.2730800458  7.5020277102
C   8.2747353334 -1.8014715097  7.7753875487
C   10.2288767881 -0.2390480949  8.4026462207
C   14.9051139109 -5.1038256656 -0.2816232808
C   15.2702586335 -3.7227263026 -0.1974128663
C   16.2058935296 -3.1273142550 -0.9989876062
C   16.8207112167 -3.9458153535 -1.9704460869
C   16.4741072834 -5.3208635752 -2.1107246713
C   15.5252456389 -5.8949737702 -1.2701736662
C   13.9332246575 -5.3487513817  0.7178585764
C   13.6883339441 -4.1634150474  1.3969932365
H   13.1119544176 -1.7195765817  2.2182924191
H   12.3766593546 -5.8993599969  2.9972591333
H   11.1448164925 -6.3834002316  4.7988068528
H   11.7221726364 -0.2459670625  3.3349550097
H   9.1170842552 -2.1015130882  4.7804490419
H   11.4191304422 -1.4594303580  6.4343080722
H   7.5192110672 -1.4979602530  7.0518367885
H   7.9471781992 -1.6175083640  8.7976403863
H   10.7666648192  0.5104127905  7.8134081111
H   10.9706471955 -0.6899534307  9.0755855548
H   9.4781684688  0.2673183395  9.0162916351
H   16.4941832510 -2.0811831362 -0.9207270991
H   16.9503297827 -5.9285004120 -2.8783591010
H   15.2546976270 -6.9438690078 -1.3692268383
H   13.4541525794 -6.3019934756  0.8866510720
H   18.1449471798 -4.0092484122 -3.4126086827
C   9.8193912959 -4.7785050951  10.8325974686
O   12.0503874526 -5.6386365281  11.3014444029
C   11.1002066271 -5.1675363909  10.4073094086
O   7.6570213433 -3.8533242297  10.2286983583
C   11.4748437864 -5.0838952834  9.0492417479
O   6.1625559572 -3.0131373118  5.9165735277
C   10.5722648861 -4.5906723622  8.1210080932
O   4.4999076214 -4.3184717769  4.4246340640
C   9.2752486744 -4.2093427355  8.5074070947
O   6.3081536765 -6.1301361933  0.3287885789
C   8.9262533786 -4.2932283303  9.8769999604
C   8.2771391926 -3.5925773854  7.5970290951
C   8.3710910237 -3.8674419634  6.1128110697
C   7.0994344787 -3.7032352089  5.4019751528
C   6.9024274787 -4.3590420154  4.0928494193
C   7.9704412598 -4.6974293505  3.2411279801
C   5.5687535345 -4.6464282784  3.6450600987
C   7.7569688869 -5.2781284243  2.0035202592
C   5.3496227176 -5.2665743492  2.4109857628
C   6.4477520147 -5.5602094623  1.5762395334
C   3.9179689158 -5.6112321991  1.9750445092
C   3.5451819614 -7.0898667568  1.8156571759
C   3.4873620230 -8.0029868493  2.8113204025
C   3.0239674563 -9.4088555548  2.5321789340
C   3.9963432411 -7.7145656679  4.2064183543
H   9.5358361950 -4.8476772914  11.8843226957
H   12.4756309424 -5.4039297198  8.7829045656
H   10.8646182174 -4.4773941636  7.0814972638
H   11.7106279004 -5.6141143545  12.2183848994
H   7.4966429833 -3.9691124434  11.1850637162
H   7.2754806150 -3.7966198893  7.9844284502
H   8.9383302177 -4.7344154213  5.8324459485
H   8.9772731628 -4.4610941811  3.5419560607
H   8.5656256369 -5.5309988004  1.3293758319
H   4.8617083789 -3.7279596680  5.1542684932
H   5.3701775598 -6.2399678611  0.0860684613
H   3.2678158463 -5.1459604584  2.7252902938
H   3.7034403211 -5.1308973510  1.0097548156
H   3.2359271468 -7.3962192466  0.8151932386
H   2.3454171819 -9.7527829482  3.3204223017
H   3.8742277657 -10.1034873228  2.5361251360
H   2.5147453954 -9.4866290715  1.5670742451
H   5.0942858201 -7.7002848404  4.2239774594
H   3.6660436282 -8.4877221905  4.9062567179
H   3.6543039512 -6.7406063607  4.5738355455
84
Scanning combination 164/256: [2.1000, 1.7000]  Energy = -386.2152394052
O   10.7090274744 -5.5304512166  5.0066753176
O   11.2696574002 -0.8375652474  3.9666054255
O   17.7736189537 -3.3579491358 -2.7836564893
O   14.5121807789 -3.1135045683  0.8282283284
C   12.8026944137 -3.8459393069  2.4556913936
C   12.5530692950 -2.4825501562  2.7523923088
C   12.1627931711 -4.8570393895  3.2058730071
C   11.5995752152 -2.1634296222  3.7106622587
C   11.2759860739 -4.5106535501  4.2259319445
C   10.9154986658 -3.1623926916  4.4615849977
C   9.8834781037 -2.6070477806  5.3707035924
C   10.3722037908 -1.7578059389  6.4567090744
C   9.6222328820 -1.2837173026  7.5006865879
C   8.2826339073 -1.8479944298  7.7720640615
C   10.2209313207 -0.2437886049  8.3983281631
C   14.9061437238 -5.1040956709 -0.2805061774
C   15.2698263773 -3.7225163805 -0.1978688328
C   16.2050276420 -3.1272589838 -1.0000463611
C   16.8205679674 -3.9461528653 -1.9707501216
C   16.4750412967 -5.3215957405 -2.1097312694
C   15.5267601251 -5.8956562185 -1.2684971873
C   13.9345568649 -5.3489805283  0.7195629058
C   13.6881281323 -4.1628237055  1.3970043415
H   13.1071979031 -1.7181822558  2.2155898393
H   12.3785666153 -5.8984344543  2.9997441087
H   11.1483876575 -6.3820290139  4.7987938102
H   11.7145745673 -0.2456218710  3.3335331654
H   9.1213423201 -2.0983811888  4.7767818318
H   11.4189963780 -1.4574028336  6.4363155781
H   7.5282503346 -1.5130038741  7.0598159250
H   7.9481754588 -1.6306893717  8.7844552252
H   10.7600270078  0.5045006625  7.8090464115
H   10.9671967720 -0.6895184916  9.0694208994
H   9.4724676477  0.2647616613  9.0134037346
H   16.4926416404 -2.0807937347 -0.9232582362
H   16.9515876182 -5.9294076918 -2.8770007128
H   15.2574251295 -6.9448931915 -1.3666542864
H   13.4564821092 -6.3023137796  0.8894582992
H   18.1445485696 -4.0095847284 -3.4133037884
C   9.8187697409 -4.7813138917  10.8295390231
O   12.0493637106 -5.6426832417  11.3004076371
C   11.1003956609 -5.1677205422  10.4062350757
O   7.6537452889 -3.8619868415  10.2272665732
C   11.4730509712 -5.0851104301  9.0483991937
O   6.1554241888 -3.0131203670  5.9163536579
C   10.5712200364 -4.5874151627  8.1201995082
O   4.5003288777 -4.3180320516  4.4217667107
C   9.2803542279 -4.1910730187  8.5096155619
O   6.3073770567 -6.1306865686  0.3275241407
C   8.9269536346 -4.2906078497  9.8747903521
C   8.2801545937 -3.5397960071  7.6056734346
C   8.3668537738 -3.8520920036  6.1189631083
C   7.0978437773 -3.7001523612  5.4059044709
C   6.9037458514 -4.3585284155  4.0940327651
C   7.9709232775 -4.6972747248  3.2410691761
C   5.5702485134 -4.6459564764  3.6442581382
C   7.7565923169 -5.2797388751  2.0036073403
C   5.3502026901 -5.2665901620  2.4100465524
C   6.4476178805 -5.5613735006  1.5753476211
C   3.9179929511 -5.6103529158  1.9742599323
C   3.5449725252 -7.0889115335  1.8155847786
C   3.4876930174 -8.0017232932  2.8119003755
C   3.0241088404 -9.4075199380  2.5330557649
C   3.9967537101 -7.7133421890  4.2070235214
H   9.5334505532 -4.8504840983  11.8803655685
H   12.4736093317 -5.4063034736  8.7835067843
H   10.8665290165 -4.4827203578  7.0804945956
H   11.7089477686 -5.6182790322  12.2170593678
H   7.4989690216 -3.9721139496  11.1849839672
H   7.2846767064 -3.7906393350  7.9875346328
H   8.9341274711 -4.7240579851  5.8591039459
H   8.9782906036 -4.4618583250  3.5408973916
H   8.5649949273 -5.5334860740  1.3294084331
H   4.8605406990 -3.7266528799  5.1517152051
H   5.3693839447 -6.2392905848  0.0841326757
H   3.2685577690 -5.1447828501  2.7248962561
H   3.7021927410 -5.1300822695  1.0090821194
H   3.2368890207 -7.3962763964  0.8151033303
H   2.3446749534 -9.7507827902  3.3208514323
H   3.8740325468 -10.1025410700  2.5380086773
H   2.5157213639 -9.4852703796  1.5675375653
H   5.0947067052 -7.6996083879  4.2251410557
H   3.6660091651 -8.4862682404  4.9069635287
H   3.6552421875 -6.7392747537  4.5745830959
84
Scanning combination 165/256: [2.1000, 1.6000]  Energy = -386.2172168489
O   10.7105121254 -5.5287460853  5.0090755860
O   11.2662550463 -0.8380607197  3.9631830877
O   17.7723376993 -3.3581035780 -2.7850756427
O   14.5108750101 -3.1126080941  0.8264230505
C   12.8037953686 -3.8452606756  2.4551918714
C   12.5524050518 -2.4816472599  2.7489707690
C   12.1654436851 -4.8574097086  3.2069670318
C   11.5989997355 -2.1628577136  3.7059679785
C   11.2771292863 -4.5105067064  4.2256962395
C   10.9162238843 -3.1623994931  4.4571271659
C   9.8879994861 -2.6039550614  5.3641781362
C   10.3782244964 -1.7596303159  6.4550040254
C   9.6269359068 -1.3012342214  7.5005002312
C   8.2899631512 -1.8963801302  7.7727981511
C   10.2103228328 -0.2518818049  8.3951069631
C   14.9073973332 -5.1044728827 -0.2791700312
C   15.2695482759 -3.7221843038 -0.1984758974
C   16.2038920373 -3.1271220228 -1.0016003314
C   16.8199104526 -3.9464063045 -1.9712510449
C   16.4760813189 -5.3224195355 -2.1082976817
C   15.5289066405 -5.8964865630 -1.2661232498
C   13.9363078100 -5.3488889982  0.7209660643
C   13.6885485727 -4.1624265541  1.3967475178
H   13.1035236663 -1.7159302548  2.2101697825
H   12.3823740717 -5.8983514950  3.0013792994
H   11.1481537527 -6.3810410290  4.8007030286
H   11.7073972264 -0.2439766640  3.3294433369
H   9.1281779165 -2.0919611294  4.7698389509
H   11.4247515835 -1.4522203196  6.4262086645
H   7.5427877680 -1.5352665620  7.0632342028
H   7.9573123548 -1.6569930056  8.7843775353
H   10.7421627704  0.4991389332  7.8014698029
H   10.9599062982 -0.6877403282  9.0705268890
H   9.4543006274  0.2518279161  9.0044935189
H   16.4902769361 -2.0800724180 -0.9259690224
H   16.9531117436 -5.9307426324 -2.8750402287
H   15.2605153393 -6.9462107496 -1.3628622331
H   13.4595496308 -6.3028741750  0.8928924419
H   18.1438072928 -4.0101692313 -3.4139873365
C   9.8161855739 -4.7821677103  10.8284934142
O   12.0464066139 -5.6463387408  11.2967304035
C   11.0968161984 -5.1708504408  10.4039974784
O   7.6490939604 -3.8653669084  10.2275289492
C   11.4700388701 -5.0864680704  9.0465510678
O   6.1476991907 -3.0126944686  5.9176035066
C   10.5697161497 -4.5787829124  8.1195374414
O   4.5001889509 -4.3165810575  4.4209249965
C   9.2845602630 -4.1684852798  8.5117066995
O   6.3083902988 -6.1303818021  0.3287770396
C   8.9271768386 -4.2817437925  9.8737652833
C   8.2875575683 -3.4881820405  7.6113910674
C   8.3655209752 -3.8342776545  6.1247978041
C   7.0966582994 -3.6945508281  5.4111723527
C   6.9047401719 -4.3591750561  4.0984568433
C   7.9713151512 -4.6977619320  3.2446154001
C   5.5713315117 -4.6456360670  3.6461381094
C   7.7572018741 -5.2800039835  2.0063348762
C   5.3514253160 -5.2653173954  2.4109143764
C   6.4484370897 -5.5605301262  1.5765834144
C   3.9192475322 -5.6091487815  1.9745149310
C   3.5458696270 -7.0878162105  1.8161566271
C   3.4881013144 -8.0001278615  2.8125459948
C   3.0241045157 -9.4059782435  2.5341230105
C   3.9971449734 -7.7116317149  4.2076934135
H   9.5307863485 -4.8572259152  11.8787088718
H   12.4685357363 -5.4101730062  8.7793881313
H   10.8650980749 -4.4826523268  7.0787600439
H   11.7067404822 -5.6233194257  12.2141259812
H   7.4967631347 -3.9767203706  11.1850320171
H   7.2999525597 -3.7830673208  7.9852929780
H   8.9276000776 -4.7153705197  5.8862724532
H   8.9793079764 -4.4631744756  3.5432535324
H   8.5651041863 -5.5353296328  1.3323404307
H   4.8604625593 -3.7246567170  5.1511138418
H   5.3705932825 -6.2374325588  0.0837216149
H   3.2694948843 -5.1435629317  2.7247838124
H   3.7031241916 -5.1295088402  1.0090618428
H   3.2378069740 -7.3957865842  0.8157465641
H   2.3437052227 -9.7484075144  3.3214473188
H   3.8737924314 -10.1013216060  2.5404961680
H   2.5167363960 -9.4840996496  1.5681065056
H   5.0951319245 -7.6986873898  4.2258546433
H   3.6658236686 -8.4843178789  4.9076069461
H   3.6561217688 -6.7373000957  4.5750255887
84
Scanning combination 166/256: [2.1000, 1.5000]  Energy = -386.2123194929
O   10.7099487770 -5.5285978671  5.0091495631
O   11.2666831732 -0.8381633133  3.9638119276
O   17.7723661365 -3.3581093810 -2.7847754768
O   14.5109418367 -3.1126384897  0.8266783124
C   12.8037381723 -3.8454562184  2.4553583512
C   12.5527772526 -2.4815134789  2.7492060641
C   12.1650933372 -4.8573553725  3.2068769463
C   11.5994755914 -2.1629016665  3.7063716989
C   11.2771527443 -4.5109387776  4.2255946646
C   10.9164292058 -3.1624041194  4.4568434439
C   9.8890656697 -2.6038708525  5.3617231234
C   10.3789837486 -1.7610301091  6.4553520929
C   9.6277675707 -1.3128337698  7.5011100523
C   8.2953881072 -1.9445932464  7.7714905778
C   10.2046211737 -0.2570247508  8.3939064608
C   14.9072295851 -5.1043345516 -0.2792710984
C   15.2695447565 -3.7221675347 -0.1983652924
C   16.2038889040 -3.1271298560 -1.0012169385
C   16.8200142272 -3.9463340400 -1.9711649849
C   16.4759337539 -5.3223114887 -2.1084433556
C   15.5285029636 -5.8964447761 -1.2663039327
C   13.9359421484 -5.3489279426  0.7208537646
C   13.6884005101 -4.1623922719  1.3968585103
H   13.1038737857 -1.7159455587  2.2108511042
H   12.3818481239 -5.8984925363  3.0010727391
H   11.1479719152 -6.3809445861  4.8007229790
H   11.7077600580 -0.2439594180  3.3304837088
H   9.1287510833 -2.0907590742  4.7692952883
H   11.4238180011 -1.4515755444  6.4257246595
H   7.5535526066 -1.5484387153  7.0704702842
H   7.9608844359 -1.6730903906  8.7759470978
H   10.7382725756  0.4945369705  7.8008452182
H   10.9576123006 -0.6887962762  9.0692887981
H   9.4512801886  0.2496428253  9.0042101074
H   16.4905693929 -2.0801410365 -0.9255903297
H   16.9528142457 -5.9305446670 -2.8751747488
H   15.2600786298 -6.9459431651 -1.3632522576
H   13.4590843722 -6.3027021520  0.8925946038
H   18.1438586287 -4.0100926938 -3.4138614515
C   9.8146861292 -4.7823646388  10.8263810775
O   12.0457359603 -5.6452002789  11.2961576630
C   11.0955930735 -5.1704221462  10.4030509563
O   7.6464247272 -3.8658302435  10.2275829842
C   11.4669023028 -5.0859648209  9.0457164285
O   6.1426594504 -3.0119808880  5.9162728825
C   10.5660883801 -4.5754786699  8.1190938671
O   4.5005173812 -4.3169844920  4.4205271232
C   9.2850074245 -4.1530036039  8.5114380307
O   6.3080924856 -6.1305444490  0.3284799884
C   8.9257291309 -4.2776786858  9.8712148522
C   8.2935045600 -3.4362896126  7.6142120069
C   8.3622331880 -3.8243373112  6.1294606922
C   7.0961217603 -3.6930234592  5.4148889549
C   6.9053459988 -4.3599239677  4.0997851282
C   7.9715828779 -4.6978572817  3.2446946337
C   5.5719880830 -4.6460437696  3.6466535323
C   7.7568587818 -5.2799140777  2.0061276298
C   5.3514947411 -5.2653650346  2.4109356810
C   6.4484020935 -5.5605728148  1.5761957371
C   3.9192238721 -5.6092433944  1.9744717663
C   3.5458109613 -7.0879849755  1.8161416344
C   3.4880429051 -8.0002629801  2.8124149459
C   3.0241111588 -9.4061330620  2.5339922354
C   3.9971053024 -7.7117967494  4.2075780708
H   9.5305461216 -4.8564969462  11.8772964933
H   12.4666859153 -5.4091236476  8.7789416507
H   10.8651464630 -4.4837132987  7.0782695399
H   11.7069496194 -5.6225757420  12.2137072014
H   7.4971365329 -3.9766602037  11.1857166138
H   7.3160932843 -3.7733322057  7.9789443365
H   8.9232091436 -4.7094825780  5.9003636084
H   8.9797076530 -4.4631947755  3.5422987981
H   8.5648001039 -5.5351954192  1.3317647776
H   4.8608410361 -3.7247919872  5.1511329155
H   5.3701813647 -6.2377625476  0.0835317163
H   3.2695000606 -5.1437236566  2.7248158312
H   3.7028758714 -5.1296333852  1.0090127406
H   3.2376618010 -7.3959157505  0.8156718645
H   2.3438200850 -9.7487097136  3.3213606050
H   3.8738171608 -10.1014322445  2.5401861185
H   2.5166190245 -9.4842454464  1.5680477147
H   5.0950696509 -7.6987883916  4.2257276119
H   3.6658355525 -8.4845528374  4.9074872432
H   3.6560561111 -6.7375306488  4.5749642087
84
Scanning combination 167/256: [2.0000, 2.9000]  Energy = -386.2054055925
O   10.6526225999 -5.6312504185  4.9609157388
O   11.4167316690 -0.8904016311  4.2626624143
O   17.7902138975 -3.3714598435 -2.6754377725
O   14.5073345323 -3.1124559564  0.9182096271
C   12.7762067669 -3.8503817761  2.5207717792
C   12.6051520958 -2.5043813336  2.9242515201
C   12.0845563120 -4.8777937453  3.1953344113
C   11.6637427122 -2.2105397190  3.9044783824
C   11.2233015591 -4.5664526729  4.2474293808
C   10.9132404008 -3.2211566220  4.5678906997
C   9.8480632124 -2.6568903436  5.4646249097
C   10.3198807161 -1.8124101121  6.5445816859
C   9.4860126263 -1.0595095492  7.3987841739
C   8.1239248018 -1.0467076923  7.2873750217
C   10.1983893533 -0.2142911754  8.4604864225
C   14.8059335826 -5.0672083144 -0.2811267549
C   15.2377399762 -3.7105392548 -0.1350272653
C   16.2079053038 -3.1297918827 -0.9046427902
C   16.7962201298 -3.9406383493 -1.8988945254
C   16.3849422202 -5.2906740126 -2.0976416742
C   15.3968971412 -5.8487672714 -1.2934571334
C   13.8178844357 -5.3087076142  0.7003863881
C   13.6343712331 -4.1469999192  1.4360714985
H   13.2018960674 -1.7323567907  2.4462004600
H   12.2478150598 -5.9080512840  2.9067108604
H   11.0975610356 -6.4714500043  4.7182977108
H   11.9334775954 -0.2811065547  3.7060704185
H   9.1201073031 -2.1263431331  4.8425482595
H   11.3816597249 -1.7786707061  6.7511141782
H   7.6041060291 -1.5536865006  6.4849178846
H   7.5078125894 -0.4503630599  7.9531542127
H   10.7740354819  0.5912806910  7.9919752328
H   10.9201686401 -0.8245373385  9.0124126123
H   9.4963730078  0.2337043949  9.1689934076
H   16.5433978171 -2.1014615913 -0.7848887137
H   16.8421184815 -5.8925847834 -2.8809075379
H   15.0735562538 -6.8776480449 -1.4352076362
H   13.2883876677 -6.2427520970  0.8184128235
H   18.1428594358 -4.0208948911 -3.3177895328
C   9.9106142963 -4.7743531052  10.7990858627
O   12.1747875384 -5.5040612553  11.3259064327
C   11.2131636788 -5.1259154155  10.4032984508
O   7.7046248934 -4.0185403566  10.1482458674
C   11.5965200187 -5.0897362224  9.0433244815
O   6.2296881116 -3.0879809906  5.9366497477
C   10.6929050963 -4.6859081984  8.0819717973
O   4.5392787371 -4.4027827776  4.4882283948
C   9.3518389680 -4.3213174493  8.4289769363
O   6.2461841956 -6.1687479743  0.3305349988
C   9.0003719175 -4.3835637301  9.8246982052
C   8.3505766530 -3.9276916548  7.5289602584
C   8.4641394514 -3.9546845244  6.0975969854
C   7.1502642010 -3.7631664423  5.3882476111
C   6.9340544134 -4.3973170009  4.0808435118
C   7.9802053796 -4.7069904177  3.1883060106
C   5.5886283334 -4.7009059962  3.6700884529
C   7.7356505087 -5.3027047877  1.9640017325
C   5.3389632814 -5.2992465513  2.4332977744
C   6.4161051053 -5.5911696882  1.5710563444
C   3.8912291572 -5.6057784523  2.0202873574
C   3.4888110460 -7.0728242386  1.8405130776
C   3.4683599880 -8.0128807464  2.8120442205
C   3.0476542578 -9.4227811358  2.4895831706
C   3.9842213499 -7.7535267419  4.2099709454
H   9.6263330495 -4.7963103470  11.8535293362
H   12.6170419725 -5.3742725696  8.8056677070
H   10.9990207606 -4.6230937081  7.0443239681
H   11.8184142640 -5.4678983636  12.2362657727
H   7.5323384949 -4.1258966503  11.1044584403
H   7.4166329850 -3.6305796773  7.9805578098
H   9.0470442577 -4.7684650167  5.6866649227
H   8.9915964033 -4.4209883183  3.4352916592
H   8.5268480114 -5.5607361201  1.2705027752
H   4.9104048789 -3.8203897558  5.2170824368
H   5.3024530757 -6.2776326158  0.1107208779
H   3.2661441004 -5.1453135448  2.7944607421
H   3.6636437727 -5.0992639576  1.0714768831
H   3.1216745292 -7.3452227934  0.8500567980
H   2.4302417849 -9.8362988232  3.2939517552
H   3.9256807488 -10.0771590726  2.4069689549
H   2.4885343223 -9.4751194969  1.5505385483
H   5.0823567980 -7.7485284163  4.2251170405
H   3.6521193170 -8.5370228140  4.8976146790
H   3.6497716041 -6.7846772068  4.5969721946
84
Scanning combination 168/256: [2.0000, 2.8000]  Energy = -386.2027267214
O   10.6549456537 -5.6212605748  4.9679612116
O   11.4165416227 -0.8869792452  4.2548199400
O   17.7904310119 -3.3690772534 -2.6802515916
O   14.5092686328 -3.1130787626  0.9139451106
C   12.7784136459 -3.8498212065  2.5173406789
C   12.6058606201 -2.5018541648  2.9159446073
C   12.0889564818 -4.8763373440  3.1971524849
C   11.6649170755 -2.2065571234  3.8959223699
C   11.2269554674 -4.5612552643  4.2479820553
C   10.9148744465 -3.2158614017  4.5607805056
C   9.8546300857 -2.6485728226  5.4587339010
C   10.3366589665 -1.8188060083  6.5453044690
C   9.5010224681 -1.0841958928  7.4089749702
C   8.1352185694 -1.1073072635  7.3114002283
C   10.2052354522 -0.2222289011  8.4589527627
C   14.8110774328 -5.0696894601 -0.2824372606
C   15.2403935824 -3.7119154128 -0.1383496235
C   16.2091047491 -3.1304657750 -0.9088812299
C   16.7983773705 -3.9406002274 -1.9029117030
C   16.3897137988 -5.2914939101 -2.1004662225
C   15.4033560393 -5.8508479510 -1.2948653320
C   13.8238962821 -5.3109476556  0.7005909058
C   13.6380547258 -4.1479947712  1.4339927097
H   13.2005285079 -1.7285785034  2.4371130378
H   12.2519634433 -5.9083365241  2.9141966417
H   11.0984149683 -6.4625438300  4.7275342375
H   11.9209633629 -0.2753610567  3.6898475326
H   9.1334980817 -2.1055430801  4.8384355519
H   11.4013112551 -1.7799046658  6.7403251487
H   7.6202574697 -1.6058269447  6.5025807514
H   7.5153911854 -0.5008368603  7.9628490492
H   10.7735596013  0.5774519792  7.9727122026
H   10.9322585958 -0.8153961709  9.0231617862
H   9.4964660861  0.2302826380  9.1577102071
H   16.5426876745 -2.1014670454 -0.7900186321
H   16.8477920424 -5.8923018403 -2.8842421957
H   15.0831733007 -6.8806906176 -1.4370617906
H   13.2956045321 -6.2452461224  0.8216688299
H   18.1445554059 -4.0168661393 -3.3232723522
C   9.9081591893 -4.7660893735  10.8021191480
O   12.1686629394 -5.5123071796  11.3209138386
C   11.2092204552 -5.1185813652  10.4030127667
O   7.6956537742 -4.0276267235  10.1602568639
C   11.5885852023 -5.0802176012  9.0427408012
O   6.2118160904 -3.0895257103  5.9377081196
C   10.6843820151 -4.6721485207  8.0847217523
O   4.5312823131 -4.3992403424  4.4792490464
C   9.3440880152 -4.3045549685  8.4348645161
O   6.2459001908 -6.1666668439  0.3283834482
C   8.9960305552 -4.3709179477  9.8314244674
C   8.3456448005 -3.8901056276  7.5384771685
C   8.4560166435 -3.9246159052  6.1035306529
C   7.1415357953 -3.7513209263  5.3891668153
C   6.9290290437 -4.3959632197  4.0832164778
C   7.9761294873 -4.7093740594  3.1925462879
C   5.5842763688 -4.6991416251  3.6671294090
C   7.7324894616 -5.3002635192  1.9649206095
C   5.3363244437 -5.2973596995  2.4296354250
C   6.4143897011 -5.5903523159  1.5696742499
C   3.8898606388 -5.6077881990  2.0147109763
C   3.4891574998 -7.0759816405  1.8377482056
C   3.4678587849 -8.0142126124  2.8111632289
C   3.0453099870 -9.4244452991  2.4918953474
C   3.9850849879 -7.7529589308  4.2084110590
H   9.6218278007 -4.8046259675  11.8551778870
H   12.6050075075 -5.3755544174  8.8009380964
H   10.9882511361 -4.6208129212  7.0455306924
H   11.8171436357 -5.4743781728  12.2327490495
H   7.5335950159 -4.1264246312  11.1195396886
H   7.4078269240 -3.6146780637  7.9948114231
H   9.0394120510 -4.7446513882  5.7117356688
H   8.9880432690 -4.4314604560  3.4450889878
H   8.5230834663 -5.5549628813  1.2695581387
H   4.8990097203 -3.8175341949  5.2101137602
H   5.3026614173 -6.2779980270  0.1078117977
H   3.2624929351 -5.1459259186  2.7859512050
H   3.6626682568 -5.1049579419  1.0639275370
H   3.1256081878 -7.3517272881  0.8466670900
H   2.4254435842 -9.8343245887  3.2963932631
H   3.9224316884 -10.0806172240  2.4130750222
H   2.4880038590 -9.4780936964  1.5518111879
H   5.0832963817 -7.7478519627  4.2223938627
H   3.6537904549 -8.5355666733  4.8976389716
H   3.6509197731 -6.7835572966  4.5942726407
84
Scanning combination 169/256: [2.0000, 2.7000]  Energy = -386.1999188658
O   10.6677602838 -5.5983911061  4.9798548607
O   11.3698819108 -0.8704065321  4.1588325950
O   17.7908707536 -3.3585183903 -2.7154834549
O   14.5187710994 -3.1167007475  0.8914663829
C   12.7879414945 -3.8541780669  2.5002288018
C   12.5881412881 -2.5018306526  2.8695567059
C   12.1125068016 -4.8738918367  3.2046847748
C   11.6372814727 -2.1970535231  3.8409949509
C   11.2367218489 -4.5471977779  4.2437167189
C   10.9034206992 -3.2018347104  4.5340456944
C   9.8480149983 -2.6451007432  5.4570507930
C   10.3478912374 -1.8065948253  6.5357964548
C   9.5369430254 -1.1056552020  7.4475998326
C   8.1686209728 -1.2110629179  7.4471462271
C   10.2544965941 -0.2023840027  8.4539789630
C   14.8461344496 -5.0800008996 -0.2869563368
C   15.2570641962 -3.7154473639 -0.1566855859
C   16.2157358214 -3.1282235289 -0.9365225688
C   16.8106961542 -3.9375333926 -1.9285327654
C   16.4188474565 -5.2947940888 -2.1135714877
C   15.4450500210 -5.8605195634 -1.2972457575
C   13.8644406123 -5.3250328565  0.7028660055
C   13.6595219717 -4.1569916448  1.4240974518
H   13.1739630449 -1.7315145340  2.3753420134
H   12.2958223377 -5.9102611707  2.9501186922
H   11.1279470088 -6.4382260225  4.7687254058
H   11.8715515321 -0.2715028701  3.5765846807
H   9.1223172208 -2.0967548434  4.8480266437
H   11.4192787170 -1.7169704289  6.6733313411
H   7.6238509230 -1.6347533998  6.6145723357
H   7.5688244006 -0.7235351349  8.2084870942
H   10.8270669421  0.5764751402  7.9391447755
H   10.9809485994 -0.7748747268  9.0399206389
H   9.5506049176  0.2844517871  9.1345968384
H   16.5381974288 -2.0946629563 -0.8271524630
H   16.8805115137 -5.8945999040 -2.8967049004
H   15.1398062174 -6.8960095003 -1.4313265175
H   13.3516913950 -6.2662094205  0.8352122277
H   18.1489668142 -4.0042584492 -3.3587253271
C   9.8765347406 -4.7703050281  10.8114249642
O   12.1366011551 -5.5345378259  11.3146397791
C   11.1725597376 -5.1340040313  10.4045494804
O   7.6705859591 -3.9947839915  10.1820038015
C   11.5527619796 -5.0786829187  9.0439359596
O   6.1986210413 -3.0649229735  5.9392778530
C   10.6468802362 -4.6583867215  8.0936546085
O   4.5059577305 -4.3651601605  4.4627065059
C   9.3082669217 -4.3013794384  8.4479416364
O   6.2631467928 -6.1436399465  0.3307078597
C   8.9617405976 -4.3656633997  9.8450670538
C   8.3141110758 -3.9055440395  7.5389110130
C   8.4443422992 -3.9153464828  6.1023004154
C   7.1225419949 -3.7341421167  5.3928205645
C   6.9072256443 -4.3848090777  4.0923053083
C   7.9634204014 -4.7076561760  3.2178347878
C   5.5655376350 -4.6809533349  3.6640073624
C   7.7327773423 -5.2886840426  1.9841207868
C   5.3302785041 -5.2871669558  2.4271321514
C   6.4175674521 -5.5749903666  1.5765686624
C   3.8917279247 -5.6163852633  1.9986372135
C   3.5041006694 -7.0900612440  1.8276717719
C   3.4711029122 -8.0198765123  2.8085197057
C   3.0321440006 -9.4293160337  2.5075039610
C   3.9916300125 -7.7478782793  4.2022561926
H   9.5967894294 -4.8104084768  11.8668767573
H   12.5671397707 -5.3712337988  8.7939223721
H   10.9444582865 -4.5683324316  7.0555114215
H   11.7871306788 -5.5097821436  12.2286709481
H   7.5059950176 -4.1091512434  11.1394784659
H   7.3586104267 -3.6719441301  7.9822571935
H   9.0163866889 -4.7425206616  5.7064600994
H   8.9722519869 -4.4441454047  3.4900381714
H   8.5319680102 -5.5377131468  1.2978054975
H   4.8684901257 -3.7811016864  5.1932831478
H   5.3225395292 -6.2679982921  0.1044438940
H   3.2496963627 -5.1512544973  2.7556762797
H   3.6746090235 -5.1269556463  1.0386061086
H   3.1559290148 -7.3759845396  0.8338814157
H   2.3952043930 -9.8147242612  3.3110256849
H   3.8995538042 -10.1008252552  2.4549562076
H   2.4864598785 -9.4933729963  1.5613015944
H   5.0898447055 -7.7414117158  4.2120027498
H   3.6624654036 -8.5249742228  4.8982135785
H   3.6579436337 -6.7751152143  4.5799987635
84
Scanning combination 170/256: [2.0000, 2.6000]  Energy = -386.1959470507
O   10.6696460554 -5.5990956465  4.9835089802
O   11.3543694694 -0.8734875893  4.1580474036
O   17.7861214751 -3.3566059519 -2.7146770619
O   14.5146831939 -3.1148784914  0.8929405732
C   12.7848828535 -3.8530981379  2.5012546762
C   12.5813957211 -2.4999123543  2.8673057080
C   12.1118421457 -4.8746126749  3.2059758581
C   11.6315333152 -2.1977406807  3.8388641741
C   11.2373582175 -4.5488165737  4.2456563620
C   10.9030886432 -3.2039150813  4.5332274195
C   9.8523384141 -2.6401206379  5.4498961290
C   10.3551094129 -1.8056071275  6.5294873073
C   9.5420486358 -1.1204832393  7.4468497427
C   8.1724617140 -1.2567175019  7.4619317343
C   10.2568603961 -0.2140632478  8.4470717241
C   14.8459753759 -5.0798633036 -0.2817292169
C   15.2546754407 -3.7143385155 -0.1535684943
C   16.2122370880 -3.1267841363 -0.9346197115
C   16.8076861813 -3.9362777313 -1.9258428597
C   16.4179944898 -5.2945232051 -2.1089302893
C   15.4455133579 -5.8610600915 -1.2911296392
C   13.8644275820 -5.3248720923  0.7077418698
C   13.6571336488 -4.1558744950  1.4264360827
H   13.1632710789 -1.7275918649  2.3715467572
H   12.2950859386 -5.9113930095  2.9532728430
H   11.1316559920 -6.4377911659  4.7722113375
H   11.8513777156 -0.2694832345  3.5779367272
H   9.1325171651 -2.0875884322  4.8377439929
H   11.4272426891 -1.7119522690  6.6616266621
H   7.6275296113 -1.6623825585  6.6208210692
H   7.5744322344 -0.7820589733  8.2320097747
H   10.8243917189  0.5564056409  7.9158718573
H   10.9848484851 -0.7789029261  9.0393517106
H   9.5523166543  0.2723108798  9.1263889598
H   16.5332473710 -2.0925534689 -0.8276107212
H   16.8797526976 -5.8945136661 -2.8915436341
H   15.1418684142 -6.8971745977 -1.4237760498
H   13.3539193758 -6.2671065157  0.8426304366
H   18.1443966890 -4.0028628364 -3.3571122133
C   9.8746462178 -4.7686966256  10.8079806123
O   12.1300549937 -5.5407887137  11.3166199497
C   11.1720470946 -5.1299508092  10.4047275786
O   7.6679075662 -4.0031687868  10.1754747097
C   11.5520636152 -5.0767927802  9.0449613778
O   6.1921886515 -3.0646245127  5.9330482698
C   10.6504474212 -4.6492480685  8.0936697565
O   4.5101611006 -4.3665419838  4.4568385446
C   9.3137710220 -4.2808001566  8.4472590874
O   6.2610654317 -6.1473578907  0.3260458787
C   8.9647162424 -4.3544598101  9.8416253737
C   8.3219098219 -3.8510273193  7.5458679343
C   8.4400909548 -3.8959812698  6.1045254496
C   7.1232223911 -3.7271528143  5.3894273900
C   6.9122597160 -4.3814438564  4.0874467642
C   7.9664918887 -4.7062701601  3.2110031472
C   5.5704291435 -4.6797846082  3.6589410142
C   7.7332456103 -5.2917270467  1.9787854659
C   5.3332017107 -5.2880573344  2.4234032702
C   6.4184099463 -5.5789025639  1.5719145094
C   3.8930993433 -5.6155712195  1.9985530649
C   3.5052066150 -7.0890627480  1.8283156151
C   3.4722233733 -8.0180421876  2.8101143268
C   3.0316117134 -9.4268906072  2.5093526555
C   3.9929146285 -7.7464472808  4.2040881026
H   9.5903492102 -4.8127262419  11.8616075270
H   12.5658049662 -5.3758812247  8.7980421459
H   10.9507916389 -4.5794193785  7.0544747342
H   11.7797631701 -5.5135318059  12.2293413117
H   7.5077276006 -4.1060710423  11.1349894908
H   7.3658488986 -3.6278091694  7.9934378508
H   9.0142423959 -4.7288005201  5.7280723797
H   8.9768994981 -4.4450807305  3.4803275486
H   8.5302122145 -5.5426014105  1.2906350301
H   4.8723720562 -3.7812097961  5.1867164717
H   5.3196256715 -6.2667673772  0.1008027137
H   3.2543510457 -5.1514840106  2.7590823210
H   3.6721609054 -5.1241687854  1.0401902054
H   3.1602333766 -7.3764005388  0.8336686575
H   2.3920156815 -9.8101882524  3.3116875526
H   3.8981824156 -10.0995319054  2.4593075889
H   2.4882723875 -9.4900722806  1.5618029635
H   5.0911492887 -7.7405978599  4.2143585630
H   3.6630163017 -8.5235997732  4.8997999003
H   3.6600931541 -6.7736578530  4.5825797441
84
Scanning combination 171/256: [2.0000, 2.5000]  Energy = -386.1926320787
O   10.6798125067 -5.5909945282  4.9963353097
O   11.3050217187 -0.8668884667  4.0993530998
O   17.7693784054 -3.3477602558 -2.7221004727
O   14.5018024282 -3.1115680241  0.8859153034
C   12.7780737488 -3.8521542368  2.4955211122
C   12.5549887034 -2.4960524674  2.8367873532
C   12.1184605609 -4.8728965813  3.2133100105
C   11.6014040889 -2.1925419521  3.8024244289
C   11.2385389281 -4.5441622505  4.2468894663
C   10.8897649456 -3.1988147799  4.5150669218
C   9.8452512651 -2.6335585511  5.4363123646
C   10.3622944204 -1.7812100519  6.5001849464
C   9.5731574912 -1.1316959413  7.4550825104
C   8.2083227610 -1.3536682581  7.5346113431
C   10.2903009929 -0.2124786605  8.4372280414
C   14.8567273768 -5.0842005776 -0.2675735112
C   15.2487970287 -3.7126870485 -0.1532188999
C   16.1985541162 -3.1203278230 -0.9399400202
C   16.8001800329 -3.9318975461 -1.9255766035
C   16.4259834973 -5.2961775702 -2.0956802407
C   15.4629772266 -5.8675020135 -1.2702205077
C   13.8787708825 -5.3318329064  0.7239406076
C   13.6565292878 -4.1574344324  1.4283121412
H   13.1248017716 -1.7238983000  2.3268809949
H   12.3158109781 -5.9098301179  2.9722613807
H   11.1450462158 -6.4295296265  4.7914348874
H   11.7857689831 -0.2663324780  3.5022227256
H   9.1212731820 -2.0854727994  4.8246577117
H   11.4347183596 -1.6429960237  6.5838716767
H   7.6220217042 -1.5775059739  6.6510417273
H   7.6578564026 -1.1302523866  8.4411252815
H   10.8678063617  0.5438782540  7.8963717004
H   11.0112481505 -0.7735065510  9.0424174582
H   9.5827637930  0.2925759409  9.0996797560
H   16.5077623018 -2.0819945038 -0.8398614409
H   16.8920277585 -5.8976684093 -2.8743103637
H   15.1708994739 -6.9081952089 -1.3908034467
H   13.3799234729 -6.2786763387  0.8698350382
H   18.1307089969 -3.9948943533 -3.3620116955
C   9.8511528887 -4.7652488071  10.8105877935
O   12.0989653348 -5.5597668301  11.3197721555
C   11.1464848986 -5.1345473460  10.4083514053
O   7.6494905674 -3.9855842585  10.1720032573
C   11.5340794948 -5.0713283977  9.0503356556
O   6.2095732787 -3.0356498986  5.9101177299
C   10.6373646398 -4.6283199022  8.1000957199
O   4.5210708394 -4.3542951909  4.4507154387
C   9.2982454764 -4.2746064098  8.4495628780
O   6.2670774800 -6.1511580558  0.3230443562
C   8.9443658221 -4.3474560258  9.8415468737
C   8.3094239076 -3.8515863231  7.5383717446
C   8.4435252015 -3.8990187430  6.0950557942
C   7.1330692730 -3.7166308005  5.3772615730
C   6.9218904578 -4.3754789557  4.0784726895
C   7.9759459784 -4.7109892009  3.2055060410
C   5.5798786991 -4.6715600385  3.6519258344
C   7.7417612850 -5.2972468752  1.9744860285
C   5.3415033302 -5.2835904656  2.4187569921
C   6.4259194310 -5.5786058868  1.5671322516
C   3.9008935088 -5.6125480204  1.9982208039
C   3.5161267507 -7.0865112357  1.8303493929
C   3.4772608009 -8.0112025822  2.8159326597
C   3.0266828266 -9.4180344805  2.5214925685
C   3.9987521652 -7.7373045373  4.2092016460
H   9.5639182639 -4.8123906062  11.8635529141
H   12.5451971423 -5.3775206600  8.8032752663
H   10.9407940027 -4.5310839561  7.0644838212
H   11.7445993322 -5.5387528359  12.2318382581
H   7.4873552079 -4.0857119006  11.1311159945
H   7.3424664599 -3.6459780747  7.9727213481
H   9.0178135876 -4.7337356782  5.7209314921
H   8.9876514538 -4.4564239147  3.4760825485
H   8.5385492395 -5.5537997293  1.2874934169
H   4.8844463150 -3.7635647624  5.1752775891
H   5.3257702580 -6.2545253481  0.0907642370
H   3.2643765284 -5.1501289537  2.7615839368
H   3.6759110673 -5.1207657261  1.0410999708
H   3.1817054990 -7.3792236991  0.8339587476
H   2.3729554991 -9.7877013693  3.3187813489
H   3.8868371564 -10.0997445152  2.4894946899
H   2.4950212449 -9.4841855193  1.5676340355
H   5.0969729793 -7.7334206807  4.2192276147
H   3.6674247644 -8.5127117743  4.9060803226
H   3.6679336836 -6.7633340510  4.5865076247
84
Scanning combination 172/256: [2.0000, 2.4000]  Energy = -386.1893461939
O   10.6815525147 -5.5885879555  4.9997257269
O   11.2978977982 -0.8665512368  4.0934622163
O   17.7683702040 -3.3468693545 -2.7242448303
O   14.5003053251 -3.1115086768  0.8838801985
C   12.7772014682 -3.8522001212  2.4943414480
C   12.5518634338 -2.4954507117  2.8325899893
C   12.1192889307 -4.8728753334  3.2143357339
C   11.5994051069 -2.1913414553  3.7980679598
C   11.2404223714 -4.5431924637  4.2479834824
C   10.8917704544 -3.1972883429  4.5130352557
C   9.8519713129 -2.6277094194  5.4315545051
C   10.3689111619 -1.7829784493  6.5016155827
C   9.5769732705 -1.1543729448  7.4658190335
C   8.2141880549 -1.4139221463  7.5597125365
C   10.2875942646 -0.2191096983  8.4353623476
C   14.8586069123 -5.0852331442 -0.2669684690
C   15.2485518459 -3.7130391860 -0.1542590166
C   16.1977019079 -3.1202330518 -0.9418754175
C   16.8004258274 -3.9319067943 -1.9267831344
C   16.4283470342 -5.2969491731 -2.0952591933
C   15.4662219908 -5.8688947992 -1.2689163965
C   13.8808567470 -5.3328162839  0.7250084381
C   13.6565452867 -4.1578779288  1.4278922759
H   13.1198857123 -1.7229323897  2.3220472227
H   12.3169701725 -5.9103063288  2.9761473807
H   11.1482165984 -6.4269182714  4.7967899768
H   11.7745159840 -0.2649291239  3.4943790626
H   9.1274252160 -2.0767251843  4.8236406699
H   11.4399043911 -1.6310013898  6.5765308137
H   7.6225522911 -1.6155794690  6.6722443047
H   7.6637083931 -1.1413891139  8.4529024328
H   10.8648692894  0.5325963250  7.8873716088
H   11.0109813729 -0.7709154672  9.0449839847
H   9.5849384143  0.2899914820  9.0999038356
H   16.5053611374 -2.0814209966 -0.8434334821
H   16.8951562986 -5.8983708050 -2.8735057460
H   15.1760761696 -6.9102637617 -1.3888359421
H   13.3836075035 -6.2802826262  0.8722697864
H   18.1306318599 -3.9939657469 -3.3637265695
C   9.8476998885 -4.7678670667  10.8083082607
O   12.0951708904 -5.5615048450  11.3197295207
C   11.1438301140 -5.1343485960  10.4077852552
O   7.6481783361 -3.9820154838  10.1663271575
C   11.5310790118 -5.0698832848  9.0502650100
O   6.2051569128 -3.0353485033  5.9056218872
C   10.6369776150 -4.6220717992  8.1010204914
O   4.5215899437 -4.3522800069  4.4480408366
C   9.3028220247 -4.2560798425  8.4517223486
O   6.2662132358 -6.1510765990  0.3210333654
C   8.9450742030 -4.3404146665  9.8400669360
C   8.3152161381 -3.8116969378  7.5422080357
C   8.4421551671 -3.8826759932  6.0931024583
C   7.1330624357 -3.7116453727  5.3736886662
C   6.9226476278 -4.3748511112  4.0760232334
C   7.9761023513 -4.7113940550  3.2029398269
C   5.5801401889 -4.6701918803  3.6496412743
C   7.7413370740 -5.2985668525  1.9724044556
C   5.3413280432 -5.2830875401  2.4168096777
C   6.4256003264 -5.5793974771  1.5652587832
C   3.9006578002 -5.6123233885  1.9970508389
C   3.5162286628 -7.0865900550  1.8301529383
C   3.4774129107 -8.0106696247  2.8163725327
C   3.0260562605 -9.4174969540  2.5230832051
C   3.9992208868 -7.7361503867  4.2094924529
H   9.5598356913 -4.8132169413  11.8607341102
H   12.5433021747 -5.3737195457  8.8044796447
H   10.9406645638 -4.5330970428  7.0643035035
H   11.7401237909 -5.5419651764  12.2313355002
H   7.4850091452 -4.0813067872  11.1255417438
H   7.3403280138 -3.6379297235  7.9725219252
H   9.0085707085 -4.7271458941  5.7350563534
H   8.9879893460 -4.4583381954  3.4742186814
H   8.5380205731 -5.5561306591  1.2856042484
H   4.8856059050 -3.7607463622  5.1725984658
H   5.3244797737 -6.2535311732  0.0895971127
H   3.2642914582 -5.1495058530  2.7603974291
H   3.6756350678 -5.1211522574  1.0395946459
H   3.1829122594 -7.3801793702  0.8335178978
H   2.3708482568 -9.7853635231  3.3199982580
H   3.8856740999 -10.0999534394  2.4931550548
H   2.4956930474 -9.4840931558  1.5685617727
H   5.0974398437 -7.7323364608  4.2195111387
H   3.6678669008 -8.5111590358  4.9068628261
H   3.6687116497 -6.7619573923  4.5864531832
84
Scanning combination 173/256: [2.0000, 2.3000]  Energy = -386.1885615583
O   10.7063093698 -5.5666227276  5.0205613689
O   11.2517076700 -0.8540580957  4.0159971233
O   17.7614368674 -3.3420023767 -2.7464772648
O   14.4921683896 -3.1115801708  0.8608015221
C   12.7778095812 -3.8507722561  2.4809364887
C   12.5297775592 -2.4915625520  2.7921237355
C   12.1353108192 -4.8656868586  3.2223473042
C   11.5742554042 -2.1813026819  3.7540132666
C   11.2530749362 -4.5274002903  4.2518594662
C   10.8869090353 -3.1821903355  4.4967770670
C   9.8473975064 -2.6154738248  5.4212931612
C   10.3628496650 -1.7607135931  6.4901133986
C   9.5940315792 -1.1845540637  7.5015174952
C   8.2503587733 -1.5305127889  7.6870518659
C   10.3039171448 -0.2235391185  8.4437886339
C   14.8790640240 -5.0946116738 -0.2642582763
C   15.2494972328 -3.7157197466 -0.1690117417
C   16.1897087584 -3.1186046311 -0.9643545441
C   16.8029295580 -3.9320214883 -1.9410332292
C   16.4506234757 -5.3043412811 -2.0928702260
C   15.4979171641 -5.8808704988 -1.2580081808
C   13.9043166764 -5.3430082035  0.7316110494
C   13.6625144691 -4.1619833975  1.4192181274
H   13.0849878552 -1.7225923783  2.2621865316
H   12.3447359084 -5.9051028977  3.0032697501
H   11.1819265738 -6.4028685911  4.8320167589
H   11.7130844512 -0.2627806290  3.3944732889
H   9.1249025269 -2.0668558867  4.8092204481
H   11.4248528618 -1.5327293013  6.5012571217
H   7.5727128417 -1.5883743012  6.8380380462
H   7.8045996021 -1.4497975171  8.6735145847
H   10.8700168435  0.5187005300  7.8724409628
H   11.0319419771 -0.7532505826  9.0696153420
H   9.5955063030  0.2968828441  9.0931282966
H   16.4832884875 -2.0746164663 -0.8774070182
H   16.9251876331 -5.9079793718 -2.8646883030
H   15.2236298370 -6.9277933799 -1.3659513008
H   13.4218271560 -6.2961553773  0.8923161886
H   18.1302712949 -3.9902792166 -3.3808971923
C   9.8192795265 -4.7673322201  10.8127224319
O   12.0577647177 -5.5854155438  11.3271216122
C   11.1153745737 -5.1373552965  10.4158087602
O   7.6462339609 -3.9060081213  10.1698741105
C   11.5140491791 -5.0569457734  9.0629925943
O   6.2265308968 -2.9861867487  5.8702369913
C   10.6243382363 -4.6031569664  8.1113259817
O   4.5259117734 -4.3294150637  4.4348630979
C   9.2876288869 -4.2603035166  8.4551218875
O   6.2657993216 -6.1484379745  0.3122561488
C   8.9281780061 -4.3195000180  9.8426830402
C   8.3038955227 -3.8245942863  7.5315921533
C   8.4445681643 -3.8819253698  6.0757690443
C   7.1417649605 -3.6905106851  5.3527199166
C   6.9254830280 -4.3657309540  4.0621842295
C   7.9787225835 -4.7205638643  3.1967597622
C   5.5827496161 -4.6558662623  3.6362433551
C   7.7420993019 -5.3080934689  1.9669889707
C   5.3419494856 -5.2760073201  2.4074523519
C   6.4256356754 -5.5796703202  1.5579245497
C   3.9022008298 -5.6106464507  1.9897779455
C   3.5204363745 -7.0868296260  1.8290901900
C   3.4789751544 -8.0053593545  2.8201931303
C   3.0200106829 -9.4120996998  2.5378834914
C   4.0027168047 -7.7240106975  4.2113096825
H   9.5226102829 -4.8271705075  11.8616677035
H   12.5269284294 -5.3555746810  8.8201280363
H   10.9325645595 -4.4918820227  7.0784214087
H   11.6976255019 -5.5746190239  12.2369911965
H   7.4674241028 -4.0367746276  11.1225788364
H   7.3077153333 -3.7280403948  7.9447504942
H   9.0059895573 -4.7285203032  5.7145222823
H   8.9927997644 -4.4862403433  3.4752382729
H   8.5377956448 -5.5733410704  1.2830589399
H   4.8901082263 -3.7300651394  5.1510562707
H   5.3247510125 -6.2430700580  0.0770654267
H   3.2650684846 -5.1448763531  2.7507211628
H   3.6777236273 -5.1258443528  1.0289944645
H   3.1913077878 -7.3868469307  0.8328564156
H   2.3521475374 -9.7647091095  3.3314228029
H   3.8744778121 -10.1015391345  2.5278046423
H   2.5007266610 -9.4863541481  1.5778473218
H   5.1009482317 -7.7215557712  4.2192414221
H   3.6709685557 -8.4949901698  4.9129028138
H   3.6743973735 -6.7470687924  4.5832861595
84
Scanning combination 174/256: [2.0000, 2.2000]  Energy = -386.1890975233
O   10.7064640814 -5.5665054261  5.0211012338
O   11.2498398171 -0.8543106545  4.0157692986
O   17.7608761874 -3.3420950965 -2.7466422628
O   14.4919176430 -3.1113571579  0.8604902523
C   12.7775213830 -3.8507400099  2.4807035877
C   12.5288951924 -2.4914799633  2.7917068084
C   12.1354796330 -4.8652818260  3.2226599196
C   11.5735524615 -2.1810819573  3.7537640510
C   11.2533706772 -4.5275748688  4.2522530139
C   10.8872169624 -3.1823749089  4.4973998551
C   9.8479553757 -2.6163559421  5.4199393201
C   10.3610881498 -1.7566610932  6.4890486027
C   9.5944145897 -1.1911155603  7.5008183929
C   8.2524291068 -1.5815462485  7.6899708925
C   10.3013748162 -0.2255442202  8.4417956611
C   14.8793019746 -5.0947046491 -0.2640601139
C   15.2494348373 -3.7154072125 -0.1693295272
C   16.1892375145 -3.1186420494 -0.9644180039
C   16.8027785319 -3.9321682052 -1.9408547358
C   16.4505427779 -5.3045762346 -2.0921990275
C   15.4982828102 -5.8807788551 -1.2575284171
C   13.9047732228 -5.3430368011  0.7321876685
C   13.6624369543 -4.1617319012  1.4192047481
H   13.0836427201 -1.7222768937  2.2618143670
H   12.3451659148 -5.9048471059  3.0037544509
H   11.1833954764 -6.4026098629  4.8329067950
H   11.7105773412 -0.2618068168  3.3945512359
H   9.1273448279 -2.0648724943  4.8097119877
H   11.4229474004 -1.5323260749  6.5009448852
H   7.5707116697 -1.5898572501  6.8382994845
H   7.8056783816 -1.4486109405  8.6692121740
H   10.8702134468  0.5161003625  7.8712094084
H   11.0320944931 -0.7524607947  9.0687440340
H   9.5958498745  0.2960152371  9.0943876656
H   16.4826775185 -2.0742741856 -0.8779451340
H   16.9254327191 -5.9081714482 -2.8641208926
H   15.2241950999 -6.9280936069 -1.3650086560
H   13.4223332514 -6.2959814441  0.8931280367
H   18.1300049857 -3.9902513662 -3.3808919437
C   9.8192921346 -4.7670444817  10.8121024812
O   12.0567973003 -5.5862489994  11.3283923505
C   11.1161020871 -5.1368351700  10.4155718833
O   7.6465958212 -3.9071023693  10.1683177019
C   11.5136792115 -5.0574606256  9.0626319592
O   6.2280391777 -2.9859164686  5.8711483644
C   10.6231038106 -4.6045692583  8.1107718701
O   4.5264221030 -4.3286994094  4.4340816379
C   9.2885846119 -4.2548385035  8.4565132693
O   6.2653236988 -6.1488083380  0.3121331242
C   8.9282324947 -4.3230345960  9.8408125560
C   8.3089319129 -3.7755058139  7.5376571656
C   8.4429811187 -3.8807522901  6.0737875999
C   7.1428062965 -3.6912549404  5.3534704672
C   6.9260671734 -4.3646388902  4.0614555300
C   7.9791202497 -4.7211568722  3.1964171657
C   5.5832926256 -4.6555005764  3.6359414019
C   7.7422516467 -5.3084221763  1.9666090393
C   5.3421400909 -5.2765171822  2.4073176186
C   6.4257094639 -5.5793339935  1.5571229804
C   3.9022084316 -5.6106233405  1.9897950498
C   3.5202014728 -7.0864290773  1.8292618014
C   3.4789184075 -8.0051388587  2.8205847635
C   3.0200389516 -9.4116947368  2.5381190385
C   4.0028649298 -7.7236612314  4.2114537587
H   9.5217399970 -4.8267850034  11.8611896205
H   12.5288405539 -5.3559513903  8.8209007813
H   10.9346371137 -4.4934977264  7.0779685767
H   11.6965916219 -5.5753485546  12.2377132905
H   7.4679522890 -4.0342011484  11.1209890025
H   7.3040254085 -3.7273927634  7.9465766570
H   9.0049942128 -4.7284381886  5.7167213161
H   8.9934940309 -4.4859778903  3.4743538094
H   8.5379031493 -5.5741603366  1.2819243479
H   4.8908978646 -3.7292641017  5.1500987900
H   5.3236462807 -6.2429296199  0.0767362600
H   3.2651569528 -5.1446861541  2.7505007236
H   3.6771585944 -5.1254217590  1.0293160032
H   3.1917397716 -7.3864710572  0.8330425298
H   2.3520156443 -9.7642209698  3.3314810862
H   3.8741919808 -10.1014724057  2.5284468420
H   2.5008929369 -9.4862276716  1.5780800057
H   5.1011006098 -7.7214299824  4.2194943131
H   3.6710413832 -8.4945610355  4.9131227271
H   3.6745580994 -6.7467520353  4.5833762046
84
Scanning combination 175/256: [2.0000, 2.1000]  Energy = -386.1926592585
O   10.7297696133 -5.5575607667  5.0316535770
O   11.2158206020 -0.8511881304  3.9749541377
O   17.7532637663 -3.3429570110 -2.7611685377
O   14.4848194306 -3.1041661855  0.8438856671
C   12.7816369616 -3.8440957823  2.4730921722
C   12.5152468227 -2.4840118521  2.7658710832
C   12.1542115852 -4.8594480193  3.2264316774
C   11.5571353615 -2.1760431566  3.7247353021
C   11.2673026931 -4.5217332815  4.2512395030
C   10.8860894007 -3.1788628073  4.4801010120
C   9.8460173719 -2.6175355316  5.3992298095
C   10.3532600358 -1.7537362019  6.4718276226
C   9.5979687282 -1.2266258448  7.5060308796
C   8.2577339790 -1.6502693563  7.7385416375
C   10.2793345727 -0.2385123408  8.4292312056
C   14.8916253753 -5.0962574228 -0.2577405952
C   15.2478391486 -3.7125107394 -0.1786887709
C   16.1814326966 -3.1148311751 -0.9804017276
C   16.8014915320 -3.9333125765 -1.9482559784
C   16.4624797971 -5.3105154104 -2.0846662889
C   15.5166852573 -5.8871913030 -1.2428012093
C   13.9207264670 -5.3435884445  0.7412425367
C   13.6675700568 -4.1570644968  1.4144615840
H   13.0570062917 -1.7130406213  2.2249927932
H   12.3766035188 -5.8982099794  3.0175978895
H   11.2195671699 -6.3890969079  4.8570390244
H   11.6684198619 -0.2575157252  3.3488267597
H   9.1253873222 -2.0670270750  4.7882255570
H   11.4065305749 -1.4876719889  6.4527812032
H   7.5268176026 -1.4872781046  6.9483996804
H   7.8765026740 -1.5612223575  8.7525458148
H   10.8275962480  0.5054453759  7.8442296915
H   11.0180831563 -0.7434520225  9.0631026675
H   9.5586640909  0.2739086814  9.0720276382
H   16.4646900662 -2.0671621097 -0.9041866218
H   16.9418647093 -5.9179266660 -2.8502887891
H   15.2521440695 -6.9377742047 -1.3379989840
H   13.4480117320 -6.2995014801  0.9139861561
H   18.1270920482 -3.9942507970 -3.3892208656
C   9.8086175143 -4.7826830283  10.8186889759
O   12.0412050240 -5.6137738983  11.3367918179
C   11.1040989033 -5.1563800663  10.4238771974
O   7.6450958916 -3.9007644121  10.1728883700
C   11.5064191872 -5.0690060118  9.0728220033
O   6.2474462823 -2.9672748032  5.8503644675
C   10.6223643605 -4.5956008344  8.1225972973
O   4.5385208291 -4.3026367640  4.4213777949
C   9.2942741062 -4.2401072811  8.4681662500
O   6.2603859295 -6.1516841821  0.3072401232
C   8.9268508023 -4.3201996407  9.8468591298
C   8.3130692291 -3.7402153068  7.5412567233
C   8.4483381058 -3.8827612884  6.0669609035
C   7.1563256960 -3.6894954252  5.3421993980
C   6.9375511228 -4.3644405316  4.0517202474
C   7.9880835537 -4.7341877708  3.1889506777
C   5.5923304545 -4.6434629258  3.6262834660
C   7.7455435987 -5.3184304591  1.9581809894
C   5.3460878526 -5.2693957989  2.4012376350
C   6.4267409246 -5.5799999413  1.5502160324
C   3.9039195102 -5.6027681196  1.9915516513
C   3.5217098097 -7.0785146209  1.8339340749
C   3.4801705411 -7.9947975147  2.8272251329
C   3.0180860599 -9.4013370314  2.5492349336
C   4.0062123369 -7.7114190178  4.2171830142
H   9.5050928143 -4.8518129937  11.8657918534
H   12.5178913497 -5.3761160029  8.8304890021
H   10.9362276347 -4.4835427228  7.0908194822
H   11.6788614387 -5.6060363170  12.2459409456
H   7.4767989283 -3.9992968927  11.1304036638
H   7.2992288559 -3.7855989445  7.9302649527
H   8.9877093365 -4.7574004483  5.7446001931
H   9.0048013025 -4.5143659392  3.4706668475
H   8.5381864353 -5.5905217376  1.2718771855
H   4.9100082190 -3.7009907527  5.1328909927
H   5.3175411528 -6.2333385252  0.0708324295
H   3.2713465252 -5.1371711013  2.7561655870
H   3.6735255869 -5.1168371323  1.0328505589
H   3.1958793786 -7.3813601821  0.8376960461
H   2.3422185643 -9.7465974530  3.3392107979
H   3.8694338903 -10.0945771409  2.5510585765
H   2.5064079910 -9.4795497895  1.5854442965
H   5.1044550699 -7.7148582130  4.2243116756
H   3.6711394986 -8.4788187835  4.9211167102
H   3.6830894807 -6.7318482553  4.5868767038
84
Scanning combination 176/256: [2.0000, 2.0000]  Energy = -386.1979876753
O   10.7306706659 -5.5570668827  5.0327283972
O   11.2112627535 -0.8511953662  3.9737686789
O   17.7530207819 -3.3427500013 -2.7625974967
O   14.4842950370 -3.1037757004  0.8430530651
C   12.7800562774 -3.8436438581  2.4723842750
C   12.5130964557 -2.4836346743  2.7650362133
C   12.1550861174 -4.8590764262  3.2276452729
C   11.5567453585 -2.1752445894  3.7247130697
C   11.2693447453 -4.5213410946  4.2528127501
C   10.8864920098 -3.1782777771  4.4790850228
C   9.8484877820 -2.6140642750  5.3930436481
C   10.3591789711 -1.7584637154  6.4734811447
C   9.6048723339 -1.2404062497  7.5069453553
C   8.2612093350 -1.6971784585  7.7404261320
C   10.2725517685 -0.2433757172  8.4244735054
C   14.8925394008 -5.0963376834 -0.2576780242
C   15.2477222516 -3.7121400769 -0.1795692326
C   16.1811344483 -3.1146859760 -0.9817226530
C   16.8019070622 -3.9333685538 -1.9491726456
C   16.4637060952 -5.3110959063 -2.0844903075
C   15.5183191633 -5.8878722168 -1.2422149707
C   13.9222179568 -5.3436394838  0.7422917850
C   13.6675733863 -4.1567330920  1.4147373324
H   13.0543161323 -1.7132911427  2.2235848654
H   12.3780841070 -5.8977845912  3.0197286637
H   11.2220038673 -6.3878427189  4.8588808805
H   11.6630857655 -0.2570239469  3.3479519640
H   9.1286316713 -2.0598413121  4.7843041158
H   11.4082947995 -1.4811604537  6.4525798754
H   7.5306117630 -1.4970582028  6.9582504450
H   7.8791865450 -1.5616171201  8.7477895090
H   10.8244010709  0.5005209203  7.8427518079
H   11.0155235681 -0.7389972217  9.0600702733
H   9.5566901994  0.2712168498  9.0709332365
H   16.4636864001 -2.0665306761 -0.9066357208
H   16.9436302504 -5.9186784539 -2.8499807709
H   15.2544714897 -6.9390282763 -1.3365767644
H   13.4501431483 -6.2996937892  0.9149758139
H   18.1273551201 -3.9945787878 -3.3902478760
C   9.8085940213 -4.7857177423  10.8165943469
O   12.0399972626 -5.6165264648  11.3364573778
C   11.1046010588 -5.1559368758  10.4227336516
O   7.6452916189 -3.9002473173  10.1705733777
C   11.5045689887 -5.0694264429  9.0719777155
O   6.2445128479 -2.9692933300  5.8493448583
C   10.6178174438 -4.5962129907  8.1229078964
O   4.5394794071 -4.3013033434  4.4204582011
C   9.2976403600 -4.2309073582  8.4728770717
O   6.2593777918 -6.1514594134  0.3056494222
C   8.9271769488 -4.3200305994  9.8449488381
C   8.3142307318 -3.6872198126  7.5486232793
C   8.4451851103 -3.8706868916  6.0652114632
C   7.1560530738 -3.6900381120  5.3420727511
C   6.9383142387 -4.3667275359  4.0515082816
C   7.9884640666 -4.7352356804  3.1882610054
C   5.5929108528 -4.6433419149  3.6253133854
C   7.7453894556 -5.3199174121  1.9575556008
C   5.3462529501 -5.2692339228  2.4004731227
C   6.4263072274 -5.5811454216  1.5496172773
C   3.9038451476 -5.6021807051  1.9911251604
C   3.5212324889 -7.0780600593  1.8340044783
C   3.4801664292 -7.9940806504  2.8276257080
C   3.0179827242 -9.4006483403  2.5500458969
C   4.0064599542 -7.7104372016  4.2174572272
H   9.5043530107 -4.8528293921  11.8627610220
H   12.5163590879 -5.3749306175  8.8301260997
H   10.9355462258 -4.4844540889  7.0916095540
H   11.6759377358 -5.6075007744  12.2445049424
H   7.4757100237 -3.9997989977  11.1277688513
H   7.3017804624 -3.7965744834  7.9318764276
H   8.9821328388 -4.7523069918  5.7666285296
H   9.0054962296 -4.5164735447  3.4706113420
H   8.5373377122 -5.5918748808  1.2714634462
H   4.9110542613 -3.6989734202  5.1321042170
H   5.3168115061 -6.2327916875  0.0699851706
H   3.2713973166 -5.1360442777  2.7555990276
H   3.6731167797 -5.1165120206  1.0323272934
H   3.1958867661 -7.3812767051  0.8377042043
H   2.3417073591 -9.7451721855  3.3399655076
H   3.8692063251 -10.0940487938  2.5526319088
H   2.5067676604 -9.4790120440  1.5860684032
H   5.1046978922 -7.7143194438  4.2247703751
H   3.6711036117 -8.4775048668  4.9216320334
H   3.6838724011 -6.7306010538  4.5868865642
84
Scanning combination 177/256: [2.0000, 1.9000]  Energy = -386.2051118608
O   10.7329800175 -5.5518595260  5.0366410038
O   11.2063767332 -0.8508486987  3.9657547953
O   17.7517755608 -3.3428484807 -2.7657353613
O   14.4831421530 -3.1027572791  0.8392849736
C   12.7825966420 -3.8430342025  2.4709100392
C   12.5127209926 -2.4819783878  2.7584456590
C   12.1592841359 -4.8584744246  3.2285310381
C   11.5550309988 -2.1740365678  3.7162194759
C   11.2717927712 -4.5194449100  4.2518083593
C   10.8872528743 -3.1767719093  4.4731561017
C   9.8529746079 -2.6098658632  5.3868441864
C   10.3669625294 -1.7551748448  6.4704170713
C   9.6170415880 -1.2558441893  7.5077959165
C   8.2689462603 -1.7470599308  7.7494009435
C   10.2666519855 -0.2515917090  8.4223605262
C   14.8954349354 -5.0968241869 -0.2568805973
C   15.2479070113 -3.7117640693 -0.1816455286
C   16.1797527886 -3.1142060150 -0.9852892170
C   16.8019234153 -3.9336206655 -1.9510488944
C   16.4664405547 -5.3120910519 -2.0834281710
C   15.5224936562 -5.8888092801 -1.2398378404
C   13.9253128310 -5.3441759462  0.7430986597
C   13.6689972386 -4.1563854124  1.4130974873
H   13.0509505927 -1.7101832437  2.2154045067
H   12.3837719025 -5.8977764726  3.0238852465
H   11.2234982076 -6.3833828858  4.8642151131
H   11.6540493702 -0.2533034715  3.3406355805
H   9.1445700245 -2.0433288199  4.7766028992
H   11.4163944009 -1.4726509118  6.4386771651
H   7.5399369169 -1.5074404310  6.9759737557
H   7.8916489383 -1.5794825607  8.7550866045
H   10.8071317594  0.4945331374  7.8319973546
H   11.0137602080 -0.7354981626  9.0646776675
H   9.5368092858  0.2560082554  9.0580951346
H   16.4604549581 -2.0654637601 -0.9125971093
H   16.9473601613 -5.9202841619 -2.8477115489
H   15.2606976903 -6.9404953302 -1.3321472403
H   13.4553533309 -6.3007329372  0.9187024943
H   18.1274382220 -3.9950867730 -3.3921836217
C   9.8060621910 -4.7878108651  10.8176664546
O   12.0364275284 -5.6219107518  11.3338552455
C   11.1003234274 -5.1610560215  10.4205379892
O   7.6419614243 -3.9013841212  10.1701663076
C   11.5013344667 -5.0698783370  9.0703052725
O   6.2387383647 -2.9687800519  5.8482660325
C   10.6144638643 -4.5867034983  8.1237934726
O   4.5402958701 -4.2991154833  4.4173503585
C   9.3003035378 -4.2172129409  8.4805030445
O   6.2581249227 -6.1507003417  0.3040074515
C   8.9272627554 -4.3126705166  9.8465708315
C   8.3102126169 -3.6372596286  7.5614829442
C   8.4432548240 -3.8538202944  6.0690727877
C   7.1568348356 -3.6849046138  5.3437214654
C   6.9400842647 -4.3676046467  4.0531493357
C   7.9890348882 -4.7399723362  3.1899928364
C   5.5943462771 -4.6437211321  3.6250790918
C   7.7454812500 -5.3231261004  1.9578064852
C   5.3468680200 -5.2689426888  2.3996125029
C   6.4261418980 -5.5813451145  1.5483961894
C   3.9039092324 -5.6007659723  1.9902032459
C   3.5206914680 -7.0766554460  1.8343722720
C   3.4802047649 -7.9919667468  2.8286683103
C   3.0176623732 -9.3986258796  2.5522908379
C   4.0070543232 -7.7076316894  4.2181417608
H   9.5010245646 -4.8602058501  11.8630669351
H   12.5123791707 -5.3755995681  8.8256269317
H   10.9283074729 -4.4840129804  7.0900894436
H   11.6728971996 -5.6133492244  12.2421230219
H   7.4714166529 -4.0022438444  11.1263933631
H   7.3020982892 -3.8165704578  7.9333470378
H   8.9699856458 -4.7516040011  5.8073906767
H   9.0065911925 -4.5244819758  3.4734446052
H   8.5366140301 -5.5958444910  1.2705771492
H   4.9142249793 -3.6964020781  5.1282921622
H   5.3154601293 -6.2310488753  0.0679836309
H   3.2717455355 -5.1337713310  2.7544033424
H   3.6729097621 -5.1159108595  1.0309368203
H   3.1953561335 -7.3808746939  0.8383859976
H   2.3402646309 -9.7417985217  3.3418192472
H   3.8684719649 -10.0924876940  2.5569046087
H   2.5075691407 -9.4780044579  1.5878361544
H   5.1052978635 -7.7130849955  4.2253463666
H   3.6708526485 -8.4737268287  4.9229517927
H   3.6855683808 -6.7271680514  4.5868363670
