84
Image 0  Energy = -386.1979876753
O   10.7306706659 -5.5570668827  5.0327283972
O   11.2112627535 -0.8511953662  3.9737686789
O   17.7530207819 -3.3427500013 -2.7625974967
O   14.4842950370 -3.1037757004  0.8430530651
C   12.7800562774 -3.8436438581  2.4723842750
C   12.5130964557 -2.4836346743  2.7650362133
C   12.1550861174 -4.8590764262  3.2276452729
C   11.5567453585 -2.1752445894  3.7247130697
C   11.2693447453 -4.5213410946  4.2528127501
C   10.8864920098 -3.1782777771  4.4790850228
C   9.8484877820 -2.6140642750  5.3930436481
C   10.3591789711 -1.7584637154  6.4734811447
C   9.6048723339 -1.2404062497  7.5069453553
C   8.2612093350 -1.6971784585  7.7404261320
C   10.2725517685 -0.2433757172  8.4244735054
C   14.8925394008 -5.0963376834 -0.2576780242
C   15.2477222516 -3.7121400769 -0.1795692326
C   16.1811344483 -3.1146859760 -0.9817226530
C   16.8019070622 -3.9333685538 -1.9491726456
C   16.4637060952 -5.3110959063 -2.0844903075
C   15.5183191633 -5.8878722168 -1.2422149707
C   13.9222179568 -5.3436394838  0.7422917850
C   13.6675733863 -4.1567330920  1.4147373324
H   13.0543161323 -1.7132911427  2.2235848654
H   12.3780841070 -5.8977845912  3.0197286637
H   11.2220038673 -6.3878427189  4.8588808805
H   11.6630857655 -0.2570239469  3.3479519640
H   9.1286316713 -2.0598413121  4.7843041158
H   11.4082947995 -1.4811604537  6.4525798754
H   7.5306117630 -1.4970582028  6.9582504450
H   7.8791865450 -1.5616171201  8.7477895090
H   10.8244010709  0.5005209203  7.8427518079
H   11.0155235681 -0.7389972217  9.0600702733
H   9.5566901994  0.2712168498  9.0709332365
H   16.4636864001 -2.0665306761 -0.9066357208
H   16.9436302504 -5.9186784539 -2.8499807709
H   15.2544714897 -6.9390282763 -1.3365767644
H   13.4501431483 -6.2996937892  0.9149758139
H   18.1273551201 -3.9945787878 -3.3902478760
C   9.8085940213 -4.7857177423  10.8165943469
O   12.0399972626 -5.6165264648  11.3364573778
C   11.1046010588 -5.1559368758  10.4227336516
O   7.6452916189 -3.9002473173  10.1705733777
C   11.5045689887 -5.0694264429  9.0719777155
O   6.2445128479 -2.9692933300  5.8493448583
C   10.6178174438 -4.5962129907  8.1229078964
O   4.5394794071 -4.3013033434  4.4204582011
C   9.2976403600 -4.2309073582  8.4728770717
O   6.2593777918 -6.1514594134  0.3056494222
C   8.9271769488 -4.3200305994  9.8449488381
C   8.3142307318 -3.6872198126  7.5486232793
C   8.4451851103 -3.8706868916  6.0652114632
C   7.1560530738 -3.6900381120  5.3420727511
C   6.9383142387 -4.3667275359  4.0515082816
C   7.9884640666 -4.7352356804  3.1882610054
C   5.5929108528 -4.6433419149  3.6253133854
C   7.7453894556 -5.3199174121  1.9575556008
C   5.3462529501 -5.2692339228  2.4004731227
C   6.4263072274 -5.5811454216  1.5496172773
C   3.9038451476 -5.6021807051  1.9911251604
C   3.5212324889 -7.0780600593  1.8340044783
C   3.4801664292 -7.9940806504  2.8276257080
C   3.0179827242 -9.4006483403  2.5500458969
C   4.0064599542 -7.7104372016  4.2174572272
H   9.5043530107 -4.8528293921  11.8627610220
H   12.5163590879 -5.3749306175  8.8301260997
H   10.9355462258 -4.4844540889  7.0916095540
H   11.6759377358 -5.6075007744  12.2445049424
H   7.4757100237 -3.9997989977  11.1277688513
H   7.3017804624 -3.7965744834  7.9318764276
H   8.9821328388 -4.7523069918  5.7666285296
H   9.0054962296 -4.5164735447  3.4706113420
H   8.5373377122 -5.5918748808  1.2714634462
H   4.9110542613 -3.6989734202  5.1321042170
H   5.3168115061 -6.2327916875  0.0699851706
H   3.2713973166 -5.1360442777  2.7555990276
H   3.6731167797 -5.1165120206  1.0323272934
H   3.1958867661 -7.3812767051  0.8377042043
H   2.3417073591 -9.7451721855  3.3399655076
H   3.8692063251 -10.0940487938  2.5526319088
H   2.5067676604 -9.4790120440  1.5860684032
H   5.1046978922 -7.7143194438  4.2247703751
H   3.6711036117 -8.4775048668  4.9216320334
H   3.6838724011 -6.7306010538  4.5868865642
84
Image 1  Energy = -386.2043987509
O   10.7306683245 -5.5570701768  5.0327253605
O   11.2112648072 -0.8511940680  3.9737741552
O   17.7530197591 -3.3427466777 -2.7625922156
O   14.4842960573 -3.1037766667  0.8430553491
C   12.7800525697 -3.8436424802  2.4723849381
C   12.5130943744 -2.4836361320  2.7650421253
C   12.1550827232 -4.8590780394  3.2276450280
C   11.5567486789 -2.1752436205  3.7247196486
C   11.2693453311 -4.5213445049  4.2528134798
C   10.8864919960 -3.1782755555  4.4790905427
C   9.8484856443 -2.6140660360  5.3930350924
C   10.3592003563 -1.7584714036  6.4734702710
C   9.6048769117 -1.2404125499  7.5069580350
C   8.2625359058 -1.7469256851  7.7356293820
C   10.2725434089 -0.2433809098  8.4244605576
C   14.8925383810 -5.0963377521 -0.2576805357
C   15.2477215359 -3.7121404922 -0.1795676098
C   16.1811363355 -3.1146859126 -0.9817207484
C   16.8019084531 -3.9333686106 -1.9491729740
C   16.4637031163 -5.3110946866 -2.0844896273
C   15.5183170107 -5.8878715393 -1.2422171761
C   13.9222153482 -5.3436403258  0.7422922435
C   13.6675728951 -4.1567328113  1.4147397972
H   13.0543176562 -1.7132958956  2.2235915091
H   12.3780798895 -5.8977821553  3.0197262242
H   11.2220025211 -6.3878456812  4.8588767545
H   11.6630936651 -0.2570277290  3.3479553208
H   9.1286197618 -2.0598542708  4.7843098009
H   11.4082723472 -1.4811645294  6.4525919324
H   7.5306130017 -1.4970594576  6.9582589666
H   7.8791805201 -1.5616184323  8.7477615814
H   10.8244076923  0.5005168116  7.8427711541
H   11.0155121838 -0.7389896052  9.0600575660
H   9.5567072052  0.2712280438  9.0709454440
H   16.4636886489 -2.0665306882 -0.9066314689
H   16.9436281813 -5.9186780210 -2.8499831376
H   15.2544667067 -6.9390285302 -1.3365797208
H   13.4501399742 -6.2996924739  0.9149727417
H   18.1273562824 -3.9945812479 -3.3902488231
C   9.8085974892 -4.7857169230  10.8165788040
O   12.0399988405 -5.6165250313  11.3364641317
C   11.1046087905 -5.1559287441  10.4227343469
O   7.6452940778 -3.9002448861  10.1705644334
C   11.5045514005 -5.0694184527  9.0719694835
O   6.2445266946 -2.9692980177  5.8493436301
C   10.6178089756 -4.5962278783  8.1229218270
O   4.5394820706 -4.3013052313  4.4204606199
C   9.2976454588 -4.2308908114  8.4728807731
O   6.2593782036 -6.1514598200  0.3056498406
C   8.9271794084 -4.3200440768  9.8449515984
C   8.3129081784 -3.6374622761  7.5534069454
C   8.4451815831 -3.8706864398  6.0652041436
C   7.1560458077 -3.6900447282  5.3420741607
C   6.9383140689 -4.3667308054  4.0515032113
C   7.9884629553 -4.7352313135  3.1882581286
C   5.5929083444 -4.6433400775  3.6253131538
C   7.7453905576 -5.3199149111  1.9575560001
C   5.3462535962 -5.2692337341  2.4004735814
C   6.4263065711 -5.5811461632  1.5496194942
C   3.9038464451 -5.6021814508  1.9911264749
C   3.5212328436 -7.0780609072  1.8340041584
C   3.4801662579 -7.9940820803  2.8276248050
C   3.0179829044 -9.4006498875  2.5500444496
C   4.0064595990 -7.7104393588  4.2174568282
H   9.5043541389 -4.8528240596  11.8627636303
H   12.5163638013 -5.3749312384  8.8301303537
H   10.9355515999 -4.4844507550  7.0916093109
H   11.6759410968 -5.6074970045  12.2445036191
H   7.4757126793 -3.9997982389  11.1277770187
H   7.3017880898 -3.7965614817  7.9318721430
H   8.9821304595 -4.7522957365  5.7666172800
H   9.0054957873 -4.5164688003  3.4706096943
H   8.5373366719 -5.5918712334  1.2714666400
H   4.9110518908 -3.6989733736  5.1321098744
H   5.3168137505 -6.2327924719  0.0699873488
H   3.2713971922 -5.1360459086  2.7555996598
H   3.6731172383 -5.1165125399  1.0323285857
H   3.1958870154 -7.3812770208  0.8377036090
H   2.3417082765 -9.7451745106  3.3399643542
H   3.8692069891 -10.0940499279  2.5526289734
H   2.5067670683 -9.4790126796  1.5860670796
H   5.1046973687 -7.7143201998  4.2247700135
H   3.6711037754 -8.4775074849  4.9216311947
H   3.6838712882 -6.7306033367  4.5868865802
84
Image 2  Energy = -386.2043977972
O   10.7306638187 -5.5570766973  5.0327193592
O   11.2112688396 -0.8511915251  3.9737849058
O   17.7530177498 -3.3427401594 -2.7625818599
O   14.4842980569 -3.1037785605  0.8430598242
C   12.7800453003 -3.8436397787  2.4723862416
C   12.5130902954 -2.4836389901  2.7650537107
C   12.1550760749 -4.8590811946  3.2276445427
C   11.5567551645 -2.1752417566  3.7247325632
C   11.2693464548 -4.5213511590  4.2528149489
C   10.8864920889 -3.1782713542  4.4791012964
C   9.8484806482 -2.6140691521  5.3930200729
C   10.3592428684 -1.7584891240  6.4734461085
C   9.6048806133 -1.2404203743  7.5069863792
C   8.2625426599 -1.7469178814  7.7356210367
C   10.2725302439 -0.2433894270  8.4244364762
C   14.8925363850 -5.0963378869 -0.2576854600
C   15.2477201315 -3.7121413066 -0.1795644281
C   16.1811400348 -3.1146857869 -0.9817170172
C   16.8019111817 -3.9333687234 -1.9491736212
C   16.4636972756 -5.3110922957 -2.0844882906
C   15.5183127944 -5.8878702100 -1.2422214985
C   13.9222102344 -5.3436419784  0.7422931435
C   13.6675719346 -4.1567322601  1.4147446258
H   13.0543206407 -1.7133052098  2.2236045292
H   12.3780716265 -5.8977773828  3.0197214433
H   11.2219998703 -6.3878514626  4.8588686803
H   11.6631091436 -0.2570351413  3.3479619026
H   9.1285963124 -2.0598797831  4.7843210623
H   11.4082281216 -1.4811727052  6.4526159305
H   7.5306125045 -1.4970600775  6.9582721351
H   7.8791667575 -1.5616180261  8.7477137435
H   10.8244208077  0.5005087423  7.8428091999
H   11.0154898125 -0.7389746203  9.0600325468
H   9.5567407500  0.2712499904  9.0709692794
H   16.4636930554 -2.0665307118 -0.9066231372
H   16.9436241279 -5.9186771738 -2.8499877767
H   15.2544573339 -6.9390290288 -1.3365855137
H   13.4501337555 -6.2996898952  0.9149667212
H   18.1273585627 -3.9945860737 -3.3902506837
C   9.8086038803 -4.7857149440  10.8165478288
O   12.0400019255 -5.6165222200  11.3364773628
C   11.1046240084 -5.1559128257  10.4227358877
O   7.6452989706 -3.9002399768  10.1705466915
C   11.5045163717 -5.0694023326  9.0719526765
O   6.2445541414 -2.9693073344  5.8493410780
C   10.6177959881 -4.5962579787  8.1229499116
O   4.5394872759 -4.3013089594  4.4204653395
C   9.2976546726 -4.2308611457  8.4728847581
O   6.2593790086 -6.1514606171  0.3056506594
C   8.9271842663 -4.3200707652  9.8449604167
C   8.3129139797 -3.6374529658  7.5533827065
C   8.4451771376 -3.8706886894  6.0651918933
C   7.1560298219 -3.6900567906  5.3420762470
C   6.9383138227 -4.3667369863  4.0514936038
C   7.9884608488 -4.7352227462  3.1882525411
C   5.5929033541 -4.6433365132  3.6253126500
C   7.7453927163 -5.3199100117  1.9575567784
C   5.3462548633 -5.2692333617  2.4004744852
C   6.4263052847 -5.5811476184  1.5496238344
C   3.9038489881 -5.6021829116  1.9911290516
C   3.5212335385 -7.0780625687  1.8340035315
C   3.4801659222 -7.9940848819  2.8276230353
C   3.0179832577 -9.4006529198  2.5500416139
C   4.0064589033 -7.7104435850  4.2174560463
H   9.5043563340 -4.8528136012  11.8627687507
H   12.5163731341 -5.3749324850  8.8301386800
H   10.9355619719 -4.4844442223  7.0916089138
H   11.6759476866 -5.6074896182  12.2445010230
H   7.4757178178 -3.9997967766  11.1277932470
H   7.3018017033 -3.7965355588  7.9318644265
H   8.9821265236 -4.7522740539  5.7665924419
H   9.0054949072 -4.5164594775  3.4706065288
H   8.5373346321 -5.5918640868  1.2714728968
H   4.9110472160 -3.6989732819  5.1321209480
H   5.3168181504 -6.2327940087  0.0699916177
H   3.2713969469 -5.1360491051  2.7556008974
H   3.6731181365 -5.1165135577  1.0323311175
H   3.1958875038 -7.3812776394  0.8377024424
H   2.3417100740 -9.7451790667  3.3399620939
H   3.8692082900 -10.0940521499  2.5526232213
H   2.5067659081 -9.4790139252  1.5860644859
H   5.1046963431 -7.7143216811  4.2247693050
H   3.6711040962 -8.4775126151  4.9216295516
H   3.6838691067 -6.7306078109  4.5868866112
84
Image 3  Energy = -386.2043989893
O   10.7306670802 -5.5570717588  5.0327236972
O   11.2112655506 -0.8511934254  3.9737772202
O   17.7530178906 -3.3427432513 -2.7625874288
O   14.4842966446 -3.1037772858  0.8430564400
C   12.7800505518 -3.8436410870  2.4723851566
C   12.5130926955 -2.4836370639  2.7650457226
C   12.1550807881 -4.8590797444  3.2276450900
C   11.5567510943 -2.1752429075  3.7247226133
C   11.2693461374 -4.5213474708  4.2528135902
C   10.8864910976 -3.1782726066  4.4790950277
C   9.8484835061 -2.6140672896  5.3930271929
C   10.3592238495 -1.7584742947  6.4734606013
C   9.6048804489 -1.2404161213  7.5069699487
C   8.2625319861 -1.7469218914  7.7356323877
C   10.2725374256 -0.2433866648  8.4244492446
C   14.8925385095 -5.0963378960 -0.2576826817
C   15.2477206851 -3.7121408443 -0.1795663288
C   16.1811377169 -3.1146856075 -0.9817200364
C   16.8019097977 -3.9333690130 -1.9491739822
C   16.4637008360 -5.3110937016 -2.0844883297
C   15.5183161327 -5.8878707719 -1.2422184408
C   13.9222135127 -5.3436414939  0.7422928079
C   13.6675727540 -4.1567323206  1.4147412661
H   13.0543183956 -1.7132985985  2.2235950681
H   12.3780775525 -5.8977802211  3.0197250804
H   11.2220018467 -6.3878472263  4.8588745547
H   11.6630980251 -0.2570297448  3.3479568317
H   9.1286143254 -2.0598618492  4.7843134686
H   11.4082532962 -1.4811679635  6.4525988338
H   7.5306160306 -1.4970618520  6.9582673253
H   7.8791793424 -1.5616216141  8.7477391408
H   10.8244104492  0.5005136055  7.8427830729
H   11.0155048589 -0.7389844739  9.0600499346
H   9.5567160842  0.2712346477  9.0709529068
H   16.4636898253 -2.0665306124 -0.9066292166
H   16.9436273345 -5.9186780593 -2.8499847406
H   15.2544641007 -6.9390289336 -1.3365812568
H   13.4501384899 -6.2996914509  0.9149710370
H   18.1273577429 -3.9945841438 -3.3902507874
C   9.8085994088 -4.7857153547  10.8165631512
O   12.0399991653 -5.6165247720  11.3364710674
C   11.1046137123 -5.1559241730  10.4227344977
O   7.6452958929 -3.9002427350  10.1705542855
C   11.5045328860 -5.0694101788  9.0719606097
O   6.2445375950 -2.9693026511  5.8493416810
C   10.6178034601 -4.5962387919  8.1229378448
O   4.5394840634 -4.3013067731  4.4204611383
C   9.2976506650 -4.2308786915  8.4728852862
O   6.2593778713 -6.1514601641  0.3056496399
C   8.9271828827 -4.3200538705  9.8449553367
C   8.3129086305 -3.6374575240  7.5534012174
C   8.4451779756 -3.8706849232  6.0651983552
C   7.1560393822 -3.6900471569  5.3420772623
C   6.9383150346 -4.3667331637  4.0514994100
C   7.9884616836 -4.7352290114  3.1882563192
C   5.5929058939 -4.6433387725  3.6253133777
C   7.7453920168 -5.3199134310  1.9575564906
C   5.3462544695 -5.2692335924  2.4004737693
C   6.4263056339 -5.5811465589  1.5496210484
C   3.9038473440 -5.6021817763  1.9911273647
C   3.5212329945 -7.0780613338  1.8340039417
C   3.4801661563 -7.9940828427  2.8276243151
C   3.0179829452 -9.4006506588  2.5500437483
C   4.0064593956 -7.7104405909  4.2174566682
H   9.5043538537 -4.8528214059  11.8627679818
H   12.5163697507 -5.3749327186  8.8301325173
H   10.9355556231 -4.4844483160  7.0916060593
H   11.6759437864 -5.6074951187  12.2445009451
H   7.4757135749 -3.9997983398  11.1277856622
H   7.3017935659 -3.7965547525  7.9318693759
H   8.9821278363 -4.7522882390  5.7666136149
H   9.0054956802 -4.5164663548  3.4706088583
H   8.5373356692 -5.5918691502  1.2714687670
H   4.9110507828 -3.6989728495  5.1321134919
H   5.3168154909 -6.2327928048  0.0699886798
H   3.2713971107 -5.1360467751  2.7555999604
H   3.6731174646 -5.1165127994  1.0323292153
H   3.1958871345 -7.3812772122  0.8377032790
H   2.3417087625 -9.7451757267  3.3399637461
H   3.8692073976 -10.0940505757  2.5526274334
H   2.5067667472 -9.4790130153  1.5860663577
H   5.1046970938 -7.7143205837  4.2247698279
H   3.6711038801 -8.4775088058  4.9216307244
H   3.6838707073 -6.7306045000  4.5868865952
84
Image 4  Energy = -386.2044023272
O   10.7306809218 -5.5570522362  5.0327409567
O   11.2112511612 -0.8512008110  3.9737459482
O   17.7530162376 -3.3427518108 -2.7626062719
O   14.4842906904 -3.1037725697  0.8430424960
C   12.7800714623 -3.8436446805  2.4723805083
C   12.5131001264 -2.4836293560  2.7650147616
C   12.1550995435 -4.8590755717  3.2276478348
C   11.5567358638 -2.1752465737  3.7246817800
C   11.2693464977 -4.5213356158  4.2528072965
C   10.8864854145 -3.1782729027  4.4790735303
C   9.8484936812 -2.6140595464  5.3930474747
C   10.3591794955 -1.7584167724  6.4735014060
C   9.6048783478 -1.2404026044  7.5069242460
C   8.2624916453 -1.7469346738  7.7356848188
C   10.2725626623 -0.2433840878  8.4244879027
C   14.8925486827 -5.0963384327 -0.2576733429
C   15.2477211397 -3.7121394930 -0.1795727892
C   16.1811314522 -3.1146845018 -0.9817348440
C   16.8019037183 -3.9333708646 -1.9491760872
C   16.4637136243 -5.3110982172 -2.0844859337
C   15.5183302715 -5.8878720971 -1.2422060017
C   13.9222261799 -5.3436412208  0.7422920577
C   13.6675764663 -4.1567320324  1.4147282510
H   13.0543087585 -1.7132729096  2.2235569007
H   12.3781013898 -5.8977896610  3.0197404789
H   11.2220095157 -6.3878290307  4.8588986366
H   11.6630532584 -0.2570082147  3.3479352607
H   9.1286896694 -2.0597904225  4.7842845617
H   11.4083352088 -1.4811509830  6.4525317708
H   7.5306353780 -1.4970743671  6.9582609280
H   7.8792325178 -1.5616425984  8.7478257801
H   10.8243645593  0.5005278669  7.8426851674
H   11.0155582418 -0.7390180388  9.0601146821
H   9.5566174727  0.2711738525  9.0708889945
H   16.4636763833 -2.0665297030 -0.9066539117
H   16.9436414810 -5.9186826634 -2.8499737100
H   15.2544914489 -6.9390296374 -1.3365638052
H   13.4501584129 -6.2996967580  0.9149883784
H   18.1273562713 -3.9945797403 -3.3902544006
C   9.8085825219 -4.7857147293  10.8166055432
O   12.0399865763 -5.6165369288  11.3364526185
C   11.1045754231 -5.1559686251  10.4227297334
O   7.6452843231 -3.9002515239  10.1705729818
C   11.5045777203 -5.0694319855  9.0719807618
O   6.2444814431 -2.9692894267  5.8493409660
C   10.6178290008 -4.5961702813  8.1229064385
O   4.5394736500 -4.3012988581  4.4204427833
C   9.2976407877 -4.2309338383  8.4728940252
O   6.2593717470 -6.1514584948  0.3056444285
C   8.9271812123 -4.3199948824  9.8449437441
C   8.3128859697 -3.6374711465  7.5534672524
C   8.4451796602 -3.8706657665  6.0652222488
C   7.1560689809 -3.6900072975  5.3420857358
C   6.9383219193 -4.3667197511  4.0515197028
C   7.9884647573 -4.7352539916  3.1882709432
C   5.5929134669 -4.6433468552  3.6253166733
C   7.7453914252 -5.3199273246  1.9575554209
C   5.3462542660 -5.2692341981  2.4004710059
C   6.4263058512 -5.5811425846  1.5496108055
C   3.9038416987 -5.6021764072  1.9911209211
C   3.5212305064 -7.0780569103  1.8340057765
C   3.4801670385 -7.9940740643  2.8276292474
C   3.0179818004 -9.4006410692  2.5500524768
C   4.0064621750 -7.7104283555  4.2174586244
H   9.5043415286 -4.8528534357  11.8627715255
H   12.5163629659 -5.3749361029  8.8301080477
H   10.9355322963 -4.4844627536  7.0915897625
H   11.6759297442 -5.6075179559  12.2444969283
H   7.4756955867 -3.9998057824  11.1277637323
H   7.3017633800 -3.7966341523  7.9318887932
H   8.9821257414 -4.7523373791  5.7667087464
H   9.0054983874 -4.5164949994  3.4706183189
H   8.5373379695 -5.5918890316  1.2714540681
H   4.9110653435 -3.6989696303  5.1320850003
H   5.3168063351 -6.2327875836  0.0699773188
H   3.2713977639 -5.1360373255  2.7555959888
H   3.6731147616 -5.1165098966  1.0323216394
H   3.1958855767 -7.3812755560  0.8377066301
H   2.3417032231 -9.7451622271  3.3399707594
H   3.8692038991 -10.0940443205  2.5526447470
H   2.5067700846 -9.4790092696  1.5860738255
H   5.1046996379 -7.7143160444  4.2247720631
H   3.6711028504 -8.4774935256  4.9216358532
H   3.6838772084 -6.7305906828  4.5868866306
84
Image 5  Energy = -386.2044152018
O   10.7307294166 -5.5569703620  5.0328078783
O   11.2111921164 -0.8512243800  3.9736261129
O   17.7530027373 -3.3427808647 -2.7626704409
O   14.4842690428 -3.1037531889  0.8429870297
C   12.7801447059 -3.8436514478  2.4723642955
C   12.5131258176 -2.4836006068  2.7648965757
C   12.1551702453 -4.8590634562  3.2276595304
C   11.5566798734 -2.1752562077  3.7245275222
C   11.2693535234 -4.5212940812  4.2527829873
C   10.8864633722 -3.1782698885  4.4789992347
C   9.8485258486 -2.6140250228  5.3931032613
C   10.3590860320 -1.7582175103  6.4736056739
C   9.6048693700 -1.2403631978  7.5068102789
C   8.2623726080 -1.7469774084  7.7358824057
C   10.2726452149 -0.2433941849  8.4245985105
C   14.8925890766 -5.0963418512 -0.2576417674
C   15.2477311678 -3.7121285694 -0.1796039398
C   16.1810947722 -3.1146817180 -0.9817802602
C   16.8018952278 -3.9333763998 -1.9491974781
C   16.4637609747 -5.3111188261 -2.0844760588
C   15.5183879217 -5.8878798914 -1.2421615628
C   13.9222721529 -5.3436431397  0.7422927544
C   13.6675922877 -4.1567313200  1.4146812936
H   13.0542679608 -1.7131813677  2.2234138979
H   12.3781920964 -5.8978195541  3.0198012815
H   11.2220432209 -6.3877655247  4.8589891237
H   11.6628838304 -0.2569284299  3.3478490676
H   9.1289813115 -2.0595234740  4.7841814916
H   11.4085929267 -1.4810884047  6.4522863218
H   7.5307116267 -1.4971336205  6.9582693029
H   7.8794316433 -1.5617340287  8.7481278137
H   10.8241782496  0.5005625180  7.8423424782
H   11.0157342839 -0.7391215797  9.0603392499
H   9.5562533031  0.2709468218  9.0706539318
H   16.4636258127 -2.0665238114 -0.9067494450
H   16.9436946301 -5.9186995994 -2.8499296298
H   15.2545956808 -6.9390338375 -1.3364958489
H   13.4502359615 -6.2997166464  0.9150541143
H   18.1273518026 -3.9945679463 -3.3902715632
C   9.8085206692 -4.7857107708  10.8167380909
O   12.0399364015 -5.6165893531  11.3363906814
C   11.1044456598 -5.1561291376  10.4227042191
O   7.6452414695 -3.9002778064  10.1706173821
C   11.5046934767 -5.0694908926  9.0720278109
O   6.2442976130 -2.9692495091  5.8493349226
C   10.6179172908 -4.5959400455  8.1228330511
O   4.5394405670 -4.3012681684  4.4203742627
C   9.2976086217 -4.2310898014  8.4729308227
O   6.2593499690 -6.1514513967  0.3056234822
C   8.9271859206 -4.3198019683  9.8449278398
C   8.3128017830 -3.6375150473  7.5536865814
C   8.4451862259 -3.8705816120  6.0653173657
C   7.1561547865 -3.6898624708  5.3421192478
C   6.9383492378 -4.3666764301  4.0515851849
C   7.9884688649 -4.7353480706  3.1883230416
C   5.5929444360 -4.6433739763  3.6253280415
C   7.7453897339 -5.3199796073  1.9575538281
C   5.3462545886 -5.2692356007  2.4004602835
C   6.4263076299 -5.5811290174  1.5495753088
C   3.9038254986 -5.6021573767  1.9910983416
C   3.5212211437 -7.0780361208  1.8340114650
C   3.4801695220 -7.9940422773  2.8276477052
C   3.0179785310 -9.4006071789  2.5500878942
C   4.0064712586 -7.7103823122  4.2174689586
H   9.5042907750 -4.8529752370  11.8627899049
H   12.5163516395 -5.3749542533  8.8300186209
H   10.9354488660 -4.4845105596  7.0915205547
H   11.6758762608 -5.6076067654  12.2444816656
H   7.4756255925 -3.9998365795  11.1276989898
H   7.3016579298 -3.7969393182  7.9319619648
H   8.9820970308 -4.7525014136  5.7670903537
H   9.0055137227 -4.5166057940  3.4706568831
H   8.5373423020 -5.5919633869  1.2714037672
H   4.9111197715 -3.6989543298  5.1319802667
H   5.3167708819 -6.2327668091  0.0699345439
H   3.2713996503 -5.1360005328  2.7555806411
H   3.6731043240 -5.1164983592  1.0322919840
H   3.1958791918 -7.3812697523  0.8377188454
H   2.3416821692 -9.7451094915  3.3399972893
H   3.8691893098 -10.0940186323  2.5527113385
H   2.5067827747 -9.4789943242  1.5861021609
H   5.1047106658 -7.7142983372  4.2247805731
H   3.6710993418 -8.4774337611  4.9216548635
H   3.6839025039 -6.7305374170  4.5868864948
84
Image 6  Energy = -386.2044967409
O   10.7312283575 -5.5561940481  5.0334641533
O   11.2105533674 -0.8514212315  3.9724329311
O   17.7528525906 -3.3429862170 -2.7632729225
O   14.4840635979 -3.1035677417  0.8424092059
C   12.7808192487 -3.8436770662  2.4721966230
C   12.5132929105 -2.4833225325  2.7637675725
C   12.1558778351 -4.8589545927  3.2277762450
C   11.5561492625 -2.1753143844  3.7230212779
C   11.2694634896 -4.5209033081  4.2525609357
C   10.8862766808 -3.1781896765  4.4782812013
C   9.8488529545 -2.6136513093  5.3935307635
C   10.3585125946 -1.7564911790  6.4742943748
C   9.6049381012 -1.2401881870  7.5060169063
C   8.2615850060 -1.7473638346  7.7377299843
C   10.2733212817 -0.2436117987  8.4254948235
C   14.8930294674 -5.0963704210 -0.2573821774
C   15.2477466414 -3.7120777459 -0.1798519410
C   16.1808350141 -3.1146159113 -0.9823410406
C   16.8017894556 -3.9334545053 -1.9493919859
C   16.4642080442 -5.3112839657 -2.0843330579
C   15.5189981847 -5.8879548126 -1.2417321757
C   13.9227280576 -5.3436888540  0.7423167888
C   13.6677734040 -4.1567011114  1.4142485059
H   13.0538319619 -1.7123315161  2.2220054677
H   12.3790946410 -5.8980522503  3.0204276636
H   11.2223676835 -6.3871008433  4.8598967836
H   11.6612212792 -0.2561583706  3.3469353346
H   9.1318505769 -2.0568991115  4.7832010745
H   11.4107367677 -1.4804412517  6.4499641747
H   7.5314506511 -1.4978103768  6.9586490137
H   7.8813312691 -1.5627131084  8.7509480391
H   10.8222362742  0.5007202429  7.8392567879
H   11.0171686081 -0.7398633038  9.0623001651
H   9.5528307602  0.2687307458  9.0683881823
H   16.4631106382 -2.0664540611 -0.9077032932
H   16.9442461454 -5.9188978752 -2.8495136296
H   15.2556288555 -6.9391142780 -1.3358081099
H   13.4510231545 -6.2999110944  0.9157056856
H   18.1273245104 -3.9945078102 -3.3904843576
C   9.8080039140 -4.7856934123  10.8177751789
O   12.0394050935 -5.6171806047  11.3358705266
C   11.1032743645 -5.1576003107  10.4224573707
O   7.6448252871 -3.9004866071  10.1709466476
C   11.5055789732 -5.0699494638  9.0723133258
O   6.2427592741 -2.9689194319  5.8492618592
C   10.6186025604 -4.5938940397  8.1222664162
O   4.5392018002 -4.3009732566  4.4196874119
C   9.2973859881 -4.2321611401  8.4733389660
O   6.2591158306 -6.1513741963  0.3053954400
C   8.9272451313 -4.3181669948  9.8449672472
C   8.3119937515 -3.6379085776  7.5556022352
C   8.4452882461 -3.8696883953  6.0662456425
C   7.1567842682 -3.6885316857  5.3424359042
C   6.9386174453 -4.3663144400  4.0521528198
C   7.9885675354 -4.7362416805  3.1888285247
C   5.5932083579 -4.6436064565  3.6254124464
C   7.7453844949 -5.3205033356  1.9575457752
C   5.3463063278 -5.2692391784  2.4003532251
C   6.4262958958 -5.5810167297  1.5492603906
C   3.9036993609 -5.6019423366  1.9908904356
C   3.5211233374 -7.0778402657  1.8340790032
C   3.4801936784 -7.9937012581  2.8278210944
C   3.0179346160 -9.4002772987  2.5504305806
C   4.0065697680 -7.7099218245  4.2175752419
H   9.5037485328 -4.8541832963  11.8630303501
H   12.5162536471 -5.3751463735  8.8291868786
H   10.9346502280 -4.4849165122  7.0908872954
H   11.6753551600 -5.6085086452  12.2442894923
H   7.4749220311 -4.0001518931  11.1271381450
H   7.3007109130 -3.7999572706  7.9326737378
H   8.9816045857 -4.7538842586  5.7710055742
H   9.0056336822 -4.5177450182  3.4710487224
H   8.5373378619 -5.5926839081  1.2709749924
H   4.9116396815 -3.6987575831  5.1309964101
H   5.3164529383 -6.2325458491  0.0695266749
H   3.2714241182 -5.1356357337  2.7554140364
H   3.6730067424 -5.1163888265  1.0320077164
H   3.1958105809 -7.3812151421  0.8378338786
H   2.3414652710 -9.7445785501  3.3402721239
H   3.8690512213 -10.0937636996  2.5533825935
H   2.5069147859 -9.4788406675  1.5863939658
H   5.1048156558 -7.7141174058  4.2248670903
H   3.6710625655 -8.4768340515  4.9218501370
H   3.6841585351 -6.7300004871  4.5868834121
84
Image 7  Energy = -386.2047239538
O   10.7314140808 -5.5556387257  5.0338793729
O   11.2100365416 -0.8513832510  3.9716865741
O   17.7526334528 -3.3429048485 -2.7634411237
O   14.4839494284 -3.1034590600  0.8420303868
C   12.7810608257 -3.8435440927  2.4720688609
C   12.5131818602 -2.4831551423  2.7631930724
C   12.1562504603 -4.8589527340  3.2278978263
C   11.5559229338 -2.1751846661  3.7222337949
C   11.2697267618 -4.5208426901  4.2524122059
C   10.8860909891 -3.1777932629  4.4780964472
C   9.8496924136 -2.6137090557  5.3915398112
C   10.3594071221 -1.7537440989  6.4760892610
C   9.6101569591 -1.2448310489  7.5036944311
C   8.2575316554 -1.7462662517  7.7440300714
C   10.2702262530 -0.2457602593  8.4239007649
C   14.8933428650 -5.0964510982 -0.2573586854
C   15.2478657348 -3.7119604418 -0.1801184878
C   16.1805984123 -3.1146466151 -0.9826096847
C   16.8018810411 -3.9334598916 -1.9496586134
C   16.4644239685 -5.3113871839 -2.0841848494
C   15.5194287854 -5.8880289437 -1.2415085949
C   13.9229731388 -5.3437924609  0.7424113209
C   13.6679127210 -4.1566677039  1.4141156837
H   13.0534630430 -1.7120584255  2.2212558832
H   12.3796189663 -5.8979827095  3.0208568919
H   11.2226127285 -6.3867627964  4.8604036104
H   11.6603130678 -0.2558149844  3.3462555144
H   9.1335597223 -2.0554318759  4.7827086976
H   11.4106310185 -1.4798802443  6.4486495868
H   7.5346258841 -1.5002085783  6.9631343755
H   7.8841431284 -1.5663476040  8.7452531818
H   10.8207325152  0.5002772772  7.8383578562
H   11.0171501453 -0.7394997137  9.0627747456
H   9.5511794194  0.2676332541  9.0674733595
H   16.4628106175 -2.0663189482 -0.9082859779
H   16.9446073967 -5.9190563982 -2.8492930978
H   15.2562262741 -6.9392558771 -1.3353734729
H   13.4515384022 -6.2999960799  0.9160677243
H   18.1273746929 -3.9946570936 -3.3907528694
C   9.8082343885 -4.7860391960  10.8178897662
O   12.0390122458 -5.6177516877  11.3359192928
C   11.1030610992 -5.1580765905  10.4220508857
O   7.6446120953 -3.9005510110  10.1706651586
C   11.5051851670 -5.0700091901  9.0723757404
O   6.2425083219 -2.9688478535  5.8492821061
C   10.6152055853 -4.5927744646  8.1222747907
O   4.5393276784 -4.3007815214  4.4193361497
C   9.2983167067 -4.2287537724  8.4768809839
O   6.2589553864 -6.1513047076  0.3052154867
C   8.9273858856 -4.3178655542  9.8423945682
C   8.3117312408 -3.6362349097  7.5570759040
C   8.4429968250 -3.8659861849  6.0647246844
C   7.1581274255 -3.6889159185  5.3432884118
C   6.9387471795 -4.3665559470  4.0518532182
C   7.9884367027 -4.7367072718  3.1889332852
C   5.5933642060 -4.6435813041  3.6254308806
C   7.7454589062 -5.3207762361  1.9576489548
C   5.3463987980 -5.2692122178  2.4002820216
C   6.4262720914 -5.5810244156  1.5491852297
C   3.9037570361 -5.6017986097  1.9908171600
C   3.5210609948 -7.0776730642  1.8340893701
C   3.4801908655 -7.9935193037  2.8279316420
C   3.0179104922 -9.4000839365  2.5506643485
C   4.0066362884 -7.7096554053  4.2176442435
H   9.5033466883 -4.8548859601  11.8633572087
H   12.5163846326 -5.3753403228  8.8288617638
H   10.9344854669 -4.4849004378  7.0903855420
H   11.6750910510 -5.6090893193  12.2440555022
H   7.4745094007 -4.0003738130  11.1271601887
H   7.3017669064 -3.8020407507  7.9323816931
H   8.9800552685 -4.7536413033  5.7762229825
H   9.0057846493 -4.5185057800  3.4712936315
H   8.5371837434 -5.5930433441  1.2709469646
H   4.9118948341 -3.6985162433  5.1306064999
H   5.3163427105 -6.2323767693  0.0693361773
H   3.2714450685 -5.1354150134  2.7552914431
H   3.6729682740 -5.1163325989  1.0318627474
H   3.1957586944 -7.3811903124  0.8378934829
H   2.3413246934 -9.7442484822  3.3404511518
H   3.8689805349 -10.0936098538  2.5537967294
H   2.5069888632 -9.4787396121  1.5865562251
H   5.1048738124 -7.7139978567  4.2249237954
H   3.6710380455 -8.4764680281  4.9219779240
H   3.6843209159 -6.7296594985  4.5868811212
84
Image 8  Energy = -386.2048166986
O   10.7316222131 -5.5553286769  5.0341516923
O   11.2097330029 -0.8514306531  3.9711550981
O   17.7526733367 -3.3430761519 -2.7638459685
O   14.4838647986 -3.1033839809  0.8417784534
C   12.7813045055 -3.8435860256  2.4719853495
C   12.5131886187 -2.4830345566  2.7627479888
C   12.1565223685 -4.8588076585  3.2279775551
C   11.5557617739 -2.1750986941  3.7216044115
C   11.2698264645 -4.5206635280  4.2523283631
C   10.8861376724 -3.1777994796  4.4776919820
C   9.8501599331 -2.6132795150  5.3913149265
C   10.3596124904 -1.7537870962  6.4750354861
C   9.6092220777 -1.2460760323  7.5048188799
C   8.2593367586 -1.7460632602  7.7432213077
C   10.2701663271 -0.2464646345  8.4237507856
C   14.8934852146 -5.0964476696 -0.2572018053
C   15.2478199936 -3.7120042650 -0.1802057795
C   16.1805604223 -3.1145475700 -0.9829035969
C   16.8017743410 -3.9334844942 -1.9496725975
C   16.4646939802 -5.3114574121 -2.0842044348
C   15.5196682170 -5.8881168856 -1.2413102262
C   13.9232361736 -5.3437509202  0.7424008621
C   13.6679933370 -4.1566555382  1.4139549474
H   13.0532508316 -1.7117519472  2.2206699032
H   12.3800216158 -5.8980897753  3.0211233540
H   11.2227130031 -6.3864301272  4.8607963952
H   11.6596339417 -0.2555083896  3.3458133206
H   9.1348127516 -2.0541714845  4.7821805286
H   11.4120616148 -1.4791894524  6.4475738265
H   7.5355932930 -1.5010912749  6.9647820608
H   7.8845648040 -1.5674249386  8.7467658595
H   10.8195103076  0.4999537944  7.8373788421
H   11.0171399982 -0.7394215050  9.0631994619
H   9.5495210194  0.2665446386  9.0664695180
H   16.4625766906 -2.0663050793 -0.9086984811
H   16.9448373697 -5.9191390556 -2.8490997476
H   15.2566721530 -6.9393048434 -1.3350739198
H   13.4518689455 -6.3001086691  0.9163468322
H   18.1273041356 -3.9945345486 -3.3907493815
C   9.8078767795 -4.7861392739  10.8181095777
O   12.0389281691 -5.6180867329  11.3355787660
C   11.1025576852 -5.1585880064  10.4220470501
O   7.6444471997 -3.9007401821  10.1708402168
C   11.5053240294 -5.0702009527  9.0721622182
O   6.2419100296 -2.9688742808  5.8491652855
C   10.6154041427 -4.5919865314  8.1218643600
O   4.5392588668 -4.3006031824  4.4191386270
C   9.2981083060 -4.2273945253  8.4767825162
O   6.2589094018 -6.1512473136  0.3051489991
C   8.9271700813 -4.3172443427  9.8431569843
C   8.3114770845 -3.6362578573  7.5579734856
C   8.4430471043 -3.8647203904  6.0651825568
C   7.1581049599 -3.6885126264  5.3432797061
C   6.9388458066 -4.3665072537  4.0521717194
C   7.9885916405 -4.7370642736  3.1890744462
C   5.5935824904 -4.6436487426  3.6254145306
C   7.7453799548 -5.3210461951  1.9575623252
C   5.3463901554 -5.2692148125  2.4002126120
C   6.4262946724 -5.5810068070  1.5490510146
C   3.9037109675 -5.6017052190  1.9907275995
C   3.5210246574 -7.0775964555  1.8341352973
C   3.4802011408 -7.9933572883  2.8279956343
C   3.0178832551 -9.3999364384  2.5508090938
C   4.0066698824 -7.7094547545  4.2176887450
H   9.5031715519 -4.8553824289  11.8632203261
H   12.5160235730 -5.3753280807  8.8285367092
H   10.9338601111 -4.4850056836  7.0905251695
H   11.6748020963 -5.6094775993  12.2440733103
H   7.4743476780 -4.0005109065  11.1266295373
H   7.3018515390 -3.8036650582  7.9324057636
H   8.9790642411 -4.7534564355  5.7794229582
H   9.0057873883 -4.5190517542  3.4714329441
H   8.5371891124 -5.5933430259  1.2708027998
H   4.9121821787 -3.6983742079  5.1302732010
H   5.3161877471 -6.2322737921  0.0691667390
H   3.2714683707 -5.1352582296  2.7552136719
H   3.6729419798 -5.1162889081  1.0317584521
H   3.1957259811 -7.3811622997  0.8379414878
H   2.3412275197 -9.7440186430  3.3405752832
H   3.8689296556 -10.0935056106  2.5540891054
H   2.5070470535 -9.4786727139  1.5866841191
H   5.1049227521 -7.7139166217  4.2249622349
H   3.6710218895 -8.4762084729  4.9220657678
H   3.6844358903 -6.7294288925  4.5868779014
84
Image 9  Energy = -386.2049728628
O   10.7321532688 -5.5543137757  5.0349745600
O   11.2087616410 -0.8514278354  3.9695437528
O   17.7524142223 -3.3431262513 -2.7644935793
O   14.4836145094 -3.1031733927  0.8410187376
C   12.7819376321 -3.8435295691  2.4717087762
C   12.5131460599 -2.4826678268  2.7614210446
C   12.1573678241 -4.8586593488  3.2281824190
C   11.5553828253 -2.1748970144  3.7197798551
C   11.2701999162 -4.5201994487  4.2521431296
C   10.8865404081 -3.1776752605  4.4762169077
C   9.8515635337 -2.6118692111  5.3901065956
C   10.3611352011 -1.7536892348  6.4725042252
C   9.6095395709 -1.2505564902  7.5069140549
C   8.2640623818 -1.7456156408  7.7438639598
C   10.2690033736 -0.2488738044  8.4231860811
C   14.8940848366 -5.0965317533 -0.2569904728
C   15.2478124120 -3.7119561120 -0.1805741924
C   16.1802997028 -3.1144281958 -0.9836657754
C   16.8017198287 -3.9335741836 -1.9500164178
C   16.4652251653 -5.3116452744 -2.0839419879
C   15.5205193661 -5.8882304840 -1.2408000503
C   13.9238423570 -5.3438616368  0.7425402240
C   13.6682456649 -4.1565613080  1.4135643813
H   13.0525631085 -1.7109811937  2.2189734609
H   12.3811869581 -5.8981724548  3.0219703750
H   11.2230225171 -6.3854701250  4.8619319642
H   11.6576722546 -0.2546606335  3.3444124178
H   9.1384355727 -2.0503961393  4.7804213252
H   11.4152567313 -1.4770421445  6.4444159978
H   7.5381912317 -1.5039061283  6.9697240509
H   7.8863197258 -1.5716727540  8.7493495306
H   10.8154302099  0.4984018128  7.8348977079
H   11.0164485541 -0.7387403177  9.0639440841
H   9.5448251466  0.2630894462  9.0633921542
H   16.4619068988 -2.0661323368 -0.9099293692
H   16.9456097076 -5.9194677177 -2.8486409974
H   15.2579700781 -6.9395653619 -1.3341709754
H   13.4529361546 -6.3003135013  0.9171354384
H   18.1273283795 -3.9946214644 -3.3911485167
C   9.8069296509 -4.7865723990  10.8181502390
O   12.0384120471 -5.6191702300  11.3351611028
C   11.1014699477 -5.1598924667  10.4215245969
O   7.6438339539 -3.9011685111  10.1705395728
C   11.5040571328 -5.0702221729  9.0711719746
O   6.2404496109 -2.9691333804  5.8487441516
C   10.6154255195 -4.5899602047  8.1221556100
O   4.5393096919 -4.3001283813  4.4184768124
C   9.2984398561 -4.2225598207  8.4774193570
O   6.2586159240 -6.1511053474  0.3048288768
C   8.9268129273 -4.3154885458  9.8450033069
C   8.3109072656 -3.6360556447  7.5597087733
C   8.4430929900 -3.8603064996  6.0667035398
C   7.1576308120 -3.6872699395  5.3433872974
C   6.9394236427 -4.3666832875  4.0527782253
C   7.9887302854 -4.7381335840  3.1893454382
C   5.5939251754 -4.6437720918  3.6253910657
C   7.7453658924 -5.3217598404  1.9574852548
C   5.3464899725 -5.2691766789  2.4000211935
C   6.4262081161 -5.5810079194  1.5487146690
C   3.9036436346 -5.6014162065  1.9905069897
C   3.5209095941 -7.0773397779  1.8342173951
C   3.4802205778 -7.9929083878  2.8282175795
C   3.0178143985 -9.3994950047  2.5512595961
C   4.0067903277 -7.7088668696  4.2178171159
H   9.5025686708 -4.8568717013  11.8630121187
H   12.5151578273 -5.3753892021  8.8275304545
H   10.9320139374 -4.4850932642  7.0904610211
H   11.6741551292 -5.6106669273  12.2436474713
H   7.4737222118 -4.0010242805  11.1259110256
H   7.3021832132 -3.8085760162  7.9324469824
H   8.9755453966 -4.7523329838  5.7900317980
H   9.0059346815 -4.5207109281  3.4718991220
H   8.5371284689 -5.5942083948  1.2704756935
H   4.9130546560 -3.6978293219  5.1294636492
H   5.3159077718 -6.2319328159  0.0687295696
H   3.2715436212 -5.1347889217  2.7549742891
H   3.6728787505 -5.1161613113  1.0314553624
H   3.1956265865 -7.3810746793  0.8380952240
H   2.3409325692 -9.7433283362  3.3409526983
H   3.8687788011 -10.0931912868  2.5549665812
H   2.5072137233 -9.4784708825  1.5870523944
H   5.1050503302 -7.7136679826  4.2250795931
H   3.6709707867 -8.4754321099  4.9223333041
H   3.6847821816 -6.7287262445  4.5868699103
84
Image 10  Energy = -386.2050663229
O   10.7326272485 -5.5529192022  5.0360112800
O   11.2074892407 -0.8513402251  3.9675755260
O   17.7521323050 -3.3432189253 -2.7653336817
O   14.4833227843 -3.1029202348  0.8400790960
C   12.7824748420 -3.8432907500  2.4714185153
C   12.5130794729 -2.4822502302  2.7597351359
C   12.1584046904 -4.8585675964  3.2284118168
C   11.5551443055 -2.1745496934  3.7175291204
C   11.2709958822 -4.5199795884  4.2517906726
C   10.8868972604 -3.1771364657  4.4745828715
C   9.8524498779 -2.6103873843  5.3884741880
C   10.3653199208 -1.7537797331  6.4702305019
C   9.6130802617 -1.2530665384  7.5085309149
C   8.2671701352 -1.7462610000  7.7467493105
C   10.2680983184 -0.2508700338  8.4226440883
C   14.8947681207 -5.0966189997 -0.2567413437
C   15.2478348661 -3.7118880746 -0.1810841421
C   16.1799612466 -3.1142673859 -0.9845421812
C   16.8017367897 -3.9335933321 -1.9504896592
C   16.4660355705 -5.3119139229 -2.0838218273
C   15.5214759932 -5.8886159356 -1.2401617815
C   13.9246651421 -5.3439277495  0.7427245881
C   13.6686370273 -4.1565140539  1.4131222818
H   13.0516720707 -1.7102632776  2.2169789290
H   12.3825863022 -5.8980913936  3.0230345768
H   11.2234151445 -6.3843724842  4.8632382075
H   11.6554364250 -0.2537273026  3.3425507419
H   9.1425358674 -2.0461655837  4.7782764514
H   11.4163099915 -1.4748844441  6.4409465495
H   7.5396918477 -1.5063342059  6.9734641073
H   7.8888906968 -1.5762184473  8.7528103062
H   10.8103425041  0.4960268985  7.8325345642
H   11.0153169194 -0.7375854438  9.0646101305
H   9.5396737328  0.2589048384  9.0598814793
H   16.4610966809 -2.0658724951 -0.9114233223
H   16.9465076378 -5.9198350908 -2.8480211885
H   15.2595423277 -6.9398823840 -1.3330603005
H   13.4542240632 -6.3006022425  0.9180702596
H   18.1273181685 -3.9946953518 -3.3915806408
C   9.8063641092 -4.7872202670  10.8178237845
O   12.0374216218 -5.6204357473  11.3341115381
C   11.1003533610 -5.1611222687  10.4210859046
O   7.6425504167 -3.9013663530  10.1702018109
C   11.5030594536 -5.0704103454  9.0706933989
O   6.2389044805 -2.9691885713  5.8483733939
C   10.6149047413 -4.5874334956  8.1226585566
O   4.5396848413 -4.2995610655  4.4177051132
C   9.2995602123 -4.2189561253  8.4791755024
O   6.2583411773 -6.1509232813  0.3043914582
C   8.9272355671 -4.3134826115  9.8459504034
C   8.3104220215 -3.6366125083  7.5608153606
C   8.4432714733 -3.8560471206  6.0687067996
C   7.1570853123 -3.6856222545  5.3435630048
C   6.9397924965 -4.3670723873  4.0531936855
C   7.9890289801 -4.7392837994  3.1897800631
C   5.5942065673 -4.6438690721  3.6253174096
C   7.7453819011 -5.3226266201  1.9574015738
C   5.3466504206 -5.2690583494  2.3998560893
C   6.4261720172 -5.5810745870  1.5484175725
C   3.9036889142 -5.6010896888  1.9902894904
C   3.5207807965 -7.0769606428  1.8343250357
C   3.4802227937 -7.9923837917  2.8284603179
C   3.0177469665 -9.3990054047  2.5518477978
C   4.0069346277 -7.7081813562  4.2180084217
H   9.5016871467 -4.8587198161  11.8631788860
H   12.5136963936 -5.3754118436  8.8263646150
H   10.9299239669 -4.4849442065  7.0901262535
H   11.6733446000 -5.6121287518  12.2431713292
H   7.4726303412 -4.0016857815  11.1258083948
H   7.3019323707 -3.8138175886  7.9329127666
H   8.9720153825 -4.7516489046  5.8011570412
H   9.0061686121 -4.5227573974  3.4725772692
H   8.5369187252 -5.5951882549  1.2702899364
H   4.9139227782 -3.6971412716  5.1285771552
H   5.3155348956 -6.2314967900  0.0682255877
H   3.2716262418 -5.1342138934  2.7546824035
H   3.6728242874 -5.1160046253  1.0310975752
H   3.1954886185 -7.3809804709  0.8382524295
H   2.3405764140 -9.7424807239  3.3414095859
H   3.8685852195 -10.0927922120  2.5560343863
H   2.5074084697 -9.4782172930  1.5874830124
H   5.1052011223 -7.7133570407  4.2252235787
H   3.6709128753 -8.4744759095  4.9226535984
H   3.6852076794 -6.7278632980  4.5868573999
84
Image 11  Energy = -386.2050772902
O   10.7331505521 -5.5519078134  5.0367519467
O   11.2062953249 -0.8507816846  3.9654720124
O   17.7515894609 -3.3426299338 -2.7655903400
O   14.4831129216 -3.1027325689  0.8391560413
C   12.7827661971 -3.8430408729  2.4708135225
C   12.5128089222 -2.4819374808  2.7581697364
C   12.1594842635 -4.8585729784  3.2284788488
C   11.5549033489 -2.1740175078  3.7160076338
C   11.2717095957 -4.5191350303  4.2518827779
C   10.8874423775 -3.1770093777  4.4727476760
C   9.8534248592 -2.6095533636  5.3868743945
C   10.3660239056 -1.7550411061  6.4706271031
C   9.6176967141 -1.2568635867  7.5072391824
C   8.2702816305 -1.7470374485  7.7490903772
C   10.2666184232 -0.2516535663  8.4227003661
C   14.8956761836 -5.0969201844 -0.2570429083
C   15.2478904361 -3.7117149356 -0.1816559425
C   16.1797170430 -3.1141997848 -0.9854077841
C   16.8019811485 -3.9337514118 -1.9512150365
C   16.4662016285 -5.3120828034 -2.0830266012
C   15.5228112389 -5.8885006321 -1.2398604268
C   13.9252482482 -5.3443881691  0.7431917084
C   13.6689357945 -4.1562332096  1.4131784289
H   13.0508337383 -1.7100415427  2.2151753230
H   12.3839228401 -5.8977684643  3.0240187100
H   11.2234732951 -6.3831122297  4.8644265627
H   11.6536657839 -0.2532148818  3.3405461769
H   9.1450998367 -2.0425934589  4.7762233769
H   11.4174586349 -1.4722145164  6.4381361036
H   7.5401642176 -1.5078783989  6.9765009121
H   7.8915654894 -1.5800665062  8.7561794679
H   10.8063327269  0.4940740055  7.8315470203
H   11.0135967382 -0.7354431814  9.0647123711
H   9.5361321561  0.2553187172  9.0574094893
H   16.4603608272 -2.0654271643 -0.9127729323
H   16.9475489668 -5.9204066411 -2.8477596492
H   15.2608449284 -6.9406518466 -1.3320174266
H   13.4555492372 -6.3006739428  0.9188082261
H   18.1275442146 -3.9952918553 -3.3924167139
C   9.8056629549 -4.7878487970  10.8178213681
O   12.0361156538 -5.6220627740  11.3345934243
C   11.1004900146 -5.1613620207  10.4199341575
O   7.6419476913 -3.9014771340  10.1698721756
C   11.5000270126 -5.0694734050  9.0697513975
O   6.2384454660 -2.9689001342  5.8481719712
C   10.6153150727 -4.5867007014  8.1246451948
O   4.5403285626 -4.2990541464  4.4172116180
C   9.3003938831 -4.2163342934  8.4802470401
O   6.2579424979 -6.1507185564  0.3038805235
C   8.9271213062 -4.3122746694  9.8472026966
C   8.3099204827 -3.6373399987  7.5618578635
C   8.4434542106 -3.8530649180  6.0693918997
C   7.1565773524 -3.6845505887  5.3437835070
C   6.9403109631 -4.3676793225  4.0531968240
C   7.9888246349 -4.7402348205  3.1898680204
C   5.5943170829 -4.6437722758  3.6250654154
C   7.7455290407 -5.3231345256  1.9579887557
C   5.3469096282 -5.2689448165  2.3995680150
C   6.4261100191 -5.5813245993  1.5483612686
C   3.9039134938 -5.6006918733  1.9901876973
C   3.5206600875 -7.0766315638  1.8343603410
C   3.4802125473 -7.9919030072  2.8287180463
C   3.0176399873 -9.3985568789  2.5523303835
C   4.0070781794 -7.7075369900  4.2181514472
H   9.5009514045 -4.8604092119  11.8629428216
H   12.5125455619 -5.3756826562  8.8254130576
H   10.9279790124 -4.4840591413  7.0898719636
H   11.6730503446 -5.6135331666  12.2415217071
H   7.4713211677 -4.0023326551  11.1263860360
H   7.3021744088 -3.8174496034  7.9333314645
H   8.9693366252 -4.7513159034  5.8093253866
H   9.0067201787 -4.5246906189  3.4735228090
H   8.5366213019 -5.5959965005  1.2704550654
H   4.9143897100 -3.6963261987  5.1281514094
H   5.3154969685 -6.2310008261  0.0679283385
H   3.2717501198 -5.1337059781  2.7543644040
H   3.6728849336 -5.1158955782  1.0308844279
H   3.1953467367 -7.3808660035  0.8384153542
H   2.3402198312 -9.7417000014  3.3418777382
H   3.8684555119 -10.0924469672  2.5570325387
H   2.5076013157 -9.4779742000  1.5879040396
H   5.1053151406 -7.7130511318  4.2253638218
H   3.6708435445 -8.4736188421  4.9229933145
H   3.6856175226 -6.7270672861  4.5868363187
84
Image 12  Energy = -386.2051118608
O   10.7329800175 -5.5518595260  5.0366410038
O   11.2063767332 -0.8508486987  3.9657547953
O   17.7517755608 -3.3428484807 -2.7657353613
O   14.4831421530 -3.1027572791  0.8392849736
C   12.7825966420 -3.8430342025  2.4709100392
C   12.5127209926 -2.4819783878  2.7584456590
C   12.1592841359 -4.8584744246  3.2285310381
C   11.5550309988 -2.1740365678  3.7162194759
C   11.2717927712 -4.5194449100  4.2518083593
C   10.8872528743 -3.1767719093  4.4731561017
C   9.8529746079 -2.6098658632  5.3868441864
C   10.3669625294 -1.7551748448  6.4704170713
C   9.6170415880 -1.2558441893  7.5077959165
C   8.2689462603 -1.7470599308  7.7494009435
C   10.2666519855 -0.2515917090  8.4223605262
C   14.8954349354 -5.0968241869 -0.2568805973
C   15.2479070113 -3.7117640693 -0.1816455286
C   16.1797527886 -3.1142060150 -0.9852892170
C   16.8019234153 -3.9336206655 -1.9510488944
C   16.4664405547 -5.3120910519 -2.0834281710
C   15.5224936562 -5.8888092801 -1.2398378404
C   13.9253128310 -5.3441759462  0.7430986597
C   13.6689972386 -4.1563854124  1.4130974873
H   13.0509505927 -1.7101832437  2.2154045067
H   12.3837719025 -5.8977764726  3.0238852465
H   11.2234982076 -6.3833828858  4.8642151131
H   11.6540493702 -0.2533034715  3.3406355805
H   9.1445700245 -2.0433288199  4.7766028992
H   11.4163944009 -1.4726509118  6.4386771651
H   7.5399369169 -1.5074404310  6.9759737557
H   7.8916489383 -1.5794825607  8.7550866045
H   10.8071317594  0.4945331374  7.8319973546
H   11.0137602080 -0.7354981626  9.0646776675
H   9.5368092858  0.2560082554  9.0580951346
H   16.4604549581 -2.0654637601 -0.9125971093
H   16.9473601613 -5.9202841619 -2.8477115489
H   15.2606976903 -6.9404953302 -1.3321472403
H   13.4553533309 -6.3007329372  0.9187024943
H   18.1274382220 -3.9950867730 -3.3921836217
C   9.8060621910 -4.7878108651  10.8176664546
O   12.0364275284 -5.6219107518  11.3338552455
C   11.1003234274 -5.1610560215  10.4205379892
O   7.6419614243 -3.9013841212  10.1701663076
C   11.5013344667 -5.0698783370  9.0703052725
O   6.2387383647 -2.9687800519  5.8482660325
C   10.6144638643 -4.5867034983  8.1237934726
O   4.5402958701 -4.2991154833  4.4173503585
C   9.3003035378 -4.2172129409  8.4805030445
O   6.2581249227 -6.1507003417  0.3040074515
C   8.9272627554 -4.3126705166  9.8465708315
C   8.3102126169 -3.6372596286  7.5614829442
C   8.4432548240 -3.8538202944  6.0690727877
C   7.1568348356 -3.6849046138  5.3437214654
C   6.9400842647 -4.3676046467  4.0531493357
C   7.9890348882 -4.7399723362  3.1899928364
C   5.5943462771 -4.6437211321  3.6250790918
C   7.7454812500 -5.3231261004  1.9578064852
C   5.3468680200 -5.2689426888  2.3996125029
C   6.4261418980 -5.5813451145  1.5483961894
C   3.9039092324 -5.6007659723  1.9902032459
C   3.5206914680 -7.0766554460  1.8343722720
C   3.4802047649 -7.9919667468  2.8286683103
C   3.0176623732 -9.3986258796  2.5522908379
C   4.0070543232 -7.7076316894  4.2181417608
H   9.5010245646 -4.8602058501  11.8630669351
H   12.5123791707 -5.3755995681  8.8256269317
H   10.9283074729 -4.4840129804  7.0900894436
H   11.6728971996 -5.6133492244  12.2421230219
H   7.4714166529 -4.0022438444  11.1263933631
H   7.3020982892 -3.8165704578  7.9333470378
H   8.9699856458 -4.7516040011  5.8073906767
H   9.0065911925 -4.5244819758  3.4734446052
H   8.5366140301 -5.5958444910  1.2705771492
H   4.9142249793 -3.6964020781  5.1282921622
H   5.3154601293 -6.2310488753  0.0679836309
H   3.2717455355 -5.1337713310  2.7544033424
H   3.6729097621 -5.1159108595  1.0309368203
H   3.1953561335 -7.3808746939  0.8383859976
H   2.3402646309 -9.7417985217  3.3418192472
H   3.8684719649 -10.0924876940  2.5569046087
H   2.5075691407 -9.4780044579  1.5878361544
H   5.1052978635 -7.7130849955  4.2253463666
H   3.6708526485 -8.4737268287  4.9229517927
H   3.6855683808 -6.7271680514  4.5868363670
