466
Image 0  Energy = -11697.7008196539
C  -1.0887890402 -0.5602047410  0.1752568363
C   1.0794147964  0.6691063719  0.2758805057
C  -1.8399763580  0.4804144260  1.0104599482
C   1.5783655204 -0.1871378715  1.4272122809
C   2.2528739964  1.0560765791 -0.6134854715
N   0.0776633666 -0.0395649547 -0.5321375866
N  -2.0368364512 -0.9809954279 -0.8528395419
O  -2.5105123532  1.3740318501  0.1144243128
H  -2.5547022479  0.8526435257 -0.7202226350
H  -0.2667395690  0.6003252536 -1.2451498625
H  -0.7674157319 -1.3769709451  0.8346933269
H   0.6612980683  1.5975699230  0.6908084189
H  -2.8426900116 -1.4260237793 -0.4251385278
H  -1.5962540484 -1.6411002726 -1.4861513273
H  -1.1557400267  1.0607038123  1.6319525845
H  -2.5724052687 -0.0135929871  1.6481475449
H   2.3768162086  0.3559656129  1.9313371511
H   1.9489314953  1.7079154303 -1.4361052724
H   1.9802988734 -1.1353732184  1.0560169815
H   0.8055912463 -0.4038505384  2.1692924509
H   3.0113148877  1.5778405433 -0.0279745531
H   2.6968401353  0.1579401685 -1.0400995872
O   9.9320001602  4.3699998856  1.0659999847
H   9.8249998093  5.2519998550  0.6529999971
H   9.0550003052  4.0279998779  1.3359999657
O   9.5459995270 -0.3050000072 -0.4639999866
H   9.8959999084  0.5799999833 -0.6930000186
H   9.7239999771 -0.4930000007  0.4799999893
O   1.3300000429 -2.4830000401  9.7329998016
H   1.7779999971 -1.6230000257  9.5989999771
H   0.3899999857 -2.3289999962  9.9569997787
O   1.7389999628  0.3670000136  10.1400003433
H   1.6820000410  1.0199999809  10.8669996262
H   1.2799999714  0.7179999948  9.3500003815
O   0.6940000057  5.8610000610 -7.0250000954
H   1.3999999762  5.2620000839 -7.3429999352
H  -0.0450000018  5.8629999161 -7.6669998169
O  -4.6909999847 -4.1640000343 -5.9210000038
H  -5.2680001259 -3.4379999638 -6.2340002060
H  -5.0970001221 -5.0250000954 -6.1500000954
O   3.8989999294  8.1850004196 -2.6140000820
H   2.9869999886  7.8280000687 -2.6370000839
H   4.5029997826  7.5110001564 -2.2409999371
O   0.1714879805 -2.6210953418 -1.8603326297
H   0.5086117629 -3.0232683332 -2.6768803528
H   0.5244021359 -1.7199819585 -1.7381270012
O  -0.4819999933  8.8170003891 -3.0250000954
H   0.0230000000  8.6789999008 -2.1979999542
H  -0.8289999962  7.9580001831 -3.3420000076
O   3.0009999275  4.5500001907 -7.9590001106
H   3.8389999866  4.8940000534 -8.3310003281
H   3.1410000324  4.2950000763 -7.0240001678
O  -1.6510000229  6.3720002174 -3.8680000305
H  -2.0959999561  6.4270000458 -4.7379999161
H  -2.0929999352  5.6929998398 -3.3180000782
O   0.4247711655  4.1679284928 -0.6270614415
H   1.1005967582  4.0396906873  0.0817049008
H  -0.4192992494  4.3897938949 -0.2037960208
O  -2.9839999676 -5.3839998245 -8.0500001907
H  -3.8829998970 -5.0989999771 -7.7870001793
H  -2.5920000076 -5.9289999008 -7.3369998932
O  -1.4365425403 -5.4755105519  1.7357671759
H  -0.8235253693 -4.9346305930  1.1981599524
H  -1.6539376058 -4.9467447692  2.5235811092
O  -0.7764149873  5.9295065560  3.6610471956
H  -0.7457498828  6.5339613077  4.4207136086
H  -0.5298830381  6.4582400130  2.8642556762
O  -8.7510004044  4.3699998856  1.0659999847
H  -8.8579998016  5.2519998550  0.6529999971
H  -9.6280002594  4.0279998779  1.3359999657
O  -4.5190000534 -0.8899999857  6.7620000839
H  -5.4180002213 -1.2220000029  6.5630002022
H  -4.1970000267 -1.2960000038  7.5910000801
O   5.7899999619  3.3929998875 -4.1560001373
H   5.8410000801  2.7790000439 -3.3959999084
H   5.8340001106  4.3169999123 -3.8340001106
O  -3.2931546618  0.3912339191 -5.1515575353
H  -2.8596082243  1.2273509595 -4.8836748558
H  -2.5782284583 -0.2778301656 -5.1905829486
O   4.6770000458  0.8830000162  5.9829998016
H   4.7459998131  1.6330000162  6.6090002060
H   4.6300001144  0.0439999998  6.4840002060
O   8.1529998779  4.3359999657  3.6219999790
H   9.0970001221  4.5809998512  3.5380001068
H   8.0699996948  3.5559999943  4.2069997787
O  -7.6570000648 -0.6449999809 -4.8860001564
H  -6.9569997787 -0.4550000131 -4.2300000191
H  -8.4969997406 -0.8379999995 -4.4210000038
O  -6.4829998016  6.8239998817  1.6640000343
H  -5.5980000496  7.2399997711  1.6299999952
H  -6.5879998207  6.3470001221  2.5120000839
O   4.4604131860  4.0559243154 -1.0362369515
H   5.2774039148  4.5371347599 -0.8435994051
H   3.9013653930  4.6348361381 -1.5898618483
O   7.3959999084  3.6770000458  0.0630000010
H   7.6970000267  3.3440001011 -0.8080000281
H   6.9180002213  2.9670000076  0.5360000134
O   3.3933677298 -1.0023163599 -3.0205699908
H   4.1192093600 -0.8177712731 -2.3943307813
H   3.7252967364 -0.7446377150 -3.9143342936
O   0.9440000057 -8.1149997711 -4.4250001907
H   0.4429999888 -8.8179998398 -3.9630000591
H   0.3190000057 -7.5180001259 -4.8850002289
O   3.1014252475  3.8331485272 -5.1751821356
H   2.5884693029  4.4396729372 -4.6213145928
H   3.9655915738  3.6716019599 -4.7458331182
O  -1.0959999561 -8.4370002747  0.8960000277
H  -1.2710000277 -7.5199999809  1.1900000572
H  -0.2060000002 -8.4860000610  0.4920000136
O  -1.7705558507  3.5614356329  4.3273801741
H  -1.3336174750  4.3846070540  4.0129539452
H  -1.0959291462  2.8858469569  4.1833557811
O  -6.8463088951  1.0327702322  3.3705727170
H  -7.2549247810  1.2556578111  4.2222510308
H  -5.9360018803  0.7721905922  3.5721103280
O   5.0399999619 -3.7009999752  5.5380001068
H   5.9780001640 -3.8169999123  5.2849998474
H   4.4869999886 -3.6630001068  4.7309999466
O   3.8949999809 -1.4119999409  7.2919998169
H   2.9249999523 -1.2740000486  7.2909998894
H   4.1040000916 -2.2569999695  6.8429999352
O   0.8598997982  0.1224944442 -3.6930949041
H   0.5301536939  0.8700352088 -3.1540399514
H   1.6875460740 -0.1905077406 -3.2806967575
O   0.0130000003  1.3370000124  8.3159999847
H  -0.7300000191  1.1410000324  8.9239997864
H  -0.3129999936  1.8750000000  7.5650000572
O   0.4017641164 -0.7040757849  6.2584098071
H   0.3046561543 -0.1203031396  7.0272080836
H   1.0822761177 -0.2650286211  5.6828364488
O  -0.4699999988 -6.3649997711 -5.9640002251
H  -0.9470000267 -5.6350002289 -5.5209999084
H   0.3639999926 -6.0250000954 -6.3489999771
O   5.1830000877  2.2469999790  8.2419996262
H   4.7109999657  1.6030000448  8.8070001602
H   6.1479997635  2.1099998951  8.3260002136
O  -0.8889999986  7.7399997711  5.8660001755
H  -0.7749999762  8.5749998093  5.3680000305
H  -1.8229999542  7.6510000229  6.1440000534
O   3.9319945579 -0.3647440192 -5.5773782687
H   4.7122131666  0.1366142799 -5.8856748330
H   3.1751709110  0.2198034595 -5.7955646837
O  -6.4130001068 -2.4200000763 -6.8709998131
H  -6.9219999313 -2.5810000896 -7.6919999123
H  -6.9369997978 -1.8519999981 -6.2699999809
O  -2.6770000458  3.0999999046 -7.3070001602
H  -2.2839999199  2.3359999657 -7.7760000229
H  -3.6219999790  2.9189999104 -7.1250000000
O  -5.5789999962  6.2569999695 -1.7829999924
H  -5.2490000725  7.1779999733 -1.7660000324
H  -5.8550000191  6.0269999504 -2.6940000057
O   1.7159999609 -5.0560002327  5.2610001564
H   2.1670000553 -5.6810002327  5.8629999161
H   1.0789999962 -4.5139999390  5.7680001259
O   1.3300000429 -2.4830000401 -8.8090000153
H   1.7779999971 -1.6230000257 -8.9429998398
H   0.3899999857 -2.3289999962 -8.5850000381
O   3.6050000191 -8.2399997711 -3.7139999866
H   3.6989998817 -9.2110004425 -3.6310000420
H   2.6579999924 -8.0089998245 -3.7929999828
O   1.1606883883 -6.5060443603  2.9068485532
H   1.0586585429 -6.0700974615  3.7660576502
H   0.3175324826 -6.3622655228  2.4494754853
O   5.8429999352 -5.4829998016 -3.7520000935
H   6.6950001717 -5.7249999046 -3.3359999657
H   5.9250001907 -5.5500001907 -4.7249999046
O  -2.0339999199  5.7109999657 -8.1540002823
H  -2.0320000648  4.8169999123 -7.7550001144
H  -2.4379999638  6.3460001945 -7.5279998779
O   2.5423959350  3.8556351060  1.0225896516
H   3.2783331548  3.7999157388  0.3820561743
H   2.8225262389  4.5588165761  1.6353061601
O  -3.5739998817  7.0060000420  6.8289999962
H  -4.0120000839  6.7069997787  7.6519999504
H  -4.1799998283  6.8759999275  6.0710000992
O  -4.4559998512 -0.2319999933 -7.6370000839
H  -4.1479997635  0.2960000038 -6.8720002174
H  -5.1810002327 -0.8259999752 -7.3520002365
O   1.8500264769  1.4725111771 -5.9235331735
H   2.2264796279  2.3143948429 -5.5996008967
H   1.3627893078  1.0701519977 -5.1788431416
O   8.7740001678 -0.8320000172 -3.2190001011
H   8.9160003662 -0.4589999914 -2.3250000477
H   8.5579996109 -1.7840000391 -3.1449999809
O   0.8899999857  6.0619997978 -4.3660001755
H  -0.0540000014  5.9699997902 -4.1240000725
H   0.9689999819  6.1849999428 -5.3340001106
O   5.8990001678  6.0659999847 -3.7200000286
H   5.4889998436  6.8249998093 -4.1820001602
H   6.8090000153  6.3029999733 -3.4470000267
O   3.5139999390 -8.2399997711  3.1370000839
H   3.5439999104 -8.7329998016  2.2909998894
H   2.7049999237 -7.6900000572  3.1649999619
O  -4.8949871725  4.4439084713  0.9098215778
H  -5.4463130810  4.0569003270  1.6083717409
H  -5.4544478096  5.1375722386  0.5264366795
O   3.4177952965 -3.7187804159 -2.6167464550
H   3.3418901038 -2.7405513139 -2.6505453639
H   3.6831855107 -3.9459749922 -1.7144846459
O   1.0655177545  3.1384070936  4.9606063011
H   0.6084684658  3.3820305876  5.7816972133
H   1.8026535283  3.7641754281  4.8678131497
O   4.3850002289  0.0540000014 -8.8479995728
H   3.4639999866  0.1469999999 -8.5299997330
H   4.4549999237 -0.7400000095 -9.4160003662
O   6.4270000458  6.2699999809  2.5759999752
H   6.9260001183  5.5780000687  3.0550000668
H   6.8200001717  7.1459999084  2.7660000324
O  -7.4869999886  1.0679999590  6.3810000420
H  -6.7119998932  1.6579999924  6.4800000191
H  -7.2220001221  0.2599999905  5.8969998360
O   3.0767210314 -3.8147619166  3.2266567979
H   2.5194176794 -4.3293462925  3.8349269966
H   3.0914757019 -4.2966484936  2.3866403835
O   2.1848477520  0.6341870609  4.8102294440
H   3.0697949734  0.7675710132  5.2101478972
H   1.7912271295  1.5275267556  4.7436600925
O  -2.6960000992  7.9569997787 -0.0140000004
H  -2.4949998856  8.9020004272  0.1439999938
H  -3.3190000057  7.8759999275 -0.7639999986
O   3.2970015420 -4.6561558924  0.3512026095
H   2.3284005631 -4.4745652093  0.3615901406
H   3.3279201017 -5.5234645685 -0.0945759462
O  -6.3229999542 -4.3379998207 -1.1030000448
H  -7.1479997635 -3.8949999809 -0.8180000186
H  -5.9299998283 -3.8450000286 -1.8509999514
O  -5.1230001450  7.0029997826  4.5650000572
H  -5.3730001450  7.9380002022  4.4190001488
H  -4.4829998016  6.7249999046  3.8789999485
O  -2.9335814267 -6.0486104005 -2.7659396335
H  -2.6862291863 -5.3171906903 -3.3599364288
H  -2.1000401649 -6.2938114109 -2.3290076977
O   5.3369998932 -6.1560001373  6.8699998856
H   4.9710001945 -5.3759999275  6.4039998055
H   4.6250000000 -6.5960001945  7.3790001869
O   1.0126082700 -2.8387403022 -6.0772333429
H   1.2694407477 -2.7887441516 -7.0245228868
H   1.8561563129 -2.7980026673 -5.6032113373
O  -5.1939997673  5.7680001259 -5.8600001335
H  -6.0339999199  6.1789999008 -5.5689997673
H  -5.3680000305  4.8610000610 -6.1840000153
O  -5.4588334321  1.0143114565 -0.7038600456
H  -4.6816840602  1.5111921106 -0.4111364761
H  -5.3958773093  0.1901629435 -0.1694119027
O  -4.8530001640  2.3619999886  7.0539999008
H  -4.5229997635  2.6559998989  6.1820001602
H  -4.4559998512  1.4960000515  7.2779998779
O  -8.4720001221 -3.3299999237 -3.2590000629
H  -7.5310001373 -3.0699999332 -3.3410000801
H  -8.6719999313 -3.5429999828 -2.3250000477
O   5.7680001259 -4.7100000381  1.7519999743
H   4.8880000114 -4.8169999123  1.3359999657
H   6.1950001717 -5.5859999657  1.8430000544
O   2.3052886921  5.5423208210 -2.1300681214
H   1.9110748517  5.8124412646 -2.9951022227
H   1.5710302103  5.0727578855 -1.6868917636
O   8.5399999619  1.5770000219 -4.5460000038
H   8.6339998245  0.7239999771 -4.0760002136
H   7.5980000496  1.8450000286 -4.5500001907
O  -4.2046132074  0.0459710906  3.4945068676
H  -4.0218289005  0.9826848553  3.6948503490
H  -3.5273934307 -0.4692613324  3.9663904474
O   7.3169999123 -4.0799999237  4.0789999962
H   7.6989998817 -3.1789999008  4.0780000687
H   6.7979998589 -4.2140002251  3.2590000629
O  -5.3769998550 -4.7709999084  5.6630001068
H  -4.8559999466 -5.5999999046  5.6310000420
H  -5.3990001678 -4.3649997711  4.7719998360
O  -2.1605572888 -4.0922518074  4.1639720869
H  -1.9277423761 -4.7061231252  4.8808765895
H  -2.0450720105 -3.1931251966  4.5219447555
O   3.8500352027 -1.2430892080  3.4656219411
H   3.4555715604 -2.1319682583  3.3504187928
H   3.1183688919 -0.6350761994  3.6420574418
O   6.8159999847 -2.9330000877 -3.2960000038
H   6.3569998741 -3.7460000515 -3.5880000591
H   6.7300000191 -2.2439999580 -3.9860000610
O  -3.4692471772  6.1579017292  2.6755542400
H  -2.5593291512  5.9139482545  2.9143501611
H  -3.8212207476  5.4941324284  2.0581729471
O   7.1269998550  3.8020000458 -6.6310000420
H   6.7129998207  3.6429998875 -5.7589998245
H   7.8480000496  4.4559998512 -6.5359997749
O   0.5451046163 -4.4946563279  0.0525780746
H   0.4019609749 -3.7436335309 -0.5698659846
H   0.3459587928 -5.2783036864 -0.5025606321
O  -3.1756904049  4.5342265325 -2.4356006414
H  -3.9794890419  5.0055815451 -2.1727688505
H  -2.7546271875  4.2726802666 -1.5834970122
O  -5.2680001259 -6.8239998817 -1.1250000000
H  -4.5450000763 -6.6989998817 -1.7719999552
H  -5.7969999313 -6.0029997826 -1.0629999638
O  -1.7009999752  0.5609999895 -8.1789999008
H  -2.5539999008  0.2689999938 -8.5609998703
H  -1.2970000505 -0.1790000051 -7.6810002327
O   6.3220000267  6.9670000076 -0.5040000081
H   7.1459999084  6.6640000343 -0.9350000024
H   6.2659997940  6.5890002251  0.3970000148
O  -5.5359997749  3.2760000229 -7.1090002060
H  -5.8470001221  3.5480000973 -7.9959998131
H  -6.2449998856  2.7799999714 -6.6519999504
O  -0.3000000119  5.8709998131  8.2390003204
H  -0.9909999967  5.9479999542  8.9280004501
H  -0.5749999881  6.3720002174  7.4439997673
O   5.8089475206 -0.8859939765  1.6808499015
H   4.9484781816 -0.9853740207  2.1580203987
H   6.4284464173 -1.1789897485  2.3686389235
O   1.7389999628  0.3670000136 -8.4020004272
H   1.6820000410  1.0199999809 -7.6750001907
H   1.2799999714  0.7179999948 -9.1920003891
O   3.3944942507  6.0430303492  2.5850030679
H   4.3586209331  6.1624481675  2.5844283137
H   3.1367278192  5.9134285877  3.5117981099
O  -3.9960000515 -8.2489995956 -4.3940000534
H  -3.3550000191 -8.3529996872 -5.1269998550
H  -3.7430000305 -7.4790000916 -3.8459999561
O   6.0023080521  1.8141078169 -1.9342335748
H   5.9492162024  0.8572546497 -1.7654857409
H   5.3058248943  2.2495806680 -1.4185296393
O  -4.7683895429 -3.4409981930  3.1326236173
H  -4.5833387336 -3.7427105244  2.2163316943
H  -3.9510714762 -3.6877636070  3.6031022201
O   2.1779999733 -5.5980000496 -6.4429998398
H   2.6579999924 -6.4229998589 -6.2249999046
H   2.7409999371 -4.8270001411 -6.2259998322
O  -5.3310649588 -0.1890048527 -3.3448377771
H  -5.2920839569  0.2721583895 -2.4860256091
H  -4.5547729238  0.0810446679 -3.8771262922
O  -8.0799999237  2.1510000229 -0.6340000033
H  -8.2720003128  2.8780000210 -0.0070000002
H  -7.1420001984  1.8849999905 -0.5479999781
O   6.6620001793 -1.7899999619 -5.9060001373
H   6.6090002060 -0.8259999752 -6.0630002022
H   6.1869997978 -2.2639999390 -6.6189999580
O  -0.9850000143  3.6419999599  7.1090002060
H  -1.5620000362  3.8599998951  6.3499999046
H  -0.7210000157  4.4660000801  7.5659999847
O  -9.1370000839 -0.3050000072 -0.4639999866
H  -8.7869997025  0.5799999833 -0.6930000186
H  -8.9589996338 -0.4930000007  0.4799999893
O   3.0899999142  5.2189998627  5.2820000648
H   2.5940001011  5.4000000954  6.1059999466
H   4.0489997864  5.3299999237  5.4479999542
O   0.0469999984 -3.2669999599  7.0349998474
H   0.3779999912 -2.4049999714  6.7090001106
H  -0.1689999998 -3.1949999332  7.9860000610
O   4.2589998245  9.3719997406  0.7440000176
H   3.6359999180  8.6470003128  0.5360000134
H   5.1649999619  9.0100002289  0.8270000219
O  -1.0946611517 -1.4470015084 -5.0376905506
H  -0.5475168093 -0.9575202150 -4.3938908795
H  -0.4033479494 -1.8922250949 -5.5808458614
O   7.8619999886 -1.2309999466  3.9200000763
H   8.6110000610 -1.2250000238  3.2909998894
H   7.5529999733 -0.3140000105  4.0679998398
O  -8.8889999390 -3.2869999409 -0.5910000205
H  -9.3680000305 -3.5179998875  0.2300000042
H  -8.7270002365 -2.3220000267 -0.6159999967
O   0.9840000272  9.7360000610 -0.6029999852
H   1.7130000591  10.3409996033 -0.3589999974
H   1.2159999609  8.8219995499 -0.3409999907
O  -7.6880002022 -3.4170000553  2.8069999218
H  -6.7420001030 -3.6519999504  2.7109999657
H  -8.2410001755 -4.1960000992  2.5929999352
O   5.6614636482 -1.0043876725 -1.3497944285
H   5.7328443732 -1.1675658672 -0.3953552465
H   6.1329110197 -1.7252836523 -1.8115742924
O   2.2469999790  4.9460000992  7.8179998398
H   1.3430000544  5.2439999580  8.0469999313
H   2.6470000744  4.4920001030  8.5869998932
O  -4.3550097840  2.7636969507  4.2038351595
H  -5.0797722974  3.1764314558  3.7134912674
H  -3.5237922053  3.2505186744  4.0409001348
O  -0.4030352250  2.2411181016 -2.4726545254
H  -0.8678205260  2.6317470796 -3.2327406016
H  -0.0465182850  2.9568472750 -1.9123072608
O  -1.3650000095 -8.3389997482  4.7519998550
H  -1.0870000124 -7.5139999390  5.2010002136
H  -1.1210000515 -8.2930002213  3.8039999008
O  -4.8170242640 -1.1078543676  0.8922432166
H  -4.6525550636 -2.0599314454  0.8130229270
H  -4.6751281873 -0.8760022732  1.8241627975
O  -5.5094349975 -2.9642190919 -3.3172450748
H  -5.0582622959 -3.4232044147 -4.0409626443
H  -5.2582947775 -2.0212193572 -3.3278233725
O   8.1529998779 -2.1530001163  6.8229999542
H   8.6750001907 -1.3539999723  7.0440001488
H   7.4320001602 -1.9119999409  6.2080001831
O  -3.0929999352  7.2569999695 -6.2989997864
H  -3.9790000916  6.8949999809 -6.0949997902
H  -3.0729999542  8.2119998932 -6.0819997787
O  -6.8920001984  4.0630002022  2.9639999866
H  -7.2779998779  4.2210001945  3.8489999771
H  -7.5520000458  4.2820000648  2.2760000229
O  -3.7290000916 -1.9199999571 -9.3900003433
H  -4.5000000000 -2.5030000210 -9.5439996719
H  -3.8959999084 -1.3589999676 -8.6059999466
O  -8.4980001450 -0.8529999852  2.1949999332
H  -8.3839998245 -1.8159999847  2.3310000896
H  -7.7480001450 -0.3750000000  2.6050000191
O  -2.2519446631  3.9921713907  0.0759566908
H  -2.1994013934  3.0026191150  0.0852465837
H  -3.1257624166  4.1728981612  0.4585661107
O  -2.1969479817  2.8648131192 -4.5141680451
H  -2.7322218803  3.4834248121 -3.9891060340
H  -2.1448526743  3.1870617239 -5.4329905085
O   6.0229820991  1.9305663847  1.6739334949
H   6.3581237577  2.0082943068  2.5759563736
H   5.9435410289  0.9665416245  1.5363440681
O   1.0700180797 -4.7469560952 -3.5552273927
H   1.9716373919 -4.5071094003 -3.2496376234
H   1.1303808543 -4.8544682213 -4.5161701543
O  -1.3609999418 -2.9309999943 -8.8439998627
H  -1.4179999828 -3.8970000744 -8.6990003586
H  -2.2530000210 -2.5780000687 -9.0399999619
O   3.2699999809 -7.1009998322 -0.9269999862
H   3.2409999371 -7.3860001564 -1.8630000353
H   3.7609999180 -7.7630000114 -0.3989999890
O   8.0679998398 -3.1329998970  1.3609999418
H   7.3239998817 -3.7590000629  1.4769999981
H   7.7179999352 -2.2230000496  1.2749999762
O   2.3593873954  7.3244441906  0.1559815101
H   2.4272155013  6.8135948111  0.9758716709
H   2.4585005030  6.7006719605 -0.5839029974
O   6.1030001640  0.8790000081 -6.8579998016
H   5.6979999542  0.6639999747 -7.7230000496
H   6.6100001335  1.7130000591 -6.9340000153
O  -0.5419999957  7.5089998245  1.5260000229
H  -1.2979999781  7.2600002289  0.9559999704
H  -0.6710000038  8.4189996719  1.8619999886
O   3.8094516758 -3.3342707769 -5.4374498126
H   4.0345086626 -2.3977712990 -5.5873846483
H   4.0137412350 -3.5170034263 -4.5051783806
O  -4.1690001488 -7.8159999847  1.1139999628
H  -3.2699999809 -7.5279998779  1.3739999533
H  -4.4149999619 -7.3920001984  0.2680000067
O  -4.1412970767 -3.9342612385  0.5210815484
H  -4.8870699632 -4.2409165114 -0.0407526863
H  -3.4743793429 -4.6357956921  0.5167943067
O  -0.2191959000 -6.4572228417 -1.7876024258
H   0.2739707452 -6.0890176263 -2.5506569069
H  -0.0114535354 -7.3984079559 -1.7262309916
O  -0.9900000095 -5.7690000534  6.2680001259
H  -0.5979999900 -4.9819998741  6.6979999542
H  -1.5609999895 -6.2399997711  6.9079999924
O  -2.0705169463 -4.2311240467 -4.7903914055
H  -1.6768976786 -3.3453448567 -4.6951875743
H  -2.8522118703 -4.1045712292 -5.3546305846
O  -2.2794655369 -1.3893975602  5.0662076098
H  -2.9882030060 -1.3121357879  5.7337553355
H  -1.4523116108 -1.0709956510  5.4652881049
O  -6.8889999390 -1.2280000448  5.2890000343
H  -6.4720001221 -1.1089999676  4.4130001068
H  -7.6189999580 -1.8760000467  5.2179999352
O   6.9949998856  1.4919999838  4.4780001640
H   7.6649999619  1.9060000181  5.0599999428
H   6.1519999504  1.3999999762  4.9670000076
O   0.0130000003  1.3370000124 -10.2250003815
H  -0.7300000191  1.1410000324 -9.6180000305
H  -0.3129999936  1.8750000000 -10.9759998322
O   0.9840000272 -9.0139999390 -0.6029999852
H   1.7130000591 -8.4090003967 -0.3589999974
H   1.2159999609 -9.9280004501 -0.3409999907
O  -9.4340000153  3.8399999142 -2.7929999828
H  -9.7250003815  3.2070000172 -3.4809999466
H  -8.8280000687  3.3900001049 -2.1710000038
