%chk=P450_metal_large_resp.chk
%nproc=8
%mem=16000MB
#P PBE1PBE/def2SVP Pop(MK,ReadRadii) IOp(6/33=2) SCF=Tight

MAPLE RESP

-2 6
 C       -6.72681842       0.51802092      35.21201601
 C       -6.31864654      -0.12599611      33.90614075
 O       -6.14355051      -1.32406727      33.78765015
 H       -7.50616731       1.26898763      35.07156764
 H       -5.85493983       1.00523290      35.65279370
 H       -7.08064832      -0.25694444      35.88653641
 N       -6.11159010       0.73949370      32.87657449
 C       -5.79864946       0.29008485      31.53075712
 C       -4.63774790      -0.71283413      31.54131912
 O       -3.51999920      -0.39206740      31.91146115
 C       -5.40737864       1.50867995      30.70245470
 S       -5.25256940       1.14469388      28.92600481
 H       -6.45965032       1.67857250      32.97588342
 H       -6.67039548      -0.19011418      31.08403258
 H       -6.14301211       2.30335355      30.84909513
 H       -4.43541205       1.85730980      31.05464587
 N       -4.93860732      -1.92897405      31.04727245
 C       -3.96278509      -2.99343368      31.10528075
 H       -5.91227576      -2.18899676      31.00445646
 H       -3.68250851      -3.21955711      32.13658497
 H       -4.39102748      -3.88451510      30.65161086
 H       -3.06565653      -2.70102345      30.55920599
 C      -10.27951489       1.65787557      33.16713594
 C       -6.84215032       5.21856777      24.62253391
 C       -5.93832757      -2.57624999      24.15619168
 C       -9.12948352      -3.45043039      31.42322642
 N       -8.67448630       1.72784154      29.75991883
 C      -11.79524985       1.91083239      33.22962583
 C       -6.31969719       6.44253118      24.55450563
 C       -5.23891023      -3.53695148      24.75199384
 C       -7.95074491      -4.12567954      32.14835138
 N       -7.78421133       2.79315106      27.24781755
 C      -12.20702636       3.19457417      34.01918375
 C       -8.39749981      -5.43997145      32.84283344
 N       -8.15924427      -0.87816748      28.84662770
 C       -9.18604738      -0.31063498      30.98879190
 C       -8.58730773       4.09255614      29.15856378
 C       -6.89625482       2.19339110      25.06049967
 C       -7.23381523      -2.20739432      27.00871742
 C       -9.85262254       4.57576184      31.89350098
 C       -8.06718911       6.50675343      27.35277862
 C       -5.87298516       0.30342728      22.86720330
 C       -7.88415109      -4.61584227      28.81200258
 C       -9.16789866       1.06546891      30.85050812
 C       -8.07469905       3.96868385      27.86291646
 C       -6.84872942       0.82095420      25.21983824
 C       -7.79971522      -2.06609816      28.25128262
 O      -13.39589371       3.53437478      33.86650619
 O       -7.60851736      -6.40568279      32.74373409
 C       -9.66564018       2.00896716      31.84946065
 C       -7.80001468       5.08102740      26.99580923
 C       -6.37236468      -0.09091540      24.22104593
 C       -8.12300051      -3.17527238      29.11892363
 O      -11.31989980       3.73965152      34.71931191
 O       -9.51195794      -5.38349081      33.40677178
 C       -9.48846363       3.24689372      31.31946987
 C       -7.30904246       4.54693641      25.83081676
 C       -6.40412363      -1.33730172      24.78406462
 C       -8.68108704      -2.65743694      30.24229422
 C       -8.88030193       3.06489640      30.01666629
 C       -7.32075497       3.11549452      26.00365931
 C       -6.94109584      -1.17325387      26.11702331
 C       -8.70100924      -1.21318588      30.05531041
 N       -7.19096210       0.13869507      26.36130366
 H       -9.84888000       2.29477314      33.94673126
 H      -10.04011350       0.62495449      33.42457623
 H       -6.91991020       4.64674847      23.70137805
 H       -6.17634621      -2.69553197      23.10201640
 H       -9.80742271      -4.23501453      31.07846047
 H       -9.70963487      -2.85528440      32.12535287
 H      -12.29907552       1.07446325      33.72025960
 H      -12.22795227       1.98646968      32.23031391
 H       -6.01444134       6.86043660      23.60374802
 H       -6.15845915       7.04351438      25.44038791
 H       -4.92874153      -4.41836755      24.20561183
 H       -4.93974822      -3.46526035      25.78980221
 H       -7.53141711      -3.44738296      32.89644780
 H       -7.14958617      -4.36335675      31.44484485
 H       -9.59752203      -0.71851130      31.90141023
 H       -8.79098426       5.09295508      29.51692056
 H       -6.55263662       2.57592946      24.10820658
 H       -7.02472018      -3.21652580      26.68396899
 H      -10.19007170       4.48443289      32.92609510
 H      -10.66636795       5.03274181      31.32297666
 H       -9.00090812       5.26120984      31.85164905
 H       -9.02915879       6.60472268      27.85727362
 H       -8.09060284       7.14157191      26.46904239
 H       -7.30510457       6.90013779      28.03093292
 H       -5.37790314      -0.53158917      22.37031037
 H       -5.14992227       1.11894455      22.94552881
 H       -6.68329031       0.65471823      22.22142128
 H       -8.32208365      -5.25506032      29.57730741
 H       -6.81533132      -4.84133477      28.78046866
 H       -8.30749256      -4.89107612      27.84300890
 FE      -7.45527737       0.97596473      28.25972097

Fe 1.386

