22
Image 0  Energy = -383.6564059985
C  -0.8319793492 -0.3466938353  0.5215182319
C   1.5562784297  0.0763574897  0.1110236250
C  -1.4660921270  1.0430458094  0.5866400643
C   2.2290228889 -0.9853442108  0.9720442774
C   2.4418886254  0.4548018242 -1.0657080866
N   0.2809521221 -0.4239379591 -0.4058897321
N  -1.8660718463 -1.2622173689  0.0373535778
O  -1.9670857445  1.4144990010 -0.6821789625
H  -2.4338546664  0.6314439136 -1.0108186368
H   0.0232682628  0.0913790335 -1.2417288465
H  -0.4595535391 -0.6113417708  1.5184353099
H   1.4069364003  0.9782819031  0.7252484563
H  -2.5467226525 -1.4686918277  0.7583564692
H  -1.4314963155 -2.1270153065 -0.2583387495
H  -0.7234874492  1.7880809782  0.8752452838
H  -2.2617707009  1.0509337651  1.3435659924
H   3.1590490034 -0.6038152176  1.3966810791
H   1.9885643763  1.2511784532 -1.6591847815
H   2.4545659665 -1.8630612293  0.3640716112
H   1.5919488552 -1.3020789068  1.7988148549
H   3.4160791696  0.8022077378 -0.7211974114
H   2.5942583565 -0.4122685014 -1.7116878436
