53
Frame 1  Energy = -1313.0306652334 Hartree
O      -0.87512377      0.04255223      1.14503559      0.000082    -0.000161    -0.000119
O       3.32886785      1.33043726     -0.93500300     -0.000104    -0.000112    -0.000171
O      -3.81943244     -0.15466780     -1.82910870     -0.000203    -0.000039    -0.000318
O       5.24919914     -1.74936082      0.25278054      0.000218    -0.000073     0.000169
O      -7.25611193      0.38633645      1.23323532     -0.000028     0.000193     0.000157
O      -8.19324562     -1.42809299      0.25804520     -0.000255    -0.000038     0.000213
N       1.74872952      0.20507324      0.28625055      0.000029    -0.000339     0.000187
N      -1.62626728      1.19157890     -0.66824361      0.000043    -0.000002     0.000119
N       5.33583503      0.45757095      0.76576806     -0.000237    -0.000341     0.000163
N      -4.95925503      0.04200768      0.13551389     -0.000169    -0.000375    -0.000344
N       8.01056573     -1.84359041      0.15216041     -0.000037     0.000145    -0.000055
C       0.66480411      0.37276500     -0.64906790      0.000020     0.000063     0.000268
C      -2.99743460      1.46098666     -0.25363561     -0.000275    -0.000209    -0.000046
C       3.97430586      0.51994889      1.22803444      0.000218     0.000279    -0.000091
C      -0.68626613      0.51811745      0.05979450      0.000107    -0.000179    -0.000170
C       2.98906557      0.71632565      0.06403554     -0.000526    -0.000080     0.000207
C       0.52322029     -0.82669635     -1.62044335      0.000171    -0.000158     0.000034
C      -3.96431346      0.35048747     -0.73191784     -0.000518     0.000027    -0.000225
C      -3.43704761      2.80569179     -0.80384003      0.000162     0.000120     0.000174
C       3.77311885      1.64178019      2.24380474      0.000185    -0.000240     0.000315
C      -5.86174361     -1.02469764     -0.11191356     -0.000031     0.000123     0.000163
C       7.33106614     -0.61191294     -0.22829673     -0.000219    -0.000121     0.000370
C       5.87770234     -0.70619590      0.27510185     -0.000299     0.000180    -0.000135
C      -5.38566113     -2.38821453      0.40252473     -0.000128     0.000367    -0.000152
C       7.30931855     -0.40451669     -1.72372992     -0.000193    -0.000118     0.000046
C      -7.22199911     -0.72583823      0.45102444      0.000307    -0.000003     0.000113
H       0.88760295      1.26429398     -1.25775273     -0.000121     0.001067     0.000128
H      -2.98368899      1.49507094      0.84032535      0.000326     0.000235    -0.000805
H       3.81947799     -0.41043083      1.74711403      0.000455     0.000664    -0.000618
H       1.54508513     -0.31472636      1.09798484     -0.000049    -0.000373     0.000432
H      -1.34024421      1.54512472     -1.55550409      0.000073     0.000007    -0.000518
H      -0.23394922     -0.57074299     -2.37213501     -0.000096     0.000771     0.000010
H       1.46905738     -1.02745158     -2.09305399     -0.000019    -0.000760     0.000363
H       0.17162825     -1.68773245     -1.07958592      0.001278    -0.000602     0.000476
H       5.82175213      1.30410751      0.56285309      0.000490    -0.000379    -0.000164
H      -3.38122632      2.79258707     -1.86362529     -0.000672    -0.000440     0.000733
H      -4.44117313      2.97312858     -0.51496466     -0.000100     0.000307    -0.000018
H      -2.76981075      3.59691899     -0.43066273     -0.000137     0.000023    -0.001240
H       2.72083925      1.64674103      2.57383831     -0.000049    -0.000827     0.000340
H       4.36193540      1.45533270      3.14378795      0.000467    -0.001809    -0.000380
H       3.99161914      2.61293596      1.82627733      0.000451    -0.000194     0.000134
H      -6.03024733     -1.09405851     -1.18064263     -0.000578    -0.000696    -0.000663
H      -4.96253410      0.45684722      1.05965845      0.000053     0.000502     0.000371
H       7.79216919      0.23837468      0.30056883      0.000861    -0.000143    -0.000675
H      -5.30680850     -2.39413499      1.48214502     -0.000765     0.000463     0.000724
H      -6.11330453     -3.15741180      0.13085320      0.000001     0.000137    -0.000658
H      -4.47608957     -2.64742147     -0.07010662     -0.000144    -0.000670    -0.001554
H       6.75422170     -1.19985110     -2.20114025     -0.000316     0.001020     0.002043
H       8.32420411     -0.37405554     -2.11933221      0.000745    -0.001739     0.000371
H       6.83571021      0.55097142     -1.97084985      0.000248     0.000471    -0.001531
H       9.04735241     -1.75547791      0.11250029     -0.001109    -0.000361    -0.000557
H       7.70861641     -2.20493183      1.04592505      0.001959    -0.000321     0.000921
H      -8.17071219      0.41804657      1.55231010     -0.001235     0.000441    -0.000106
53
Frame 2  Energy = -1313.0365134466 Hartree
O      -0.90437634      0.08865359      1.17634167     -0.000257    -0.000030    -0.000179
O       3.19913701      1.29282907     -0.87578542      0.000184     0.000242     0.000064
O      -3.76767248     -0.14857848     -1.86940059     -0.000103    -0.000066    -0.000032
O       5.11298817     -1.79324390      0.29152810      0.000277     0.000324    -0.000203
O      -7.32320306      0.34137358      1.18944205     -0.000092    -0.000215    -0.000152
O      -8.24180485     -1.47152133      0.22502255      0.000180     0.000016    -0.000010
N       1.75114077      0.02462185      0.29518666     -0.000072    -0.000008    -0.000008
N      -1.56301219      1.11844856     -0.72974271      0.000231    -0.000053    -0.000065
N       5.29940117      0.41443712      0.78500967      0.000258     0.000213     0.000151
N      -4.96138638      0.03170248      0.06039162     -0.000091     0.000038    -0.000040
N       7.96993170     -1.89643944      0.07454485     -0.000485    -0.000052    -0.000185
C       0.65003110      0.15584317     -0.66207946      0.000134     0.000014     0.000203
C      -2.90540489      1.40817992     -0.24608848     -0.000251    -0.000018     0.000458
C       3.94105847      0.48405238      1.26386731      0.000137     0.000366    -0.000059
C      -0.67932224      0.46030121      0.04871996     -0.000073    -0.000071    -0.000051
C       2.96128590      0.60810616      0.10221651      0.000023     0.000046    -0.000237
C       0.44568766     -1.06226265     -1.58321858     -0.000506    -0.000058     0.000141
C      -3.90614548      0.32160364     -0.75286784      0.000061     0.000233    -0.000002
C      -3.33829860      2.78934573     -0.75848102      0.000078     0.000024     0.000197
C       3.77874259      1.68727804      2.17391732     -0.000166    -0.000179     0.000304
C      -5.90155537     -1.02066816     -0.21401520      0.000126     0.000168    -0.000201
C       7.22270691     -0.67804364     -0.24645982      0.000299    -0.000189    -0.000207
C       5.75858840     -0.77727438      0.24827673      0.000456     0.000042     0.000504
C      -5.39855455     -2.39850695      0.23691428     -0.000126     0.000073    -0.000106
C       7.27907718     -0.38368554     -1.74310948     -0.000181     0.000059    -0.000328
C      -7.27854558     -0.76641089      0.41592750      0.000366     0.000006    -0.000043
H       0.91832924      0.98708248     -1.29777292      0.000180    -0.000182     0.000257
H      -2.84600613      1.34940915      0.82491528      0.001249     0.000591    -0.000406
H       3.72490887     -0.42309824      1.80888980      0.000492     0.000259    -0.001245
H       1.50480702     -0.33316115      1.19100258     -0.000743    -0.000961     0.000123
H      -1.35836035      1.27468747     -1.69417524      0.001318     0.000248    -0.000519
H      -0.30465772     -0.87955239     -2.37628263      0.000099     0.000502    -0.000222
H       1.38803100     -1.24032880     -2.05877601     -0.000530     0.000666     0.000667
H       0.12966139     -1.91470109     -1.03714919      0.000376    -0.000340     0.000297
H       5.75975067      1.26450334      0.48581397      0.000033     0.000277    -0.000567
H      -3.34062392      2.82224189     -1.84102108     -0.000099     0.000259    -0.000258
H      -4.34189164      3.02047918     -0.42518445     -0.000884    -0.000098     0.000196
H      -2.63903458      3.56135313     -0.41594962     -0.000059     0.000649     0.000646
H       2.74308745      1.83114713      2.47201561      0.001548     0.000205     0.001120
H       4.38938547      1.61421982      3.08494766      0.000171     0.000574    -0.001428
H       4.06097875      2.56511884      1.58430756      0.000373     0.000833    -0.000469
H      -6.08215732     -1.08649673     -1.27073436     -0.000772     0.000171    -0.000511
H      -4.97281312      0.41440090      0.96924408     -0.000420     0.000602     0.000773
H       7.69322119      0.17504893      0.26972237     -0.000530     0.000514     0.001227
H      -5.31474601     -2.39853384      1.34129177     -0.000572     0.000851    -0.000288
H      -6.14112900     -3.16084141     -0.05626993      0.000291    -0.000660     0.000589
H      -4.42670654     -2.61933672     -0.23532390     -0.001116    -0.000804    -0.000058
H       6.87567216     -1.21883207     -2.30676088     -0.000328     0.001310    -0.001829
H       8.26608189     -0.21704515     -2.10708615      0.000841    -0.000156     0.000929
H       6.66464347      0.48054808     -2.02646775     -0.000501     0.000691    -0.000154
H       8.96866071     -1.74392096      0.10216033      0.000379     0.000040    -0.000037
H       7.69935685     -2.26486790      0.98994215     -0.000074    -0.000705    -0.000005
H      -8.18949053      0.35255030      1.67584279      0.000424     0.000195    -0.001092
53
Frame 3  Energy = -1313.0311880774 Hartree
O      -0.95556910      0.06565800      1.19398528     -0.000138     0.000214    -0.000190
O       3.21268767      1.17241280     -0.86441260      0.000082    -0.000007     0.000329
O      -3.79263308     -0.20179640     -1.83806272     -0.000120     0.000127    -0.000023
O       5.18175588     -1.75242095      0.32217993      0.000016    -0.000058    -0.000339
O      -7.25000170      0.32254040      1.28066666      0.000189     0.000217    -0.000291
O      -8.18403981     -1.45933855      0.30836135      0.000145    -0.000314    -0.000026
N       1.71311399      0.08829833      0.41732765     -0.000070    -0.000099     0.000296
N      -1.58242199      1.12589574     -0.72381627     -0.000170    -0.000065    -0.000078
N       5.28753819      0.43874354      0.88897397      0.000077     0.000150     0.000337
N      -4.93814619      0.00740939      0.11783735      0.000177     0.000098    -0.000277
N       7.98127266     -1.78210525      0.23010878     -0.000391     0.000060    -0.000118
C       0.67967458      0.16118989     -0.59632532     -0.000078     0.000237     0.000005
C      -2.91889027      1.37956294     -0.24657036     -0.000156    -0.000188     0.000025
C       3.91691728      0.44190837      1.33075871     -0.000106     0.000076     0.000144
C      -0.68841396      0.45843304      0.06616567     -0.000221    -0.000027     0.000027
C       2.92920754      0.59003648      0.17771284     -0.000216     0.000131     0.000357
C       0.54403148     -1.07739875     -1.44796274     -0.000179    -0.000079     0.000317
C      -3.91331956      0.30708258     -0.72835778      0.000050     0.000271     0.000150
C      -3.39149648      2.76591544     -0.71946216      0.000376    -0.000095     0.000009
C       3.74911293      1.59377972      2.31117410     -0.000005     0.000272    -0.000090
C      -5.91541516     -1.00408872     -0.18516608     -0.000100     0.000026    -0.000227
C       7.25427229     -0.60495174     -0.19096792     -0.000056    -0.000052    -0.000368
C       5.78714711     -0.70721275      0.34476036      0.000412     0.000194     0.000164
C      -5.34877663     -2.41930744      0.12141925     -0.000422     0.000270    -0.000377
C       7.27162311     -0.51225058     -1.72819408      0.000015    -0.000059    -0.000400
C      -7.22945766     -0.76391231      0.47487542     -0.000151     0.000470    -0.000325
H       0.91451366      0.99139306     -1.28504899      0.000697    -0.000691    -0.000012
H      -2.82916111      1.35352030      0.84490397     -0.000371     0.000002    -0.000021
H       3.77473506     -0.49060832      1.85742781      0.000818    -0.000651     0.000006
H       1.49063733     -0.35858402      1.28824124      0.000558     0.000334    -0.000173
H      -1.36742770      1.26740816     -1.70385495      0.000680    -0.001315    -0.000206
H      -0.20090090     -0.90789662     -2.23270467     -0.000556    -0.000024     0.000421
H       1.46691017     -1.30616303     -1.94602778      0.000282     0.000526    -0.001015
H       0.27908680     -1.97892116     -0.90302148     -0.000033    -0.001198    -0.002043
H       5.76321223      1.32003789      0.68660544      0.001552    -0.000006     0.000401
H      -3.40192396      2.83010321     -1.80395285     -0.000390    -0.001083    -0.000124
H      -4.36262827      2.99379153     -0.30959011      0.000045     0.000460     0.000428
H      -2.66821349      3.50705967     -0.37513965      0.000087     0.000348     0.000636
H       2.77411476      1.63787082      2.74988049      0.000396     0.000666     0.000697
H       4.46276276      1.48837361      3.12760291      0.000583     0.000753    -0.000094
H       3.93399998      2.53799373      1.78183721      0.000050    -0.000676     0.000633
H      -6.13684752     -0.97080518     -1.26501470     -0.000933     0.001127     0.000121
H      -4.84308857      0.31157234      1.08002983      0.000385     0.000371    -0.000354
H       7.64088441      0.36040281      0.18559853     -0.001153     0.000867    -0.000859
H      -5.12419408     -2.48959306      1.18553390      0.000127    -0.000610    -0.000242
H      -6.04628747     -3.20208913     -0.09979343     -0.001343     0.000516     0.001071
H      -4.34659637     -2.53419729     -0.40330438      0.000621     0.000838     0.001488
H       6.88055216     -1.43099446     -2.15765212      0.000733    -0.001026     0.000285
H       8.32301457     -0.42421301     -2.06762434      0.000421    -0.000623    -0.000975
H       6.65297358      0.35947970     -2.07257824      0.001154    -0.000166     0.000538
H       8.95871019     -1.59397189      0.37117269      0.000942    -0.000657    -0.000199
H       7.60449415     -2.17114679      1.07649479      0.000881    -0.000458    -0.000428
H      -8.16952871      0.37914871      1.59583031     -0.000101    -0.000346     0.000105
53
Frame 4  Energy = -1313.0317908196 Hartree
O      -0.92754029      0.01241249      1.15498249      0.000063     0.000102    -0.000122
O       3.23040360      1.14655631     -0.89043059      0.000232     0.000032     0.000072
O      -3.83908319     -0.15528978     -1.82048714     -0.000044    -0.000092     0.000024
O       5.14807234     -1.75348187      0.33304698     -0.000076    -0.000073     0.000009
O      -7.35142804      0.35565625      1.21337373      0.000010    -0.000184     0.000086
O      -8.19256456     -1.52275833      0.36335104     -0.000186     0.000068    -0.000115
N       1.65607551      0.13008250      0.36357824     -0.000493    -0.000032     0.000150
N      -1.62726157      1.12521809     -0.72066166      0.000372     0.000032    -0.000313
N       5.24622783      0.41361287      0.99076257     -0.000017    -0.000178     0.000505
N      -4.95708855      0.04863400      0.13987539     -0.000017    -0.000045    -0.000058
N       7.96478612     -1.81119139      0.34551766      0.000137     0.000015    -0.000136
C       0.64714986      0.20053008     -0.65972188     -0.000056     0.000056    -0.000217
C      -2.96362169      1.39341514     -0.21890419      0.000288     0.000221    -0.000045
C       3.84322422      0.45968813      1.35425280     -0.000023     0.000072    -0.000435
C      -0.70428344      0.44050655      0.02894585     -0.000071    -0.000123    -0.000237
C       2.88919251      0.60621595      0.14722921     -0.000201     0.000059    -0.000466
C       0.56449286     -1.15483690     -1.41301285     -0.000208     0.000146    -0.000156
C      -3.96027858      0.33925347     -0.72077018      0.000052     0.000304    -0.000047
C      -3.40496721      2.76844236     -0.70245400      0.000169     0.000065     0.000343
C       3.60286453      1.65128553      2.28811079      0.000026     0.000160    -0.000235
C      -5.91449636     -0.99689017     -0.20559639      0.000078     0.000380     0.000020
C       7.19975242     -0.63993976     -0.06843012      0.000243     0.000233     0.000052
C       5.77827591     -0.70110271      0.42924269     -0.000157    -0.000091    -0.000129
C      -5.37438876     -2.39042008      0.04768160      0.000231    -0.000103     0.000069
C       7.18730023     -0.60179418     -1.61788056     -0.000153     0.000090     0.000153
C      -7.26109898     -0.79953840      0.46562383      0.000185     0.000156    -0.000427
H       0.92475840      0.99673485     -1.35092696      0.001394     0.000576     0.000992
H      -2.92016618      1.34830192      0.85354737     -0.000169     0.000051     0.001175
H       3.59133609     -0.46823538      1.85852587     -0.000549     0.001197    -0.001399
H       1.42175017     -0.41430956      1.17862964     -0.000698    -0.001060     0.000108
H      -1.43391686      1.35084454     -1.68686199      0.000662    -0.000073     0.000063
H      -0.29411719     -1.11573494     -2.11352168      0.000751     0.000056     0.000816
H       1.50704301     -1.40916886     -1.92519586     -0.001367    -0.001852    -0.000567
H       0.38233118     -1.94610857     -0.65192836      0.000095    -0.000422    -0.001442
H       5.69525332      1.31178362      0.86188298     -0.000451     0.001591    -0.000207
H      -3.41322189      2.85284588     -1.79861140      0.000438    -0.000071     0.000403
H      -4.40235173      2.99921460     -0.34472116     -0.001105    -0.000451    -0.000825
H      -2.72149918      3.51463679     -0.27523249     -0.000143    -0.000404    -0.001249
H       2.53181232      1.71398645      2.52459715     -0.000041    -0.000144     0.000743
H       4.12914177      1.54593180      3.22125147      0.001065    -0.000993    -0.000244
H       3.86920316      2.62714544      1.84314978     -0.000297    -0.000356     0.000322
H      -6.13680496     -0.84329989     -1.28919851      0.000210     0.000261    -0.000721
H      -4.94924422      0.48466247      1.06352811     -0.001342    -0.000324     0.000037
H       7.67287268      0.31331167      0.22285378     -0.000368     0.000108    -0.000871
H      -5.12605228     -2.53344661      1.10112300     -0.000935     0.000132     0.000068
H      -6.09099211     -3.16567801     -0.19618613      0.000536    -0.000943    -0.000140
H      -4.44849855     -2.48304699     -0.54281184     -0.000768     0.000617     0.000065
H       6.69787921     -1.53110749     -1.99546939      0.001759     0.000246    -0.000480
H       8.22261965     -0.50260618     -2.05403270      0.000829    -0.000419     0.001328
H       6.58688477      0.24220698     -1.93990645     -0.000043    -0.000438     0.000907
H       8.95239078     -1.66162136      0.23675306      0.000394    -0.000739     0.001399
H       7.76000467     -2.06208802      1.31505095     -0.000014     0.000166     0.000770
H      -8.22894344      0.38846261      1.60578875     -0.000780     0.000159     0.000742
53
Frame 5  Energy = -1313.0239111682 Hartree
O      -0.97624298      0.14389872      1.18746157      0.000078     0.000137    -0.000012
O       3.30044417      1.06510189     -0.92680826      0.000202     0.000045     0.000129
O      -3.81989058     -0.10529090     -1.77663324      0.000125     0.000222    -0.000008
O       5.03620764     -1.78303977      0.51601698     -0.000297    -0.000191     0.000176
O      -7.25000657      0.39498907      1.29606237      0.000097     0.000108     0.000115
O      -8.18289491     -1.37611922      0.28527612      0.000032     0.000031     0.000284
N       1.65514408      0.20496816      0.36280600      0.000180     0.000122     0.000154
N      -1.61324150      1.21695749     -0.69335603      0.000010     0.000050     0.000194
N       5.19367836      0.39792843      0.99858080     -0.000059     0.000415     0.000041
N      -4.88473804      0.01556220      0.20453270      0.000053    -0.000083    -0.000204
N       7.91169174     -1.75176179      0.34519607     -0.000237     0.000126     0.000277
C       0.61691705      0.20728657     -0.64096144      0.000214     0.000106    -0.000261
C      -2.97602812      1.46986074     -0.22277553     -0.000078    -0.000122     0.000143
C       3.80669871      0.51805037      1.40962237     -0.000025     0.000150    -0.000098
C      -0.72333356      0.52212416      0.05145926      0.000168    -0.000257     0.000002
C       2.91510080      0.60896651      0.14393812      0.000251    -0.000175     0.000277
C       0.49421840     -1.09549990     -1.42196968     -0.000366     0.000263     0.000299
C      -3.92830928      0.37688191     -0.66840396     -0.000161     0.000132    -0.000193
C      -3.44674254      2.82099626     -0.72915695      0.000100    -0.000157    -0.000255
C       3.63096725      1.71026830      2.28704275      0.000102    -0.000216     0.000122
C      -5.92048637     -0.93120991     -0.18219566     -0.000080    -0.000336     0.000155
C       7.09065129     -0.62873339     -0.07369754     -0.000012     0.000186     0.000395
C       5.68198308     -0.76268836      0.49307070     -0.000054     0.000264     0.000414
C      -5.53555341     -2.40853204     -0.03077836      0.000132     0.000596    -0.000408
C       7.07732197     -0.63108137     -1.60002984     -0.000030    -0.000442     0.000027
C      -7.23710646     -0.68005928      0.47621149     -0.000080    -0.000002     0.000264
H       0.84013056      1.02840943     -1.34127622      0.000439     0.001567     0.000755
H      -2.89948126      1.46104380      0.88225296     -0.000219     0.001325    -0.000134
H       3.56536684     -0.40404051      1.94183329      0.000105    -0.000437    -0.000071
H       1.38351760     -0.20365124      1.24094829     -0.001373     0.000929     0.000529
H      -1.49836863      1.26169185     -1.69677252     -0.000443     0.000150    -0.000782
H      -0.17702396     -1.00761213     -2.27344441     -0.001989     0.000083     0.000860
H       1.47397301     -1.41866938     -1.74691472     -0.000903     0.000604    -0.000530
H       0.05639789     -1.82273812     -0.72829331     -0.000926     0.000589    -0.000218
H       5.67383707      1.25842847      0.81364322      0.000076     0.000909     0.000038
H      -3.63959288      2.77558735     -1.79651432     -0.000877    -0.000515    -0.000720
H      -4.37098534      3.09133841     -0.23812498     -0.000961     0.000992    -0.000776
H      -2.68033913      3.57539446     -0.54352323     -0.000349    -0.000217     0.000841
H       2.55989340      1.89008125      2.52546369     -0.000072    -0.000869    -0.001000
H       4.19802042      1.55447090      3.21825762     -0.000233     0.000160     0.000577
H       4.04176593      2.60145130      1.80379794      0.000396    -0.000287    -0.000053
H      -6.20255295     -0.74223378     -1.22829938      0.001916    -0.000509    -0.000791
H      -4.85481139      0.42053729      1.11954658      0.000470     0.000690     0.000228
H       7.53191619      0.32207418      0.28167889      0.001060     0.000685    -0.000908
H      -5.42163909     -2.67866723      1.01192702     -0.000871     0.001033    -0.000139
H      -6.32932889     -3.01276508     -0.45009123     -0.000780     0.000006    -0.000007
H      -4.59396522     -2.53474780     -0.58426525      0.001110    -0.000766     0.000769
H       6.63775590     -1.54424405     -1.94201658      0.000670    -0.000888    -0.000056
H       8.11997435     -0.53798656     -1.96511330      0.001853     0.000530    -0.000948
H       6.46294749      0.18724208     -1.98266545      0.001058    -0.001679     0.001338
H       8.79721496     -1.74755024     -0.15577406      0.000810    -0.001391    -0.000871
H       8.14411487     -1.68984774      1.33709589     -0.000642    -0.000720    -0.000199
H      -8.15029653      0.43573694      1.64170364      0.000199     0.000481    -0.000722
53
Frame 6  Energy = -1313.0494843512 Hartree
O      -0.94026338      0.15671413      1.16491842     -0.000132     0.000090    -0.000157
O       3.45178286      0.86821335     -0.87050325     -0.000231     0.000022    -0.000222
O      -3.85899563     -0.04687699     -1.87839267      0.000076     0.000039     0.000054
O       5.07744946     -1.77221692      0.42497844     -0.000236    -0.000004     0.000231
O      -7.18685290      0.43661575      1.22743057      0.000152    -0.000232    -0.000070
O      -8.18884337     -1.34656729      0.30786067     -0.000068     0.000191     0.000244
N       1.68901781      0.18272301      0.40270956      0.000033     0.000247     0.000019
N      -1.56410274      1.17817307     -0.75750486      0.000016    -0.000295     0.000196
N       5.23733743      0.38122011      1.14764715     -0.000036     0.000116     0.000095
N      -4.82941071     -0.01674147      0.16083001     -0.000036     0.000182     0.000145
N       7.96033160     -1.75213708      0.27352237      0.000089    -0.000231     0.000246
C       0.68301701      0.25000136     -0.64233979     -0.000142    -0.000050     0.000014
C      -2.90377172      1.39840301     -0.23670029     -0.000117    -0.000009     0.000156
C       3.84084466      0.49879300      1.47674283      0.000161     0.000217     0.000235
C      -0.67257555      0.50621443      0.02269428     -0.000180    -0.000242     0.000066
C       3.00180925      0.50530491      0.20321838      0.000012    -0.000038     0.000336
C       0.66689588     -1.03471406     -1.46097013     -0.000269     0.000124     0.000093
C      -3.87672665      0.34212067     -0.71426305     -0.000304     0.000295     0.000004
C      -3.44382044      2.72444519     -0.74365716      0.000211     0.000042    -0.000026
C       3.64284709      1.78143784      2.28682095     -0.000222    -0.000035     0.000107
C      -5.83586983     -0.97964472     -0.17684692     -0.000075    -0.000051    -0.000056
C       7.11234906     -0.57744305     -0.03984537     -0.000335     0.000106    -0.000013
C       5.70227595     -0.75053793      0.50841428      0.000090    -0.000155    -0.000008
C      -5.50310953     -2.45082108      0.13122911      0.000018    -0.000076     0.000038
C       7.02826573     -0.52199550     -1.55075953      0.000106     0.000072     0.000248
C      -7.18533271     -0.66738389      0.45025113      0.000106     0.000146    -0.000015
H       0.94300323      1.07863524     -1.32768436      0.000611    -0.000808    -0.000124
H      -2.81158514      1.37998860      0.86083749      0.001144    -0.000848     0.001043
H       3.51087181     -0.32054435      2.09705370      0.000422     0.000779     0.000662
H       1.36516119     -0.07337768      1.35220567      0.000221     0.000417    -0.000789
H      -1.38835834      1.29428295     -1.73439022      0.000038    -0.000563     0.000306
H       0.10171548     -0.85869008     -2.36397347     -0.001134    -0.000592    -0.001043
H       1.68666647     -1.29647294     -1.71815182      0.000517     0.000415    -0.000070
H       0.24731861     -1.84622603     -0.85758512      0.000573     0.001180     0.001069
H       5.81054923      1.19552657      1.08407657     -0.001200    -0.000117    -0.001125
H      -3.37689081      2.80587448     -1.82241150      0.000265     0.001434     0.000046
H      -4.49314656      2.85858866     -0.42664333     -0.001466    -0.000129    -0.000969
H      -2.83264638      3.52750308     -0.30763663     -0.001487     0.000298    -0.000577
H       2.57908377      1.92240373      2.50421317     -0.000859    -0.001209    -0.000230
H       4.15510180      1.67761859      3.23337772      0.000096    -0.000301    -0.000521
H       3.99484187      2.62242007      1.71715892     -0.000343     0.000131     0.000692
H      -5.98617166     -0.89411750     -1.22391298      0.000494     0.001076     0.000458
H      -4.73970588      0.26096237      1.11938969      0.000244    -0.000151     0.000593
H       7.53332560      0.34481375      0.34120240      0.000622     0.000799    -0.000343
H      -5.38583805     -2.61685292      1.21178851     -0.000660    -0.000599     0.000283
H      -6.33499666     -3.10706627     -0.17550436     -0.000969     0.000717    -0.000604
H      -4.60348783     -2.77105785     -0.38400859     -0.000203    -0.000167    -0.000735
H       6.64150736     -1.48062140     -1.88538356      0.000494    -0.000630    -0.000596
H       8.00130185     -0.39890592     -1.99562321      0.001954    -0.000085    -0.000254
H       6.37363621      0.28174511     -1.83107670     -0.000503    -0.000931    -0.000444
H       8.88907621     -1.61137142     -0.08948784     -0.000457     0.000196     0.000364
H       8.08062627     -1.85542992      1.29839532     -0.000322     0.000717    -0.000241
H      -8.08141078      0.48182334      1.63526292      0.000170    -0.000354    -0.000015
53
Frame 7  Energy = -1313.0290391221 Hartree
O      -0.86695770      0.19696910      1.23658730      0.000305    -0.000030    -0.000121
O       3.37501989      0.89517308     -0.93691716      0.000527    -0.000257    -0.000019
O      -3.83121424     -0.09669681     -1.82478180      0.000098     0.000015    -0.000301
O       5.01863819     -1.70589894      0.56536460      0.000056    -0.000316    -0.000001
O      -7.13507053      0.41140393      1.23134745     -0.000115    -0.000169    -0.000100
O      -8.11775976     -1.39910267      0.30362986     -0.000116    -0.000036    -0.000084
N       1.66428208      0.24301404      0.38367481      0.000410     0.000157    -0.000270
N      -1.61574484      1.24904159     -0.63436706      0.000113    -0.000162    -0.000385
N       5.18217012      0.44735943      1.14963085      0.000037     0.000578     0.000063
N      -4.82882672     -0.00873776      0.21959907      0.000037    -0.000218    -0.000055
N       7.90967047     -1.66545034      0.39719250      0.000065     0.000171     0.000066
C       0.63725887      0.30592404     -0.64114053     -0.000171     0.000066     0.000004
C      -2.96759800      1.47955043     -0.19971125      0.000154    -0.000144    -0.000173
C       3.79498064      0.54068998      1.41851571     -0.000459    -0.000283     0.000010
C      -0.67722599      0.58650989      0.09086384     -0.000309    -0.000034     0.000168
C       2.95915918      0.56252884      0.15854682     -0.000100     0.000354     0.000272
C       0.55094175     -0.97452099     -1.47235890      0.000260     0.000340    -0.000224
C      -3.92481461      0.36646293     -0.68846220      0.000230    -0.000558     0.000002
C      -3.43154231      2.79489414     -0.78859677     -0.000031     0.000306    -0.000253
C       3.55280754      1.79547543      2.23943477      0.000032     0.000343     0.000067
C      -5.80490493     -1.01201979     -0.12510405      0.000018     0.000064    -0.000315
C       7.07707728     -0.53520764     -0.00769464      0.000250    -0.000005    -0.000207
C       5.68096439     -0.69084542      0.56644731     -0.000054    -0.000062     0.000131
C      -5.35328200     -2.44746375      0.22179012     -0.000504    -0.000079     0.000269
C       7.02212522     -0.50676146     -1.52606570      0.000397    -0.000432     0.000003
C      -7.14205046     -0.70707156      0.47460709     -0.000286    -0.000140     0.000059
H       0.90307950      1.14114154     -1.30928222     -0.000846     0.001315     0.000531
H      -2.97554230      1.54211011      0.91191348      0.000693     0.000941     0.000759
H       3.56999728     -0.34844129      1.99899468     -0.000031    -0.000434    -0.000239
H       1.35177253     -0.04469146      1.28789004      0.000106    -0.000039     0.000215
H      -1.46504525      1.31658878     -1.62812208      0.001591    -0.000025     0.001819
H      -0.17922247     -0.89075934     -2.29218104      0.000239     0.000436     0.001382
H       1.51198443     -1.15163714     -1.94186935      0.000877    -0.000256     0.000306
H       0.32449131     -1.82981418     -0.82683233     -0.000975     0.000799     0.001023
H       5.65356216      1.31795109      0.94436389      0.000284    -0.000211    -0.000254
H      -3.34350706      2.79250865     -1.86874852     -0.000472    -0.001040    -0.000858
H      -4.47997252      2.98453290     -0.54204934     -0.000495     0.000190     0.000079
H      -2.84456787      3.60057675     -0.39084101     -0.000047    -0.000372     0.000990
H       2.49116118      2.02070913      2.34671027     -0.000577    -0.000292    -0.000420
H       3.99222861      1.77039951      3.24152725     -0.000718     0.000351    -0.000686
H       3.95226665      2.66432279      1.73364507      0.001199    -0.000039     0.000373
H      -5.91438881     -0.96514174     -1.23674982     -0.000393    -0.000557    -0.000644
H      -4.79026098      0.32087654      1.16478032      0.000093     0.000992    -0.000130
H       7.46413380      0.43842893      0.37151029     -0.000079     0.000519    -0.001203
H      -5.19134629     -2.55589639      1.29040458      0.001182     0.001511     0.000168
H      -6.14769690     -3.14817661     -0.06839356     -0.000034    -0.000016     0.000633
H      -4.44702527     -2.67695575     -0.31554225      0.001577    -0.000406    -0.000257
H       6.61675886     -1.45388229     -1.87719660     -0.000099     0.000322     0.000169
H       8.01412101     -0.35483892     -1.96027025     -0.000494    -0.000187    -0.000868
H       6.41061536      0.27612360     -1.90110397     -0.000682     0.000433     0.000049
H       8.81898730     -1.58259510     -0.01729167     -0.000124    -0.000487    -0.000041
H       7.97301191     -1.74015436      1.39381085      0.000551     0.000252    -0.000273
H      -8.02390969      0.55866318      1.56440489     -0.000717     0.000136    -0.000594
53
Frame 8  Energy = -1313.0229690358 Hartree
O      -0.88040330      0.19147332      1.12914595     -0.000107    -0.000230     0.000055
O       3.41570341      0.84654424     -0.93035048      0.000075     0.000067     0.000019
O      -3.91585574     -0.03319642     -1.82945956      0.000029    -0.000145    -0.000191
O       5.01505558     -1.72872693      0.56112609      0.000137    -0.000169     0.000251
O      -7.23191954      0.31644978      1.32842642     -0.000151    -0.000152    -0.000299
O      -8.13201145     -1.46143109      0.31759855      0.000179    -0.000151    -0.000171
N       1.64586002      0.19117106      0.36309973      0.000146    -0.000307    -0.000170
N      -1.60049507      1.18460423     -0.76520149     -0.000097     0.000085     0.000249
N       5.15452198      0.45216655      1.08497357      0.000138    -0.000017    -0.000274
N      -4.85947981      0.05605840      0.21269996     -0.000151    -0.000169    -0.000560
N       7.87320801     -1.65040368      0.33604062     -0.000120     0.000172    -0.000256
C       0.68487536      0.31307446     -0.66993252      0.000100     0.000320    -0.000304
C      -2.93448996      1.43815930     -0.26056316     -0.000211     0.000457     0.000035
C       3.78767634      0.54820461      1.44715542     -0.000221    -0.000414    -0.000092
C      -0.68204930      0.55847816     -0.00083942     -0.000375    -0.000065     0.000007
C       2.94338628      0.55419060      0.16578402      0.000185    -0.000018    -0.000191
C       0.57559405     -0.93073976     -1.55101382      0.000052     0.000053    -0.000136
C      -3.90734126      0.40313612     -0.71449998      0.000006     0.000251     0.000094
C      -3.40887697      2.82651646     -0.72207361      0.000188    -0.000041    -0.000086
C       3.59373199      1.82735472      2.23295567     -0.000308    -0.000062    -0.000079
C      -5.79992283     -1.00712853     -0.06953704      0.000399    -0.000143     0.000059
C       7.06576208     -0.53828969     -0.07449133     -0.000189    -0.000370     0.000032
C       5.63983957     -0.70406036      0.54941757      0.000208     0.000025    -0.000084
C      -5.29056076     -2.38442426      0.38365709      0.000209     0.000125    -0.000355
C       6.88304067     -0.54050741     -1.60348569     -0.000173    -0.000024    -0.000262
C      -7.17732878     -0.74053515      0.48980132      0.000443     0.000070     0.000062
H       0.97726555      1.18771784     -1.27480999      0.000142    -0.000114    -0.000161
H      -2.83811488      1.46153302      0.81921128     -0.000920    -0.000107     0.000814
H       3.50430130     -0.36262771      1.99878985      0.000061    -0.001937    -0.001112
H       1.29473378      0.07015881      1.31045586     -0.000765    -0.000591     0.001151
H      -1.45358015      1.21810399     -1.76364678     -0.000536    -0.001118     0.000261
H      -0.22819068     -0.85096142     -2.28650029      0.000356    -0.000795     0.000022
H       1.50385642     -1.08405191     -2.10814621     -0.000304    -0.001053    -0.000472
H       0.31015919     -1.80401001     -0.89745877      0.000261    -0.000362     0.000740
H       5.61874182      1.34703989      0.88501861     -0.000051     0.000616     0.000736
H      -3.52410289      2.84314765     -1.80842115     -0.000253    -0.001351     0.000368
H      -4.38589077      3.09728101     -0.30191191      0.000354     0.000433    -0.000745
H      -2.68780516      3.56123967     -0.45854163      0.000609     0.000309     0.000385
H       2.54139695      1.98156180      2.48182076     -0.000752    -0.001348    -0.000626
H       4.18140801      1.77514873      3.15277015      0.000876     0.000185    -0.000698
H       3.87527162      2.67350534      1.60471233      0.000393     0.000917    -0.000484
H      -5.92859574     -1.05485259     -1.13226273      0.001632    -0.001700     0.000257
H      -4.66461403      0.27519107      1.16848121      0.000767    -0.000260    -0.000963
H       7.42836826      0.45014311      0.29496464      0.001081    -0.000756    -0.000433
H      -5.10324935     -2.40185092      1.44299098     -0.000300    -0.000598    -0.000400
H      -5.94714800     -3.17452081      0.12764256      0.000311     0.000338     0.000009
H      -4.33894348     -2.54945336     -0.11873238      0.000824     0.000223    -0.000718
H       6.45753997     -1.49139064     -1.89874432      0.000697     0.000403    -0.001728
H       7.85061491     -0.40202898     -2.07541860      0.000536     0.001338    -0.000305
H       6.20518674      0.21492704     -1.91827345     -0.000337     0.001858     0.001024
H       8.79568835     -1.68851298     -0.08264091      0.000872    -0.001190    -0.000093
H       7.94911440     -1.68636061      1.35285275     -0.000153    -0.001182     0.001441
H      -8.12598880      0.34272683      1.70146519      0.000215    -0.000865    -0.000186
53
Frame 9  Energy = -1313.0452938449 Hartree
O      -0.75629891      0.37659960      1.28600831     -0.000253    -0.000117    -0.000151
O       3.34401426      1.06427354     -0.91150915      0.000186     0.000027     0.000233
O      -3.92375282     -0.05908309     -1.81842963      0.000123     0.000015     0.000015
O       5.08345765     -1.70328175      0.62008767      0.000259    -0.000016    -0.000104
O      -7.18778807      0.28142780      1.28575032      0.000234     0.000147    -0.000073
O      -8.03083756     -1.57971259      0.30194158     -0.000026    -0.000016    -0.000047
N       1.66848708      0.14471927      0.33870218      0.000348     0.000174     0.000171
N      -1.63056818      1.10653758     -0.67494783     -0.000078    -0.000008    -0.000397
N       5.18643342      0.51787737      1.01593794     -0.000193     0.000236     0.000117
N      -4.86701435      0.06117150      0.24109902      0.000009    -0.000089     0.000005
N       7.87541876     -1.71503341      0.27309207     -0.000201    -0.000243     0.000036
C       0.63403861      0.27024999     -0.66676676     -0.000124    -0.000042     0.000056
C      -2.96859594      1.47413380     -0.21077038      0.000166    -0.000031    -0.000160
C       3.79749515      0.54819937      1.38976561      0.000013     0.000124    -0.000216
C      -0.65802147      0.58101646      0.08671376      0.000427     0.000065    -0.000089
C       2.93655927      0.59394588      0.14351605      0.000104    -0.000015     0.000255
C       0.54247091     -0.99627619     -1.50640116      0.000092    -0.000080     0.000197
C      -3.93722996      0.43912988     -0.68094018     -0.000113     0.000175     0.000016
C      -3.38912466      2.86344566     -0.69141394      0.000617     0.000080    -0.000011
C       3.50300114      1.76276243      2.24550806      0.000137    -0.000063     0.000077
C      -5.75732905     -1.04806084     -0.05596680     -0.000251    -0.000182     0.000215
C       7.07675632     -0.55824106     -0.12281890     -0.000260    -0.000071    -0.000066
C       5.70902859     -0.66711844      0.52558055     -0.000202     0.000055     0.000573
C      -5.19003131     -2.39090383      0.45809729      0.000361    -0.000066     0.000223
C       6.86809191     -0.61278419     -1.62273876     -0.000254    -0.000137     0.000059
C      -7.12316885     -0.84072768      0.51391134     -0.000068    -0.000077    -0.000198
H       0.91924467      1.10533201     -1.30760725      0.000323    -0.000670     0.000327
H      -2.89590218      1.46337115      0.89082025     -0.000833    -0.000013    -0.000086
H       3.56421915     -0.36859089      1.95498776     -0.000316     0.001219    -0.000446
H       1.37598242     -0.15794894      1.25749406      0.000821     0.000476     0.000233
H      -1.51143121      1.09666954     -1.67398839      0.000623     0.000374    -0.000085
H      -0.20011115     -0.88071364     -2.30104668     -0.000748     0.000411     0.000181
H       1.48929634     -1.17695781     -1.95275829      0.000661     0.000701    -0.000070
H       0.25015338     -1.85495768     -0.89821728      0.000238    -0.000605     0.001260
H       5.55726057      1.37493984      0.68014766     -0.000924     0.000231    -0.000197
H      -3.49156181      2.89382843     -1.77614963      0.000175     0.000157    -0.000507
H      -4.35613015      3.11371469     -0.27786048     -0.000186     0.000572     0.000775
H      -2.68759304      3.66772144     -0.39527479     -0.000108    -0.001246     0.000700
H       2.46675923      1.86656737      2.51571537     -0.000248    -0.000282    -0.000253
H       4.09697239      1.71526982      3.16820076      0.000783    -0.000331     0.001391
H       3.75605468      2.68260974      1.69733247      0.000576     0.000413     0.000510
H      -5.88359530     -1.07921798     -1.14722468      0.000722    -0.000066     0.000373
H      -4.84747584      0.37987532      1.19778067     -0.001035    -0.000643    -0.000726
H       7.48926159      0.40761568      0.16965024      0.001507     0.000642    -0.000335
H      -4.95948698     -2.31927588      1.50105609     -0.001196     0.000295     0.001755
H      -5.94235295     -3.16160283      0.34041304      0.000377     0.000708    -0.000174
H      -4.30492148     -2.68666676     -0.07564322     -0.000997    -0.000550     0.001116
H       6.35718286     -1.54477864     -1.83393468     -0.000108     0.000601     0.000598
H       7.82444576     -0.57836453     -2.16171060      0.000657    -0.000240     0.000251
H       6.28117762      0.24041526     -1.94382977     -0.000322     0.000421    -0.001053
H       8.80207795     -1.57598315     -0.08822829      0.000255     0.000081    -0.001136
H       7.84086255     -1.86578973      1.28483738     -0.001724    -0.000563    -0.000369
H      -8.07868013      0.28702284      1.64155776     -0.000781    -0.000204     0.000136
53
Frame 10  Energy = -1313.0239548987 Hartree
O      -0.83890554      0.25024185      1.17416538     -0.000178     0.000118    -0.000254
O       3.46132645      1.11449781     -0.88734121      0.000409     0.000020     0.000069
O      -3.83268685     -0.02807298     -1.85018722      0.000141    -0.000013     0.000195
O       5.10806935     -1.68094058      0.67973924      0.000309    -0.000338     0.000190
O      -7.06257625      0.24718935      1.36630111     -0.000239     0.000143     0.000265
O      -8.00698984     -1.56235462      0.44318256      0.000113    -0.000148     0.000218
N       1.75838884      0.16468258      0.32923486      0.000121    -0.000235    -0.000026
N      -1.54426434      1.30757931     -0.71265226      0.000238    -0.000133     0.000014
N       5.28552858      0.51946877      1.11638759      0.000212    -0.000378    -0.000390
N      -4.74913222     -0.03213339      0.20918025     -0.000162     0.000238     0.000215
N       7.94905269     -1.68049135      0.35451753     -0.000048    -0.000066    -0.000022
C       0.69987397      0.25430649     -0.66442521      0.000350    -0.000027    -0.000174
C      -2.91550978      1.53490456     -0.28636750      0.000106     0.000183    -0.000024
C       3.87746180      0.57651320      1.40713673     -0.000016    -0.000106    -0.000112
C      -0.63298928      0.61839432      0.02558217     -0.000128    -0.000052    -0.000055
C       3.01668654      0.61037004      0.13267518      0.000306    -0.000036     0.000282
C       0.52691291     -1.01435958     -1.49926229     -0.000203     0.000174     0.000046
C      -3.84402978      0.39186394     -0.70163623     -0.000157     0.000309    -0.000128
C      -3.43429171      2.81002327     -0.91207880      0.000562     0.000042    -0.000161
C       3.53788816      1.74583164      2.33375043     -0.000048     0.000153    -0.000326
C      -5.71498592     -1.08640962     -0.07028540     -0.000142     0.000052     0.000292
C       7.11112754     -0.59329969     -0.07697059     -0.000079    -0.000180    -0.000201
C       5.76035984     -0.66604832      0.61126853     -0.000233    -0.000062    -0.000027
C      -5.18280572     -2.45758691      0.42617737     -0.000303     0.000000    -0.000038
C       6.81952670     -0.66697317     -1.55388152      0.000215    -0.000092    -0.000191
C      -7.05649909     -0.84654125      0.59903948     -0.000161    -0.000005    -0.000361
H       0.98439695      1.04816694     -1.32328772     -0.000079     0.000497     0.000065
H      -2.88560276      1.58888289      0.78643654     -0.000028    -0.000187    -0.000396
H       3.60638606     -0.31967681      1.96107210     -0.000098     0.002029     0.000527
H       1.45821901     -0.25093179      1.20945519      0.000147    -0.000957     0.001404
H      -1.29144925      1.50112771     -1.67460688     -0.000921    -0.001196    -0.000222
H      -0.24594426     -0.84937340     -2.26016564     -0.001941     0.000263    -0.001201
H       1.46653280     -1.28502344     -1.98829455     -0.000131     0.000061    -0.000975
H       0.18811642     -1.81643419     -0.85788962      0.000598    -0.000280     0.000168
H       5.70713417      1.38799506      0.83783840     -0.001097    -0.000971     0.000453
H      -3.40284343      2.76222993     -2.00939807      0.000278    -0.001147     0.001130
H      -4.49354218      2.97696935     -0.68537178      0.000214     0.000110    -0.000019
H      -2.88122360      3.70495742     -0.61822543     -0.000780    -0.000420     0.000732
H       2.46290540      1.69679325      2.59983878      0.000464     0.002407     0.001522
H       4.15579246      1.61340473      3.21352876     -0.001801     0.000263    -0.000403
H       3.72365537      2.69132393      1.83503920      0.001072     0.000560    -0.001105
H      -5.91396858     -1.13946385     -1.11705040      0.000533    -0.000716    -0.000158
H      -4.62986227      0.20557946      1.19290056     -0.000264     0.000189     0.000927
H       7.52925127      0.43727378      0.13533936      0.000280     0.000028    -0.000281
H      -5.07326442     -2.42155455      1.51466957      0.001512    -0.000179     0.000083
H      -5.95607991     -3.19396301      0.20991290     -0.001693    -0.001119     0.001129
H      -4.25918487     -2.70230473     -0.09438958     -0.000171    -0.000446    -0.000810
H       6.48883832     -1.67411754     -1.85783219     -0.000430    -0.000081     0.000264
H       7.70713691     -0.38616707     -2.09895328      0.000090    -0.000623     0.000026
H       6.03805629      0.05839189     -1.79278858      0.000680    -0.000093    -0.000247
H       8.80973105     -1.63518034     -0.16815229     -0.000346    -0.000380     0.000282
H       8.23658906     -1.58343865      1.32178153      0.000846     0.000090     0.000385
H      -7.97290709      0.37312355      1.67110473     -0.000592     0.000721    -0.000870
53
Frame 11  Energy = -1313.0326522453 Hartree
O      -0.92788196      0.21750206      1.21190941     -0.000171     0.000050     0.000017
O       3.31273259      1.01380553     -0.91825963     -0.000171     0.000083     0.000002
O      -3.88253553      0.02722475     -1.84590043      0.000094    -0.000102    -0.000091
O       5.03146926     -1.76535314      0.65573728      0.000074    -0.000275     0.000156
O      -6.98996747      0.23690114      1.32896221     -0.000203     0.000188     0.000122
O      -8.04817510     -1.36513822      0.23782815      0.000249    -0.000330     0.000360
N       1.67354210      0.26655736      0.40229998      0.000333    -0.000060     0.000184
N      -1.56601602      1.22634900     -0.71368167     -0.000069    -0.000034     0.000143
N       5.24525041      0.45733461      1.08344070      0.000124     0.000115     0.000260
N      -4.67277132     -0.09437941      0.28814200     -0.000342    -0.000137     0.000039
N       7.91322538     -1.69642800      0.42495029     -0.000212     0.000055     0.000090
C       0.64769761      0.25003911     -0.61070205     -0.000150    -0.000143    -0.000240
C      -2.90660189      1.49406217     -0.26147273     -0.000313    -0.000221     0.000226
C       3.84322294      0.57401431      1.41145520     -0.000432    -0.000101    -0.000410
C      -0.68146303      0.52629579      0.05480666      0.000189    -0.000096     0.000249
C       2.94022970      0.64898515      0.16569957     -0.000168     0.000362     0.000026
C       0.66776012     -1.05590020     -1.41068677     -0.000108    -0.000265    -0.000138
C      -3.84199638      0.37175502     -0.68051925     -0.000081    -0.000235     0.000072
C      -3.41975353      2.78089745     -0.88960029      0.000110     0.000316     0.000114
C       3.54557081      1.80244661      2.24046449      0.000007    -0.000004     0.000499
C      -5.65557488     -1.07791465     -0.10239512     -0.000148     0.000334     0.000155
C       7.03591288     -0.66023287     -0.12432821     -0.000192     0.000229    -0.000062
C       5.69167440     -0.74246051      0.57792491      0.000041    -0.000186    -0.000356
C      -5.20346147     -2.45431577      0.39383227     -0.000237     0.000000     0.000155
C       6.80755027     -0.87362513     -1.60637297     -0.000101    -0.000061    -0.000081
C      -7.03233063     -0.77450024      0.45405511     -0.000113    -0.000111     0.000124
H       0.84350432      1.07300580     -1.31169915     -0.000997    -0.000499     0.000246
H      -2.90565287      1.58893834      0.80672129     -0.000935     0.000275     0.000600
H       3.57277453     -0.32766710      1.96626199      0.000651    -0.000731     0.001711
H       1.45651504     -0.13413693      1.30962202     -0.000838    -0.000048     0.000825
H      -1.48710779      1.19392032     -1.72937269      0.000160     0.001013     0.000465
H      -0.03455420     -0.99415578     -2.25351031      0.000558    -0.000180     0.001173
H       1.68219569     -1.16409863     -1.80230294     -0.000942     0.001766    -0.001461
H       0.40539189     -1.93054355     -0.79643393      0.000684    -0.000051     0.000270
H       5.59906795      1.28948980      0.65022344      0.001014     0.000583     0.000322
H      -3.37808631      2.68800504     -1.97040508     -0.000706    -0.000267     0.000985
H      -4.46268346      2.90683536     -0.61763076     -0.001069    -0.000136     0.000348
H      -2.84866289      3.65572584     -0.51870094     -0.001394     0.000095    -0.000116
H       2.43766469      1.86778880      2.39905124     -0.000097    -0.000170     0.001216
H       4.04868096      1.75795908      3.19860647     -0.000408     0.000568    -0.000581
H       3.89661393      2.67473757      1.74063664     -0.000691    -0.001234    -0.001284
H      -5.69409922     -1.06717808     -1.20125911     -0.000543    -0.000079    -0.000412
H      -4.41732488      0.02945935      1.25037806      0.000791     0.001321    -0.000058
H       7.40112767      0.35253323      0.02248635      0.000597    -0.000389    -0.000068
H      -5.07420628     -2.47476117      1.47180794     -0.000989     0.000374     0.000392
H      -5.96256897     -3.19035183      0.13801305      0.000202    -0.000214    -0.000717
H      -4.25208450     -2.73769975     -0.05683978     -0.000684     0.001018    -0.000127
H       6.46706016     -1.91369833     -1.75524602     -0.000069     0.000604    -0.000034
H       7.76778759     -0.78390154     -2.13843621     -0.001152    -0.000824    -0.000097
H       6.08593235     -0.14773030     -1.97209030      0.000026     0.000211    -0.000943
H       8.77668363     -1.70443981     -0.10262717      0.000158    -0.000191    -0.000296
H       8.10046194     -1.55062267      1.41834322      0.000172     0.000567    -0.000301
H      -7.89125549      0.37042297      1.68279053     -0.001345    -0.001098    -0.001057
53
Frame 12  Energy = -1313.0408026753 Hartree
O      -0.92024925      0.15175186      1.26069319     -0.000072     0.000082    -0.000096
O       3.32383463      0.93445262     -0.87074287     -0.000066     0.000309    -0.000067
O      -3.80475597     -0.05017559     -1.90778822      0.000161    -0.000014    -0.000091
O       5.13327412     -1.80891231      0.76981601      0.000251    -0.000108     0.000084
O      -6.99056377      0.18753381      1.43303758      0.000365     0.000094    -0.000316
O      -8.05305881     -1.30090005      0.15425583      0.000133     0.000092     0.000089
N       1.63980818      0.22369743      0.43703626     -0.000358    -0.000159     0.000103
N      -1.54964058      1.23515877     -0.66539339     -0.000217     0.000056     0.000208
N       5.18297312      0.42784893      1.02863418     -0.000370    -0.000242     0.000037
N      -4.68173958     -0.09060089      0.20206807      0.000092    -0.000345    -0.000197
N       7.93974256     -1.72189513      0.41117234      0.000093    -0.000416    -0.000145
C       0.64166590      0.22258614     -0.57411099     -0.000275    -0.000357    -0.000035
C      -2.93647451      1.50427432     -0.29833439      0.000074     0.000334     0.000046
C       3.82431937      0.51817530      1.43266148      0.000229    -0.000348     0.000129
C      -0.72404546      0.48849528      0.09367433      0.000194    -0.000168     0.000184
C       2.92070016      0.57300253      0.21521263      0.000272    -0.000226    -0.000206
C       0.59744551     -1.09044970     -1.37604722      0.000095     0.000039    -0.000209
C      -3.85206510      0.36758464     -0.76439893     -0.000040    -0.000118    -0.000039
C      -3.43954391      2.81771135     -0.89677122      0.000088    -0.000373    -0.000063
C       3.55492706      1.78490999      2.23528962      0.000048    -0.000042     0.000107
C      -5.66341769     -1.10368629     -0.08775726      0.000169    -0.000270    -0.000104
C       7.07382507     -0.63761695     -0.03599894     -0.000047    -0.000092    -0.000253
C       5.71871479     -0.75868490      0.61339018      0.000033    -0.000057    -0.000167
C      -5.20251554     -2.52115860      0.40783722      0.000161     0.000016     0.000091
C       6.87297168     -0.76298102     -1.54053121     -0.000105     0.000191    -0.000300
C      -7.02849358     -0.78958804      0.49576072     -0.000451     0.000168     0.000049
H       0.88079098      1.01808834     -1.32486732     -0.000679     0.000468    -0.000015
H      -2.93312759      1.63967492      0.78990573     -0.000482    -0.000177     0.000904
H       3.58700504     -0.32357792      2.04965533     -0.000406    -0.000123    -0.000928
H       1.36120273     -0.09529064      1.35308761     -0.000832    -0.000062     0.000174
H      -1.33296263      1.30241466     -1.63668036     -0.001102     0.000271    -0.000242
H      -0.15423975     -1.03341025     -2.18377111     -0.000673    -0.000541    -0.000652
H       1.55184374     -1.31158460     -1.84889145     -0.000139    -0.000180     0.000502
H       0.32725743     -1.92140704     -0.70957696      0.001637    -0.000473     0.000534
H       5.62172003      1.25248756      0.72471773      0.001001    -0.000177    -0.000646
H      -3.41296810      2.73946380     -2.00808930      0.000340     0.000153     0.001027
H      -4.46694072      3.00559113     -0.64312101     -0.000870     0.000331    -0.000632
H      -2.79126530      3.64457206     -0.60031090     -0.000594    -0.000852    -0.000258
H       2.61134985      1.70562204      2.72824107      0.000215     0.000766     0.000521
H       4.30922792      1.83275227      3.02865021     -0.000188    -0.000490    -0.000366
H       3.61769710      2.70140648      1.67148203      0.000106    -0.000417     0.000326
H      -5.78158539     -1.12164296     -1.17179822      0.000488    -0.000901    -0.000569
H      -4.66119614      0.31407913      1.12934092      0.000007     0.000408     0.000458
H       7.48670774      0.36753203      0.14970342     -0.001251    -0.001451     0.000678
H      -4.88838909     -2.44942283      1.48151907     -0.000183    -0.000408    -0.000063
H      -6.08265439     -3.19124194      0.30655115     -0.001408    -0.000475    -0.000152
H      -4.36185940     -2.90559983     -0.21901422     -0.000087     0.000328     0.000052
H       6.45243306     -1.74111891     -1.70742772      0.000147     0.000615    -0.000035
H       7.81075045     -0.64872892     -2.09127050      0.000770     0.000932    -0.000441
H       6.15408011      0.03066266     -1.89963933      0.000351     0.000612    -0.000436
H       8.86190078     -1.61468330      0.00607873      0.001111     0.000969    -0.000031
H       8.04660898     -1.65305417      1.40901547      0.000265    -0.000040     0.000952
H      -7.90821669      0.38742817      1.71198701      0.000878    -0.001722    -0.000321
53
Frame 13  Energy = -1313.0452774232 Hartree
O      -0.90932726      0.23158897      1.20564744     -0.000123    -0.000061    -0.000080
O       3.36051739      0.93754860     -0.92968523      0.000118    -0.000135     0.000133
O      -3.72875549     -0.15038050     -1.88400611     -0.000002    -0.000139    -0.000082
O       5.06253902     -1.77452964      0.81170686     -0.000040    -0.000199     0.000024
O      -7.07761637      0.26940525      1.28523801     -0.000033    -0.000008    -0.000336
O      -8.13747569     -1.35670472      0.12843845      0.000048    -0.000298    -0.000184
N       1.65803593      0.16419925      0.36934300     -0.000155    -0.000201    -0.000231
N      -1.58731504      1.23454919     -0.71182173     -0.000021    -0.000351    -0.000114
N       5.22938551      0.47599520      1.04752780     -0.000086     0.000073    -0.000050
N      -4.78505327     -0.08892428      0.17137982      0.000023     0.000205    -0.000141
N       7.94183659     -1.74739509      0.32297410     -0.000364     0.000269     0.000360
C       0.63342289      0.23633294     -0.64122552      0.000030     0.000229    -0.000177
C      -2.94297926      1.43902119     -0.25488604      0.000029     0.000163    -0.000582
C       3.82188060      0.56165570      1.38867449      0.000156    -0.000178    -0.000315
C      -0.70222492      0.52407052      0.05457314     -0.000181     0.000240     0.000011
C       2.95313218      0.54036878      0.14585900      0.000182    -0.000050     0.000227
C       0.51790958     -1.02075894     -1.52074445     -0.000178    -0.000286     0.000196
C      -3.82618284      0.28648118     -0.74150340     -0.000222    -0.000226    -0.000057
C      -3.54548618      2.73547302     -0.78288269     -0.000247     0.000059    -0.000107
C       3.54529555      1.86341774      2.15359902     -0.000011     0.000107    -0.000440
C      -5.78461003     -1.09181018     -0.19585012      0.000101    -0.000217     0.000068
C       7.05914014     -0.68122095     -0.08431501      0.000276     0.000081     0.000080
C       5.68180873     -0.76027975      0.63755908      0.000018    -0.000135    -0.000079
C      -5.29382523     -2.50071250      0.18451609     -0.000216     0.000046     0.000136
C       6.73070433     -0.85860394     -1.56711040     -0.000118    -0.000004    -0.000466
C      -7.13107888     -0.76307314      0.39979229      0.000140    -0.000025     0.000000
H       0.87222616      1.10439778     -1.31577779      0.000548    -0.000928    -0.000561
H      -2.94139606      1.47605554      0.82407532     -0.000253     0.000818    -0.000005
H       3.56678063     -0.28041830      2.00829100     -0.000014     0.000123    -0.000311
H       1.33849455     -0.13263390      1.31074426     -0.001043     0.000571    -0.001107
H      -1.42806365      1.24983899     -1.69772128     -0.000354    -0.000828    -0.001137
H      -0.29978637     -0.88434282     -2.25284250      0.000781    -0.000629     0.000318
H       1.45939485     -1.21750854     -2.04400781      0.000945    -0.000958     0.000418
H       0.28529137     -1.86929373     -0.90936134      0.000537    -0.000034     0.000563
H       5.59435547      1.31606624      0.59576512     -0.000032    -0.000187    -0.000525
H      -3.60081746      2.73614066     -1.86995404      0.000810    -0.000062     0.000203
H      -4.57816704      2.78406284     -0.43294112     -0.000023     0.001462     0.000276
H      -3.00860206      3.59946013     -0.40515147      0.001235     0.000352     0.000295
H       2.57311843      1.82265177      2.65167114      0.000995     0.000612     0.000547
H       4.28292191      2.01398526      2.95364956     -0.000056     0.000285    -0.000813
H       3.57729531      2.75205961      1.51710316      0.000029     0.000429    -0.000719
H      -5.86740067     -1.07383803     -1.28417259     -0.000037    -0.000348     0.000574
H      -4.70874425      0.27124536      1.11074057      0.000160     0.000909    -0.000674
H       7.48535164      0.29515288      0.09846831      0.000446     0.000058    -0.001121
H      -5.12478452     -2.49800653      1.24781560     -0.000100     0.000426    -0.000126
H      -6.05239500     -3.23779965     -0.03650669     -0.001509     0.000380    -0.001153
H      -4.36565709     -2.68365086     -0.31065657     -0.000079     0.000011     0.000146
H       6.16837941     -1.80800988     -1.68390609      0.000222     0.000084    -0.000835
H       7.64492552     -0.93894390     -2.16040318      0.000978    -0.000383     0.000570
H       6.16559819     -0.00453291     -1.96629290      0.000564    -0.000737    -0.001163
H       8.78833887     -1.77757061     -0.28426348     -0.000673    -0.000870     0.000380
H       8.14166040     -1.81110916      1.31198329     -0.000375     0.000278    -0.000374
H      -7.94273940      0.25210557      1.73677724     -0.000221    -0.000191    -0.001167
53
Frame 14  Energy = -1313.0436665037 Hartree
O      -0.83490370      0.31603587      1.28173800      0.000039     0.000038    -0.000433
O       3.34891803      0.77927435     -0.89971848     -0.000099    -0.000166    -0.000103
O      -3.68512908     -0.20262035     -1.86551500      0.000068     0.000108     0.000143
O       5.09724809     -1.81504821      0.85335947      0.000030    -0.000156    -0.000033
O      -7.14829485      0.17267179      1.27249468     -0.000010    -0.000017     0.000083
O      -8.15937825     -1.37907917      0.00215532     -0.000142     0.000057    -0.000011
N       1.61044000      0.01704690      0.35921536     -0.000232    -0.000121    -0.000172
N      -1.60448237      1.22409314     -0.65506225      0.000088    -0.000033     0.000027
N       5.17307445      0.42262857      1.10980043      0.000274    -0.000011     0.000306
N      -4.77178672     -0.18205648      0.11628104      0.000010    -0.000119    -0.000295
N       7.91787834     -1.84108848      0.34088697     -0.000085     0.000015     0.000205
C       0.61105631      0.28344698     -0.65379380     -0.000290     0.000286     0.000046
C      -2.96059837      1.39654432     -0.22044877     -0.000056    -0.000260     0.000092
C       3.77398640      0.50348669      1.44512874      0.000338     0.000205    -0.000183
C      -0.67659290      0.62576601      0.09613375     -0.000222     0.000297     0.000454
C       2.89126122      0.42748289      0.16222732      0.000341     0.000053    -0.000206
C       0.35089723     -0.95702360     -1.52622535     -0.000030    -0.000266    -0.000114
C      -3.81807730      0.24123395     -0.73999392     -0.000177     0.000021     0.000039
C      -3.53892187      2.65607392     -0.83241838      0.000377     0.000308     0.000280
C       3.51437120      1.84432780      2.15417367      0.000106    -0.000077     0.000209
C      -5.80197709     -1.13049571     -0.26535005      0.000266    -0.000090    -0.000039
C       7.05153176     -0.72110960     -0.05100857      0.000007    -0.000229    -0.000113
C       5.69927951     -0.77757971      0.68485954     -0.000099     0.000140     0.000221
C      -5.37193048     -2.56542058      0.02238126     -0.000217    -0.000046    -0.000215
C       6.75948507     -0.90993124     -1.55386918      0.000000     0.000065    -0.000308
C      -7.14584354     -0.83274310      0.33285015     -0.000147     0.000222     0.000381
H       0.91169882      1.13644657     -1.25743073      0.000596     0.000220     0.001235
H      -2.96703981      1.37733528      0.85057187      0.000586     0.001580     0.000306
H       3.54157246     -0.36002351      2.06703712      0.000111     0.000891     0.000920
H       1.26595153     -0.08229534      1.28710785     -0.000622     0.001315     0.000937
H      -1.42643956      1.36140718     -1.63124889     -0.001083     0.000807    -0.000305
H      -0.43597689     -0.76493640     -2.26592188     -0.000366     0.000158    -0.000470
H       1.26971918     -1.17331048     -2.04731779      0.000318     0.000096    -0.000167
H       0.09281884     -1.80193685     -0.86721586     -0.000467    -0.000590     0.000962
H       5.58350969      1.22719022      0.67913823     -0.000237    -0.000351     0.001546
H      -3.54594847      2.54258485     -1.92378426     -0.000576     0.000597     0.000279
H      -4.57321898      2.81212660     -0.48445017     -0.000215    -0.000635    -0.001089
H      -2.92825619      3.51286734     -0.54154002      0.000090     0.000716     0.000311
H       2.46828590      1.92514786      2.43154890      0.000296    -0.000482     0.000543
H       4.12986233      1.91828473      3.05677621     -0.000226    -0.000573     0.001043
H       3.78240717      2.69202488      1.49575098      0.000868    -0.000161    -0.000925
H      -5.92274025     -0.99630492     -1.35746029      0.000143    -0.001123     0.000422
H      -4.80811789      0.21466982      1.04588779      0.000344     0.000550    -0.000328
H       7.49291482      0.27357198      0.07167030     -0.000265    -0.000324     0.001203
H      -5.07580000     -2.64321578      1.06834216      0.000120     0.000830    -0.000040
H      -6.11156767     -3.32953161     -0.16536118     -0.000149    -0.000033    -0.000310
H      -4.52895359     -2.80205964     -0.62948813     -0.001376    -0.000322     0.000019
H       6.19601987     -1.85896949     -1.74453074      0.000100    -0.000324     0.000889
H       7.70087984     -0.86539898     -2.11935613     -0.000677     0.000166    -0.000562
H       6.16869178     -0.09095976     -1.96428886      0.000629     0.000815     0.000480
H       8.84349941     -1.77392182     -0.06953762      0.001402    -0.001346     0.000460
H       8.05958614     -1.84112683      1.35144050     -0.000658    -0.000670    -0.000809
H      -8.08180831      0.24447497      1.54324557     -0.000977     0.000570     0.000667
53
Frame 15  Energy = -1313.0485002835 Hartree
O      -0.90206243      0.24367825      1.19742149     -0.000196    -0.000165    -0.000043
O       3.31102002      0.89454322     -0.96197003     -0.000225    -0.000139    -0.000302
O      -3.66286713     -0.30243334     -1.82036714     -0.000031     0.000226     0.000273
O       5.11156740     -1.84591341      0.80745546     -0.000030    -0.000262     0.000073
O      -7.07428774      0.15955578      1.24341590     -0.000109    -0.000036     0.000036
O      -8.08929766     -1.51337102      0.16888626     -0.000081    -0.000270     0.000093
N       1.64888750      0.02117813      0.32598875      0.000253     0.000249     0.000053
N      -1.60752344      1.19821731     -0.72369292     -0.000308    -0.000032    -0.000299
N       5.19877953      0.40271259      1.08733767      0.000047     0.000259    -0.000031
N      -4.75238465     -0.20008524      0.16938281      0.000209     0.000014     0.000302
N       7.88730401     -1.81109243      0.33090461     -0.000059    -0.000199     0.000228
C       0.61007423      0.19050743     -0.66031767     -0.000241    -0.000016    -0.000010
C      -2.96800513      1.36926400     -0.25385969      0.000295    -0.000015    -0.000257
C       3.77371172      0.46005832      1.37761248      0.000245     0.000040     0.000232
C      -0.70107385      0.55398130      0.02900159     -0.000066     0.000070    -0.000130
C       2.90264147      0.46530535      0.11087092      0.000254     0.000082    -0.000065
C       0.44507242     -1.07278780     -1.50039823      0.000022    -0.000311    -0.000004
C      -3.82878039      0.20597055     -0.72167994     -0.000022     0.000225     0.000505
C      -3.53505463      2.66848979     -0.79734698     -0.000276     0.000053     0.000373
C       3.41606705      1.72208682      2.21976383      0.000062     0.000089    -0.000017
C      -5.71888890     -1.21026214     -0.17643814     -0.000280     0.000027     0.000002
C       7.03818219     -0.68626510     -0.06197649     -0.000015     0.000150     0.000084
C       5.70059032     -0.79709019      0.64745999     -0.000480     0.000012     0.000301
C      -5.29008410     -2.62548711      0.25971295     -0.000233     0.000004    -0.000049
C       6.75791991     -0.79776866     -1.57780236     -0.000090     0.000233     0.000014
C      -7.07414244     -0.88807457      0.38596036     -0.000259    -0.000125     0.000033
H       0.95957192      1.00388920     -1.29530358      0.000032    -0.000783     0.000189
H      -2.91947073      1.40027637      0.83564674     -0.000893     0.001174     0.001043
H       3.56083813     -0.41606353      1.96397639      0.000201     0.000034    -0.000666
H       1.39649507     -0.21992752      1.28750915      0.000638     0.000489     0.000002
H      -1.43394806      1.09563255     -1.72238083     -0.000780     0.001251     0.000345
H      -0.32501159     -0.92548258     -2.22795802      0.000154     0.000110    -0.000731
H       1.42835391     -1.33313449     -1.92889764     -0.000762     0.000248     0.001649
H       0.21013646     -1.90471761     -0.86446708     -0.001307     0.000691    -0.000451
H       5.56031474      1.21451517      0.60902029      0.000518    -0.000095     0.000520
H      -3.68477188      2.62179258     -1.87824747     -0.000655     0.000080    -0.000127
H      -4.52074014      2.90511148     -0.37903915      0.000380    -0.000420     0.000083
H      -2.84955999      3.49177203     -0.52667200      0.000201    -0.000116     0.001141
H       2.36976108      1.69339660      2.57910577     -0.000039     0.000535     0.000726
H       4.08390389      1.76283287      3.08721489      0.000951     0.000469    -0.000004
H       3.58433827      2.63073953      1.65675620      0.000333     0.000501    -0.000104
H      -5.85531255     -1.22869969     -1.27845572      0.000420     0.000454    -0.000392
H      -4.76734911      0.19905245      1.08420820      0.000244     0.000503    -0.000199
H       7.46241940      0.29800124      0.14698418      0.000221    -0.000477     0.000238
H      -5.18131212     -2.70439167      1.32168567      0.000656    -0.000374    -0.000343
H      -6.03878202     -3.33385106     -0.14206833      0.000015     0.000155     0.001161
H      -4.33102429     -2.84446789     -0.20608461     -0.000223    -0.001080     0.000244
H       6.40207692     -1.82888843     -1.78438952      0.000291     0.000807     0.000535
H       7.69423631     -0.64102066     -2.17188329      0.001703     0.000162    -0.000566
H       6.00523465     -0.10051250     -1.91848692      0.000477    -0.000831     0.001035
H       8.86104352     -1.61834613      0.04863061     -0.000315     0.000425    -0.000137
H       7.86068179     -2.02633040      1.31090868     -0.000082     0.001041    -0.000982
H      -7.97123285      0.19979714      1.61007010     -0.000759    -0.000494    -0.000231
53
Frame 16  Energy = -1313.0226235077 Hartree
O      -0.88002067      0.19289824      1.22955580      0.000000    -0.000064     0.000159
O       3.28987205      0.89680942     -0.92587509     -0.000159     0.000041    -0.000172
O      -3.73377680     -0.16084215     -1.78200035     -0.000041     0.000002     0.000363
O       5.23853244     -1.86874214      0.92731523     -0.000267     0.000168    -0.000121
O      -7.12684515      0.21764531      1.21863511     -0.000180    -0.000163     0.000068
O      -8.02367328     -1.58609750      0.23647916     -0.000108     0.000122     0.000178
N       1.64646273      0.05662634      0.37519339      0.000006     0.000221     0.000135
N      -1.60659171      1.18577156     -0.66017865      0.000099     0.000112     0.000051
N       5.21999671      0.40137664      0.99240293      0.000105    -0.000258    -0.000009
N      -4.78283924     -0.13985528      0.23608945     -0.000186     0.000077     0.000132
N       7.87724038     -1.96233391      0.26019013      0.000071    -0.000599     0.000039
C       0.62744995      0.20455834     -0.61826566     -0.000166    -0.000124     0.000009
C      -2.93650975      1.41947096     -0.17968644      0.000131     0.000098     0.000271
C       3.82849981      0.44689203      1.37426487     -0.000120     0.000063     0.000261
C      -0.67099735      0.52535067      0.07637102      0.000251     0.000303     0.000325
C       2.89207315      0.46625136      0.14437332      0.000225    -0.000149    -0.000210
C       0.36255208     -1.02521133     -1.47979608     -0.000058    -0.000338     0.000251
C      -3.86227870      0.29726934     -0.64917308     -0.000015    -0.000151    -0.000026
C      -3.48511916      2.72351500     -0.76323665     -0.000128    -0.000053    -0.000049
C       3.52016200      1.68447760      2.22388135      0.000210     0.000029     0.000240
C      -5.71266582     -1.15893763     -0.14239694     -0.000361    -0.000543    -0.000090
C       7.09203880     -0.78901745     -0.08685889      0.000180     0.000299    -0.000303
C       5.78474804     -0.82034360      0.66989150     -0.000198     0.000289    -0.000169
C      -5.18891775     -2.57512758      0.16444238     -0.000306     0.000220     0.000005
C       6.74988111     -0.86223660     -1.58315855     -0.000208    -0.000107    -0.000225
C      -7.08556108     -0.88848645      0.43584919     -0.000186    -0.000284     0.000431
H       0.87929210      1.01783090     -1.27171574      0.001975    -0.000094    -0.000317
H      -2.89262738      1.49507147      0.92514351      0.000997     0.000186     0.000207
H       3.63227592     -0.44540016      1.99283913     -0.000606    -0.000795    -0.000558
H       1.32165126     -0.18446963      1.30170967     -0.001112     0.000050     0.000415
H      -1.40204583      1.34291766     -1.63690883     -0.001092     0.000360    -0.000135
H      -0.34483007     -0.79192099     -2.27160983     -0.000319     0.001062    -0.000674
H       1.26274277     -1.37368236     -1.98246254      0.001088    -0.000168    -0.000154
H      -0.00854640     -1.85497013     -0.88345433     -0.000696     0.001106     0.000394
H       5.60592470      1.23841224      0.58666750      0.000644     0.001766     0.000875
H      -3.56644405      2.65863982     -1.86018747     -0.000963     0.001172     0.000001
H      -4.47492818      2.94188566     -0.33593533      0.000348     0.000395     0.000909
H      -2.75698750      3.55594317     -0.52046035      0.000071     0.001323     0.001140
H       2.45598552      1.67866209      2.47820601     -0.001458    -0.000536     0.000169
H       4.09326784      1.68187895      3.14118704     -0.000805    -0.001585    -0.000329
H       3.76338823      2.61253353      1.65902223      0.000638     0.000090    -0.001082
H      -5.81603033     -1.11926630     -1.23092855     -0.001396     0.000382    -0.001246
H      -4.86189397      0.28740332      1.15220856     -0.000197     0.001564    -0.000132
H       7.58939650      0.13350105      0.16791753     -0.000209    -0.000209     0.000911
H      -5.02709961     -2.72114294      1.24781384      0.000150    -0.000890    -0.001055
H      -5.92086037     -3.31619333     -0.10186030      0.000152    -0.001883     0.000177
H      -4.23509024     -2.70385899     -0.36460252      0.000195     0.001010    -0.000023
H       6.19288116     -1.77565413     -1.76742058     -0.000391    -0.000368     0.001303
H       7.62282733     -0.81527112     -2.20928036     -0.000162    -0.000897    -0.000140
H       6.09550572     -0.01894055     -1.83050377      0.000844    -0.001074    -0.000093
H       8.85910589     -1.88302499      0.15695764     -0.000333     0.000659     0.001215
H       7.61242219     -2.35950936      1.14538576     -0.000850    -0.000448    -0.000967
H      -8.05516433      0.29487457      1.49848438      0.000479     0.000923     0.000539
53
Frame 17  Energy = -1313.0423264175 Hartree
O      -0.85813464      0.15159106      1.20317078     -0.000016     0.000122     0.000302
O       3.40720085      0.82921449     -0.91705584      0.000185     0.000012    -0.000269
O      -3.67587221     -0.22083343     -1.79174835     -0.000144     0.000039     0.000107
O       5.28907871     -1.88481908      1.08359153      0.000157     0.000150     0.000153
O      -7.19375491      0.21443697      1.18596201      0.000157    -0.000457     0.000087
O      -8.04272652     -1.63093559      0.28115642      0.000042     0.000141    -0.000081
N       1.69234546      0.05201382      0.32270195     -0.000020     0.000189     0.000126
N      -1.55997007      1.25221208     -0.63006005     -0.000114     0.000170     0.000035
N       5.17743173      0.36488424      1.01593206     -0.000002     0.000006    -0.000355
N      -4.73068553     -0.27176926      0.20867888     -0.000110     0.000096     0.000171
N       7.93602181     -1.92801875      0.17603077     -0.000300     0.000110    -0.000117
C       0.64165352      0.19368793     -0.67810790     -0.000019     0.000031    -0.000200
C      -2.94113473      1.34910954     -0.10802453      0.000087     0.000046    -0.000038
C       3.79138541      0.42351260      1.42765351      0.000040    -0.000425     0.000016
C      -0.65681817      0.52561923      0.06365704     -0.000195    -0.000162     0.000460
C       2.96621204      0.42089955      0.13362510     -0.000029     0.000340     0.000318
C       0.45781620     -1.07968977     -1.49258219      0.000128    -0.000010     0.000119
C      -3.79869025      0.21039172     -0.65048328      0.000447     0.000229    -0.000313
C      -3.51297509      2.70465547     -0.58790674      0.000422    -0.000140     0.000037
C       3.49095858      1.72079180      2.21742277     -0.000398    -0.000057    -0.000278
C      -5.74461793     -1.19221884     -0.17372522     -0.000282    -0.000105    -0.000048
C       7.04436232     -0.79621477     -0.08800014      0.000028     0.000277    -0.000072
C       5.78008845     -0.83614368      0.73608516      0.000002    -0.000116     0.000054
C      -5.32384554     -2.59204155      0.26527704      0.000239     0.000331     0.000097
C       6.73404312     -0.74950490     -1.56057442     -0.000129    -0.000132    -0.000061
C      -7.10400947     -0.89294934      0.44056903     -0.000027    -0.000162     0.000045
H       0.93046351      1.03099479     -1.30959309      0.000056    -0.000369     0.000641
H      -2.90799719      1.27804714      0.98079791      0.000214    -0.000526    -0.000619
H       3.53311924     -0.45244843      2.01129661     -0.001097    -0.000423     0.001657
H       1.37720972     -0.31150929      1.20949388     -0.000097     0.001038    -0.000123
H      -1.45290360      1.33843999     -1.63995573     -0.000300    -0.000649    -0.000828
H      -0.26937178     -0.96637240     -2.31829278     -0.000786    -0.000289     0.000741
H       1.42970761     -1.30824672     -1.94279288      0.000489    -0.000101     0.000012
H       0.11506685     -1.86952212     -0.82871467     -0.000043     0.000133    -0.000753
H       5.47480197      1.11001713      0.40403042      0.001241     0.000463    -0.000200
H      -3.45156442      2.68010229     -1.67674088     -0.000281    -0.000094    -0.000369
H      -4.55701507      2.81931270     -0.26724335     -0.000401    -0.000237     0.000063
H      -2.89578668      3.54402257     -0.26315987      0.000238    -0.000273     0.001214
H       2.43408854      1.80264365      2.44563753     -0.000425    -0.000421    -0.001026
H       3.98471102      1.72665629      3.19813229     -0.000188     0.000960    -0.000864
H       3.82685422      2.58002255      1.65907697     -0.000438     0.000604    -0.000343
H      -5.86062896     -1.16560924     -1.24710399     -0.000517     0.000519     0.000372
H      -4.87405736      0.25927775      1.07350260     -0.000027    -0.000522    -0.000527
H       7.55836989      0.12809820      0.18707657      0.001294     0.000986    -0.000252
H      -5.23914804     -2.64600190      1.35179447      0.000167    -0.000332     0.000395
H      -6.08298603     -3.33070644      0.00482767      0.000231     0.000669     0.002374
H      -4.37351347     -2.89500958     -0.20011416      0.001597    -0.000132    -0.000386
H       6.35127622     -1.74004217     -1.84135853      0.000184     0.000277    -0.000482
H       7.62469351     -0.54745501     -2.15098849     -0.000802    -0.000367     0.001421
H       5.96652487     -0.02816454     -1.83124034      0.001003     0.000203    -0.001061
H       8.64460950     -1.74796579      0.86596304     -0.000799    -0.000348    -0.001085
H       7.38081108     -2.70936570      0.51051599     -0.001222     0.001221    -0.000015
H      -8.14312913      0.31859115      1.36790124      0.000211    -0.000527    -0.000463
53
Frame 18  Energy = -1313.0311292917 Hartree
O      -0.85967119      0.18392589      1.31326557     -0.000141    -0.000148     0.000188
O       3.38703950      0.74264149     -0.92029582      0.000229     0.000073    -0.000149
O      -3.71173738     -0.30368449     -1.70129608     -0.000324     0.000170     0.000177
O       5.18779937     -1.80667033      1.10713415      0.000041    -0.000236    -0.000081
O      -7.23898003      0.22511059      1.22576660      0.000283    -0.000079     0.000201
O      -8.10584283     -1.55640826      0.13343294      0.000097     0.000011     0.000144
N       1.66426556      0.06291038      0.41914395     -0.000006     0.000073    -0.000080
N      -1.57803859      1.08337774     -0.61199745      0.000108     0.000005    -0.000048
N       5.21363349      0.44259605      0.95593011     -0.000139    -0.000017    -0.000085
N      -4.82476686     -0.13696562      0.27717159     -0.000308     0.000039    -0.000338
N       7.79504628     -2.00950051      0.16162554      0.000151     0.000084    -0.000231
C       0.63179827      0.16088070     -0.57587887     -0.000147     0.000123    -0.000089
C      -2.93284521      1.35460289     -0.17309150     -0.000105     0.000191    -0.000307
C       3.84812822      0.49241169      1.41286946      0.000078     0.000253     0.000183
C      -0.64618186      0.49440911      0.14659458     -0.000066    -0.000368    -0.000239
C       2.93975915      0.43290914      0.17030281      0.000082     0.000035    -0.000014
C       0.50222353     -1.11885727     -1.37977100     -0.000130    -0.000017     0.000359
C      -3.84449909      0.22037885     -0.59677878      0.000323    -0.000237     0.000171
C      -3.43928130      2.71720493     -0.68219660     -0.000050     0.000147    -0.000257
C       3.60431176      1.77767026      2.17114005     -0.000169     0.000177    -0.000350
C      -5.77984950     -1.12767780     -0.11142707     -0.000085    -0.000099     0.000249
C       6.99467273     -0.81421919     -0.16112958     -0.000033    -0.000012     0.000191
C       5.72673278     -0.80627097      0.65663032      0.000092    -0.000242    -0.000330
C      -5.39475040     -2.52136809      0.31480455     -0.000426     0.000079     0.000092
C       6.61223896     -0.81757648     -1.64133000      0.000249    -0.000146     0.000062
C      -7.18573155     -0.86553093      0.43534071      0.000243    -0.000230     0.000289
H       0.92490140      0.97957173     -1.23337332     -0.000638    -0.001467    -0.001958
H      -2.89505453      1.41291456      0.91503307      0.000191    -0.000537     0.000367
H       3.67336626     -0.39093399      2.03938747      0.000190     0.000930    -0.000295
H       1.42234369     -0.29259158      1.33209615      0.000870    -0.000721    -0.000904
H      -1.36738768      1.15361032     -1.59770993     -0.000049     0.000008    -0.000318
H      -0.21708342     -1.01493861     -2.20021121     -0.000242     0.000150     0.000025
H       1.43334656     -1.42185965     -1.84186019     -0.000901     0.000511    -0.001135
H       0.17864868     -1.95232002     -0.78311733     -0.001083    -0.001431    -0.000672
H       5.44169488      1.12319565      0.27030604      0.001286    -0.000328     0.000346
H      -3.56276948      2.73970572     -1.75205248     -0.001256    -0.000304     0.000840
H      -4.39791048      2.99129114     -0.20252406     -0.001373    -0.000707    -0.000435
H      -2.77928470      3.56313500     -0.43791985     -0.001597     0.000301     0.001999
H       2.59363006      1.79749397      2.59319730      0.001218     0.000418     0.001017
H       4.32819374      1.89492588      2.97878342     -0.000668    -0.000865    -0.001188
H       3.74693468      2.62296485      1.48845511      0.001578     0.001213     0.001692
H      -5.94002019     -1.05245200     -1.17387951      0.000951    -0.000518    -0.000794
H      -4.82644387      0.21454460      1.21046015     -0.000081    -0.000018    -0.000221
H       7.59524646      0.06152767      0.02870969     -0.000340     0.000993     0.000583
H      -5.33302818     -2.62634976      1.42654779      0.000155     0.000790    -0.000645
H      -6.12985291     -3.23092528     -0.09585212     -0.000205     0.000130     0.000807
H      -4.42978830     -2.80297946     -0.11831049     -0.000952     0.000197    -0.000437
H       6.01998124     -1.70970835     -1.91227252     -0.000572    -0.000108    -0.000034
H       7.52717685     -0.78102583     -2.25532420      0.000271     0.000936    -0.000162
H       5.99247572      0.05018808     -1.82238744     -0.000799    -0.000323    -0.000682
H       8.20726208     -1.91167531      1.08118853      0.000666    -0.000955     0.000398
H       7.21825909     -2.82504405      0.17794155     -0.000363     0.000953    -0.000025
H      -8.16391125      0.30725642      1.49118472     -0.000445    -0.001601     0.000519
53
Frame 19  Energy = -1313.0383085377 Hartree
O      -0.87491009      0.12864093      1.33155595      0.000160     0.000129    -0.000018
O       3.21813083      0.80220936     -0.98667621     -0.000264    -0.000042    -0.000153
O      -3.69203371     -0.22818770     -1.73377857     -0.000329     0.000124     0.000164
O       5.23013362     -1.82516218      1.11183833     -0.000257    -0.000150     0.000164
O      -7.28780835      0.12468731      1.23548386     -0.000202     0.000112    -0.000390
O      -8.16183211     -1.58418333      0.11099779      0.000173    -0.000167    -0.000054
N       1.63738506      0.04390697      0.42185248      0.000311    -0.000014     0.000061
N      -1.60776837      1.11629786     -0.55924899     -0.000068     0.000380     0.000348
N       5.22183277      0.41953455      1.00276740      0.000008     0.000082     0.000030
N      -4.87044764     -0.15929918      0.20673130     -0.000022    -0.000181     0.000319
N       7.78760735     -2.10959182      0.06683257      0.000019    -0.000172    -0.000378
C       0.60861835      0.16211191     -0.56141239     -0.000482    -0.000066    -0.000083
C      -2.95317851      1.33548138     -0.11991214     -0.000073     0.000061     0.000045
C       3.81038020      0.50555950      1.36360940     -0.000010    -0.000047     0.000379
C      -0.70409135      0.45007329      0.17340076     -0.000143    -0.000230     0.000241
C       2.87595878      0.46069499      0.12598992     -0.000346    -0.000075    -0.000073
C       0.44754337     -1.15007058     -1.35788159     -0.000234     0.000338     0.000179
C      -3.88888895      0.22958835     -0.62255509      0.000309    -0.000074    -0.000098
C      -3.43347813      2.68447774     -0.64210055     -0.000151     0.000324     0.000026
C       3.58056976      1.77305212      2.18972660      0.000040    -0.000231     0.000088
C      -5.80820622     -1.18999693     -0.14085309     -0.000119     0.000149     0.000333
C       7.02151790     -0.89384321     -0.13798634     -0.000175    -0.000062    -0.000072
C       5.75190799     -0.79629097      0.71601595      0.000154    -0.000250    -0.000154
C      -5.30259578     -2.53093080      0.41999851     -0.000073     0.000374     0.000039
C       6.53394176     -0.80285245     -1.57801309      0.000003     0.000090    -0.000095
C      -7.19282135     -0.92881696      0.37347001     -0.000218    -0.000207     0.000231
H       0.83603118      0.99709080     -1.21019065     -0.000690    -0.000524     0.000646
H      -2.89868136      1.34878786      0.95720731      0.000372    -0.000634    -0.000114
H       3.63963388     -0.37100390      1.97098065      0.000422    -0.000140    -0.000584
H       1.35403380     -0.24302033      1.37625910     -0.000083     0.000584    -0.001341
H      -1.37914504      1.27779806     -1.50584643      0.000028     0.000205    -0.001231
H      -0.30957253     -1.10557964     -2.16412810     -0.000407     0.001037    -0.000255
H       1.43269474     -1.37640076     -1.81052069     -0.000180     0.000412     0.000629
H       0.15599205     -1.97842137     -0.71270635      0.001516     0.000570     0.000754
H       5.50237517      1.16122676      0.36106228      0.000461    -0.000606    -0.000687
H      -3.37720147      2.70481305     -1.72247892      0.000667     0.000925    -0.000143
H      -4.45846942      2.92747573     -0.37192433     -0.000756    -0.000055    -0.000347
H      -2.81328606      3.48853044     -0.22863992     -0.000229     0.000416    -0.000308
H       2.55629609      1.87173852      2.59799412      0.000455    -0.000859     0.000847
H       4.29632657      1.67758360      3.02226396      0.000535     0.001166    -0.000241
H       3.82830565      2.66713556      1.62751634      0.000847    -0.000619    -0.000220
H      -5.86395412     -1.27671107     -1.21183176     -0.000612    -0.000944     0.000368
H      -4.99201240      0.32848929      1.08746865      0.000473     0.000386    -0.001531
H       7.64896531     -0.03790673      0.10564425     -0.000193    -0.000855     0.000086
H      -5.19573534     -2.49865320      1.53169185      0.000055     0.000168    -0.000595
H      -6.04959812     -3.30221770      0.17224929      0.001081    -0.000691     0.000056
H      -4.36477583     -2.83741340     -0.03931137      0.000307    -0.002255     0.000284
H       6.07541336     -1.78012705     -1.85762947     -0.000695     0.000495    -0.000456
H       7.42119414     -0.63805076     -2.20301612     -0.000974    -0.000179    -0.000802
H       5.79976999      0.00889435     -1.68691511     -0.000635    -0.000970    -0.001508
H       8.37910895     -2.06529221      0.87939687      0.000665     0.000627     0.000780
H       7.15348364     -2.87471163      0.19333607      0.000349    -0.000809    -0.000283
H      -8.21351011      0.22191038      1.45920728     -0.000179    -0.000731    -0.001606
53
Frame 20  Energy = -1313.0443145262 Hartree
O      -0.93847300      0.07769272      1.28297808      0.000026    -0.000185    -0.000065
O       3.27799118      0.90377672     -0.92354954      0.000023    -0.000006    -0.000112
O      -3.73059373     -0.28730628     -1.69800533      0.000363    -0.000000     0.000255
O       5.09794191     -1.88820338      1.07082392     -0.000126     0.000335    -0.000423
O      -7.16847450      0.24442612      1.34683910      0.000248     0.000282     0.000176
O      -8.19804215     -1.34456170      0.16992929      0.000248     0.000148    -0.000027
N       1.64907430      0.13228629      0.44992194      0.000343    -0.000118     0.000344
N      -1.60739776      1.14626790     -0.58392567     -0.000093     0.000124     0.000079
N       5.22582301      0.37643390      1.02708035      0.000212    -0.000082    -0.000184
N      -4.83819263     -0.09546009      0.26774203     -0.000058    -0.000138     0.000291
N       7.70302110     -2.12872512      0.19160777     -0.000022     0.000004    -0.000106
C       0.57997152      0.15352544     -0.55107709      0.000219     0.000005     0.000212
C      -2.95407757      1.33187355     -0.11180151      0.000144    -0.000147    -0.000417
C       3.82618465      0.59386818      1.40627706      0.000103     0.000137     0.000074
C      -0.70484318      0.45560193      0.15044121      0.000003    -0.000081     0.000005
C       2.91701466      0.52211919      0.18619306     -0.000022     0.000315    -0.000056
C       0.48989266     -1.17242701     -1.33792320     -0.000018     0.000113    -0.000069
C      -3.85802717      0.21724815     -0.60445336      0.000047    -0.000058     0.000175
C      -3.46561539      2.68259306     -0.60912069     -0.000051     0.000130    -0.000186
C       3.66507443      1.94081778      2.08373912     -0.000074    -0.000045    -0.000139
C      -5.78210133     -1.13580040     -0.03018863     -0.000202     0.000006     0.000246
C       6.93165037     -0.92778019     -0.10886391      0.000148    -0.000037     0.000055
C       5.65916058     -0.88086859      0.70535357      0.000250     0.000488     0.000212
C      -5.28643401     -2.51433172      0.45118721     -0.000007     0.000148     0.000132
C       6.61173086     -0.92433108     -1.62358403      0.000067     0.000015     0.000386
C      -7.18001387     -0.78946503      0.46082245     -0.000010    -0.000192    -0.000048
H       0.85957849      0.93157716     -1.24822827     -0.000438     0.000759    -0.000175
H      -2.92615512      1.39730434      0.95360445      0.000387    -0.000226    -0.001951
H       3.59564106     -0.18654868      2.14659694      0.000595    -0.000783     0.000799
H       1.36592070     -0.23995541      1.33686810      0.000285     0.000443    -0.000444
H      -1.42825459      1.29428613     -1.57772941      0.000475    -0.001262     0.000444
H      -0.28601053     -1.13427496     -2.11154289      0.000129    -0.000672    -0.000505
H       1.44478862     -1.39617259     -1.76667997     -0.000433    -0.000293    -0.000725
H       0.22004218     -2.00743462     -0.66890689     -0.001705    -0.001258    -0.000828
H       5.57880033      1.12949042      0.44628095     -0.000257     0.000140     0.000412
H      -3.43059455      2.69853670     -1.70681096     -0.000759     0.000043     0.000009
H      -4.49624292      2.84177961     -0.28567938     -0.000714     0.000411     0.000220
H      -2.83234568      3.48222854     -0.24008574      0.000140    -0.000340    -0.002783
H       2.58748310      2.16860394      2.21226907      0.000935    -0.000524     0.000565
H       4.13744099      1.92725615      3.05586643     -0.000496    -0.000077    -0.001403
H       4.06754713      2.73717970      1.48671543      0.000613    -0.000312    -0.000878
H      -5.84053267     -1.18266050     -1.10232239     -0.000238    -0.000215     0.000831
H      -4.87377714      0.33186117      1.18467489      0.000590    -0.000237    -0.000961
H       7.55289724     -0.09290299      0.11181756      0.000393     0.001216    -0.000340
H      -5.20823355     -2.48960520      1.53518707      0.000582    -0.000762     0.000325
H      -5.94050248     -3.30788249      0.13913570     -0.000867     0.000869    -0.000923
H      -4.31021029     -2.71187021      0.04037557      0.000839    -0.000938    -0.000404
H       6.15399131     -1.89533684     -1.86343622      0.000058    -0.000862    -0.000224
H       7.55945896     -0.92078174     -2.14353332      0.000952     0.000314    -0.001056
H       5.97681155     -0.07962691     -1.96910089     -0.001316     0.000824    -0.000117
H       7.99506205     -2.14340836      1.16741634      0.000440     0.000211    -0.000837
H       7.13086807     -2.95380883      0.04108281     -0.000059     0.000278     0.000352
H      -8.09460546      0.41121962      1.50360360      0.000380     0.000478    -0.000451
53
Frame 21  Energy = -1313.0503156001 Hartree
O      -0.86822997      0.03136595      1.29341249      0.000051     0.000183    -0.000052
O       3.39514071      0.94891972     -0.79853759     -0.000052    -0.000134    -0.000358
O      -3.68534190     -0.33264024     -1.63938281      0.000172    -0.000130     0.000099
O       5.07038056     -1.85588330      1.21163014     -0.000099     0.000320    -0.000161
O      -7.20167948      0.25732177      1.31505561      0.000007     0.000290    -0.000138
O      -8.23230604     -1.32016836      0.08305741      0.000143     0.000399    -0.000206
N       1.69531386      0.05228010      0.45624849      0.000317     0.000001    -0.000062
N      -1.57116280      1.09100757     -0.53965695      0.000190     0.000073     0.000169
N       5.22224717      0.41625350      1.14636135      0.000215    -0.000086     0.000097
N      -4.85786022     -0.07729485      0.27880421      0.000189    -0.000095    -0.000421
N       7.64772194     -2.15302986      0.15834908      0.000099     0.000017    -0.000406
C       0.65488279      0.13917870     -0.56459382      0.000184    -0.000349     0.000230
C      -2.92047496      1.31374519     -0.07168537     -0.000134     0.000205    -0.000133
C       3.82236679      0.57869390      1.55875824      0.000104     0.000166    -0.000166
C      -0.64579713      0.44473292      0.16390014     -0.000168    -0.000034     0.000084
C       2.95239014      0.49896694      0.26524890      0.000065     0.000055    -0.000053
C       0.56745656     -1.14598485     -1.40497251      0.000101     0.000320    -0.000120
C      -3.82639999      0.18188659     -0.54949058     -0.000198     0.000326     0.000143
C      -3.44789602      2.65991427     -0.59007306      0.000061    -0.000296    -0.000199
C       3.57197266      1.95504495      2.16480699      0.000034     0.000191    -0.000135
C      -5.84466198     -1.08479738     -0.09710715     -0.000239    -0.000326     0.000014
C       6.88354931     -0.94101234     -0.06178372      0.000233    -0.000378    -0.000527
C       5.62038965     -0.83790907      0.82128667      0.000062    -0.000055    -0.000074
C      -5.42504812     -2.44183073      0.39694855      0.000050     0.000034     0.000282
C       6.38931153     -0.92383944     -1.52653699     -0.000145    -0.000182     0.000015
C      -7.23390542     -0.75009158      0.39686385      0.000210     0.000096     0.000081
H       0.96101976      0.95611572     -1.19101526      0.000168     0.000023    -0.000806
H      -2.86938513      1.29395290      1.02158144     -0.000201    -0.001295     0.000549
H       3.56048410     -0.25706931      2.24292878      0.001333     0.000009    -0.000155
H       1.38530569     -0.36417605      1.29983294     -0.000329    -0.000533    -0.000367
H      -1.38722863      1.25625789     -1.51798678      0.000423     0.000258     0.000267
H      -0.25263515     -1.05566350     -2.14222088     -0.000189    -0.000599     0.000797
H       1.52350051     -1.20703800     -1.92724521     -0.000342    -0.000888     0.000842
H       0.33555290     -1.98166317     -0.76906111      0.000586     0.000153    -0.000261
H       5.56482165      1.15554057      0.53939038     -0.000207     0.000198     0.000728
H      -3.33205246      2.70112764     -1.66657987     -0.000580     0.000755    -0.000598
H      -4.49038413      2.77084908     -0.30785846      0.000466     0.000604    -0.000709
H      -2.89669568      3.46836476     -0.14308860     -0.000342    -0.000552     0.000598
H       2.46620596      2.04181507      2.38342795      0.000548     0.000377     0.000048
H       4.12294361      2.09794893      3.07034053     -0.000918    -0.000115     0.000118
H       3.83623574      2.72305144      1.43581191      0.000632    -0.000720     0.000519
H      -5.88965810     -1.13068303     -1.18839614     -0.000950    -0.000607    -0.000657
H      -4.88546060      0.34783464      1.20416308     -0.001608    -0.000382    -0.001744
H       7.52787924     -0.05989040      0.09849164      0.000994    -0.000417     0.000233
H      -5.38187606     -2.49802736      1.49722161      0.000168     0.000161    -0.001335
H      -6.12916475     -3.19084208      0.04276124      0.000965    -0.000110     0.000494
H      -4.41868455     -2.61931920      0.01181967     -0.000839    -0.000070     0.000853
H       5.92096019     -1.89502266     -1.72826462     -0.000517    -0.000306    -0.000106
H       7.26057885     -0.86369416     -2.19114092      0.000014     0.000124    -0.000883
H       5.68244959     -0.12240755     -1.73123240     -0.000652    -0.000773     0.000325
H       8.15547648     -2.12745764      1.05301930     -0.000554     0.000139     0.000183
H       6.96322457     -2.88685744      0.31300277     -0.000472     0.000334     0.000875
H      -8.10899392      0.36724889      1.67556742      0.000997    -0.000228    -0.000297
53
Frame 22  Energy = -1313.0395748727 Hartree
O      -0.88066616     -0.04637997      1.25882781      0.000237     0.000059    -0.000105
O       3.39748203      0.95358789     -0.78698474      0.000055     0.000142     0.000035
O      -3.65521790     -0.32754931     -1.71138109     -0.000011    -0.000189     0.000095
O       5.06201457     -1.85109284      1.18248164     -0.000127    -0.000068    -0.000241
O      -7.21706586      0.32444773      1.23228570      0.000281     0.000094     0.000215
O      -8.16569026     -1.39537811      0.10916352      0.000365     0.000024     0.000005
N       1.66722621      0.13446684      0.45249326     -0.000069    -0.000118    -0.000134
N      -1.54460426      1.10215409     -0.58144963      0.000075    -0.000085    -0.000397
N       5.21148236      0.39536598      1.10978046      0.000091    -0.000031     0.000156
N      -4.80471376     -0.10252370      0.25628513     -0.000214     0.000063    -0.000052
N       7.67374879     -2.15938250      0.25643392     -0.000075    -0.000313     0.000266
C       0.68153376      0.08404768     -0.56081568      0.000256     0.000318     0.000023
C      -2.90057704      1.33867834     -0.13222553     -0.000483     0.000223     0.000393
C       3.82736580      0.56974658      1.50278148     -0.000177    -0.000184    -0.000105
C      -0.66842522      0.36565489      0.13640568     -0.000027     0.000200    -0.000382
C       2.94836681      0.56038851      0.26705711     -0.000301     0.000056     0.000150
C       0.60514584     -1.31725832     -1.18780267     -0.000028    -0.000010     0.000163
C      -3.76924145      0.16466415     -0.57562226     -0.000048    -0.000066    -0.000098
C      -3.46644950      2.60641084     -0.76232848      0.000160    -0.000138     0.000168
C       3.72341804      1.90855353      2.30131520     -0.000281     0.000164     0.000318
C      -5.79306608     -1.10451969     -0.07434152     -0.000094    -0.000103     0.000123
C       6.92746720     -0.92683705     -0.02774770      0.000250    -0.000257    -0.000145
C       5.63613916     -0.86090663      0.82611734     -0.000043    -0.000159     0.000170
C      -5.42378722     -2.50655336      0.41693400      0.000391     0.000168    -0.000239
C       6.52672901     -0.78014625     -1.51089662     -0.000002    -0.000205    -0.000359
C      -7.18591600     -0.77068995      0.42918529      0.000030    -0.000163     0.000009
H       0.91733487      0.83713605     -1.30640491      0.000132    -0.003098    -0.000251
H      -2.86393960      1.44224039      0.93984333     -0.000308    -0.000488     0.001113
H       3.58980647     -0.27115762      2.16220663     -0.000731    -0.000020     0.000171
H       1.40303221     -0.26117893      1.35128475     -0.001061     0.000215    -0.000587
H      -1.35041671      1.29329908     -1.54878716     -0.000454     0.000147    -0.000152
H      -0.13641716     -1.37829559     -1.96953383     -0.000387     0.000026     0.000343
H       1.59537205     -1.56267902     -1.62496024      0.000517     0.000782     0.000275
H       0.33668194     -2.03729113     -0.42929436     -0.001238     0.000313     0.000581
H       5.65287412      1.13860409      0.60113068     -0.000089    -0.000497     0.000637
H      -3.46704325      2.53588708     -1.81179662      0.000976     0.000339     0.000083
H      -4.44491747      2.76982228     -0.37931325     -0.000602    -0.000596    -0.000318
H      -2.88223961      3.47405061     -0.45506647     -0.000833    -0.000885     0.000822
H       2.70803267      2.07126728      2.64581336     -0.001606    -0.000326     0.001885
H       4.36875864      1.84869730      3.14678755      0.000574    -0.000445    -0.000045
H       3.98231135      2.75303367      1.64274551     -0.000062     0.000501     0.000340
H      -5.88866035     -1.14242116     -1.16880179      0.000335     0.000042    -0.001942
H      -4.82091063      0.32099287      1.18706957      0.000491    -0.000586    -0.000155
H       7.53446500     -0.05875420      0.27234548     -0.000358    -0.000254    -0.000822
H      -5.34105895     -2.58843541      1.50186769     -0.000173     0.000119    -0.000898
H      -6.18771431     -3.20927083      0.06670978     -0.000208     0.000339    -0.000504
H      -4.46359945     -2.83041567     -0.00050124      0.000953     0.000479    -0.000332
H       5.93217316     -1.66845735     -1.81772517      0.000376     0.000901     0.000032
H       7.39978131     -0.73175345     -2.14577060     -0.000817     0.000519    -0.000256
H       5.87126458      0.07012721     -1.66499580     -0.001572    -0.000712     0.000704
H       7.91109344     -2.15032508      1.26352540      0.000601     0.001125    -0.000003
H       7.07009027     -2.93861347      0.11268311      0.001028     0.000462    -0.000535
H      -8.11722658      0.44224772      1.58278614     -0.000529     0.000478     0.000074
53
Frame 23  Energy = -1313.0388813228 Hartree
O      -0.85413299     -0.01288665      1.25314078     -0.000020     0.000267     0.000004
O       3.33503787      1.03176643     -0.78389796      0.000237     0.000188     0.000007
O      -3.65696509     -0.36324696     -1.67207392     -0.000224    -0.000096    -0.000143
O       5.12661944     -1.94224165      1.16415070      0.000215    -0.000244     0.000141
O      -7.21267643      0.23584110      1.24197838      0.000038     0.000343     0.000292
O      -8.15145029     -1.44108997      0.11957028     -0.000153     0.000241    -0.000097
N       1.68234016      0.13418471      0.47393978     -0.000086    -0.000030    -0.000044
N      -1.50626040      1.05816375     -0.62686963      0.000029     0.000506     0.000081
N       5.22478706      0.33148865      1.01091259     -0.000411     0.000086    -0.000072
N      -4.77215160     -0.13687242      0.29061242      0.000080     0.000056     0.000059
N       7.82117643     -2.14501995      0.25811884      0.000272     0.000012     0.000217
C       0.69383890      0.07032081     -0.56961323     -0.000176     0.000293    -0.000154
C      -2.84567676      1.32858096     -0.18549171      0.000073    -0.000123    -0.000051
C       3.89230181      0.55053392      1.48615712     -0.000090     0.000032    -0.000236
C      -0.62996728      0.34347790      0.11052558     -0.000268    -0.000080     0.000173
C       2.94848688      0.56716403      0.28228751      0.000180     0.000113    -0.000337
C       0.71545321     -1.31653641     -1.25032687      0.000024    -0.000166     0.000152
C      -3.78498842      0.16577626     -0.58074515     -0.000166     0.000213    -0.000106
C      -3.42797070      2.59637409     -0.79035432      0.000137    -0.000026    -0.000076
C       3.77743372      1.84729201      2.29209539      0.000109    -0.000025     0.000312
C      -5.78542191     -1.15095075     -0.04756319      0.000087     0.000181    -0.000323
C       7.02223487     -0.94982561      0.05518565     -0.000141    -0.000104     0.000298
C       5.72140536     -0.93678001      0.82852183      0.000288    -0.000140     0.000049
C      -5.37874259     -2.52435605      0.53555489     -0.000233     0.000101     0.000188
C       6.63531950     -0.88044131     -1.41274703     -0.000240     0.000317    -0.000025
C      -7.18407814     -0.78716136      0.38075244     -0.000312    -0.000135     0.000210
H       0.90417374      0.85615343     -1.31747014      0.002040     0.000688     0.000323
H      -2.87776951      1.40713773      0.89896139     -0.000557    -0.000080    -0.000130
H       3.62306518     -0.30513671      2.11324148     -0.000496    -0.000991    -0.000168
H       1.37101892     -0.25086313      1.34693002     -0.000026    -0.000592     0.000551
H      -1.26934868      1.24051623     -1.57745615     -0.000654    -0.000608     0.000944
H      -0.11894105     -1.45825910     -1.93050287     -0.001471     0.000148    -0.000294
H       1.67029098     -1.44496442     -1.75446038      0.000570    -0.000647     0.000463
H       0.66407575     -2.08138545     -0.47694789      0.000241    -0.000117    -0.000266
H       5.66127126      1.07736527      0.45899017      0.000198    -0.000655    -0.000243
H      -3.52221047      2.57343372     -1.86993979     -0.000131    -0.001261     0.001513
H      -4.42058901      2.77995475     -0.37217526      0.000726    -0.000910     0.001368
H      -2.83649415      3.46993280     -0.55825344      0.000467    -0.000392    -0.000862
H       2.74428085      2.00771033      2.59205339     -0.001186     0.000607     0.000424
H       4.40276679      1.76514759      3.18822430      0.000669    -0.000090    -0.000078
H       4.09160114      2.71753472      1.69630431     -0.000597     0.000286    -0.000510
H      -5.78703650     -1.28307951     -1.13061463     -0.000288     0.000024    -0.000099
H      -4.79616743      0.25680060      1.22202414     -0.000695     0.001245    -0.000135
H       7.64512035     -0.08093814      0.26380892     -0.000895     0.001394    -0.000529
H      -5.28739502     -2.48382630      1.61978996      0.000137    -0.000957     0.000215
H      -6.10176113     -3.29552904      0.22614708      0.000454     0.000177    -0.000566
H      -4.39025020     -2.84461925      0.14664749      0.002031     0.000782    -0.000082
H       6.04352011     -1.78216804     -1.67022442     -0.000645     0.001912    -0.000681
H       7.57579615     -0.85120120     -1.97462852      0.001006     0.001022     0.000762
H       6.01859592      0.02539410     -1.66056991      0.000219    -0.001697     0.001079
H       8.21983251     -2.14899295      1.17847520      0.000487     0.000098     0.000411
H       7.24091945     -2.97808791      0.13375113     -0.000149    -0.000867     0.000041
H      -8.12169569      0.26461775      1.54927205     -0.000547    -0.000382    -0.000932
53
Frame 24  Energy = -1313.0329638386 Hartree
O      -0.85461327      0.22519704      1.32796389     -0.000175     0.000170    -0.000248
O       3.35477235      0.97760262     -0.70975274      0.000214    -0.000104     0.000089
O      -3.64256434     -0.37243935     -1.69322735      0.000026    -0.000125     0.000229
O       5.06710534     -1.88517590      1.18323668     -0.000364     0.000073    -0.000029
O      -7.20904195      0.21807358      1.24412919      0.000093     0.000132     0.000161
O      -8.09156612     -1.39789044     -0.03753560     -0.000239     0.000041     0.000301
N       1.69756153      0.07654963      0.55875403      0.000087    -0.000005     0.000014
N      -1.52554697      1.11236047     -0.65561556     -0.000004    -0.000024    -0.000128
N       5.21925346      0.38301905      1.14022321     -0.000364    -0.000219     0.000252
N      -4.77142434     -0.15181368      0.25543122     -0.000107    -0.000261    -0.000132
N       7.71953528     -2.17337976      0.35717837      0.000035    -0.000078     0.000263
C       0.70006318      0.07637325     -0.47997478     -0.000249    -0.000113     0.000090
C      -2.89252031      1.39351591     -0.22378229      0.000181     0.000228    -0.000012
C       3.86736364      0.56782866      1.56389242      0.000065    -0.000581     0.000360
C      -0.64910350      0.46111261      0.14846691     -0.000316     0.000208    -0.000124
C       2.95402214      0.55612988      0.33661200      0.000160     0.000014    -0.000063
C       0.55651117     -1.29314782     -1.15737147     -0.000033     0.000022    -0.000176
C      -3.79007757      0.18299546     -0.60848012      0.000130    -0.000201     0.000197
C      -3.42194501      2.67739321     -0.85733894     -0.000072    -0.000270    -0.000031
C       3.76684270      1.92026283      2.29043320     -0.000290    -0.000274    -0.000275
C      -5.72101769     -1.16634615     -0.07129715      0.000116    -0.000296    -0.000500
C       6.93287044     -1.00499777      0.04870668     -0.000003    -0.000198    -0.000517
C       5.65235086     -0.88980009      0.84653161      0.000098    -0.000215    -0.000095
C      -5.36975330     -2.53365416      0.48923962     -0.000273    -0.000270     0.000297
C       6.56608567     -0.95495045     -1.45411922     -0.000113     0.000009    -0.000198
C      -7.11896170     -0.80191895      0.34978845     -0.000147     0.000489    -0.000100
H       0.99894476      0.81747460     -1.22506778      0.000252    -0.000279    -0.000006
H      -2.93348655      1.49582761      0.85014301      0.000918    -0.000445     0.000920
H       3.65101123     -0.22044642      2.24425689      0.001065     0.000063    -0.000660
H       1.44744067     -0.19991798      1.49129170     -0.000950     0.000003     0.000405
H      -1.36408615      1.04444479     -1.65740685      0.000017    -0.000110     0.000502
H      -0.21556959     -1.29868272     -1.95559448      0.000325     0.000465     0.000621
H       1.52145747     -1.63085630     -1.57679460      0.000348    -0.000663     0.000724
H       0.25232865     -2.05084592     -0.44033041      0.000842     0.001186    -0.001423
H       5.63960593      1.11620946      0.58052180     -0.000194     0.001151     0.000407
H      -3.38757848      2.59039367     -1.96028063     -0.000140     0.001038    -0.000642
H      -4.44918065      2.83238420     -0.53053810     -0.000194     0.000054     0.000145
H      -2.76150449      3.47109127     -0.54446647     -0.000818    -0.000405    -0.000707
H       2.75846529      2.06626093      2.66907807     -0.000454     0.001608     0.000568
H       4.47893273      1.94279244      3.12428688     -0.000003    -0.000167    -0.000449
H       3.97243633      2.72029518      1.59694410     -0.001067     0.000664    -0.000173
H      -5.75621046     -1.21460708     -1.14957198     -0.001300     0.000969    -0.000622
H      -4.78771830      0.30881717      1.16123674      0.000216     0.000150    -0.000017
H       7.53076992     -0.10855292      0.23111771     -0.000389    -0.000648     0.001171
H      -5.30802421     -2.47590455      1.58880645     -0.001296    -0.001152    -0.000495
H      -6.11706120     -3.31112976      0.17762619      0.000274    -0.000407    -0.001108
H      -4.40837064     -2.78690025      0.12635730     -0.000080    -0.000302     0.000275
H       6.03129818     -1.87140067     -1.74578088     -0.001158    -0.000463     0.001129
H       7.49707554     -0.85995406     -2.05456603     -0.001143     0.000084     0.000024
H       5.96161510     -0.07586032     -1.65434714      0.000107    -0.000166    -0.000987
H       8.01203646     -2.17528740      1.33982795     -0.002700    -0.000686     0.000453
H       7.12342441     -2.96867204      0.26861593     -0.000559     0.000022    -0.000929
H      -8.15109463      0.29342336      1.55388990     -0.000005    -0.001092    -0.000912
53
Frame 25  Energy = -1313.0320923072 Hartree
O      -0.80337737      0.13230633      1.30700076      0.000017     0.000178     0.000224
O       3.38394141      0.94742810     -0.65834038      0.000089     0.000107     0.000030
O      -3.65229889     -0.31110209     -1.76530620     -0.000239     0.000223    -0.000146
O       4.99567980     -1.91967377      1.21410065      0.000043    -0.000441    -0.000034
O      -7.14985707      0.35231560      1.15918868     -0.000003    -0.000248     0.000116
O      -8.10882438     -1.30593337     -0.02451639      0.000165    -0.000443    -0.000207
N       1.73469852      0.15800347      0.57835381     -0.000054     0.000334     0.000337
N      -1.46927470      1.05753938     -0.63532662     -0.000225    -0.000082     0.000038
N       5.25109548      0.32641755      1.22400844      0.000287     0.000127    -0.000188
N      -4.70458432     -0.18254954      0.23373436      0.000105     0.000251     0.000363
N       7.74268031     -2.21874803      0.38765715      0.000112     0.000362     0.000086
C       0.74731312      0.10928378     -0.49544197     -0.000124     0.000340     0.000027
C      -2.82765113      1.29644593     -0.20614433      0.000036    -0.000093    -0.000444
C       3.89706154      0.48983377      1.63054102      0.000246    -0.000007    -0.000158
C      -0.57696775      0.42463480      0.14057607      0.000164    -0.000342    -0.000259
C       2.99481692      0.50759063      0.40003817      0.000228     0.000034    -0.000366
C       0.66880826     -1.26584422     -1.16778545      0.000137    -0.000163    -0.000136
C      -3.73406332      0.17059695     -0.64835186      0.000122    -0.000221     0.000160
C      -3.35780328      2.60447836     -0.83613915     -0.000256    -0.000084     0.000041
C       3.72972771      1.81329753      2.36080354     -0.000117     0.000089     0.000072
C      -5.72446473     -1.12591574     -0.11849314      0.000356     0.000099    -0.000010
C       6.98864574     -1.00064851      0.13096117     -0.000437    -0.000006     0.000052
C       5.67631755     -0.92731386      0.92497673     -0.000230    -0.000010     0.000383
C      -5.36152585     -2.51941326      0.43270938      0.000001    -0.000186     0.000556
C       6.58150192     -0.93998800     -1.35744633     -0.000042    -0.000275    -0.000322
C      -7.11622855     -0.71630760      0.29479914     -0.000303     0.000078    -0.000027
H       1.06035732      0.85794260     -1.23917999     -0.000215    -0.001019     0.000627
H      -2.79618019      1.33904431      0.89209543     -0.000158    -0.000841    -0.000772
H       3.61540497     -0.33602423      2.28768898      0.000461    -0.000603    -0.000107
H       1.37797592     -0.15750230      1.45641952     -0.000066    -0.000249     0.001421
H      -1.33073484      1.00964621     -1.62928559     -0.000633     0.000246    -0.001843
H      -0.18559721     -1.29910228     -1.85239448      0.000089     0.000780    -0.001327
H       1.60729763     -1.48221747     -1.68035514      0.000344    -0.000182     0.000382
H       0.50099384     -2.04597109     -0.39367315      0.000238     0.000185    -0.000072
H       5.63438950      1.08342364      0.70771921     -0.000649    -0.000889     0.000735
H      -3.55644015      2.44919267     -1.89881313      0.000579     0.000728     0.001346
H      -4.27665382      2.88651584     -0.33726883     -0.000014    -0.000045     0.000455
H      -2.61370082      3.44901791     -0.70543586      0.000365    -0.001686    -0.000134
H       2.69582953      1.90605528      2.72539414     -0.000927    -0.000407     0.000843
H       4.36296322      1.83865835      3.23761667     -0.000322     0.000482    -0.000757
H       3.95554787      2.67757389      1.75069376     -0.000835    -0.000459    -0.000026
H      -5.74170345     -1.16801291     -1.19500436      0.001076    -0.000037     0.000283
H      -4.62301652      0.14450451      1.18848516      0.001885     0.000182    -0.001348
H       7.62219664     -0.12825538      0.38257793     -0.000465    -0.000105     0.000574
H      -5.29203447     -2.46415370      1.50891765      0.000831     0.000574     0.000262
H      -6.12461692     -3.25326811      0.12408108      0.000144     0.000738    -0.000465
H      -4.38131132     -2.74605148     -0.00498400      0.000265    -0.000826     0.001129
H       5.94604676     -1.79404431     -1.64707009      0.000505     0.000221     0.000515
H       7.50063557     -1.04625753     -1.91113686     -0.000245     0.000674     0.001008
H       5.98763358     -0.04043305     -1.57245499      0.000363     0.000768     0.001144
H       8.09202481     -2.23577038      1.34158321      0.000288    -0.000329    -0.000074
H       7.10757046     -3.01084191      0.32095244      0.000916    -0.000456     0.001038
H      -8.09210714      0.45901478      1.39971622      0.000713     0.000226     0.001299
53
Frame 26  Energy = -1313.0397108632 Hartree
O      -0.83980450      0.18692315      1.30234778     -0.000249    -0.000107    -0.000122
O       3.40975506      0.90778007     -0.66913118     -0.000019    -0.000243    -0.000136
O      -3.58110751     -0.39120764     -1.76072520     -0.000223    -0.000159     0.000023
O       5.07527996     -1.89344222      1.31306501      0.000157    -0.000090     0.000279
O      -7.14295167      0.17066375      1.28686625      0.000211     0.000030    -0.000052
O      -8.12632288     -1.27587880     -0.08333184      0.000168    -0.000014    -0.000061
N       1.72856557      0.08018764      0.61425104      0.000197    -0.000089     0.000025
N      -1.46126694      1.07450738     -0.69693815     -0.000236     0.000435    -0.000232
N       5.23785068      0.33922357      1.27318333      0.000023     0.000165    -0.000415
N      -4.70516752     -0.16652583      0.18586053      0.000302    -0.000179    -0.000047
N       7.71588050     -2.25011480      0.40611435      0.000032     0.000089     0.000377
C       0.77028314      0.10499584     -0.46178356     -0.000035    -0.000162    -0.000229
C      -2.84360075      1.33378376     -0.30539101     -0.000009    -0.000024     0.000194
C       3.86358144      0.53514166      1.64484702     -0.000181     0.000220     0.000269
C      -0.57194423      0.45946339      0.12442640     -0.000185     0.000111     0.000040
C       2.96287776      0.51134528      0.40038681      0.000381     0.000119    -0.000203
C       0.62180749     -1.23995896     -1.20844510     -0.000196    -0.000009     0.000436
C      -3.75594932      0.16918615     -0.69807768      0.000107     0.000005    -0.000145
C      -3.35636631      2.61799123     -1.00045726     -0.000325    -0.000327     0.000267
C       3.71756492      1.82162330      2.37566841     -0.000174    -0.000015    -0.000294
C      -5.72900539     -1.14419676     -0.15383029      0.000151    -0.000081     0.000209
C       6.97823619     -0.99906515      0.16415539     -0.000057    -0.000028    -0.000118
C       5.67399737     -0.90349244      0.96139034     -0.000054    -0.000195    -0.000028
C      -5.40979295     -2.57792235      0.37110901      0.000344    -0.000071     0.000170
C       6.64445630     -0.86593115     -1.32358805      0.000170    -0.000308    -0.000106
C      -7.11453199     -0.75810658      0.31145531     -0.000002     0.000389     0.000266
H       1.12855281      0.85806910     -1.17647767      0.000175     0.000478    -0.000690
H      -2.86221594      1.53066113      0.75311091      0.000715     0.000139    -0.000568
H       3.55919458     -0.32837178      2.26650955      0.000117     0.001689    -0.001041
H       1.37427505     -0.19838456      1.53459497      0.000678     0.000596    -0.000998
H      -1.24081589      1.21008892     -1.66918197      0.000182    -0.000940     0.000799
H      -0.08896311     -1.15410777     -2.04154395     -0.000106     0.000294     0.000171
H       1.58386216     -1.46743458     -1.64767187     -0.000571    -0.000636     0.001777
H       0.33611695     -2.11707902     -0.58429577      0.000886     0.000467     0.000518
H       5.64832409      1.08856996      0.76377987      0.000565     0.000223    -0.000581
H      -3.37497581      2.50849253     -2.09235818     -0.000001     0.000741     0.000568
H      -4.39084877      2.82477986     -0.71495128     -0.000378     0.000619     0.000747
H      -2.68689258      3.42371779     -0.79082278     -0.000734     0.000452    -0.000056
H       2.71011246      1.97480100      2.72508191     -0.000494    -0.000361     0.000206
H       4.39872325      1.76849400      3.21243779     -0.000234    -0.001127     0.000010
H       3.94951705      2.62058409      1.68828827      0.000823    -0.000173     0.000664
H      -5.80039812     -1.17296333     -1.21433404     -0.000877    -0.000224    -0.000335
H      -4.69153089      0.22224308      1.10714205     -0.000019    -0.000048    -0.001025
H       7.63388929     -0.17517649      0.41628245      0.000061     0.000313     0.001086
H      -5.31315988     -2.56064788      1.43112481      0.001847     0.001041    -0.000814
H      -6.22483748     -3.25543396      0.06249149     -0.000712     0.002128    -0.000314
H      -4.46343213     -2.86564532     -0.09988626     -0.000571     0.000122    -0.000556
H       5.84050658     -1.51523460     -1.61354333      0.000779    -0.000554     0.001103
H       7.54049465     -1.03521331     -1.91038814     -0.001368    -0.000891     0.000103
H       6.31444543      0.13512661     -1.55861183      0.000342    -0.000202     0.000187
H       7.97501944     -2.26665757      1.37126342      0.000090     0.000718    -0.000480
H       7.06787639     -3.01754113      0.31829729      0.000206    -0.000072    -0.001371
H      -8.08289872      0.31680480      1.48075098      0.000477    -0.000083     0.000105
53
Frame 27  Energy = -1313.0536117897 Hartree
O      -0.80465788      0.21512011      1.28302604     -0.000182    -0.000119     0.000017
O       3.39555380      0.67899679     -0.75547656     -0.000004    -0.000067    -0.000237
O      -3.59482626     -0.37777612     -1.84301924      0.000072    -0.000007     0.000115
O       5.12783191     -1.91519741      1.28596624      0.000115     0.000369     0.000175
O      -7.02852713      0.13479297      1.33060546     -0.000258     0.000201     0.000027
O      -8.10144079     -1.19411359     -0.14512718      0.000091     0.000056    -0.000126
N       1.67604109     -0.04581043      0.50372420     -0.000056     0.000126     0.000181
N      -1.48393485      0.99168943     -0.73163019     -0.000063    -0.000226     0.000035
N       5.24763390      0.33949998      1.26267273      0.000040     0.000183     0.000050
N      -4.70482033     -0.24659220      0.13977360     -0.000101     0.000083    -0.000174
N       7.77594972     -2.23707901      0.40373204     -0.000369    -0.000330     0.000148
C       0.72830560      0.01918457     -0.55483197      0.000054    -0.000102     0.000032
C      -2.85187997      1.27284942     -0.29939855      0.000180    -0.000037     0.000699
C       3.81722124      0.46209973      1.60250338      0.000068    -0.000151     0.000013
C      -0.59140311      0.43906451      0.09482255      0.000012     0.000104     0.000137
C       2.96460211      0.38073795      0.34821540      0.000376    -0.000010    -0.000018
C       0.59723848     -1.31809162     -1.29794174      0.000260    -0.000184    -0.000111
C      -3.75160265      0.13727699     -0.73588653      0.000117     0.000343     0.000191
C      -3.36626936      2.55963092     -0.91538172      0.000119    -0.000290     0.000054
C       3.53487366      1.79304185      2.35663720     -0.000136    -0.000019    -0.000438
C      -5.73094341     -1.18510956     -0.23229757     -0.000118     0.000085     0.000147
C       7.04182076     -0.98031218      0.17495860     -0.000090    -0.000082     0.000045
C       5.74039621     -0.90253391      0.99484352     -0.000053    -0.000123     0.000153
C      -5.37981620     -2.63514284      0.28503311     -0.000114     0.000280     0.000031
C       6.65442603     -0.90686095     -1.31753664      0.000079     0.000063     0.000110
C      -7.07483839     -0.75072725      0.28919717     -0.000099    -0.000290     0.000063
H       1.07586029      0.81350173     -1.21348346      0.000451     0.001165    -0.000459
H      -2.86769840      1.37859229      0.79526835     -0.000424    -0.000447     0.000300
H       3.60973332     -0.41051443      2.26956434     -0.000735    -0.000201    -0.001357
H       1.27387910     -0.20639299      1.41252509      0.000037     0.000578     0.001010
H      -1.31929578      0.90178877     -1.71850625      0.000332     0.000635     0.001109
H      -0.16819325     -1.30767923     -2.08866078      0.000452     0.000418    -0.000045
H       1.57362302     -1.58332054     -1.68843169      0.000434     0.000422     0.000761
H       0.30052398     -2.14319699     -0.63358952      0.000172     0.000146    -0.000863
H       5.58777123      1.13336480      0.69107439     -0.000000     0.000978     0.000601
H      -3.49717246      2.49308553     -1.97708759     -0.000070    -0.000800     0.001117
H      -4.30265476      2.83338157     -0.46764787     -0.000226     0.000750     0.000280
H      -2.61155043      3.29878554     -0.70045570      0.000743     0.001035     0.000864
H       2.48140542      1.86202850      2.55649939     -0.000546    -0.000291    -0.000297
H       4.08797135      1.84185743      3.31320624     -0.000411    -0.000182    -0.000094
H       3.85868396      2.62448768      1.71560011     -0.000678     0.000883     0.001096
H      -5.78871946     -1.22337471     -1.32983482     -0.000254     0.001550     0.000647
H      -4.82537501      0.24408583      0.99342824      0.000334    -0.000124     0.000638
H       7.65180573     -0.11300453      0.44387425     -0.000481     0.000041    -0.000731
H      -5.36798739     -2.68629042      1.38028814      0.000123     0.001619     0.001029
H      -6.13205171     -3.35957755     -0.04175980     -0.000005     0.000803     0.000142
H      -4.41258149     -2.95508536     -0.08462962      0.000512     0.000626    -0.000024
H       6.01098782     -1.77255326     -1.55345862     -0.000355     0.000476     0.000758
H       7.56048997     -0.97160167     -1.90928445     -0.000675     0.000307     0.000638
H       6.11176666     -0.02011285     -1.54687668     -0.000971    -0.000140     0.001511
H       8.05394000     -2.38431114      1.36380588      0.000280     0.000044     0.000250
H       7.10056969     -2.98579547      0.25752811     -0.000735    -0.000433    -0.000730
H      -7.95828121      0.27136832      1.56705293      0.000391     0.000098    -0.000139
53
Frame 28  Energy = -1313.0381234879 Hartree
O      -0.76571432      0.22492195      1.26134865      0.000163    -0.000152     0.000240
O       3.48375068      0.80894273     -0.72800888     -0.000190    -0.000072    -0.000116
O      -3.61812919     -0.46359873     -1.78555062     -0.000231     0.000127    -0.000169
O       5.13448604     -1.84821386      1.29756567      0.000119     0.000099     0.000249
O      -7.14925550      0.11058474      1.25230084      0.000019    -0.000081     0.000197
O      -8.11277099     -1.35181282     -0.13005852     -0.000089    -0.000140    -0.000259
N       1.78473311     -0.04603122      0.48687522     -0.000365     0.000511    -0.000045
N      -1.43154151      0.93857305     -0.76824411      0.000212    -0.000010     0.000247
N       5.27609299      0.41135975      1.25536309     -0.000183     0.000195     0.000253
N      -4.74478954     -0.18204457      0.12372099     -0.000433    -0.000036     0.000076
N       7.71387929     -2.17299870      0.39714297      0.000156    -0.000160    -0.000124
C       0.78243501     -0.02711022     -0.54958756     -0.000253    -0.000078     0.000484
C      -2.80592684      1.22523505     -0.30396451     -0.000159    -0.000251    -0.000059
C       3.87537370      0.50582338      1.60832305      0.000154    -0.000109    -0.000317
C      -0.54360894      0.37681131      0.07870072     -0.000307     0.000196    -0.000318
C       3.01535052      0.42086913      0.32066817      0.000023     0.000380     0.000260
C       0.63229825     -1.38693620     -1.20744771     -0.000129    -0.000261     0.000365
C      -3.73662498      0.10065803     -0.73227128      0.000577    -0.000250    -0.000328
C      -3.33023912      2.56817224     -0.84260043     -0.000056    -0.000164    -0.000110
C       3.61748988      1.81741889      2.31328561      0.000104    -0.000103     0.000002
C      -5.73473119     -1.17095901     -0.22060419     -0.000128    -0.000146     0.000292
C       7.01487176     -0.93022506      0.16284304      0.000336    -0.000072    -0.000217
C       5.73566602     -0.84173049      0.95604077     -0.000186     0.000160     0.000425
C      -5.34962628     -2.57535048      0.26845545      0.000139     0.000156     0.000013
C       6.67036281     -0.76092206     -1.33993177     -0.000229     0.000302    -0.000230
C      -7.11558733     -0.83849091      0.29006369      0.000158    -0.000013     0.000177
H       1.07792261      0.68260730     -1.32198263     -0.001192     0.000681     0.001080
H      -2.78965193      1.25365413      0.78133731      0.000254     0.000466     0.000597
H       3.67640373     -0.31510931      2.28074315      0.000596    -0.000160    -0.000969
H       1.43614563     -0.27528587      1.39493798     -0.000354    -0.000603     0.000932
H      -1.35613196      0.73283061     -1.75987879     -0.000825     0.000027     0.000627
H      -0.19677318     -1.38025121     -1.89246042      0.000612     0.000485    -0.000600
H       1.58318358     -1.67829573     -1.70352822      0.000188    -0.000198     0.000383
H       0.35780631     -2.13069997     -0.45609476      0.000683    -0.000005    -0.000109
H       5.58626144      1.13138163      0.62626080      0.000060     0.000174     0.000422
H      -3.36945477      2.57225625     -1.92999437      0.000385    -0.001177    -0.000249
H      -4.32186420      2.81996510     -0.42651607      0.001664    -0.000470     0.000544
H      -2.63815017      3.39365005     -0.55809071     -0.000394    -0.001000     0.000297
H       2.60889955      1.83601362      2.74985231     -0.000456     0.000566     0.000498
H       4.34335140      1.99074598      3.09386570     -0.000273    -0.000652    -0.000559
H       3.68057900      2.66884965      1.65565194     -0.000808    -0.001589     0.000206
H      -5.86900039     -1.17591519     -1.30443382      0.001804    -0.000157    -0.000144
H      -4.73868886      0.15739361      1.05753761     -0.000179    -0.000563     0.000663
H       7.69191420     -0.12770807      0.45133607     -0.000238     0.001133     0.000006
H      -5.21425413     -2.60058727      1.35182966      0.000438    -0.001204     0.000405
H      -6.13187684     -3.26655747      0.05800274     -0.000220    -0.000103     0.000765
H      -4.42115025     -2.86540193     -0.18134754      0.000417     0.000218     0.000307
H       6.01000531     -1.55705302     -1.66946611      0.000700     0.000451     0.000151
H       7.59544477     -0.80248464     -1.91536573     -0.000589    -0.000400     0.000189
H       6.15431848      0.16526600     -1.55278574     -0.001562    -0.000062    -0.000309
H       7.92392259     -2.23942995      1.38854717     -0.001117    -0.000667    -0.000162
H       7.06141092     -2.94108719      0.27612579      0.000154     0.000054    -0.000833
H      -8.09587196      0.12610011      1.49292868     -0.001265     0.000844    -0.000327
53
Frame 29  Energy = -1313.0477744688 Hartree
O      -0.74160296      0.29266253      1.35529959     -0.000189    -0.000005     0.000102
O       3.40911017      0.94169693     -0.70002025     -0.000043    -0.000195    -0.000107
O      -3.50279656     -0.49540681     -1.75494792     -0.000143    -0.000250     0.000015
O       5.09641825     -1.89206438      1.37107767     -0.000142    -0.000351    -0.000060
O      -7.20813385      0.05442757      1.24213602     -0.000231    -0.000083     0.000120
O      -8.22892204     -1.29208168     -0.19846940     -0.000089    -0.000117     0.000102
N       1.75815400      0.02702078      0.55449670      0.000198    -0.000088     0.000128
N      -1.49532815      0.92980437     -0.66469411     -0.000053    -0.000088    -0.000423
N       5.22759582      0.36728708      1.29252927     -0.000031    -0.000126     0.000059
N      -4.84407545     -0.11575414      0.04353062      0.000192     0.000046    -0.000147
N       7.71709398     -2.17007606      0.43343967     -0.000054     0.000192     0.000084
C       0.77520928      0.00211261     -0.47716680     -0.000057    -0.000287    -0.000138
C      -2.82101174      1.18068557     -0.18027176      0.000044     0.000146     0.000418
C       3.82860264      0.57332049      1.63549559     -0.000062    -0.000061     0.000151
C      -0.54267052      0.41547332      0.15510910      0.000078    -0.000055    -0.000471
C       3.00114885      0.52960405      0.37081952     -0.000120    -0.000114    -0.000074
C       0.62969504     -1.35861904     -1.11685125     -0.000006    -0.000260     0.000136
C      -3.73641714      0.08699039     -0.70732514     -0.000043     0.000152     0.000155
C      -3.32460125      2.55816188     -0.59273190     -0.000049     0.000024     0.000203
C       3.62260893      1.89945094      2.40727751     -0.000025     0.000427    -0.000421
C      -5.79797326     -1.14547437     -0.26935017      0.000248     0.000170     0.000071
C       6.98608329     -0.93882435      0.20413610      0.000125    -0.000221    -0.000007
C       5.68299980     -0.88443984      1.01264894     -0.000181     0.000129     0.000183
C      -5.38349553     -2.52184531      0.23505426      0.000087     0.000056    -0.000043
C       6.63973418     -0.78042031     -1.27029933     -0.000344    -0.000176     0.000384
C      -7.20485996     -0.80641353      0.22691830     -0.000040     0.000255    -0.000255
H       1.07569182      0.70417242     -1.24392161      0.000076    -0.000819    -0.000303
H      -2.74643900      1.04565258      0.88485000     -0.001271    -0.000156    -0.000608
H       3.54227450     -0.27423590      2.26536939     -0.000972    -0.000180     0.000399
H       1.44812636     -0.15107871      1.48777312     -0.000514    -0.000598     0.000376
H      -1.44189441      0.75548000     -1.66211174      0.000594    -0.000147    -0.000580
H      -0.17813873     -1.30246822     -1.87040626      0.000490     0.000770     0.000149
H       1.55206210     -1.60001555     -1.65532411      0.000169     0.000639     0.000462
H       0.32947100     -2.14364904     -0.44355034     -0.000300    -0.000144    -0.001452
H       5.64085559      1.09692533      0.72294338     -0.000531    -0.000238     0.000600
H      -3.19811706      2.69663916     -1.67185751     -0.000267    -0.000141    -0.001314
H      -4.34214008      2.70680641     -0.31944367     -0.001395     0.000078    -0.000021
H      -2.76414386      3.34971310     -0.09389514     -0.001578    -0.000597     0.000618
H       2.64292548      1.98235111      2.79913442     -0.000674     0.000682     0.000830
H       4.32584078      1.93985941      3.20137225      0.000230     0.000508     0.000495
H       3.77295630      2.70791983      1.71257644     -0.000068    -0.000152    -0.000056
H      -5.83764583     -1.20186376     -1.34554470      0.001261     0.000181    -0.000897
H      -4.86343471      0.31766330      0.94022035     -0.001138    -0.000546     0.000026
H       7.61686313     -0.10135375      0.49702622     -0.000822     0.000859     0.001172
H      -5.36077595     -2.53670795      1.32178127      0.000643     0.000199     0.000213
H      -6.02213804     -3.33101681     -0.13011650     -0.000825     0.000396    -0.000908
H      -4.40540882     -2.75264369     -0.14702021     -0.000466     0.000841     0.001426
H       5.88707265     -1.50183487     -1.57462795      0.000142    -0.000053    -0.000907
H       7.56728591     -0.91574552     -1.82858944     -0.001223    -0.000074     0.000827
H       6.20759030      0.21332417     -1.48346185     -0.000204     0.000571    -0.000960
H       7.80200072     -2.37445747      1.40823488     -0.000923     0.000245     0.000111
H       7.15645166     -2.93374365      0.07949194      0.000341     0.001924     0.000095
H      -8.12941067      0.16982020      1.50338603     -0.000268     0.001898     0.000424
53
Frame 30  Energy = -1313.0393348370 Hartree
O      -0.75845493      0.20930619      1.28883002     -0.000276    -0.000116    -0.000210
O       3.45254226      0.92797824     -0.60807111      0.000072     0.000107    -0.000065
O      -3.48977716     -0.53904922     -1.77675634     -0.000049    -0.000123    -0.000351
O       5.09526481     -1.93770140      1.39761326      0.000143    -0.000062     0.000233
O      -7.13991712      0.03073005      1.24185119      0.000210     0.000147     0.000249
O      -8.15541020     -1.24121733     -0.30142210      0.000184    -0.000218     0.000071
N       1.78169353     -0.01096254      0.57490664      0.000202    -0.000108     0.000035
N      -1.46664728      1.00160006     -0.70567031     -0.000219    -0.000317    -0.000300
N       5.24786690      0.30938134      1.27409098     -0.000081    -0.000084    -0.000223
N      -4.79306809     -0.14446264      0.05276129      0.000157     0.000107     0.000163
N       7.64061632     -2.27254999      0.36444284     -0.000201     0.000137    -0.000008
C       0.79111838      0.00992069     -0.48532690     -0.000036     0.000054    -0.000095
C      -2.81413058      1.21498613     -0.23578046      0.000237    -0.000008    -0.000084
C       3.87915003      0.47241840      1.70003280     -0.000037    -0.000142     0.000225
C      -0.54240627      0.41266109      0.10468385     -0.000029    -0.000141    -0.000093
C       3.01890986      0.46168203      0.43424088      0.000468    -0.000294    -0.000002
C       0.59319670     -1.39464387     -1.12161308     -0.000070    -0.000035     0.000138
C      -3.71628643      0.09379812     -0.74667420      0.000105    -0.000207     0.000064
C      -3.32894483      2.58688644     -0.61625933     -0.000433     0.000067     0.000394
C       3.68688610      1.81870298      2.39761992      0.000323     0.000146    -0.000138
C      -5.76070234     -1.18197602     -0.25563916     -0.000543     0.000010    -0.000327
C       6.96175193     -0.99465973      0.17200638      0.000298     0.000429     0.000113
C       5.68963459     -0.92521613      1.00032830     -0.000333    -0.000034     0.000037
C      -5.41460078     -2.53138757      0.36278175      0.000161    -0.000401    -0.000495
C       6.59759072     -0.76349725     -1.29275283      0.000140    -0.000395     0.000211
C      -7.14269241     -0.79697049      0.18323203     -0.000102     0.000113     0.000115
H       1.11199181      0.71243321     -1.23313677     -0.000431     0.000789     0.001236
H      -2.73911289      1.10805521      0.86811494     -0.000332    -0.000645     0.000619
H       3.58157483     -0.35347026      2.34174733     -0.000801     0.002033    -0.000084
H       1.46128497     -0.33156133      1.47850841      0.000783     0.000643    -0.000541
H      -1.39405076      0.79006972     -1.70295826     -0.000157     0.000594    -0.000698
H      -0.15143836     -1.34792144     -1.89792885      0.000070     0.000419     0.000457
H       1.54166634     -1.80171580     -1.50229554     -0.001345     0.000663    -0.000438
H       0.21866988     -2.07437560     -0.33730748     -0.000582     0.000397    -0.001152
H       5.63411686      1.04276371      0.68085103     -0.001083     0.001005     0.000532
H      -3.27859726      2.79489115     -1.68623431      0.000526     0.000129    -0.000718
H      -4.36627369      2.70588139     -0.25848050     -0.000007     0.000154    -0.000542
H      -2.70503935      3.33624955     -0.11295566      0.000540     0.000495    -0.000651
H       2.66466218      1.94754558      2.70353726     -0.000796    -0.000048    -0.000795
H       4.34429866      1.85289251      3.27522105      0.000284     0.000163    -0.001485
H       3.93758809      2.66156569      1.76401788     -0.000406    -0.000533     0.000113
H      -5.77751237     -1.28663828     -1.36309149      0.001043    -0.000580     0.000703
H      -4.92356270      0.38745277      0.89453160     -0.000340     0.000366     0.000860
H       7.65652358     -0.24038595      0.50691067     -0.000056     0.000466    -0.000207
H      -5.35695978     -2.41858898      1.44873737     -0.000734    -0.000843    -0.001323
H      -6.14754654     -3.27990449      0.08868866      0.001106     0.000918    -0.000120
H      -4.44545787     -2.81642241     -0.01511213      0.000600    -0.000262     0.000647
H       5.96700767     -1.61175781     -1.62015234      0.000403     0.000957    -0.001171
H       7.47794697     -0.78693093     -1.92042718      0.000971     0.000565    -0.000234
H       6.03093523      0.16980481     -1.43932793      0.001800    -0.000196    -0.000404
H       8.02803847     -2.28392663      1.28048968      0.000371     0.000871     0.000051
H       6.94274145     -3.03233425      0.32322700     -0.000528     0.000348    -0.000043
H      -8.06223966      0.20771437      1.48487255      0.000015    -0.000074     0.000601
53
Frame 31  Energy = -1313.0353786548 Hartree
O      -0.71493452      0.32463239      1.35212614     -0.000283     0.000154    -0.000023
O       3.38464623      0.96120244     -0.62955538     -0.000092     0.000135    -0.000118
O      -3.40560223     -0.65974635     -1.65204772     -0.000048    -0.000062     0.000211
O       5.05884865     -2.01160589      1.25577819      0.000001    -0.000020    -0.000121
O      -7.03444197      0.11653461      1.21720536      0.000070    -0.000086     0.000231
O      -8.14638090     -1.24966971     -0.14645498     -0.000053    -0.000132     0.000043
N       1.74242347     -0.09314368      0.57461575      0.000114    -0.000024     0.000040
N      -1.46156035      0.92052423     -0.69716462     -0.000057    -0.000203    -0.000294
N       5.22580920      0.26174042      1.37466286      0.000072     0.000196     0.000358
N      -4.76579471     -0.20813895      0.09570857      0.000171    -0.000079    -0.000155
N       7.76105964     -2.21706086      0.36995233      0.000074     0.000021    -0.000358
C       0.77148736     -0.05157631     -0.47522344     -0.000442     0.000132    -0.000258
C      -2.79353611      1.18105022     -0.20460001     -0.000380    -0.000019     0.000342
C       3.82693594      0.47169586      1.70457929     -0.000046    -0.000306     0.000088
C      -0.53549618      0.41728201      0.14787447     -0.000173     0.000134     0.000057
C       2.96361452      0.48656955      0.41539809     -0.000264    -0.000347    -0.000005
C       0.54700595     -1.43225205     -1.11983747     -0.000296     0.000252    -0.000147
C      -3.68634017      0.00441634     -0.67250789      0.000200    -0.000102     0.000088
C      -3.35809111      2.52022080     -0.61162088     -0.000126     0.000214     0.000160
C       3.61494416      1.80513258      2.42412968      0.000596    -0.000090     0.000044
C      -5.74924693     -1.23087393     -0.25427079      0.000366    -0.000002    -0.000239
C       6.99460606     -0.97908374      0.22209684     -0.000094     0.000166     0.000066
C       5.67219412     -0.99440523      1.00689114     -0.000170    -0.000255     0.000129
C      -5.41276640     -2.61748277      0.32588408      0.000167     0.000012    -0.000011
C       6.65807150     -0.72411408     -1.24447869      0.000031    -0.000062    -0.000344
C      -7.09851194     -0.79814607      0.21586544      0.000007    -0.000128     0.000216
H       1.19308569      0.67259006     -1.20020706     -0.000406    -0.000584     0.000895
H      -2.72511255      1.09528701      0.89250861      0.000753    -0.001103    -0.000301
H       3.49652309     -0.34556887      2.32179974     -0.001529     0.000332    -0.000362
H       1.43973539     -0.33648694      1.48737600      0.000978    -0.000313     0.000916
H      -1.39952470      0.66343407     -1.70690613     -0.001741    -0.000410     0.001149
H      -0.13667316     -1.34049396     -1.96250932      0.001369    -0.000478    -0.001135
H       1.49428124     -1.84805565     -1.51136531     -0.000670     0.000875     0.000128
H       0.14896306     -2.14186041     -0.37731031      0.001010     0.000568    -0.000079
H       5.68052164      1.04667635      0.95636418     -0.000076    -0.000740     0.000371
H      -3.48032315      2.53510415     -1.71159084     -0.000431    -0.000925     0.000204
H      -4.34397578      2.71035437     -0.17224856      0.000072     0.000540     0.000436
H      -2.68254181      3.32141929     -0.34676760     -0.001138    -0.000880    -0.000578
H       2.57042708      1.97721389      2.67102000      0.000204     0.000596    -0.001009
H       4.13540377      1.87039749      3.36095352     -0.001281     0.000996     0.000939
H       3.94977178      2.64142954      1.80615461      0.000544     0.000170     0.000493
H      -5.78191038     -1.26835343     -1.36552981      0.000211    -0.001282     0.000116
H      -4.90589724      0.35621075      0.91796305      0.000369    -0.001539     0.000451
H       7.62686146     -0.19207282      0.63230411      0.000210    -0.000174     0.000452
H      -5.43204950     -2.57993216      1.40432774     -0.001201     0.000413     0.000563
H      -6.12601009     -3.35750227      0.06056394      0.001587     0.000710    -0.001570
H      -4.41351184     -2.91326708      0.03984390     -0.000393     0.000930     0.000479
H       5.95281934     -1.47434556     -1.65401974      0.000309     0.000831    -0.000130
H       7.56752589     -0.71348538     -1.84699840     -0.000066     0.000408     0.000428
H       6.17564452      0.24927358     -1.38774679      0.000806    -0.001828     0.000511
H       8.00601338     -2.39735983      1.36503645     -0.000270     0.000797     0.000415
H       7.23157635     -3.00482238      0.01918059      0.000599    -0.000650    -0.001626
H      -7.94757563      0.24102496      1.44887180     -0.000355    -0.000543    -0.000577
53
Frame 32  Energy = -1313.0361130786 Hartree
O      -0.71013128      0.24837665      1.37891553      0.000056    -0.000112    -0.000434
O       3.34865100      0.99882358     -0.57734411      0.000018     0.000234     0.000198
O      -3.45308517     -0.69353437     -1.63602834     -0.000266     0.000084    -0.000053
O       5.07852105     -2.02686984      1.25004079     -0.000024     0.000179     0.000007
O      -7.17468901     -0.04801592      1.26830336     -0.000009    -0.000099     0.000384
O      -8.10276142     -1.37082204     -0.25159304      0.000149    -0.000073    -0.000099
N       1.75295106     -0.11413370      0.54805123      0.000061    -0.000110     0.000027
N      -1.45414291      0.93422821     -0.64450132      0.000315    -0.000022    -0.000218
N       5.24271258      0.22857364      1.29928127     -0.000109     0.000176    -0.000166
N      -4.81774731     -0.27526963      0.10750113     -0.000001     0.000096     0.000005
N       7.72945293     -2.27240653      0.30837595     -0.000307    -0.000385     0.000087
C       0.76221820     -0.02207529     -0.45821714     -0.000268    -0.000168     0.000318
C      -2.84318937      1.12838722     -0.19318892     -0.000290     0.000146     0.000265
C       3.85064516      0.40284508      1.68008923     -0.000098     0.000362    -0.000517
C      -0.52401299      0.43005830      0.20438579      0.000066    -0.000014    -0.000187
C       2.98105744      0.45019925      0.43198406      0.000047    -0.000180     0.000138
C       0.53517870     -1.33098982     -1.24759441      0.000065    -0.000252    -0.000506
C      -3.71500854     -0.04805979     -0.65082832      0.000044     0.000249    -0.000376
C      -3.44253667      2.45026369     -0.61731931     -0.000220    -0.000104    -0.000384
C       3.63391919      1.63080230      2.53826096      0.000172    -0.000148     0.000082
C      -5.75940863     -1.29807455     -0.19795572      0.000214    -0.000084    -0.000481
C       7.00293662     -1.02313078      0.20457177      0.000180    -0.000015     0.000027
C       5.69144054     -1.01754975      0.97947178      0.000282    -0.000162     0.000260
C      -5.32824933     -2.65645989      0.32516894     -0.000184     0.000025     0.000194
C       6.69204714     -0.68172104     -1.24210427      0.000140    -0.000285     0.000016
C      -7.13584811     -0.91013994      0.27180708      0.000229     0.000197    -0.000115
H       1.10295789      0.71897153     -1.19881334     -0.000376    -0.001342     0.000558
H      -2.77870034      1.15776312      0.90967664     -0.000193    -0.001321     0.001222
H       3.58764461     -0.48915685      2.24009269      0.000601    -0.000021     0.000252
H       1.46383700     -0.51905449      1.40887737      0.000583    -0.001041    -0.000542
H      -1.29284481      0.89483278     -1.64781715      0.000930    -0.000854    -0.000619
H      -0.23952977     -1.26146532     -2.01966404      0.000852     0.000648    -0.000733
H       1.51013250     -1.63004314     -1.68398832     -0.000589     0.000594    -0.000047
H       0.26653032     -2.14594114     -0.57993035      0.000767    -0.000248    -0.000210
H       5.72440765      1.01376127      0.86080363      0.000453     0.000253    -0.000925
H      -3.46803555      2.49587280     -1.68615460     -0.000022    -0.000381    -0.000086
H      -4.44351092      2.51487291     -0.21871129      0.000166     0.000226    -0.000673
H      -2.84747882      3.25184282     -0.17122775      0.001333     0.001494    -0.000531
H       2.58540500      1.69957740      2.79073732      0.001095     0.001205     0.000791
H       4.20858818      1.58106035      3.45541991      0.001118     0.000184     0.000001
H       3.87861267      2.55582841      2.00429121      0.001174     0.000091     0.000925
H      -5.86969681     -1.34326663     -1.30698456     -0.000056    -0.000013     0.000219
H      -4.94439552      0.27235305      0.94494875      0.000487    -0.001018    -0.000635
H       7.59388839     -0.22421633      0.60674949     -0.000683    -0.000034     0.000190
H      -5.28113522     -2.51958311      1.40361445     -0.000316     0.000521    -0.000952
H      -6.03073702     -3.42175556      0.04513683      0.000228    -0.000958     0.000117
H      -4.33939504     -2.91069136     -0.08956803     -0.000256     0.000774    -0.001319
H       6.16431945     -1.51346203     -1.67676675     -0.000223    -0.000255     0.001353
H       7.62502584     -0.44542868     -1.78269406     -0.000745    -0.000521    -0.000412
H       6.03592391      0.20161340     -1.26828050      0.000460    -0.000159     0.000790
H       8.13727573     -2.38655970      1.21400924     -0.000103     0.000446    -0.000732
H       7.02755506     -3.03363384      0.20351414      0.001051    -0.000777     0.000453
H      -8.11134275      0.09658977      1.53341525     -0.000793     0.000643    -0.000149
53
Frame 33  Energy = -1313.0351344272 Hartree
O      -0.74135867      0.18309542      1.38044520      0.000255     0.000100     0.000220
O       3.40386549      1.01949916     -0.62226425     -0.000224    -0.000153     0.000096
O      -3.44027488     -0.72390709     -1.60068809      0.000078     0.000300     0.000106
O       5.00179133     -1.96137117      1.15209183      0.000220     0.000308    -0.000075
O      -7.13622514     -0.02898310      1.21109217      0.000049     0.000205     0.000036
O      -8.14425333     -1.35446694     -0.29780182     -0.000539     0.000427     0.000098
N       1.76984545     -0.10453105      0.55084608      0.000057     0.000040    -0.000182
N      -1.46334705      0.93222315     -0.62862143     -0.000034     0.000303    -0.000229
N       5.22244059      0.29520860      1.33686303     -0.000172    -0.000033     0.000237
N      -4.81434182     -0.24444081      0.09212705     -0.000064     0.000318    -0.000274
N       7.58884557     -2.34829255      0.24166566     -0.000083     0.000213     0.000064
C       0.76588736     -0.02188970     -0.47399634      0.000046    -0.000312    -0.000085
C      -2.84054069      1.13718964     -0.23530078      0.000216    -0.000083     0.000146
C       3.82606507      0.42860211      1.68806052     -0.000040     0.000254    -0.000380
C      -0.54390648      0.36243055      0.19481965      0.000176    -0.000215     0.000072
C       2.97624195      0.48979567      0.40079333     -0.000237    -0.000350     0.000303
C       0.56993104     -1.36284484     -1.16671469      0.000007    -0.000069     0.000018
C      -3.71236106     -0.02556240     -0.65500481     -0.000010    -0.000295     0.000466
C      -3.37742969      2.45181213     -0.77953745      0.000208    -0.000230    -0.000127
C       3.55897557      1.66706763      2.51609502      0.000190     0.000047     0.000233
C      -5.71247334     -1.30327186     -0.24714874      0.000034    -0.000091    -0.000305
C       6.97675384     -1.00561096      0.18826895     -0.000231    -0.000015    -0.000179
C       5.65803347     -0.94952437      0.94113213      0.000013     0.000346     0.000051
C      -5.32322638     -2.65326382      0.36423155     -0.000110    -0.000373     0.000075
C       6.70855218     -0.67047488     -1.27522132      0.000142    -0.000435     0.000244
C      -7.13550030     -0.93629252      0.19264115     -0.000023     0.000189    -0.000121
H       1.09600022      0.72008345     -1.20608685      0.000132     0.000619     0.000033
H      -2.81715170      1.16890488      0.85901265     -0.000223     0.000022     0.000138
H       3.59093136     -0.48947103      2.24288085      0.000540    -0.000227    -0.000262
H       1.43978710     -0.45756497      1.44973354      0.000464     0.001118     0.000452
H      -1.25630845      0.83967121     -1.62350070     -0.000110    -0.000512    -0.000855
H      -0.20101637     -1.31006258     -1.95097447      0.000307     0.000084     0.000285
H       1.52426663     -1.67470741     -1.59400516     -0.000672     0.001701     0.000570
H       0.21495808     -2.14078834     -0.45215952     -0.000281    -0.000140     0.000535
H       5.65354360      1.05211123      0.85830655      0.000563     0.001784    -0.001127
H      -3.50549958      2.38007882     -1.85881811      0.000578     0.000775    -0.000891
H      -4.34548496      2.71105976     -0.35614087     -0.000788    -0.000486    -0.000543
H      -2.66321824      3.22286209     -0.52073764     -0.000067    -0.000604    -0.001231
H       2.48829933      1.75096294      2.73829733     -0.000492     0.000495    -0.001082
H       4.10548337      1.57970526      3.45285170     -0.001843     0.000898     0.000105
H       3.88006537      2.56069429      1.94725473      0.000775     0.001283     0.001375
H      -5.74133693     -1.40477434     -1.32519990     -0.000391     0.000742    -0.000636
H      -4.98037442      0.29019246      0.94629795      0.000191     0.000698     0.000909
H       7.69297330     -0.30997012      0.59678125     -0.000922     0.000519     0.000155
H      -5.30755754     -2.61597157      1.44336409     -0.000470     0.000117    -0.000037
H      -6.06542636     -3.39148739      0.01248076      0.000781    -0.000049     0.000075
H      -4.34562621     -2.96651097     -0.01122464     -0.001341    -0.001068     0.000381
H       6.02508898     -1.39023599     -1.71426455      0.000093    -0.001011    -0.000696
H       7.64266693     -0.70011214     -1.80309743      0.000429    -0.000590    -0.000648
H       6.23180490      0.29141332     -1.36095592     -0.000418     0.001047    -0.000215
H       7.97701087     -2.50595329      1.16935707     -0.000039    -0.001410     0.001254
H       6.87446568     -3.04531163      0.10699341      0.000673     0.001050     0.001185
H      -8.04767839      0.09289339      1.47013522     -0.000597    -0.000734    -0.000713
53
Frame 34  Energy = -1313.0436872841 Hartree
O      -0.75791166      0.23997324      1.41940903     -0.000161    -0.000054     0.000055
O       3.26850380      1.07269546     -0.52567657     -0.000216     0.000142    -0.000031
O      -3.45402223     -0.72308361     -1.63360529      0.000066    -0.000059     0.000201
O       4.93747039     -1.98294015      1.09841632     -0.000083     0.000050    -0.000032
O      -7.13511657      0.08115186      1.12269026      0.000386     0.000228    -0.000167
O      -8.11182830     -1.42606532     -0.24359263     -0.000353     0.000356     0.000123
N       1.70099802     -0.18606173      0.56944235      0.000325    -0.000327     0.000155
N      -1.50324461      0.89123077     -0.63121537      0.000271     0.000293     0.000203
N       5.17118054      0.26295344      1.34385017     -0.000109     0.000106    -0.000228
N      -4.79321190     -0.27658003      0.12435674      0.000251     0.000169     0.000095
N       7.55946846     -2.27689591      0.27262112      0.000002     0.000021    -0.000001
C       0.67758873     -0.12161038     -0.44765120     -0.000163     0.000096    -0.000257
C      -2.86247800      1.16689308     -0.23620975     -0.000001     0.000001    -0.000248
C       3.79776213      0.42940807      1.71434638     -0.000156     0.000360     0.000261
C      -0.58201900      0.37586974      0.21996586      0.000197    -0.000274     0.000321
C       2.90434437      0.45116825      0.45581294      0.000128     0.000010    -0.000096
C       0.41155778     -1.43569436     -1.16772124     -0.000060    -0.000282     0.000006
C      -3.71103450     -0.05136916     -0.63889214     -0.000048     0.000319     0.000293
C      -3.41305448      2.46811912     -0.88240716      0.000433    -0.000226    -0.000155
C       3.58906585      1.74895990      2.44489539      0.000034     0.000007     0.000018
C      -5.73377548     -1.28976902     -0.24125686     -0.000275    -0.000134     0.000130
C       6.91162436     -0.97268362      0.13831560     -0.000280    -0.000174     0.000062
C       5.56949587     -0.96425000      0.91225765     -0.000208     0.000054     0.000155
C      -5.43311641     -2.67679397      0.36048757     -0.000146    -0.000282    -0.000021
C       6.64372853     -0.69620809     -1.33623643     -0.000021    -0.000091     0.000116
C      -7.11886102     -0.90575356      0.19249407     -0.000157    -0.000118     0.000217
H       1.05086034      0.62994747     -1.15407972     -0.000478    -0.000137     0.000242
H      -2.91028778      1.25039211      0.85057209     -0.000752    -0.000571    -0.000233
H       3.55254415     -0.41004946      2.39055792      0.000383     0.000993     0.000563
H       1.40531072     -0.62078856      1.43821491     -0.000398     0.000370     0.000762
H      -1.29560152      0.87219180     -1.61226663      0.000359     0.001005    -0.000999
H      -0.34501931     -1.35341927     -1.95488743      0.001390     0.000354    -0.001212
H       1.34320537     -1.85419206     -1.51484158      0.000127     0.000643     0.000916
H      -0.04006737     -2.14697146     -0.47027224     -0.000481    -0.000515    -0.000824
H       5.55210226      1.05631477      0.82737628      0.000499    -0.000312     0.002005
H      -3.32866692      2.42498749     -1.97010855      0.000305     0.000854     0.000867
H      -4.47036965      2.59255953     -0.61217199     -0.000582     0.000928     0.000348
H      -2.84549165      3.32648588     -0.51070967     -0.000470     0.000369    -0.000689
H       2.54810422      1.91519062      2.74456797      0.000974    -0.000695     0.000151
H       4.17663163      1.76961426      3.37121537     -0.001679    -0.000268    -0.000506
H       3.90728809      2.61357618      1.84710578      0.000133    -0.000157     0.000037
H      -5.79199207     -1.39956285     -1.34979067     -0.000208    -0.001010    -0.000607
H      -4.94195772      0.24036814      0.98163365      0.000994    -0.000949    -0.000639
H       7.60923553     -0.21840739      0.52001581     -0.000367     0.000150     0.000664
H      -5.40623207     -2.62518265      1.43886181      0.000116    -0.000720     0.001254
H      -6.15927710     -3.43003855      0.00035602     -0.000166    -0.000083    -0.000985
H      -4.44960092     -3.01884199      0.04365499     -0.000128    -0.000655    -0.000255
H       6.01615551     -1.52232659     -1.73144760     -0.000149    -0.000514     0.000195
H       7.59818976     -0.69558515     -1.82204916     -0.001548     0.000571    -0.000143
H       6.09279215      0.24318517     -1.49691496      0.000339     0.000899    -0.001289
H       7.91249255     -2.38926656      1.19473013      0.000365     0.000121     0.001112
H       6.86131276     -3.01745650      0.18300101      0.000370     0.000497    -0.000372
H      -8.05936236      0.15948897      1.35600094      0.000119    -0.001224     0.001151
53
Frame 35  Energy = -1313.0497138365 Hartree
O      -0.80021578      0.19234405      1.35429058      0.000218    -0.000248     0.000215
O       3.27963104      1.05798414     -0.54185386     -0.000017     0.000088     0.000194
O      -3.60852646     -0.60862718     -1.72228638      0.000220     0.000109    -0.000215
O       4.98849092     -2.03110867      1.17513799     -0.000047     0.000198    -0.000050
O      -7.22404221      0.18606276      1.06973031      0.000094     0.000086    -0.000034
O      -8.17466353     -1.52436303     -0.05307267     -0.000035    -0.000074     0.000224
N       1.71705751     -0.17693721      0.53756164      0.000099    -0.000137     0.000261
N      -1.53977590      0.86688179     -0.68490903     -0.000124     0.000018     0.000123
N       5.14228952      0.22333768      1.36631435      0.000123     0.000439     0.000059
N      -4.83484544     -0.27187337      0.12514256     -0.000143     0.000039    -0.000301
N       7.61359623     -2.26828136      0.19595045      0.000226    -0.000321    -0.000073
C       0.67236084     -0.05721538     -0.47062586      0.000018     0.000407     0.000131
C      -2.87953756      1.15528721     -0.25865408     -0.000094     0.000102     0.000048
C       3.75060573      0.41093494      1.72022508     -0.000111    -0.000310    -0.000209
C      -0.62193787      0.36538910      0.16162862      0.000077     0.000100     0.000324
C       2.89022020      0.48605796      0.46820645     -0.000357    -0.000280    -0.000088
C       0.43904530     -1.37614698     -1.18969821     -0.000000    -0.000040    -0.000136
C      -3.77851491     -0.00580047     -0.67062878      0.000048     0.000093     0.000240
C      -3.38378262      2.45663807     -0.87043551      0.000331    -0.000151    -0.000088
C       3.66909143      1.73199782      2.45884609      0.000245     0.000339     0.000099
C      -5.81297136     -1.26523151     -0.25292208      0.000378    -0.000190    -0.000064
C       6.94643224     -0.98277485      0.21540377      0.000237    -0.000061     0.000031
C       5.60201880     -0.99996836      0.99610461      0.000203    -0.000468     0.000030
C      -5.43071566     -2.68910583      0.23384054     -0.000060     0.000294    -0.000491
C       6.62504584     -0.56154196     -1.22178174     -0.000075    -0.000206    -0.000051
C      -7.18956131     -0.89794450      0.23244628     -0.000200    -0.000180    -0.000227
H       1.03987044      0.69287626     -1.20146645      0.000556    -0.000099     0.000379
H      -2.91237012      1.25070250      0.80725454     -0.000204     0.000358    -0.000516
H       3.43106245     -0.42852809      2.32844952      0.000806    -0.000044     0.000355
H       1.43848602     -0.54747392      1.40298518      0.000423    -0.001059    -0.000756
H      -1.38396028      0.78220431     -1.66548808      0.000625    -0.000839    -0.000171
H      -0.34445268     -1.25632541     -1.93538538      0.000698    -0.001139    -0.000919
H       1.36340396     -1.64230907     -1.72084200     -0.000227     0.000877     0.000222
H       0.18778752     -2.17096000     -0.50340472     -0.000428    -0.000512     0.000226
H       5.60042694      1.04741888      0.98304028     -0.000055     0.000098     0.000366
H      -3.49985467      2.37866444     -1.97134674      0.000424    -0.000267    -0.001900
H      -4.37118281      2.72200176     -0.47930917     -0.000337     0.000595    -0.000317
H      -2.70056122      3.28080287     -0.59436775     -0.000559     0.000903    -0.000306
H       2.65868309      1.96790613      2.79928525      0.000287     0.001357     0.000098
H       4.38571144      1.75912838      3.29164121     -0.000780    -0.000650    -0.000287
H       3.97887671      2.49982826      1.73445459     -0.000377    -0.000456     0.001030
H      -5.85847978     -1.27258546     -1.33222263      0.000262     0.000172    -0.000267
H      -5.00672426      0.32531450      0.93547228      0.000322    -0.000458    -0.000366
H       7.63111662     -0.26827378      0.66012083      0.000974    -0.000043     0.000089
H      -5.37811114     -2.68912800      1.32552608      0.000788     0.000811    -0.001067
H      -6.17615142     -3.41499148     -0.09908681      0.000037     0.000484    -0.000441
H      -4.46794458     -2.97125171     -0.17770819     -0.000065    -0.000037    -0.000282
H       6.20997251     -1.43583473     -1.73133629     -0.001195     0.000872     0.000191
H       7.53797580     -0.32152487     -1.74291815      0.000946     0.002101    -0.000047
H       5.89598968      0.26990033     -1.28462897      0.000988    -0.000038    -0.001619
H       7.87178858     -2.55184065      1.14577012      0.000463    -0.000565    -0.000200
H       6.89739288     -2.94801176     -0.05869909      0.000333    -0.000170    -0.000146
H      -8.15422231      0.27655461      1.34488789     -0.000098     0.000365    -0.000619
53
Frame 36  Energy = -1313.0265151594 Hartree
O      -0.83921570      0.17704372      1.40002631     -0.000081    -0.000063     0.000368
O       3.19136248      1.11185081     -0.52709454      0.000140    -0.000288     0.000084
O      -3.61541001     -0.53361933     -1.85496822      0.000080    -0.000188     0.000173
O       5.02561486     -2.04490779      1.25094769     -0.000079    -0.000126     0.000453
O      -7.13001338      0.17611979      1.07976310     -0.000006    -0.000093    -0.000026
O      -8.15726022     -1.50535507      0.08521446     -0.000173    -0.000008     0.000096
N       1.71872177     -0.24194785      0.56127336      0.000416    -0.000214     0.000043
N      -1.49945631      0.88390207     -0.65634941     -0.000011    -0.000006    -0.000184
N       5.16602051      0.23106879      1.23268697      0.000130    -0.000337     0.000213
N      -4.81266517     -0.27236849      0.07484093     -0.000215     0.000061     0.000429
N       7.60754632     -2.34282542      0.26105908     -0.000001    -0.000164    -0.000608
C       0.66716135     -0.14316337     -0.42490334     -0.000185     0.000599     0.000040
C      -2.86454116      1.11883480     -0.30088248     -0.000110    -0.000011    -0.000064
C       3.81983699      0.49088152      1.68310720      0.000120    -0.000263     0.000449
C      -0.60355685      0.32403665      0.22288140     -0.000131    -0.000038    -0.000193
C       2.86149403      0.50273290      0.46754732      0.000192    -0.000242     0.000102
C       0.41928423     -1.46345563     -1.15019001     -0.000134    -0.000241    -0.000190
C      -3.79326316      0.00732329     -0.78979945      0.000013    -0.000214     0.000108
C      -3.35939103      2.39066653     -0.96880177     -0.000111     0.000034     0.000145
C       3.70358824      1.81315829      2.38275950     -0.000183    -0.000649     0.000033
C      -5.78630602     -1.27687543     -0.25029114     -0.000033     0.000254     0.000045
C       6.94785751     -1.05760992      0.16340919     -0.000059    -0.000035    -0.000143
C       5.61056803     -1.02320283      0.92536121      0.000012     0.000112     0.000158
C      -5.34530636     -2.65198947      0.22273479     -0.000310     0.000162    -0.000128
C       6.72235119     -0.65783001     -1.25748161      0.000026    -0.000351    -0.000095
C      -7.15036852     -0.90970370      0.31908393      0.000120     0.000281     0.000215
H       1.03433260      0.61073626     -1.09893512      0.001701     0.000908    -0.000248
H      -2.91291627      1.21032901      0.78249131      0.001085    -0.000379     0.000516
H       3.56405935     -0.33967629      2.38230566      0.001292     0.001261    -0.000849
H       1.47500785     -0.49160590      1.52770380      0.000464    -0.000284     0.000599
H      -1.24635464      0.85390690     -1.61137377      0.000461     0.001217    -0.001288
H      -0.34635057     -1.37560503     -1.89855606     -0.000940    -0.001514     0.000599
H       1.32898027     -1.78800488     -1.64188287     -0.000021    -0.000801     0.000880
H       0.08980520     -2.28086239     -0.45249165     -0.000803     0.000222     0.000590
H       5.67216527      1.00536613      0.84458832     -0.000767    -0.000297     0.000498
H      -3.31074901      2.33472800     -2.07203935      0.001020     0.000043     0.001463
H      -4.35314556      2.65522573     -0.61996871      0.000564    -0.000491    -0.000903
H      -2.74922324      3.23059962     -0.63338448      0.000545    -0.000198     0.000586
H       2.68714757      2.00857368      2.65500134     -0.000873     0.000014    -0.000931
H       4.29876584      1.81719987      3.30173416     -0.000289    -0.001281    -0.000692
H       4.03765769      2.63669240      1.77481395     -0.000041     0.000711     0.001284
H      -5.90489736     -1.31393898     -1.33913572      0.000194     0.000772     0.000577
H      -4.90768789      0.28633457      0.92972447     -0.000086    -0.000525     0.001216
H       7.58126157     -0.33421740      0.69518976      0.000696     0.001095     0.000337
H      -5.28717669     -2.61173466      1.29973668      0.000721     0.000068    -0.000310
H      -6.09629766     -3.38215245     -0.04723423     -0.000546    -0.001224     0.000772
H      -4.40106120     -2.95443790     -0.18559295      0.000813    -0.000381     0.000378
H       6.11620046     -1.40030661     -1.78288048      0.000673    -0.000440    -0.000263
H       7.64662125     -0.53156793     -1.80290248      0.000233    -0.000152     0.000181
H       6.13686398      0.22489447     -1.33443485     -0.000236     0.000746    -0.000515
H       7.68110915     -2.60310492      1.24292124      0.001190     0.000732     0.000753
H       7.00224869     -3.02654676     -0.18201175     -0.000224    -0.000059    -0.000027
H      -8.00258858      0.25929048      1.46031126     -0.001395     0.000135     0.000129
53
Frame 37  Energy = -1313.0400654670 Hartree
O      -0.76884338      0.13166519      1.43691338     -0.000007    -0.000030     0.000331
O       3.40581349      0.93539681     -0.56167923     -0.000212     0.000042    -0.000255
O      -3.53665638     -0.64405508     -1.81722100      0.000050     0.000041    -0.000119
O       5.06024561     -2.13087447      1.32729583     -0.000259     0.000516     0.000022
O      -7.08516691      0.02100228      1.14211284      0.000060     0.000494    -0.000054
O      -8.09816122     -1.62960132      0.00649912     -0.000145    -0.000161    -0.000024
N       1.74456281     -0.08778774      0.59924823      0.000205    -0.000034    -0.000017
N      -1.48301245      0.81805289     -0.63807743     -0.000016     0.000235    -0.000264
N       5.21057191      0.13901869      1.32721986      0.000100     0.000131    -0.000042
N      -4.75378111     -0.30832335      0.05367630     -0.000268     0.000032     0.000134
N       7.60258482     -2.43930686      0.17555480     -0.000031     0.000014    -0.000108
C       0.73554954     -0.08751441     -0.40651063      0.000012     0.000170     0.000327
C      -2.85065960      1.14462363     -0.29937883      0.000194     0.000273    -0.000161
C       3.84214328      0.37939587      1.71642716      0.000125    -0.000217     0.000152
C      -0.57924081      0.33228453      0.24126458     -0.000129     0.000392     0.000243
C       2.97693012      0.43362395      0.46738015      0.000063     0.000591     0.000252
C       0.49726168     -1.46203167     -1.02493111      0.000240    -0.000267     0.000012
C      -3.73913380     -0.01714666     -0.78988692      0.000013     0.000035     0.000244
C      -3.24327998      2.48544633     -0.88377918     -0.000050     0.000110    -0.000266
C       3.69042921      1.66493393      2.53593830     -0.000134     0.000054     0.000086
C      -5.73442658     -1.31678482     -0.28987454      0.000296     0.000255     0.000008
C       6.94966727     -1.15038195      0.15903112      0.000035    -0.000254    -0.000014
C       5.60326752     -1.11290137      0.97561984      0.000096     0.000228    -0.000264
C      -5.30431190     -2.71018824      0.18689629     -0.000075     0.000091     0.000118
C       6.77006999     -0.68543274     -1.28453441      0.000083     0.000168     0.000161
C      -7.12140092     -1.01948117      0.26012796      0.000121    -0.000022     0.000242
H       1.02200038      0.62355966     -1.19952300      0.000168    -0.000813    -0.000297
H      -2.89631219      1.25996523      0.78257223     -0.001093    -0.000216    -0.001021
H       3.51355079     -0.51491646      2.30346075      0.000493    -0.000834    -0.000329
H       1.51632262     -0.50375708      1.49760765     -0.000422     0.000700     0.000285
H      -1.19123302      0.81305187     -1.61280019     -0.000710     0.000102     0.000489
H      -0.25249771     -1.40278061     -1.80534559      0.000681     0.000664     0.001904
H       1.41513554     -1.90051581     -1.40859420      0.000556     0.001687     0.000450
H       0.12520981     -2.17013939     -0.28469365     -0.000170    -0.000852    -0.000254
H       5.68510752      0.90711016      0.83293956      0.001146     0.000749    -0.000007
H      -3.11774516      2.51236236     -1.96860199     -0.000628     0.000269    -0.000867
H      -4.28254570      2.76169051     -0.65614299      0.000037     0.000710    -0.001106
H      -2.61226559      3.27522003     -0.47182412     -0.000129    -0.000312     0.000147
H       2.68254946      1.80936179      2.89756110      0.000419     0.000727     0.000219
H       4.36176688      1.65289724      3.36580590      0.000645    -0.000059     0.000908
H       3.97929122      2.48556430      1.91670919     -0.000132     0.000522     0.000758
H      -5.82576847     -1.27034891     -1.36748128     -0.001016    -0.000192     0.000410
H      -4.92698519      0.25502116      0.87809978      0.000038    -0.000046    -0.000811
H       7.60625509     -0.42800105      0.65849649     -0.000666    -0.000196    -0.000932
H      -5.09299552     -2.72997853      1.23718049      0.001216    -0.000747     0.001744
H      -6.06848669     -3.43385395     -0.04415193      0.000110    -0.000152     0.000350
H      -4.39491423     -3.03733231     -0.32850723      0.000553    -0.000627    -0.000002
H       6.23830623     -1.44722646     -1.85427381     -0.000378     0.000004     0.000693
H       7.75232530     -0.55914035     -1.78757790      0.000665     0.000568     0.000620
H       6.09849153      0.17895311     -1.28887099     -0.001189     0.000413    -0.001817
H       7.96720775     -2.66613376      1.08661692      0.000826     0.000078    -0.000385
H       7.03535256     -3.22125119     -0.13981174     -0.000806     0.000257    -0.000451
H      -8.00052178      0.15886627      1.40615489      0.000418     0.000194    -0.000459
53
Frame 38  Energy = -1313.0482588847 Hartree
O      -0.86659454      0.17198373      1.45719094      0.000051    -0.000173    -0.000062
O       3.34299641      0.88179990     -0.57824307     -0.000112    -0.000116     0.000299
O      -3.58545951     -0.54615507     -1.81377821     -0.000148     0.000166     0.000360
O       5.04642418     -2.01864307      1.35481317     -0.000091    -0.000073     0.000499
O      -7.05526586      0.03406644      1.28081012      0.000177     0.000146    -0.000115
O      -8.06179725     -1.58459006      0.04169381     -0.000040     0.000039     0.000118
N       1.72778146     -0.11957928      0.65750485      0.000318     0.000027    -0.000028
N      -1.44915921      0.87370886     -0.63417161      0.000273     0.000324    -0.000226
N       5.24626563      0.24112226      1.38393216     -0.000269     0.000359     0.000042
N      -4.77632489     -0.24476731      0.07079749      0.000333    -0.000028     0.000045
N       7.55316685     -2.44486399      0.16721633      0.000363    -0.000142    -0.000108
C       0.74442427     -0.07075449     -0.38189659      0.000073    -0.000200    -0.000069
C      -2.82892616      1.18325176     -0.30864256     -0.000121     0.000008    -0.000272
C       3.84287933      0.37601549      1.73124793      0.000117     0.000156    -0.000104
C      -0.59205356      0.32166074      0.28543479     -0.000294    -0.000126    -0.000049
C       2.97133974      0.39895305      0.48989284     -0.000315    -0.000306    -0.000045
C       0.53892764     -1.39924221     -1.11543494      0.000089    -0.000144    -0.000041
C      -3.75874095      0.04787471     -0.75403640      0.000018     0.000020    -0.000176
C      -3.27529996      2.49107957     -1.02851110     -0.000284    -0.000518    -0.000145
C       3.59233919      1.71814804      2.45855540     -0.000013     0.000221    -0.000284
C      -5.71378140     -1.27382408     -0.22913684      0.000101    -0.000015    -0.000029
C       6.97682464     -1.09667863      0.20411742     -0.000015     0.000150    -0.000147
C       5.65099175     -1.03259644      1.00837178      0.000263     0.000096    -0.000015
C      -5.24663219     -2.70224880      0.19798391      0.000290    -0.000129     0.000186
C       6.72715731     -0.54406181     -1.19221409     -0.000077     0.000008     0.000314
C      -7.08972975     -0.95867815      0.32962063      0.000346     0.000294    -0.000121
H       1.04235438      0.68591388     -1.07641923      0.000327    -0.000730     0.000147
H      -2.89397886      1.34207826      0.75726102     -0.000042     0.000620    -0.001379
H       3.53860396     -0.46441990      2.37391405      0.000884    -0.000053     0.001028
H       1.41834564     -0.43986975      1.56004050      0.001091    -0.000125     0.000158
H      -1.21645442      0.77432399     -1.59800078     -0.000896    -0.000245    -0.000720
H      -0.24998994     -1.33399508     -1.86502042      0.000418     0.000610    -0.000012
H       1.47999762     -1.72159880     -1.56570592     -0.001359    -0.001310     0.000477
H       0.26286329     -2.17808075     -0.40716475     -0.000584     0.000367     0.001115
H       5.56984095      0.97968989      0.78639900     -0.000042    -0.000276     0.000154
H      -3.34838822      2.32440334     -2.08342178     -0.000826    -0.000365     0.000595
H      -4.22494627      2.77548164     -0.62989416      0.000599     0.001018    -0.000369
H      -2.56616026      3.27405117     -0.85080696     -0.000352    -0.001218    -0.000501
H       2.57525858      1.76874492      2.86064060      0.000446    -0.001025    -0.000158
H       4.31609072      1.83301271      3.31136915      0.000724    -0.000543     0.000233
H       3.75097921      2.57460917      1.75875362      0.000093    -0.000172    -0.000623
H      -5.87908061     -1.30566788     -1.28382218      0.000439    -0.001053    -0.000209
H      -4.85539320      0.29782181      0.93286926      0.000121    -0.000288    -0.000293
H       7.69637125     -0.41015781      0.66803014      0.000253    -0.000314    -0.000356
H      -4.99548567     -2.71020890      1.26394361      0.000611    -0.000614     0.000980
H      -6.04098027     -3.43290634      0.02230929      0.000100    -0.000202     0.000677
H      -4.35091361     -2.94824840     -0.36446505      0.000032    -0.000354     0.000222
H       6.05571619     -1.20781188     -1.74988770      0.000651    -0.000021     0.000959
H       7.65954388     -0.53105635     -1.71867888      0.000715    -0.001115    -0.000227
H       6.18309780      0.43008285     -1.22823144      0.000146    -0.000267     0.000538
H       7.65139497     -2.72541715      1.13860008      0.000708    -0.001108     0.000178
H       6.83347931     -3.06584494     -0.17386507      0.000405     0.000275    -0.000071
H      -7.96022096      0.12117450      1.61514269      0.000886    -0.000444     0.000099
53
Frame 39  Energy = -1313.0489004151 Hartree
O      -0.83612873      0.26990293      1.45377025     -0.000057    -0.000110     0.000056
O       3.33755886      0.82724649     -0.55154205     -0.000180     0.000005     0.000064
O      -3.53035537     -0.48339642     -1.87363745     -0.000018     0.000133     0.000051
O       4.94056698     -2.03974871      1.18004832      0.000047     0.000440     0.000086
O      -7.00898438     -0.06751961      1.35297931     -0.000016     0.000156    -0.000152
O      -8.09936421     -1.57824350      0.10517758     -0.000096     0.000230    -0.000177
N       1.69734514     -0.09080139      0.71045059      0.000262    -0.000112     0.000401
N      -1.49196299      0.84328259     -0.66372560      0.000249    -0.000223    -0.000192
N       5.20855326      0.19711479      1.47856699      0.000104    -0.000411     0.000297
N      -4.79361178     -0.26836135      0.01578464     -0.000136    -0.000249    -0.000172
N       7.62226018     -2.32117002      0.14478812     -0.000037     0.000062    -0.000353
C       0.69833968     -0.03796041     -0.37854864      0.000416    -0.000032     0.000106
C      -2.85932255      1.19681694     -0.35533510      0.000207    -0.000131     0.000136
C       3.83116646      0.38781177      1.80045023     -0.000127     0.000126    -0.000086
C      -0.62134241      0.36995536      0.24957675      0.000113     0.000075     0.000100
C       2.96242538      0.37999457      0.53197877      0.000120    -0.000112    -0.000378
C       0.58870668     -1.35694665     -1.12337615      0.000081    -0.000013    -0.000173
C      -3.74626659      0.04070116     -0.79325716     -0.000153    -0.000149    -0.000144
C      -3.25662441      2.49972471     -1.00953993     -0.000078     0.000291     0.000037
C       3.55667178      1.64090155      2.56131223     -0.000162    -0.000089    -0.000061
C      -5.75951382     -1.30783264     -0.26809310     -0.000104     0.000040    -0.000052
C       6.93408800     -1.03230898      0.23543122      0.000427     0.000103     0.000075
C       5.61091320     -1.04930765      1.00187764     -0.000444    -0.000205     0.000234
C      -5.26989214     -2.68861989      0.19526066      0.000170     0.000019    -0.000215
C       6.62077291     -0.52035991     -1.15878338      0.000081    -0.000127    -0.000156
C      -7.07707239     -1.00131442      0.38064876     -0.000011    -0.000049     0.000365
H       1.06871437      0.74226668     -1.05600529      0.000365    -0.000488     0.000446
H      -2.89743960      1.29456328      0.74925070     -0.000184    -0.000216    -0.000168
H       3.51746289     -0.41077792      2.44767677      0.000203     0.000702    -0.000918
H       1.35153658     -0.27415797      1.62510619      0.000570    -0.000739    -0.000075
H      -1.28554576      0.85894965     -1.64718096     -0.000223    -0.000007     0.000606
H      -0.25324948     -1.33700988     -1.84081969     -0.000870    -0.001412     0.000035
H       1.54200339     -1.52565803     -1.66471871      0.000026     0.000656     0.001007
H       0.46269217     -2.20378581     -0.43935090     -0.000838    -0.000319    -0.000337
H       5.72144376      0.97370096      1.04537487      0.000290     0.000409     0.000661
H      -3.11208497      2.44088161     -2.10388267     -0.000164     0.000016    -0.000605
H      -4.28337785      2.75758067     -0.81718186      0.000037    -0.000025     0.000672
H      -2.58276684      3.29237622     -0.62438235     -0.000370    -0.000327    -0.000066
H       2.52353036      1.66851347      2.86147254     -0.000106     0.000457    -0.000360
H       4.17257883      1.67496981      3.46646351     -0.001136     0.000092    -0.000106
H       3.82862230      2.50452315      1.98774226      0.000968     0.000308    -0.001702
H      -5.90729334     -1.28390208     -1.36104295      0.001393    -0.000338     0.000241
H      -4.84595621      0.16708405      0.94431461     -0.000895    -0.000620     0.000388
H       7.60394165     -0.34575713      0.72846117     -0.000516    -0.000111     0.000581
H      -5.19510503     -2.72734487      1.28606582     -0.001073    -0.000518    -0.000948
H      -5.94423463     -3.49280682     -0.15263258     -0.000276    -0.001080    -0.000661
H      -4.28455611     -2.89962958     -0.24907353      0.000511     0.000424    -0.000127
H       5.86198451     -1.14491796     -1.56163345     -0.000186     0.000951     0.000527
H       7.47823960     -0.53884261     -1.84677083     -0.000163     0.000372    -0.000664
H       6.24432577      0.49506431     -1.18816925      0.000653     0.000148     0.001500
H       7.72267669     -2.73864312      1.05663540      0.000659     0.000644    -0.000450
H       7.01717069     -2.97588648     -0.33289574      0.000497    -0.001252    -0.000494
H      -7.88995264      0.10044514      1.70178739     -0.001624     0.000838     0.000167
53
Frame 40  Energy = -1313.0463398651 Hartree
O      -0.76676813      0.23696879      1.41475463      0.000102    -0.000030    -0.000320
O       3.41626051      0.87982172     -0.43837052     -0.000469    -0.000085    -0.000035
O      -3.55063065     -0.54215045     -1.85169020     -0.000225    -0.000204    -0.000289
O       5.01235523     -2.04883530      1.25720241     -0.000130     0.000020    -0.000341
O      -7.01035534     -0.07049580      1.37986061      0.000004    -0.000160     0.000220
O      -8.12022275     -1.44983954      0.02219386     -0.000069     0.000096    -0.000158
N       1.75114318     -0.14504311      0.67319163     -0.000169     0.000070    -0.000275
N      -1.44267833      0.85407454     -0.65691667      0.000127     0.000172    -0.000030
N       5.26933095      0.19637403      1.50407638     -0.000202    -0.000175    -0.000080
N      -4.77464823     -0.22091802      0.04377402      0.000164    -0.000149     0.000051
N       7.58668592     -2.36919831      0.16333693      0.000061     0.000411    -0.000189
C       0.78851599     -0.00799040     -0.39669491     -0.000077    -0.000326    -0.000054
C      -2.79923271      1.15343461     -0.29182686     -0.000218    -0.000074    -0.000217
C       3.85129430      0.35430535      1.84886664     -0.000211     0.000003     0.000204
C      -0.54629035      0.34878969      0.21213789      0.000123     0.000283     0.000107
C       2.99766266      0.35981903      0.58009786      0.000322    -0.000074     0.000211
C       0.61606864     -1.27866566     -1.24436365     -0.000058     0.000225    -0.000332
C      -3.73408844      0.02583035     -0.79181166      0.000070    -0.000113     0.000182
C      -3.24969836      2.45894655     -0.94579278      0.000096    -0.000150     0.000008
C       3.66004436      1.69453078      2.51061029     -0.000027    -0.000089    -0.000383
C      -5.75949062     -1.25571495     -0.25351790      0.000001     0.000341    -0.000389
C       6.95274066     -1.06110050      0.25493871      0.000518    -0.000187     0.000052
C       5.67064666     -1.02331120      1.08054119     -0.000412     0.000115     0.000057
C      -5.34234506     -2.65030682      0.19806010      0.000044    -0.000119    -0.000199
C       6.62061181     -0.64867858     -1.14807763     -0.000067     0.000221    -0.000149
C      -7.09190607     -0.92203121      0.36086462     -0.000115     0.000161     0.000113
H       1.10543865      0.82540131     -1.00760252      0.000013     0.000089     0.000374
H      -2.81370380      1.22347490      0.78472534      0.000524     0.000399    -0.000368
H       3.63457455     -0.49086580      2.52023322      0.000441     0.000514    -0.000269
H       1.40392742     -0.45420604      1.55351341     -0.000698     0.001010     0.000172
H      -1.28754332      0.85090853     -1.65887846     -0.000236    -0.000850     0.000682
H      -0.02236914     -1.09298756     -2.11892164     -0.000811     0.000219    -0.000597
H       1.62608844     -1.54000370     -1.64264631     -0.000424    -0.000367     0.000500
H       0.24862253     -2.12753982     -0.66649755      0.000378     0.000294    -0.000538
H       5.75673121      1.02528305      1.11682762     -0.000113     0.000816    -0.000438
H      -3.21230124      2.40133328     -2.03364517     -0.000002     0.000864     0.000200
H      -4.28032185      2.68171949     -0.64102100     -0.000725     0.001007     0.000528
H      -2.61922957      3.30191272     -0.62093569      0.000349     0.000793    -0.000695
H       2.61117140      1.88617072      2.78702692     -0.000724    -0.001699    -0.000027
H       4.21708327      1.78390615      3.45549722      0.000087    -0.000164     0.000074
H       3.93894775      2.47326037      1.78480232      0.000695    -0.001050     0.000214
H      -5.84614005     -1.27217546     -1.34298818     -0.000684     0.000092    -0.001106
H      -4.75856757      0.25110735      0.93208196      0.000197    -0.000511    -0.000387
H       7.66528286     -0.35204580      0.71377153      0.000902     0.000282    -0.000899
H      -5.32248817     -2.74286086      1.26741185     -0.000990    -0.001505     0.000224
H      -6.01837893     -3.38025391     -0.21690228     -0.000774     0.000860    -0.000830
H      -4.35767634     -2.86486091     -0.20596669      0.000612     0.000271     0.000394
H       5.93279729     -1.39982256     -1.59626255      0.000082    -0.000843     0.000930
H       7.49661824     -0.51438890     -1.78267472     -0.000016     0.001921     0.000544
H       6.07372381      0.30284742     -1.15128974      0.001293    -0.000002     0.000058
H       7.71653347     -2.77353352      1.08641132      0.000692     0.001313    -0.000066
H       6.86114368     -2.96257661     -0.26838378     -0.000080    -0.000684     0.000012
H      -7.90780939      0.05606973      1.73424164     -0.000950    -0.000235     0.000007
53
Frame 41  Energy = -1313.0410933426 Hartree
O      -0.78860772      0.21219256      1.42694265     -0.000180     0.000094     0.000337
O       3.38677842      0.85475231     -0.39211295     -0.000078    -0.000005    -0.000208
O      -3.55418116     -0.44006918     -1.90839608      0.000192     0.000161     0.000118
O       4.90635463     -2.08027292      1.25019308      0.000102    -0.000264    -0.000297
O      -6.95936303     -0.08804476      1.39333548     -0.000222    -0.000004     0.000079
O      -8.15218716     -1.38560475     -0.00899408      0.000147    -0.000035    -0.000088
N       1.74124222     -0.22661648      0.72171003      0.000220    -0.000031    -0.000068
N      -1.43827866      0.88732033     -0.63379100      0.000216     0.000089     0.000030
N       5.22517246      0.13741745      1.57104105     -0.000152    -0.000052     0.000044
N      -4.79188624     -0.17751261     -0.00543419      0.000104    -0.000071    -0.000078
N       7.51662809     -2.44539973      0.28651485      0.000155     0.000067    -0.000026
C       0.79170669     -0.02520259     -0.38494631     -0.000039    -0.000133    -0.000397
C      -2.80718922      1.15920205     -0.25728719     -0.000072     0.000162     0.000078
C       3.81910927      0.32690087      1.86618491     -0.000155     0.000155    -0.000039
C      -0.55034057      0.34408012      0.23330873      0.000014     0.000091    -0.000273
C       2.96936069      0.30486486      0.61973988      0.000250    -0.000026     0.000580
C       0.66368153     -1.29541033     -1.29798859      0.000350    -0.000022     0.000127
C      -3.73203391      0.07384230     -0.82165214      0.000223     0.000037    -0.000146
C      -3.26786365      2.49732566     -0.82315925     -0.000112     0.000336     0.000189
C       3.55730983      1.64830686      2.56315700      0.000141    -0.000216     0.000064
C      -5.79416154     -1.17828755     -0.36646454     -0.000273    -0.000037    -0.000286
C       6.90908280     -1.12138983      0.25710327     -0.000135    -0.000046    -0.000423
C       5.59989213     -1.08711084      1.05505875      0.000212    -0.000318    -0.000141
C      -5.35145307     -2.58795479      0.03523225     -0.000034    -0.000333     0.000008
C       6.63659401     -0.68151193     -1.19825768     -0.000081     0.000144    -0.000013
C      -7.10621968     -0.87770418      0.31168122      0.000276     0.000095    -0.000050
H       1.12281958      0.81523851     -1.00225644      0.001886     0.000699     0.000829
H      -2.87921803      1.25850180      0.84192106     -0.001022    -0.000201     0.000558
H       3.53714056     -0.47831811      2.53494741      0.000067     0.000360     0.000769
H       1.43456639     -0.60683099      1.59629722     -0.000563     0.000034    -0.001224
H      -1.26341375      0.84898304     -1.64960266     -0.000447    -0.000676    -0.000632
H       0.10453831     -1.09400973     -2.18432110      0.000278     0.000081     0.000097
H       1.65302676     -1.60883187     -1.60931415      0.000203    -0.001662     0.001116
H       0.19620832     -2.08782064     -0.74790278     -0.001258    -0.000207     0.000200
H       5.68692130      0.96291088      1.21334790     -0.000891    -0.000827    -0.000858
H      -3.18730898      2.56852642     -1.88867783      0.000759    -0.000130     0.000463
H      -4.32460191      2.61613672     -0.57626411      0.000075    -0.001207    -0.001024
H      -2.70571183      3.32349632     -0.40418131     -0.000570    -0.001147     0.000739
H       2.53555941      1.67581908      2.85167666     -0.000195    -0.000530     0.001626
H       4.18170153      1.75560782      3.44164559      0.000795     0.001263     0.000284
H       3.74281443      2.47441549      1.87442082      0.000406     0.001019    -0.000467
H      -5.98173178     -1.10133542     -1.43755441     -0.000857    -0.000221     0.000260
H      -4.88501134      0.29597352      0.85543758     -0.000037    -0.000307     0.001508
H       7.59921490     -0.41024056      0.69891535     -0.000849    -0.001031     0.000328
H      -5.15945224     -2.64582062      1.08525112      0.000428    -0.000046     0.000001
H      -6.15501305     -3.27654522     -0.18574204      0.000453     0.001371    -0.000049
H      -4.41792258     -2.82459050     -0.48667837      0.000192     0.000084    -0.000886
H       5.90162534     -1.31908374     -1.67012430     -0.000542    -0.000763     0.001160
H       7.59421622     -0.63820274     -1.75982862      0.000204     0.000310     0.000813
H       6.14201711      0.30047912     -1.10069236      0.000821     0.000385     0.000879
H       7.83457224     -2.69447902      1.22159573     -0.001297    -0.000595     0.000644
H       6.83352299     -3.14058102      0.02299266      0.000089     0.000426    -0.000514
H      -7.84178135      0.06125790      1.72810120     -0.000817     0.000452    -0.000405
53
Frame 42  Energy = -1313.0337853951 Hartree
O      -0.82762652      0.31010417      1.45465833      0.000075     0.000072     0.000040
O       3.40511011      0.90421418     -0.45053934      0.000186    -0.000112    -0.000162
O      -3.69378857     -0.34120044     -1.91029657      0.000260    -0.000075     0.000107
O       4.91964892     -2.10779883      1.26107403      0.000310    -0.000048     0.000018
O      -7.05036756     -0.14468199      1.47938606      0.000042    -0.000266     0.000065
O      -8.18866906     -1.40695740     -0.00412145      0.000124     0.000212    -0.000229
N       1.75149139     -0.15767024      0.67829177     -0.000046     0.000123     0.000069
N      -1.48176895      0.77434069     -0.67485676      0.000201    -0.000043    -0.000120
N       5.20589213      0.12817521      1.48249157      0.000030     0.000039    -0.000001
N      -4.79975856     -0.16950568      0.06227813      0.000004    -0.000356    -0.000132
N       7.49754184     -2.50123995      0.25264459      0.000007    -0.000425    -0.000096
C       0.77227180      0.02193057     -0.38676941     -0.000061     0.000304    -0.000051
C      -2.80898979      1.17708649     -0.28715739      0.000251    -0.000109     0.000275
C       3.83281942      0.36525779      1.85025794     -0.000139     0.000109     0.000139
C      -0.59518507      0.36087941      0.25706920     -0.000125    -0.000864    -0.000161
C       2.99113361      0.37256742      0.56301283      0.000221     0.000181     0.000400
C       0.73581157     -1.18672246     -1.34341741     -0.000270     0.000106     0.000022
C      -3.81375797      0.13981719     -0.79567977      0.000027    -0.000127    -0.000144
C      -3.21387107      2.51132887     -0.88125298     -0.000026     0.000080    -0.000139
C       3.60700998      1.69507486      2.54327343      0.000021     0.000272     0.000379
C      -5.81326827     -1.12618099     -0.31843833     -0.000036     0.000279    -0.000208
C       6.92075975     -1.16155208      0.30573687     -0.000013     0.000140    -0.000168
C       5.59008603     -1.11479019      1.07101557      0.000082    -0.000047     0.000064
C      -5.33760809     -2.53695012      0.00250065      0.000115     0.000012     0.000067
C       6.71493048     -0.60590105     -1.12606127     -0.000333    -0.000165    -0.000000
C      -7.15792301     -0.91414244      0.36495564     -0.000184     0.000204    -0.000079
H       1.09284637      0.88475798     -0.98264650     -0.000056     0.000269    -0.000176
H      -2.76349517      1.19857717      0.82164546     -0.000683     0.001500     0.000204
H       3.51760119     -0.43385898      2.51522560      0.000476    -0.000679    -0.001568
H       1.36788344     -0.44538621      1.56902937     -0.000565     0.000910     0.001171
H      -1.23290053      0.74798788     -1.65219671     -0.002023    -0.000449    -0.000404
H       0.00847901     -1.02637762     -2.11913608      0.000634     0.000422     0.000893
H       1.72680614     -1.27745419     -1.80149062      0.000672     0.000524     0.000184
H       0.46342373     -2.09581932     -0.79445406     -0.000291     0.000577    -0.000386
H       5.65232695      0.91131374      1.03801644      0.000236     0.000698    -0.000772
H      -3.16255200      2.49123197     -1.97503005      0.000796    -0.001129    -0.000446
H      -4.24589883      2.76159395     -0.63132232     -0.000587     0.000327     0.000149
H      -2.56329864      3.30220623     -0.52752659     -0.000076    -0.000306    -0.000471
H       2.54627626      1.82998955      2.70094204      0.001754    -0.000498     0.000747
H       4.08497596      1.66996271      3.51151445      0.000971     0.000635     0.000895
H       4.00281599      2.54707073      1.96742533     -0.001095     0.000178     0.001323
H      -5.96837707     -1.03737876     -1.40665785     -0.000165     0.001360     0.000157
H      -4.79622472      0.19552479      1.03190187      0.000349    -0.002195    -0.000187
H       7.63318311     -0.51786691      0.84346407      0.001144    -0.000365    -0.000626
H      -5.13781869     -2.61026097      1.07321287      0.001146    -0.001292     0.000596
H      -6.05526237     -3.29113302     -0.33979607     -0.001613     0.000592     0.000529
H      -4.42064186     -2.68149281     -0.53553555     -0.000536     0.000061    -0.000429
H       5.93395172     -1.17778234     -1.60554513     -0.000897    -0.000267     0.001397
H       7.62809187     -0.74842326     -1.66000646      0.000468    -0.001887    -0.000562
H       6.43861844      0.43394496     -1.13934212      0.000264    -0.000289     0.000616
H       7.59257291     -2.86638970      1.19381188     -0.000511    -0.000917    -0.000427
H       6.81678902     -3.12928187     -0.16156692      0.000724     0.000769    -0.000737
H      -7.94015999     -0.08740590      1.81781064     -0.000174     0.001020    -0.000364
53
Frame 43  Energy = -1313.0349961741 Hartree
O      -0.72180548      0.24651583      1.47690929     -0.000095    -0.000258     0.000287
O       3.49154316      0.78647064     -0.52580503      0.000070     0.000144    -0.000281
O      -3.64176108     -0.41085181     -1.82818844     -0.000196    -0.000148    -0.000244
O       4.94985639     -2.06675590      1.25334294     -0.000040     0.000276    -0.000076
O      -7.10740401     -0.30324997      1.50662957     -0.000048     0.000026     0.000025
O      -8.22195730     -1.36529934     -0.14246449     -0.000028     0.000155    -0.000145
N       1.78356278     -0.12735327      0.65746806      0.000293     0.000019     0.000057
N      -1.45831765      0.80743215     -0.58421521     -0.000188     0.000058     0.000111
N       5.23928772      0.18097868      1.51808949     -0.000022     0.000089    -0.000248
N      -4.84072755     -0.14131575      0.08768617     -0.000332    -0.000061    -0.000276
N       7.44860025     -2.49986715      0.22046808     -0.000200    -0.000107    -0.000167
C       0.81379669     -0.01380191     -0.38711006      0.000364     0.000190    -0.000179
C      -2.82752421      1.19500946     -0.22451458     -0.000191     0.000496     0.000380
C       3.82625667      0.42917928      1.81802048     -0.000130    -0.000160    -0.000116
C      -0.53126588      0.34249778      0.29212688     -0.000127     0.000127     0.000311
C       3.02068699      0.37529860      0.53483484     -0.000336    -0.000415     0.000167
C       0.73106694     -1.30153384     -1.24704895      0.000009    -0.000158    -0.000000
C      -3.81657231      0.13672481     -0.75863614      0.000002     0.000319     0.000040
C      -3.11893053      2.57772057     -0.80141775      0.000106    -0.000449     0.000271
C       3.66833329      1.75816278      2.54203925     -0.000193     0.000359    -0.000133
C      -5.82203536     -1.15328168     -0.29727358      0.000060    -0.000052     0.000162
C       6.90245003     -1.15249325      0.26895942     -0.000180     0.000160    -0.000210
C       5.63133735     -1.07740500      1.10324822      0.000388     0.000026    -0.000011
C      -5.36030597     -2.58711365     -0.00858832      0.000284     0.000154    -0.000198
C       6.62185197     -0.71836340     -1.18240062     -0.000169     0.000040     0.000103
C      -7.18839558     -0.95887578      0.32798064      0.000074     0.000056     0.000249
H       1.07446883      0.80334485     -1.06930111      0.000879     0.000326    -0.001188
H      -2.87399078      1.17959151      0.87516802      0.001119    -0.000054    -0.001947
H       3.50899099     -0.39354312      2.46902748     -0.001083     0.000128    -0.000510
H       1.46535652     -0.41632053      1.56398759     -0.000776     0.000005    -0.000623
H      -1.31249727      0.60797706     -1.56417913     -0.000463     0.000544     0.000174
H       0.05720684     -1.15879003     -2.09351141     -0.000120    -0.000986     0.000341
H       1.71415580     -1.53967118     -1.66170630      0.000336    -0.000968    -0.000586
H       0.35113782     -2.14353636     -0.66060639      0.000063    -0.000067     0.001389
H       5.77034651      0.91214359      1.08274896      0.000147    -0.000727    -0.000219
H      -2.88305271      2.65049015     -1.86424626      0.000849     0.000406     0.000503
H      -4.15870807      2.87090873     -0.67477930     -0.000785     0.000631     0.000079
H      -2.45597745      3.26920060     -0.23482063     -0.000711    -0.001649     0.000644
H       2.61049691      1.86031257      2.85781716      0.000012     0.000035    -0.000019
H       4.32345199      1.79389812      3.39871972     -0.001435     0.000203    -0.000841
H       3.91885617      2.58252510      1.86443621     -0.000581    -0.000117     0.000104
H      -6.00938800     -1.04848281     -1.36080321      0.000288    -0.000574    -0.000909
H      -4.81732621      0.19562861      1.04258947      0.000377    -0.000254     0.001426
H       7.64721850     -0.50684700      0.68554782      0.001149    -0.000675     0.001574
H      -5.21160851     -2.74593082      1.06626773     -0.000626     0.000870     0.000442
H      -6.09354766     -3.31891048     -0.36682453     -0.000109     0.000324    -0.000033
H      -4.45102760     -2.76643470     -0.54655956      0.000240     0.000775    -0.000459
H       6.14314712     -1.51433962     -1.77051385     -0.000533    -0.000317    -0.000051
H       7.57039286     -0.48408186     -1.66577923      0.000309     0.001569    -0.001520
H       5.99592258      0.16415376     -1.20314582     -0.000760     0.001021     0.000395
H       7.75842704     -2.72478214      1.18551125      0.000559    -0.000589     0.000060
H       6.67599876     -3.14410852      0.05047540     -0.000461    -0.001071    -0.000850
H      -8.01777776     -0.27719798      1.87453841     -0.001290     0.000569    -0.001407
53
Frame 44  Energy = -1313.0403465759 Hartree
O      -0.67025299      0.24713315      1.43784345     -0.000272    -0.000031     0.000014
O       3.48047814      0.79555641     -0.46629703      0.000176    -0.000184     0.000149
O      -3.61749615     -0.44616036     -1.91074664      0.000305     0.000260     0.000093
O       4.98560873     -2.06423841      1.39114015     -0.000250    -0.000173     0.000067
O      -7.06284310     -0.36804182      1.45042203     -0.000101     0.000250     0.000515
O      -8.17642747     -1.38714778     -0.18207709      0.000272    -0.000126    -0.000125
N       1.79690906     -0.08831030      0.71006217      0.000099     0.000203    -0.000158
N      -1.45398273      0.74836761     -0.63795794      0.000118    -0.000155    -0.000014
N       5.27413299      0.20471497      1.39418564     -0.000242     0.000164    -0.000045
N      -4.86149877     -0.17482535     -0.02759482     -0.000209    -0.000191    -0.000015
N       7.46124178     -2.54109080      0.26873827     -0.000001     0.000304     0.000011
C       0.85097525     -0.05569184     -0.39279930      0.000151     0.000245    -0.000229
C      -2.79375690      1.10679153     -0.25182244     -0.000046     0.000304    -0.000083
C       3.90634206      0.39896830      1.82465996      0.000045    -0.000117     0.000118
C      -0.49436673      0.30926837      0.23565319     -0.000046    -0.000593    -0.000240
C       3.05517367      0.34820537      0.58365754     -0.000029    -0.000389    -0.000128
C       0.77374175     -1.36600703     -1.22051416     -0.000115    -0.000071    -0.000210
C      -3.78288242      0.06234210     -0.81676382      0.000227    -0.000288    -0.000023
C      -3.15101655      2.50981663     -0.75656917      0.000014    -0.000082     0.000086
C       3.73000183      1.74250003      2.52500635     -0.000336     0.000194     0.000185
C      -5.79096773     -1.21212610     -0.39097242      0.000178     0.000245    -0.000111
C       6.92371272     -1.22062936      0.24028428      0.000260     0.000170    -0.000117
C       5.63538022     -1.08766172      1.07973007      0.000013    -0.000106    -0.000114
C      -5.27116477     -2.59829132      0.01910180      0.000260     0.000149     0.000115
C       6.69952782     -0.71629784     -1.15696317     -0.000374    -0.000134     0.000167
C      -7.13347081     -0.98832444      0.24117028     -0.000031    -0.000308     0.000263
H       1.16539777      0.76206312     -1.03614021      0.001643    -0.000245    -0.001320
H      -2.86668350      1.07563476      0.81254412      0.000555     0.000751     0.000219
H       3.63580517     -0.43832626      2.46845643      0.000701     0.000304     0.000332
H       1.42443456     -0.37071417      1.61596027      0.000100     0.000082    -0.000735
H      -1.35316203      0.64772393     -1.65449743      0.000102     0.000801     0.001366
H      -0.05263787     -1.32869314     -1.90436930     -0.000046    -0.000636     0.001724
H       1.71646671     -1.48302722     -1.78471425     -0.000471     0.000087    -0.000782
H       0.64408870     -2.24004088     -0.55671494      0.000618     0.000675     0.000244
H       5.58059879      0.91045914      0.71890053     -0.000228     0.000708     0.000200
H      -3.06101597      2.49078975     -1.83693314      0.000607    -0.000235    -0.001103
H      -4.16934650      2.69741748     -0.52854099      0.000686    -0.000495    -0.000451
H      -2.49434310      3.26047576     -0.29029395      0.000625    -0.000577    -0.000163
H       2.71768357      1.85098928      2.90327526     -0.000176     0.000184     0.000191
H       4.42914098      1.86005403      3.35758019      0.000054    -0.000233     0.000129
H       3.89284728      2.57414426      1.83796048      0.000083    -0.000511     0.001469
H      -5.93133278     -1.17000170     -1.47260022     -0.001098    -0.000363     0.000821
H      -4.81146283      0.13820723      0.93327908      0.000328    -0.000272    -0.000704
H       7.67454647     -0.60580952      0.69121116     -0.000915     0.000065    -0.000667
H      -5.27170104     -2.62972233      1.10515123      0.001089    -0.000741    -0.000604
H      -5.95583405     -3.37362757     -0.35845046     -0.001286     0.000205     0.000623
H      -4.27230159     -2.81004462     -0.41552152     -0.000345     0.001036    -0.000550
H       6.06598622     -1.35051972     -1.78951767      0.000941     0.000150    -0.000398
H       7.68813071     -0.58622536     -1.69557373     -0.000081    -0.000662    -0.000252
H       6.24610241      0.29524811     -1.23466630     -0.000411     0.000476     0.000027
H       7.66986640     -2.80378311      1.21808307      0.001025    -0.001088    -0.000049
H       6.77878978     -3.16850033     -0.13430370      0.000621    -0.000806     0.001333
H      -7.96401491     -0.21423129      1.74161933      0.000172    -0.000088    -0.000479
53
Frame 45  Energy = -1313.0396719809 Hartree
O      -0.71403083      0.26224829      1.42351442      0.000109    -0.000142    -0.000029
O       3.49798482      0.69417239     -0.54285058      0.000162    -0.000137    -0.000022
O      -3.60489277     -0.45934885     -1.87793153      0.000013    -0.000052    -0.000024
O       4.98635115     -2.07870108      1.37723232     -0.000022    -0.000040     0.000034
O      -7.03549565     -0.29490147      1.51621002      0.000376     0.000021    -0.000043
O      -8.11778502     -1.33432104     -0.13609857      0.000254     0.000072     0.000087
N       1.82029348     -0.13529152      0.69300357     -0.000045     0.000195     0.000002
N      -1.42835167      0.76500485     -0.69717200      0.000114     0.000532    -0.000001
N       5.34225165      0.15535865      1.49295219     -0.000211    -0.000401     0.000160
N      -4.80702315     -0.11699662      0.02003303      0.000247     0.000262    -0.000363
N       7.42634991     -2.59830379      0.18662296     -0.000047    -0.000220     0.000102
C       0.82411485     -0.06738428     -0.35912435     -0.000042    -0.000396     0.000497
C      -2.76426128      1.14034983     -0.27560774     -0.000042    -0.000134     0.000077
C       3.93165143      0.35687366      1.78897805     -0.000010     0.000085    -0.000040
C      -0.50535763      0.35343764      0.22291980      0.000169    -0.000185     0.000045
C       3.08241325      0.29825035      0.52136205      0.000031    -0.000140    -0.000186
C       0.67993317     -1.38424696     -1.09247126      0.000037     0.000114    -0.000267
C      -3.74930039      0.10454672     -0.80263657      0.000070    -0.000419    -0.000267
C      -3.09488129      2.53853799     -0.76159683     -0.000133     0.000341    -0.000094
C       3.74634834      1.73947157      2.41052899      0.000152    -0.000177     0.000061
C      -5.72110192     -1.20750183     -0.25692467      0.000127    -0.000052    -0.000018
C       6.93991905     -1.23904952      0.27836455     -0.000037     0.000180    -0.000088
C       5.67349968     -1.10689192      1.10731111      0.000001     0.000030     0.000127
C      -5.25073816     -2.58405891      0.12341633     -0.000372     0.000157     0.000248
C       6.68841080     -0.69585346     -1.11275696      0.000734     0.000027    -0.000024
C      -7.09181318     -0.93262494      0.33833729      0.000464    -0.000168    -0.000302
H       1.11385467      0.71043237     -1.06392107     -0.000129     0.000095    -0.000847
H      -2.76589223      1.11884159      0.81279844      0.000496     0.000046     0.001182
H       3.60010135     -0.40404963      2.50640626      0.000315    -0.000870    -0.000044
H       1.49729412     -0.28887565      1.63067004      0.000191    -0.000617     0.000885
H      -1.28974109      0.68028819     -1.70598025     -0.000348    -0.000974     0.000753
H       0.02655544     -1.26825134     -1.96252041      0.000187     0.001244    -0.000149
H       1.69400115     -1.68300533     -1.39730224     -0.001443     0.001064     0.000856
H       0.29671815     -2.12346051     -0.39527659     -0.000870     0.001289    -0.001332
H       5.76713034      0.89304467      0.94470492     -0.000411     0.000919     0.000113
H      -2.93407615      2.66780414     -1.83961527     -0.000964     0.001846     0.000766
H      -4.12477833      2.81629572     -0.51502788     -0.000142    -0.000299    -0.001125
H      -2.49094628      3.23617737     -0.21915172     -0.000599     0.000230    -0.000688
H       2.71588918      1.88741866      2.76128822      0.000393     0.000226    -0.000036
H       4.35435550      1.85684362      3.29999361     -0.000175     0.000267    -0.000993
H       3.98446343      2.54799939      1.70364784     -0.000145     0.000916     0.000413
H      -5.89889773     -1.14292472     -1.33428728      0.000784    -0.000534     0.000369
H      -4.75074342      0.24372685      0.97425602     -0.001095     0.000513    -0.000680
H       7.73250140     -0.63156687      0.70422041     -0.000513    -0.000760    -0.000222
H      -5.03551638     -2.56938760      1.19529718      0.000051     0.000109     0.000321
H      -5.98308619     -3.35973217     -0.09044274     -0.000089    -0.000531    -0.000329
H      -4.32776025     -2.79279234     -0.39641580      0.000183     0.000001    -0.001554
H       5.93793475     -1.26627163     -1.60264019     -0.000786    -0.000041    -0.000873
H       7.60803876     -0.82042889     -1.67287707     -0.001220     0.000402     0.000399
H       6.43207994      0.37294466     -1.11517332     -0.000634    -0.000099     0.001134
H       7.66005261     -2.96568428      1.10214720      0.000088    -0.001295    -0.000186
H       6.67669887     -3.18390776     -0.18272353      0.000758     0.000129    -0.000525
H      -7.91365828     -0.18759361      1.89311229      0.000285     0.000006    -0.000603
53
Frame 46  Energy = -1313.0357091806 Hartree
O      -0.62274289      0.36406476      1.49197730     -0.000037     0.000012    -0.000130
O       3.63212508      0.78581948     -0.51605800     -0.000043     0.000270    -0.000320
O      -3.57932300     -0.28472344     -1.81660755     -0.000221     0.000080    -0.000030
O       5.04732910     -2.14497198      1.37710204     -0.000033     0.000035    -0.000048
O      -7.02559452     -0.27680073      1.57849815     -0.000372     0.000105    -0.000120
O      -8.10163183     -1.16709377     -0.14839585      0.000027    -0.000129     0.000226
N       1.88707851     -0.09108978      0.66882617      0.000013    -0.000254    -0.000186
N      -1.43713742      0.90947864     -0.58871140      0.000295    -0.000032     0.000288
N       5.38652345      0.09561962      1.52061214     -0.000155    -0.000030    -0.000127
N      -4.77503624     -0.06593169      0.11418682     -0.000089     0.000152    -0.000235
N       7.49818237     -2.64069971      0.17147262      0.000089    -0.000039    -0.000214
C       0.86194369     -0.03896986     -0.36198232      0.000151     0.000260    -0.000197
C      -2.75674821      1.25904333     -0.13886505      0.000272     0.000247     0.000110
C       3.98068245      0.36664112      1.80108715     -0.000235    -0.000174    -0.000047
C      -0.47311453      0.41538334      0.27817859      0.000077     0.000589     0.000102
C       3.16242231      0.34881089      0.51979860     -0.000222    -0.000325     0.000162
C       0.64239532     -1.41362377     -1.03540638     -0.000142     0.000060     0.000435
C      -3.72101716      0.20105336     -0.70203102     -0.000160     0.000117     0.000172
C      -3.15060295      2.64431912     -0.65067739      0.000001     0.000160     0.000151
C       3.84425631      1.71295733      2.47129714     -0.000200     0.000292    -0.000214
C      -5.70375072     -1.10325065     -0.25746752      0.000142     0.000216    -0.000329
C       7.02483112     -1.26416985      0.27332264      0.000071     0.000429     0.000314
C       5.71153386     -1.18491165      1.10652903      0.000207     0.000079    -0.000112
C      -5.17419343     -2.50397752      0.09714968      0.000012    -0.000060    -0.000161
C       6.74056257     -0.72438434     -1.13478713     -0.000005    -0.000180     0.000032
C      -7.07476973     -0.86284027      0.35796940     -0.000171    -0.000034     0.000223
H       1.14829383      0.69145738     -1.12315093      0.000130    -0.001175    -0.000510
H      -2.71337373      1.23656075      0.93012344      0.000607     0.000629    -0.000765
H       3.62574080     -0.41868589      2.46494878     -0.000158     0.000308    -0.000347
H       1.56189573     -0.33281148      1.61259393     -0.000822     0.000727    -0.000933
H      -1.37575682      0.74975277     -1.57570063      0.000349     0.000638    -0.000154
H      -0.13702953     -1.31924114     -1.79707842     -0.000208    -0.001108    -0.001799
H       1.60261735     -1.80272907     -1.38205109     -0.000487    -0.000941    -0.001376
H       0.32092350     -2.11558174     -0.23590172     -0.000240    -0.000741    -0.000630
H       5.91566740      0.84257575      1.08909539     -0.000993    -0.000291    -0.001018
H      -3.17983061      2.63330885     -1.73628292      0.000254    -0.000747     0.001134
H      -4.11215930      3.01634864     -0.26912057      0.000470    -0.001000     0.000201
H      -2.33172095      3.33229814     -0.32449056     -0.000103    -0.000708     0.000037
H       2.78262029      1.93770447      2.63498216      0.000014     0.002247    -0.000881
H       4.40046787      1.63682103      3.42955720     -0.001306     0.001683    -0.000761
H       4.26671313      2.53163086      1.88291190     -0.000651    -0.000024    -0.000034
H      -5.84726505     -1.11604010     -1.33637058      0.000265    -0.000212     0.000399
H      -4.76759754      0.32509530      1.05145586      0.000418     0.000044    -0.000804
H       7.79997711     -0.63331834      0.71645727      0.000698     0.000283    -0.000417
H      -5.06754738     -2.62969559      1.17350967      0.001444    -0.000467    -0.001115
H      -5.88066424     -3.29901593     -0.20994560      0.000502    -0.000427    -0.000466
H      -4.21962674     -2.70687167     -0.39770511     -0.000773    -0.000263    -0.000080
H       5.92336842     -1.31423707     -1.57718282      0.000971     0.000389    -0.000702
H       7.64078858     -0.80205711     -1.71219981      0.000034     0.000817     0.001561
H       6.35718627      0.30099774     -1.12919449      0.000801    -0.000373     0.000462
H       7.93278763     -2.95497295      1.03272523      0.000206     0.000803    -0.000677
H       6.66599993     -3.20623279      0.10515351      0.000569     0.001119     0.000454
H      -7.97218898     -0.25690149      1.85983734     -0.000758    -0.000117     0.000034
53
Frame 47  Energy = -1313.0509092232 Hartree
O      -0.59861482      0.38216893      1.54359998     -0.000033    -0.000167    -0.000266
O       3.58211744      0.76147532     -0.58615058     -0.000067    -0.000199     0.000053
O      -3.57258476     -0.45921493     -1.71349300      0.000262    -0.000042     0.000094
O       4.91268504     -2.17523458      1.18139943     -0.000506     0.000117    -0.000437
O      -7.04348295     -0.24311160      1.60692328     -0.000089     0.000020    -0.000152
O      -8.21651167     -1.02893212     -0.16146085     -0.000400    -0.000056    -0.000104
N       1.85336862      0.02085821      0.66507882      0.000137     0.000080     0.000183
N      -1.40379473      0.85227713     -0.55637809      0.000091     0.000137     0.000024
N       5.33822468      0.03493506      1.44454356      0.000057    -0.000280    -0.000379
N      -4.79801428     -0.11660749      0.14277642      0.000147     0.000103     0.000199
N       7.51522241     -2.66589319      0.31864082     -0.000176     0.000106     0.000062
C       0.82974109      0.05366707     -0.34397895      0.000253    -0.000136    -0.000277
C      -2.73979899      1.20348894     -0.16341193      0.000019    -0.000094     0.000047
C       3.95714438      0.40348739      1.76407777     -0.000025    -0.000210     0.000275
C      -0.46034424      0.45987023      0.32398164      0.000182    -0.000009     0.000078
C       3.12366270      0.38286108      0.48563644      0.000172    -0.000009     0.000046
C       0.71459758     -1.32711922     -1.02599908     -0.000095    -0.000073    -0.000203
C      -3.71320461      0.10979037     -0.65428533     -0.000091     0.000118    -0.000009
C      -3.12271821      2.54626491     -0.75091893     -0.000093     0.000156     0.000021
C       3.89699168      1.77511804      2.40828090     -0.000447    -0.000271     0.000354
C      -5.78067294     -1.09032663     -0.24809786      0.000080    -0.000077     0.000044
C       6.99515776     -1.33560187      0.27973211      0.000244     0.000068     0.000475
C       5.65024045     -1.24247875      1.01949688      0.000191    -0.000033     0.000307
C      -5.34462206     -2.49855518      0.21392658      0.000071     0.000109     0.000145
C       6.76675958     -0.90209369     -1.18919342     -0.000074     0.000025    -0.000258
C      -7.14541610     -0.79314723      0.36086818      0.000194     0.000361    -0.000113
H       1.14204558      0.82428184     -1.06957730      0.001001    -0.000656     0.000209
H      -2.78092671      1.21071283      0.90257143     -0.000104    -0.000922     0.000281
H       3.60811207     -0.36883081      2.44728268      0.000457     0.000265     0.001439
H       1.48494556     -0.21144959      1.59266231      0.000093     0.000216     0.000114
H      -1.22293827      0.79762546     -1.54393914     -0.000448     0.000255     0.000327
H      -0.07678280     -1.38954549     -1.78544772      0.000880     0.000540    -0.000944
H       1.65479852     -1.64195533     -1.46024817      0.000910     0.000067    -0.000194
H       0.47335615     -2.08690269     -0.28902191      0.000001     0.000428    -0.000709
H       5.95954072      0.79283712      1.13771486      0.000567    -0.001555    -0.000065
H      -3.16499289      2.53317847     -1.84248632     -0.000088    -0.000267     0.000459
H      -4.08992796      2.84612846     -0.35536777     -0.000762    -0.000202    -0.000065
H      -2.41821720      3.28639755     -0.43058242      0.000480     0.000149    -0.000573
H       2.85941426      2.05075640      2.52890378     -0.000016     0.000409    -0.000054
H       4.42037792      1.72831847      3.34573696     -0.000395    -0.000319    -0.000985
H       4.34121358      2.56159623      1.77855850     -0.000305    -0.001204    -0.000007
H      -5.89430349     -1.10639955     -1.32529760      0.001021    -0.000514     0.000680
H      -4.87744063      0.37886110      1.05040285     -0.000784     0.000634     0.000066
H       7.71499856     -0.67483150      0.73095567     -0.000594    -0.000067     0.001113
H      -5.20546138     -2.52086149      1.29883769     -0.000058    -0.000529     0.001790
H      -6.11398334     -3.23542090     -0.04121941      0.000304    -0.001543    -0.000933
H      -4.39558605     -2.76426820     -0.28340499     -0.000546    -0.000778     0.000510
H       6.02371521     -1.53089467     -1.68172430      0.000064     0.000344    -0.000390
H       7.73045489     -1.02220258     -1.71252531     -0.000035     0.000607    -0.000515
H       6.39596366      0.14093933     -1.22837690      0.000529    -0.000336     0.001559
H       7.66794499     -2.96037421      1.27353210     -0.000459     0.000685    -0.000507
H       6.86059537     -3.28871541     -0.10653611     -0.000408     0.000460     0.000257
H      -7.93246386     -0.22020077      1.98027888      0.000259     0.000028    -0.000411
53
Frame 48  Energy = -1313.0394034867 Hartree
O      -0.69130890      0.46194006      1.48643879      0.000222    -0.000062    -0.000093
O       3.59201604      0.63262949     -0.51258864      0.000331     0.000020     0.000254
O      -3.53547297     -0.35667959     -1.71192889      0.000077    -0.000029    -0.000096
O       4.89546178     -2.10647097      1.22689071     -0.000238    -0.000080    -0.000117
O      -7.02743271     -0.26088710      1.59640959      0.000322     0.000397     0.000015
O      -8.20323279     -1.10258772     -0.13480407      0.000009     0.000085    -0.000204
N       1.81541742      0.03372996      0.76223567     -0.000056    -0.000161     0.000203
N      -1.43651327      0.96993251     -0.58799073      0.000240     0.000022    -0.000096
N       5.32454267      0.06028840      1.52854283      0.000047     0.000420     0.000140
N      -4.79646066     -0.08942161      0.16890412      0.000453     0.000002    -0.000265
N       7.44645072     -2.66840872      0.29491842     -0.000131     0.000319     0.000152
C       0.87343768      0.05833940     -0.30790460      0.000030    -0.000046     0.000232
C      -2.79099288      1.26450025     -0.10055560     -0.000272    -0.000239    -0.000184
C       3.94350403      0.35104325      1.87426009      0.000029     0.000376    -0.000071
C      -0.48270929      0.51759310      0.29566093     -0.000413     0.000136     0.000082
C       3.10262134      0.34974935      0.57994381      0.000124    -0.000073     0.000023
C       0.69912018     -1.26812582     -1.04029023      0.000139    -0.000113    -0.000234
C      -3.72600877      0.18465270     -0.65259475     -0.000005    -0.000005     0.000140
C      -3.22992047      2.65913128     -0.50789432     -0.000293     0.000082    -0.000318
C       3.81390766      1.71589115      2.56690309     -0.000605     0.000110     0.000173
C      -5.80837770     -1.07746193     -0.24616920     -0.000108     0.000006     0.000176
C       6.94414695     -1.29733920      0.30528776     -0.000071    -0.000064     0.000100
C       5.62989910     -1.16282962      1.04874037     -0.000320    -0.000081     0.000106
C      -5.41125029     -2.48875768      0.14947323     -0.000032    -0.000011    -0.000069
C       6.69808811     -0.83634039     -1.13649323      0.000225    -0.000215     0.000059
C      -7.16773254     -0.79623082      0.37133816      0.000070     0.000001     0.000038
H       1.23937832      0.81761592     -0.99333991      0.002122    -0.000129     0.000821
H      -2.79459810      1.17714645      0.97219020      0.000771     0.000169    -0.000318
H       3.58950913     -0.45833115      2.51165283     -0.000057    -0.000839    -0.000114
H       1.45486427     -0.15920785      1.67480508     -0.001270     0.000109    -0.000970
H      -1.38370648      0.69848458     -1.57338162      0.000170    -0.001266    -0.001222
H      -0.04269513     -1.21577789     -1.82651158     -0.000684     0.000168     0.000869
H       1.66004241     -1.56714860     -1.50042689      0.000087    -0.000978    -0.000522
H       0.35732004     -2.00811866     -0.31293138     -0.000067    -0.000324     0.001280
H       5.88790993      0.84275338      1.20974260     -0.000216     0.000510     0.000269
H      -3.28181658      2.77145015     -1.58327590      0.000707     0.000737    -0.000221
H      -4.24840036      2.92602297     -0.12058940      0.000818     0.000770     0.001291
H      -2.55168122      3.43624184     -0.09094330     -0.001070    -0.000233    -0.000081
H       2.74086206      1.87165915      2.76650547      0.000721    -0.000252    -0.000991
H       4.32782961      1.72011476      3.55406587      0.000911     0.000819    -0.000450
H       4.21480217      2.49986511      1.90031746     -0.000270    -0.000067     0.000503
H      -5.91385544     -1.02900759     -1.32052564     -0.000125    -0.000753    -0.000602
H      -4.85527297      0.34504325      1.08429982      0.000691    -0.000224     0.000608
H       7.66293401     -0.65541744      0.83576143     -0.000841     0.000163    -0.000359
H      -5.37063075     -2.64871682      1.20694436      0.001265    -0.000068    -0.000017
H      -6.14960040     -3.21530490     -0.24254229     -0.000118    -0.000410     0.000810
H      -4.43697911     -2.70478266     -0.28545042      0.000657     0.000507    -0.000415
H       6.00765239     -1.51218817     -1.62030696      0.000045    -0.000857     0.000021
H       7.65840875     -0.86583361     -1.67658816     -0.000371     0.000933     0.000141
H       6.30847996      0.17409397     -1.21165583      0.000110     0.000499     0.000771
H       7.56244373     -2.98323157      1.25541783     -0.000974    -0.000188    -0.001151
H       6.73819594     -3.27646232     -0.11621738     -0.001647    -0.000961     0.000607
H      -7.90154732     -0.24613147      2.03155598     -0.001494     0.001915    -0.000659
53
Frame 49  Energy = -1313.0487830818 Hartree
O      -0.70999895      0.51543218      1.60486684     -0.000183     0.000098    -0.000289
O       3.51726468      0.70710435     -0.46827953      0.000223     0.000086     0.000214
O      -3.56219409     -0.34941642     -1.68771687     -0.000130     0.000139    -0.000226
O       4.72772648     -2.10761286      1.20682577     -0.000136     0.000400     0.000390
O      -7.13283828     -0.21772390      1.53197402     -0.000019    -0.000125     0.000084
O      -8.22359013     -1.12210058     -0.20840133     -0.000003    -0.000370     0.000137
N       1.79092924      0.02779745      0.82308210      0.000553    -0.000108    -0.000103
N      -1.46162694      0.93740582     -0.49226355     -0.000043     0.000089    -0.000112
N       5.31763789      0.04838067      1.53989083      0.000062    -0.000143    -0.000162
N      -4.88309581     -0.08061841      0.16174395      0.000114     0.000290     0.000166
N       7.37286171     -2.79749779      0.45123863     -0.000249    -0.000075     0.000088
C       0.79238969      0.08076412     -0.22992379     -0.000338    -0.000008    -0.000003
C      -2.83721762      1.23946312     -0.07257168     -0.000079     0.000211    -0.000044
C       3.95733914      0.41612556      1.85134067      0.000266    -0.000094    -0.000272
C      -0.53878787      0.49352536      0.39735600      0.000289     0.000087    -0.000105
C       3.07814608      0.39545511      0.60766988      0.000274    -0.000218    -0.000084
C       0.73855396     -1.23431690     -1.04526269     -0.000168     0.000007     0.000042
C      -3.74976548      0.15756479     -0.59925739      0.000143    -0.000126    -0.000015
C      -3.21974875      2.62549320     -0.59371161     -0.000167    -0.000306     0.000363
C       3.78224320      1.78156783      2.44754615     -0.000094    -0.000414     0.000337
C      -5.81023245     -1.10454471     -0.24242637      0.000157    -0.000288     0.000290
C       6.88308947     -1.41651530      0.41656153     -0.000054    -0.000269    -0.000360
C       5.54560497     -1.21710988      1.10025795      0.000001    -0.000084    -0.000114
C      -5.32862374     -2.52147216      0.14383429     -0.000225     0.000020     0.000105
C       6.74901313     -0.94221885     -1.05335190     -0.000029    -0.000022    -0.000228
C      -7.18005724     -0.79914800      0.30461881      0.000172    -0.000143    -0.000340
H       1.10960548      0.91449427     -0.90712480      0.000313     0.001911     0.000186
H      -2.81956878      1.28485916      1.01661848      0.000433    -0.001166     0.000397
H       3.58825885     -0.35788184      2.54710747      0.000247     0.000491    -0.000723
H       1.44634299     -0.12108238      1.75794218     -0.001203     0.000735     0.000542
H      -1.39905950      0.64088085     -1.43641306     -0.000398    -0.000494    -0.000330
H      -0.04174835     -1.29398090     -1.83825251     -0.000512     0.000540    -0.001539
H       1.71551698     -1.45838096     -1.47894652     -0.000518     0.000746    -0.001081
H       0.46347342     -2.05891199     -0.36086599     -0.000098    -0.000677    -0.000083
H       5.89393112      0.77495861      1.15069777     -0.000231    -0.000619     0.001422
H      -3.23270789      2.62127161     -1.69355332     -0.000514    -0.000491    -0.000032
H      -4.22253019      2.90386499     -0.26225889      0.000144     0.000220    -0.000505
H      -2.51976863      3.40939073     -0.26657016     -0.001536     0.000182     0.000347
H       2.75841425      1.88404791      2.80511591      0.000163    -0.000220    -0.000133
H       4.48626117      1.95836242      3.25747132     -0.000417     0.000053    -0.000290
H       3.93883005      2.56216202      1.67766038      0.000431    -0.001133    -0.000534
H      -5.93604179     -1.06547543     -1.31822327      0.000224     0.000044     0.000133
H      -4.93607370      0.26258452      1.10844175      0.001107    -0.000032    -0.000283
H       7.62400027     -0.78088124      0.93441295     -0.000276    -0.001146    -0.000254
H      -5.12365306     -2.52847677      1.20843889     -0.000701    -0.000239    -0.000323
H      -6.04468426     -3.26733677     -0.11910261     -0.000204    -0.000610    -0.000249
H      -4.42212235     -2.68689272     -0.42497229     -0.000553    -0.000013    -0.000206
H       6.01369768     -1.57308321     -1.55881077      0.000464     0.000358    -0.000424
H       7.71433549     -0.99625492     -1.52736986      0.000547     0.000048     0.000112
H       6.30608207      0.07428939     -1.08441873     -0.000006     0.000087     0.000333
H       7.39158338     -3.10619939      1.42382736     -0.000582    -0.001037     0.000026
H       6.66621664     -3.43123354      0.07526232     -0.000004     0.000842     0.000008
H      -8.03928269     -0.19241324      1.85741079     -0.000403     0.000694    -0.000712
53
Frame 50  Energy = -1313.0453744804 Hartree
O      -0.65858820      0.51517879      1.60468161     -0.000082    -0.000151     0.000010
O       3.52697935      0.62524779     -0.45118333     -0.000176    -0.000540    -0.000091
O      -3.58074809     -0.38691439     -1.63384623      0.000243    -0.000030     0.000046
O       4.74187398     -2.12535331      1.29658109     -0.000019    -0.000203    -0.000056
O      -7.13183424     -0.24088431      1.65437607      0.000283    -0.000205     0.000055
O      -8.26342027     -1.02270822     -0.09854557      0.000134    -0.000017     0.000224
N       1.79153791      0.00030443      0.84607472      0.000139     0.000028     0.000043
N      -1.47242267      0.97979147     -0.47948169     -0.000069    -0.000013     0.000133
N       5.31535306      0.05162530      1.55079633      0.000214     0.000037    -0.000004
N      -4.80081907     -0.15151548      0.22873249     -0.000320    -0.000253    -0.000053
N       7.28336575     -2.84299956      0.40738365     -0.000222     0.000105    -0.000110
C       0.84859096      0.08691136     -0.24109001     -0.000126     0.000019     0.000191
C      -2.80913147      1.26597965     -0.04680212      0.000111     0.000144     0.000040
C       3.95620941      0.40317729      1.89971574     -0.000367    -0.000105     0.000008
C      -0.50749636      0.52838417      0.38972028      0.000213     0.000148     0.000016
C       3.06976708      0.34540976      0.65538964     -0.000008     0.000185     0.000190
C       0.72061182     -1.23651711     -0.97829550     -0.000012     0.000127    -0.000334
C      -3.73841313      0.15521412     -0.57202720     -0.000538     0.000108     0.000335
C      -3.24081177      2.61622635     -0.58433947     -0.000182    -0.000147     0.000351
C       3.91496587      1.81841224      2.47439299      0.000084    -0.000331    -0.000018
C      -5.81920060     -1.05828536     -0.22061267      0.000090     0.000160     0.000487
C       6.85714528     -1.45266388      0.39384504     -0.000261     0.000084    -0.000240
C       5.52621143     -1.23009712      1.10567473      0.000069     0.000012     0.000368
C      -5.44972467     -2.53757271      0.12823501     -0.000152    -0.000180    -0.000029
C       6.72128403     -1.02767188     -1.06560826      0.000113     0.000027     0.000142
C      -7.19602900     -0.74217564      0.39660827      0.000133     0.000179    -0.000118
H       1.17523818      0.90747404     -0.88082391     -0.000658    -0.000815    -0.000505
H      -2.80603280      1.30159658      1.06499051      0.000188    -0.000369    -0.000682
H       3.59827438     -0.32308762      2.65109549      0.001038    -0.000652    -0.000638
H       1.41064873     -0.16223945      1.76796838     -0.000145    -0.000537     0.000045
H      -1.35780436      0.82437489     -1.46090879     -0.000060    -0.001129     0.000279
H       0.16734358     -1.07228688     -1.90347100     -0.000935     0.000020     0.000715
H       1.71733030     -1.60822102     -1.20847560      0.000056    -0.000753     0.000827
H       0.24281091     -1.96487191     -0.32601765     -0.000766    -0.000499    -0.000123
H       5.80004328      0.75522698      1.03449988     -0.000334     0.000310     0.000473
H      -3.03688774      2.59836226     -1.65845226      0.000268     0.000544     0.000189
H      -4.29025264      2.79548365     -0.45317341      0.000224     0.000243     0.001665
H      -2.69137234      3.39604397     -0.09293839     -0.000873     0.000957    -0.000451
H       2.90766500      2.10251594      2.72780870      0.000602    -0.000068     0.000918
H       4.52389215      1.89218120      3.39013329      0.000857    -0.000453     0.000038
H       4.22022610      2.58244488      1.74092403      0.000052    -0.001230    -0.000557
H      -5.89223438     -0.99474965     -1.30812029     -0.001162     0.000956     0.000758
H      -4.94916393      0.19396092      1.16564552     -0.000895    -0.000477    -0.000191
H       7.57711152     -0.82739965      0.90307047      0.001912     0.000669    -0.000536
H      -5.40653619     -2.65503847      1.19478577      0.000540    -0.001592    -0.000332
H      -6.30104394     -3.21433582     -0.19998247     -0.000272    -0.000903     0.000257
H      -4.53688689     -2.86485676     -0.35234027     -0.000116    -0.001027     0.000018
H       5.96782371     -1.63440645     -1.55433775     -0.000920     0.001007    -0.000192
H       7.72203173     -1.16819178     -1.53973389     -0.000415    -0.001301    -0.000070
H       6.38735459      0.01075898     -1.17560051     -0.000215    -0.000525     0.000374
H       7.28245467     -3.19940047      1.37409466     -0.001157    -0.000671     0.000125
H       6.51938697     -3.38064369     -0.02663142     -0.000135     0.000062     0.000021
H      -8.07151163     -0.16553097      1.92769726     -0.000049     0.000453    -0.000659
53
Frame 51  Energy = -1313.0395543114 Hartree
O      -0.74009356      0.44395096      1.59455512      0.000186     0.000344     0.000165
O       3.52550770      0.53044957     -0.43138759     -0.000279    -0.000204    -0.000125
O      -3.52749349     -0.41475356     -1.59639020     -0.000051     0.000242    -0.000017
O       4.70172673     -2.21297961      1.25676118     -0.000160     0.000275    -0.000443
O      -7.11761723     -0.20993199      1.66799313     -0.000201     0.000283     0.000112
O      -8.23755426     -1.10941844     -0.06632777      0.000137    -0.000065    -0.000110
N       1.74099258     -0.02538280      0.83348250     -0.000099     0.000290     0.000391
N      -1.47483438      0.99561702     -0.47907202     -0.000121     0.000246     0.000043
N       5.28195479     -0.02586038      1.59594491      0.000016     0.000096     0.000138
N      -4.86918171     -0.00939144      0.20256813     -0.000164     0.000227    -0.000030
N       7.33525592     -2.82227024      0.48372129      0.000506     0.000255     0.000197
C       0.77815139      0.11094284     -0.23321238      0.000076    -0.000058     0.000144
C      -2.82876685      1.27172624     -0.08078464      0.000244    -0.000040     0.000211
C       3.92966685      0.30588192      1.92200010     -0.000377     0.000159    -0.000257
C      -0.54927768      0.54303016      0.40754161     -0.000012    -0.000415    -0.000046
C       3.04709878      0.26306942      0.66076315      0.000028    -0.000391     0.000131
C       0.63635458     -1.18668148     -1.02576579     -0.000053     0.000093    -0.000101
C      -3.74740145      0.16636901     -0.54449616      0.000344     0.000207     0.000009
C      -3.27098370      2.62612752     -0.63926257     -0.000484    -0.000041    -0.000363
C       3.91695754      1.73012602      2.46012450      0.000159    -0.000104     0.000133
C      -5.84654952     -1.01411366     -0.16593217      0.000102     0.000119     0.000216
C       6.82983915     -1.46998330      0.38145275     -0.000419     0.000125     0.000024
C       5.50068333     -1.29255308      1.10449216      0.000056    -0.000136     0.000004
C      -5.41811238     -2.44050537      0.19534931     -0.000227     0.000078     0.000341
C       6.63450623     -1.07681893     -1.06945942     -0.000167     0.000218     0.000079
C      -7.21187959     -0.74325621      0.43793072      0.000167    -0.000007    -0.000006
H       1.12665645      0.92087070     -0.90991725      0.000691     0.000601    -0.000510
H      -2.79663213      1.30098014      1.01408820      0.001206     0.001466    -0.000859
H       3.50111848     -0.38267669      2.67097626     -0.000041    -0.000222     0.000115
H       1.32630450     -0.18241208      1.71845881     -0.000589     0.000168     0.000560
H      -1.32516632      0.72173665     -1.43527680     -0.000669     0.000204     0.000050
H      -0.12816194     -1.07340418     -1.77871878     -0.000684     0.000834    -0.000552
H       1.59723742     -1.39174230     -1.49994669      0.000768    -0.000345    -0.000323
H       0.32491543     -2.04857664     -0.38226301     -0.000944    -0.000106    -0.000359
H       5.78950477      0.71876086      1.17715146      0.001972     0.000483    -0.000700
H      -3.28164473      2.64798379     -1.72734730      0.000818    -0.000110    -0.001558
H      -4.26363326      2.86060240     -0.23368053      0.000130     0.000323    -0.000009
H      -2.55661405      3.36621518     -0.24807540     -0.000451    -0.000079     0.000199
H       2.95221542      2.03684051      2.78031302     -0.000353     0.000229     0.000858
H       4.66425974      1.82629714      3.25800349      0.000404    -0.000391    -0.000349
H       4.29798125      2.41703197      1.69764225     -0.000091    -0.000013    -0.000020
H      -5.92400824     -0.99160965     -1.23276868      0.000447    -0.000095    -0.001235
H      -4.90737719      0.32620430      1.14320542      0.000098     0.000169    -0.000361
H       7.54887939     -0.77381917      0.79266925     -0.001055    -0.000620     0.000341
H      -5.23889058     -2.46847296      1.30299157      0.000692    -0.000053     0.000101
H      -6.21638747     -3.15106134     -0.06731051      0.000487    -0.001059    -0.000821
H      -4.49147741     -2.67158023     -0.32957107     -0.000321    -0.001413    -0.000355
H       5.85643480     -1.68224253     -1.55455877     -0.000663    -0.000144    -0.000230
H       7.56356853     -1.18301172     -1.55472900      0.001212     0.000459    -0.000444
H       6.33973383     -0.04473092     -1.13283164      0.000782     0.000305     0.001345
H       7.41259834     -3.10049859      1.44623537     -0.000069     0.001254     0.000546
H       6.70769538     -3.47760425      0.01764777      0.001644    -0.000119     0.000802
H      -8.02123012     -0.16866402      2.05365523      0.000236    -0.000707    -0.000360
53
Frame 52  Energy = -1313.0495672284 Hartree
O      -0.83687430      0.34676781      1.64042302     -0.000035     0.000200    -0.000181
O       3.40893341      0.55683941     -0.49130875      0.000085    -0.000067    -0.000316
O      -3.57517527     -0.41067041     -1.56101012     -0.000153    -0.000072     0.000444
O       4.63033794     -2.22101524      1.10796363     -0.000040    -0.000064    -0.000203
O      -7.15860443     -0.13620911      1.61067294     -0.000351    -0.000160     0.000018
O      -8.23462077     -1.14442872     -0.07919515      0.000145    -0.000123    -0.000062
N       1.68539907     -0.08178931      0.80736480     -0.000033     0.000203     0.000041
N      -1.50953759      1.02296390     -0.40912813     -0.000107    -0.000006     0.000280
N       5.21752595     -0.09238757      1.55894632     -0.000121     0.000063    -0.000226
N      -4.90508456      0.00327979      0.24339910     -0.000182    -0.000082    -0.000143
N       7.34713607     -2.86987465      0.46566088      0.000319    -0.000113    -0.000040
C       0.68984489      0.06295832     -0.20297294     -0.000003     0.000025     0.000087
C      -2.88499575      1.28116980     -0.03985413      0.000240     0.000169    -0.000090
C       3.85532997      0.27287780      1.84820776      0.000355     0.000041    -0.000164
C      -0.63225253      0.43325622      0.44803173     -0.000012     0.000378     0.000181
C       2.97420428      0.22846668      0.60030310     -0.000107    -0.000073    -0.000187
C       0.49224415     -1.19641630     -1.08022786     -0.000106     0.000014    -0.000223
C      -3.78643299      0.19136968     -0.52805500     -0.000013     0.000317    -0.000233
C      -3.38277324      2.64069474     -0.62860837      0.000274     0.000098     0.000017
C       3.77516757      1.70107479      2.39714384     -0.000497    -0.000280    -0.000284
C      -5.84250247     -1.05479499     -0.09844565      0.000116    -0.000310     0.000246
C       6.82374253     -1.51513490      0.37085192      0.000034    -0.000043    -0.000031
C       5.45347288     -1.33220441      1.02431789      0.000013     0.000014    -0.000008
C      -5.36298928     -2.45008313      0.34432589     -0.000259    -0.000006    -0.000010
C       6.77842634     -1.06300248     -1.08705578      0.000039     0.000180    -0.000038
C      -7.22008585     -0.78432064      0.43924608     -0.000022     0.000084     0.000256
H       1.01548417      0.88313946     -0.86627608      0.000435     0.000338    -0.001166
H      -2.89311204      1.31922411      1.05344988     -0.000010     0.000192     0.000172
H       3.46736949     -0.40582385      2.63298165     -0.001735    -0.000068     0.000847
H       1.39194967     -0.24331867      1.76519509     -0.000687    -0.000035     0.000372
H      -1.34942288      0.92744773     -1.38954209      0.000183     0.000839    -0.000732
H      -0.32977274     -1.04367024     -1.78334166     -0.000459     0.000187    -0.000555
H       1.44507001     -1.44270887     -1.57908140      0.000244     0.000341     0.000091
H       0.20625132     -2.03771556     -0.42988471     -0.000015    -0.000586     0.000325
H       5.79740967      0.62223538      1.16900589     -0.000728    -0.000112    -0.000910
H      -3.54248053      2.56958496     -1.71272859      0.000510    -0.001469     0.000369
H      -4.35327173      2.90434587     -0.22168043      0.000291    -0.001549    -0.000011
H      -2.68086615      3.42216790     -0.39537048     -0.000036    -0.000254    -0.000700
H       2.74692564      1.94275603      2.57135294     -0.000410    -0.000005    -0.000105
H       4.37542027      1.82820110      3.28062153     -0.001259    -0.000814    -0.000364
H       4.13581013      2.37210631      1.63154173      0.001381     0.000656     0.000185
H      -5.91589101     -1.08169072     -1.21032575      0.000817    -0.000468     0.000291
H      -4.93885934      0.29803533      1.18351014      0.000352    -0.000476     0.000718
H       7.51324913     -0.91475758      0.93715788     -0.000778     0.000551     0.001491
H      -5.22496446     -2.53918653      1.41598340      0.000307     0.000151    -0.000215
H      -6.09388674     -3.20498924      0.04640245      0.000796     0.000328    -0.001139
H      -4.40804089     -2.65739297     -0.17963265      0.001519     0.000468    -0.000431
H       6.30753935     -1.80161003     -1.74920062      0.000276    -0.000876     0.000507
H       7.79350689     -0.85651336     -1.46586035      0.000660    -0.000046     0.001458
H       6.21510101     -0.16122896     -1.18827194      0.000475     0.000030     0.000769
H       7.46154281     -3.12320028      1.41765084     -0.000603     0.001517    -0.000229
H       6.63791386     -3.49123300      0.07328019      0.000624    -0.000109     0.000283
H      -8.09315968     -0.04183978      1.93237188      0.000722     0.000925     0.001192
53
Frame 53  Energy = -1313.0271762105 Hartree
O      -0.81592604      0.29242119      1.65936252      0.000320    -0.000258     0.000358
O       3.42612187      0.45002833     -0.48005701     -0.000145     0.000075    -0.000191
O      -3.62716010     -0.32443383     -1.61606643      0.000068     0.000122     0.000003
O       4.67090004     -2.25271617      1.03836226     -0.000196     0.000407    -0.000016
O      -7.21856657     -0.14633799      1.61198781     -0.000312    -0.000067     0.000256
O      -8.25755120     -1.14708669     -0.12350075      0.000198     0.000299    -0.000136
N       1.64382250     -0.06400952      0.81650309     -0.000200     0.000102    -0.000073
N      -1.52728592      1.00899383     -0.38832363      0.000105    -0.000060     0.000033
N       5.19211749     -0.12549340      1.56374014     -0.000308     0.000119    -0.000005
N      -4.91588627     -0.02653253      0.24219920     -0.000041    -0.000071     0.000043
N       7.29738638     -2.83925166      0.34786761      0.000193    -0.000106     0.000077
C       0.66512542      0.06075598     -0.21192726      0.000079    -0.000078     0.000008
C      -2.89691665      1.24134851      0.05878887      0.000113     0.000029    -0.000219
C       3.83397355      0.24870905      1.86553715      0.000255    -0.000273     0.000408
C      -0.64476674      0.48221875      0.45913329      0.000154     0.000107     0.000606
C       2.95896147      0.16436199      0.60807460     -0.000157    -0.000188     0.000088
C       0.50788654     -1.24569791     -0.99395488     -0.000302     0.000182    -0.000204
C      -3.82284923      0.18497937     -0.53720615     -0.000141    -0.000172     0.000342
C      -3.35593299      2.63225554     -0.45829141      0.000152     0.000033    -0.000080
C       3.82269974      1.68414412      2.38850859      0.000044     0.000289    -0.000038
C      -5.84793415     -1.06788531     -0.13603591     -0.000234    -0.000119     0.000033
C       6.85586613     -1.45456659      0.35084546      0.000072     0.000055    -0.000383
C       5.46045283     -1.34109866      1.00302035     -0.000023     0.000513    -0.000026
C      -5.45242447     -2.47097087      0.38832198     -0.000114     0.000153    -0.000138
C       6.74100587     -0.94004449     -1.08549828     -0.000066    -0.000006     0.000438
C      -7.24547061     -0.79402012      0.41886175     -0.000062     0.000228    -0.000425
H       1.01429168      0.85919912     -0.88275249      0.000461     0.001275     0.000486
H      -2.89826135      1.23016558      1.14800218     -0.001009    -0.000312    -0.000315
H       3.43314931     -0.44324616      2.63033297     -0.000689     0.001224     0.000320
H       1.28684908     -0.26800359      1.75468588     -0.000732     0.001002    -0.000126
H      -1.33605686      0.94348515     -1.38006567     -0.000212    -0.000390     0.001272
H      -0.04893528     -1.12920969     -1.94822257      0.001163    -0.000638    -0.000005
H       1.53983377     -1.55844212     -1.22712738     -0.000427    -0.000404    -0.000839
H      -0.00651863     -1.98297653     -0.38823185      0.001093     0.001169     0.000232
H       5.77793161      0.65061668      1.32704854     -0.001291     0.000567     0.000606
H      -3.28595837      2.63632361     -1.54046535     -0.000496    -0.000784    -0.001599
H      -4.39180116      2.83505348     -0.07566148      0.001104     0.000018     0.000372
H      -2.64975786      3.33805520     -0.05922356     -0.000582    -0.000683    -0.000686
H       2.80808806      2.05754263      2.56749388     -0.000109    -0.000778    -0.000221
H       4.37935363      1.73224036      3.33701527      0.001487    -0.000299     0.000685
H       4.27923876      2.38973435      1.65987002     -0.000334    -0.000774    -0.000142
H      -5.96589112     -1.10209632     -1.22836413      0.000604    -0.000900    -0.000781
H      -4.95926058      0.40839084      1.16751566      0.000870     0.001600    -0.000159
H       7.55645436     -0.80956977      0.88054584     -0.000922     0.000587     0.000428
H      -5.45778538     -2.46676545      1.48372723     -0.001402     0.000410     0.000208
H      -6.18655202     -3.18988812      0.02455474      0.000549    -0.000429     0.000172
H      -4.46275981     -2.78429661      0.04788096     -0.000002     0.000367     0.001845
H       6.17866408     -1.64463720     -1.72157762     -0.000864     0.000418    -0.000668
H       7.75121414     -0.90302315     -1.44834150     -0.000265    -0.000255    -0.001462
H       6.28411191      0.03887050     -1.10078751     -0.000006     0.001251    -0.000425
H       7.57558253     -3.10583427      1.28095670     -0.000525    -0.001297     0.000485
H       6.50609167     -3.45911777      0.13456775      0.001538     0.000917     0.000743
H      -8.11172244      0.05425174      1.89195892     -0.001102     0.000835     0.000779
53
Frame 54  Energy = -1313.0416998557 Hartree
O      -0.63026685      0.54169842      1.66734506      0.000147    -0.000371     0.000023
O       3.49027221      0.43782006     -0.55124992      0.000127     0.000162     0.000073
O      -3.55626687     -0.36920186     -1.53719651      0.000273     0.000268    -0.000078
O       4.77376459     -2.24169893      1.08031826      0.000013    -0.000344     0.000103
O      -7.21551384     -0.10848979      1.56200530      0.000088    -0.000164     0.000179
O      -8.25139585     -1.17205537     -0.10724318     -0.000041     0.000339     0.000089
N       1.73984968     -0.10428807      0.78074912     -0.000084     0.000025    -0.000145
N      -1.52464253      0.92233607     -0.34798018      0.000168     0.000229    -0.000048
N       5.27509891     -0.07954351      1.50670478      0.000072    -0.000332    -0.000221
N      -4.94899360     -0.01922650      0.22301663     -0.000079     0.000356    -0.000245
N       7.37750734     -2.83055994      0.29962843     -0.000084    -0.000228     0.000108
C       0.74019519      0.01981899     -0.23231057     -0.000015     0.000176    -0.000194
C      -2.85549114      1.23667180      0.10385409      0.000012    -0.000173    -0.000161
C       3.89743921      0.25884661      1.80777183      0.000199     0.000007    -0.000316
C      -0.51772095      0.52908085      0.47534658      0.000060    -0.000242    -0.000234
C       3.03978867      0.17887581      0.55098316     -0.000267    -0.000032     0.000064
C       0.45513612     -1.28794847     -0.98580037      0.000343     0.000086     0.000324
C      -3.79719683      0.18738975     -0.48693184      0.000199     0.000098    -0.000087
C      -3.30955063      2.64838178     -0.37089634     -0.000028    -0.000150    -0.000003
C       3.81641223      1.65074433      2.39369740     -0.000237    -0.000148     0.000003
C      -5.83714174     -1.08828927     -0.13737299      0.000030     0.000210    -0.000201
C       6.91446431     -1.45957264      0.33463405     -0.000271    -0.000028     0.000433
C       5.55437708     -1.32038847      1.00783703     -0.000040    -0.000251     0.000437
C      -5.34139573     -2.41788472      0.36911789      0.000240     0.000233    -0.000008
C       6.76217697     -0.90442570     -1.07221140      0.000021    -0.000262    -0.000204
C      -7.22783519     -0.80266535      0.38471053      0.000008     0.000477     0.000219
H       1.09702138      0.79921872     -0.94439418     -0.000336    -0.000410     0.000146
H      -2.84097260      1.19677679      1.19908872     -0.000458    -0.000061    -0.000442
H       3.52676957     -0.51088538      2.51339722      0.000914     0.000896    -0.002081
H       1.39777284     -0.20074209      1.72654609      0.000243     0.000881    -0.000490
H      -1.42759422      0.79354466     -1.33669464     -0.000001     0.000808     0.000516
H      -0.18768107     -1.15424475     -1.87746636      0.000946     0.000163     0.000997
H       1.40912752     -1.68725422     -1.36309551     -0.000449     0.001896     0.000970
H       0.00668042     -1.99977499     -0.32100752     -0.000675    -0.000687     0.000013
H       5.89604221      0.64739087      1.16693353     -0.000668    -0.000271     0.000951
H      -3.16917907      2.70445205     -1.45936319      0.001187     0.001286    -0.000019
H      -4.35107250      2.83823323     -0.09866172      0.000389    -0.000164    -0.000360
H      -2.69314566      3.38787022      0.14974618      0.000199    -0.001196     0.000395
H       2.73041905      1.88654854      2.53497667     -0.001343    -0.000052     0.000507
H       4.33157507      1.75627399      3.34255197      0.000421    -0.000019     0.000126
H       4.20673711      2.37972471      1.64979759     -0.000102    -0.001306     0.001481
H      -5.93315441     -1.09159836     -1.22355190      0.000776    -0.000090    -0.000195
H      -5.02544326      0.29156629      1.16019515     -0.001681     0.000164    -0.000171
H       7.67114185     -0.84270586      0.88656863      0.000126    -0.000177     0.000399
H      -5.37003484     -2.47956470      1.45841354      0.000402     0.000289     0.001107
H      -5.93446685     -3.24277546     -0.01773616     -0.000259     0.000206    -0.000238
H      -4.31257973     -2.55010509      0.05562379     -0.000217    -0.000641    -0.000393
H       6.00262392     -1.45007013     -1.59035480     -0.000814     0.000129    -0.001092
H       7.71612574     -0.99911364     -1.61563571      0.000217    -0.000836     0.000172
H       6.45368262      0.12991194     -1.02545769      0.000666    -0.000916     0.000272
H       7.77205411     -3.13825962      1.19386240      0.000670    -0.000737     0.000579
H       6.57454232     -3.44151841      0.14081414      0.000549    -0.001082     0.001342
H      -8.11951022     -0.03829820      1.89738135     -0.000244     0.000564     0.000836
53
Frame 55  Energy = -1313.0440001170 Hartree
O      -0.60669783      0.49701558      1.69695659      0.000103    -0.000092     0.000070
O       3.52180734      0.37977339     -0.56634003      0.000058    -0.000253    -0.000191
O      -3.53860882     -0.33291875     -1.57739819     -0.000038    -0.000070    -0.000177
O       4.72783055     -2.24447658      1.13986096     -0.000025     0.000276    -0.000394
O      -7.18712005     -0.18642728      1.62840498      0.000052     0.000031    -0.000147
O      -8.19739911     -1.16636357     -0.11174500      0.000160     0.000010    -0.000069
N       1.77012261     -0.14842546      0.77645658      0.000449     0.000444     0.000070
N      -1.47007508      0.93547569     -0.35385511     -0.000032    -0.000085     0.000186
N       5.27288630     -0.06183740      1.48806788      0.000159     0.000097     0.000021
N      -4.89119491     -0.03462788      0.24635797     -0.000090     0.000209     0.000016
N       7.40848180     -2.86802098      0.39740602      0.000044     0.000111    -0.000285
C       0.75048997     -0.00674707     -0.23303096      0.000118     0.000147    -0.000001
C      -2.84036165      1.26177731      0.08573171      0.000015     0.000174    -0.000369
C       3.91722902      0.32994077      1.79710506      0.000068     0.000372     0.000284
C      -0.51465447      0.45727082      0.47211839      0.000107     0.000087    -0.000135
C       3.07259600      0.17951405      0.54129830      0.000117     0.000238    -0.000018
C       0.52407508     -1.28698858     -1.06871013     -0.000100     0.000104     0.000256
C      -3.79211497      0.21216989     -0.51502093     -0.000088     0.000282    -0.000262
C      -3.27823965      2.66407168     -0.33519407      0.000176     0.000077     0.000118
C       3.93506004      1.77597662      2.31440800      0.000038    -0.000118     0.000211
C      -5.78091180     -1.09877978     -0.11597166      0.000110     0.000300     0.000257
C       6.92665288     -1.50761913      0.40000299     -0.000614    -0.000201    -0.000019
C       5.53981719     -1.33120320      1.05369369      0.000112     0.000137     0.000198
C      -5.29895608     -2.48834363      0.33097308      0.000423     0.000012     0.000235
C       6.81348766     -0.99176678     -1.03958074      0.000005    -0.000137    -0.000023
C      -7.19458838     -0.79652324      0.42693633      0.000331    -0.000204     0.000202
H       1.03775133      0.80805231     -0.87709731      0.000922     0.000298     0.000533
H      -2.82132713      1.18399693      1.18397115     -0.000303    -0.000706    -0.000603
H       3.51456367     -0.36125083      2.54009339     -0.000044    -0.001130    -0.000649
H       1.42408791     -0.33960933      1.70301259      0.000148     0.000791     0.000810
H      -1.44045425      0.67396126     -1.33557783      0.000639    -0.000890     0.001013
H      -0.22805597     -1.17674510     -1.83594209      0.000400    -0.000054    -0.000716
H       1.46559281     -1.52721223     -1.57644585      0.000201     0.000122     0.000150
H       0.24078971     -2.10402956     -0.41222476      0.000687    -0.000560     0.000282
H       5.95221258      0.65166851      1.28710295     -0.000599     0.000255     0.000979
H      -3.33987009      2.81347938     -1.40733932      0.000576     0.000468     0.000196
H      -4.25728372      2.93428297      0.10389273      0.001432    -0.000915     0.000697
H      -2.54915761      3.38632967      0.06487627     -0.001173     0.000122    -0.000599
H       2.90826167      2.08566324      2.63069049     -0.001081     0.000103    -0.000505
H       4.58565759      1.91597234      3.18352486      0.000348    -0.000476     0.000457
H       4.25779127      2.42806242      1.51132766     -0.001354    -0.000048    -0.000222
H      -5.83632457     -1.09538939     -1.20922478     -0.001210     0.000441    -0.000840
H      -4.94750833      0.25075525      1.19601931     -0.001251    -0.000559     0.000579
H       7.61343117     -0.87955629      0.96665235     -0.000054     0.000476     0.000619
H      -5.19572216     -2.52096083      1.41657863     -0.000482    -0.000066     0.000173
H      -5.98049878     -3.23903245     -0.04303282      0.000495    -0.000525     0.000673
H      -4.29965158     -2.63054455     -0.06958085     -0.000023    -0.002407     0.000592
H       6.04588802     -1.59000228     -1.52692659     -0.000892     0.000044     0.000239
H       7.77955462     -1.15123898     -1.48551885     -0.001126     0.001324     0.000369
H       6.48841520      0.05189313     -1.07063923     -0.000084     0.000173     0.000751
H       7.40369528     -3.18474496      1.38110947     -0.001206    -0.000328    -0.000578
H       6.70880667     -3.43949887     -0.05849216     -0.000480     0.000017     0.000818
H      -8.14587193     -0.08732989      1.85058454     -0.001189     0.000239     0.000043
53
Frame 56  Energy = -1313.0444173897 Hartree
O      -0.60065296      0.36713938      1.63144986      0.000163    -0.000020    -0.000289
O       3.63503139      0.46609587     -0.56697858      0.000123     0.000341    -0.000143
O      -3.52951657     -0.41916885     -1.60344574      0.000346    -0.000142    -0.000155
O       4.74487387     -2.19405294      1.24303740     -0.000087    -0.000082     0.000078
O      -7.15794471     -0.25489668      1.57227582     -0.000281    -0.000100    -0.000127
O      -8.23338598     -1.11923589     -0.22037831      0.000068    -0.000009    -0.000165
N       1.82021486     -0.02744128      0.75189323      0.000163     0.000304    -0.000020
N      -1.48657654      0.93786753     -0.39436420     -0.000142     0.000152    -0.000192
N       5.32256380     -0.03977872      1.52615609      0.000098    -0.000329    -0.000216
N      -4.87508658     -0.11718020      0.21303247     -0.000272     0.000344     0.000227
N       7.35481922     -2.92969111      0.51682048     -0.000140    -0.000335     0.000231
C       0.80205652      0.09442684     -0.26318509      0.000071    -0.000264     0.000005
C      -2.83145427      1.19432980      0.05280673      0.000063    -0.000223    -0.000017
C       3.96010639      0.33495011      1.79754543      0.000549    -0.000284    -0.000331
C      -0.50060983      0.49990191      0.42433649     -0.000023    -0.000170    -0.000028
C       3.12085030      0.25881668      0.52342082      0.000155    -0.000036     0.000059
C       0.56869124     -1.27021283     -0.97883640     -0.000136     0.000128     0.000144
C      -3.76223019      0.12473013     -0.52385439      0.000129    -0.000090     0.000049
C      -3.26435077      2.57559721     -0.40378487      0.000051     0.000121    -0.000013
C       3.84236730      1.74414840      2.35614028     -0.000133    -0.000029    -0.000184
C      -5.80776852     -1.16612241     -0.18416610      0.000095    -0.000470     0.000418
C       6.92735343     -1.53406690      0.46354876      0.000127     0.000259     0.000073
C       5.56063182     -1.30565704      1.09036963     -0.000143     0.000057     0.000109
C      -5.42843146     -2.55245622      0.35549013      0.000104    -0.000119     0.000059
C       6.82186215     -1.10012842     -0.99674256     -0.000172     0.000282    -0.000067
C      -7.20140945     -0.85137087      0.34055060      0.000232    -0.000272     0.000151
H       1.11763823      0.85767790     -0.97930967      0.000516    -0.000400     0.002332
H      -2.78677526      1.13650322      1.13876975      0.000751     0.001293    -0.000785
H       3.53266138     -0.37537381      2.51522099     -0.000454     0.000684     0.000293
H       1.47922528     -0.19477388      1.71526742      0.000625    -0.000299    -0.001071
H      -1.38467547      0.81613918     -1.36758214      0.000294     0.000787     0.000362
H      -0.20169675     -1.25822584     -1.77762198      0.000402    -0.000435     0.000235
H       1.48774116     -1.60963024     -1.42389364     -0.000395    -0.000580    -0.000595
H       0.20645641     -2.01949835     -0.24823250      0.000407    -0.000929     0.000789
H       5.89753737      0.68979396      1.11945197     -0.000822     0.000909     0.000629
H      -3.26940615      2.65510968     -1.47929991     -0.000423     0.000243    -0.000151
H      -4.23866331      2.86921862     -0.05966381     -0.000810    -0.001438     0.000030
H      -2.53638830      3.30028094     -0.03272651     -0.000968     0.001427    -0.000469
H       2.80430396      2.04463036      2.47582846      0.000502     0.000866    -0.000918
H       4.29458566      1.82448992      3.34077389      0.000961     0.000294     0.000439
H       4.30601410      2.42905745      1.66510325     -0.001609    -0.000520    -0.000399
H      -5.85050796     -1.18521034     -1.27452502      0.000555     0.000025    -0.000070
H      -4.83986643      0.03617027      1.20561745      0.000625    -0.000942     0.000577
H       7.69998555     -0.91228022      0.92874881      0.001039    -0.000627     0.000034
H      -5.37774230     -2.51490394      1.44005290     -0.000758     0.001863    -0.000721
H      -6.18887812     -3.30062086      0.10422723     -0.001091     0.000151     0.000763
H      -4.46587754     -2.82038202     -0.02792758     -0.000506    -0.000221    -0.000231
H       6.10127447     -1.70376663     -1.56202541     -0.000272     0.000143    -0.000065
H       7.80951254     -1.23346642     -1.44485426     -0.000856    -0.000159     0.000659
H       6.55045124     -0.05668518     -1.08116383     -0.000346     0.000256    -0.000335
H       7.23379258     -3.27147884      1.46294317     -0.000264     0.000371     0.000321
H       6.69984613     -3.46145846     -0.05283761      0.000242    -0.000761    -0.000112
H      -8.06189832     -0.12703206      1.86683235     -0.000305     0.001079    -0.000059
53
Frame 57  Energy = -1313.0382011914 Hartree
O      -0.64419489      0.57411850      1.65025271     -0.000134     0.000013    -0.000151
O       3.51942398      0.33018332     -0.55739197     -0.000050     0.000011     0.000047
O      -3.52882076     -0.49997785     -1.57651814     -0.000265     0.000182     0.000631
O       4.83524891     -2.21886250      1.27406060      0.000330    -0.000312     0.000208
O      -7.18489171     -0.24853166      1.50573751      0.000062    -0.000137    -0.000245
O      -8.24470776     -1.11414955     -0.25968204      0.000032    -0.000025    -0.000262
N       1.77920443      0.00016426      0.82489578      0.000074     0.000345     0.000017
N      -1.50017280      0.86841021     -0.43322419      0.000095    -0.000021    -0.000134
N       5.34314453     -0.05664837      1.43611225      0.000266    -0.000006     0.000098
N      -4.92584023     -0.04981745      0.14668388     -0.000068    -0.000162     0.000094
N       7.38854830     -2.94776726      0.55758353      0.000114    -0.000318     0.000182
C       0.79407645      0.12290222     -0.23916785     -0.000093     0.000129    -0.000158
C      -2.83629049      1.12157469      0.04906840     -0.000308     0.000198     0.000081
C       3.98795684      0.31269383      1.81587992     -0.000089    -0.000174    -0.000288
C      -0.50521228      0.54060272      0.42214353      0.000058     0.000446     0.000039
C       3.09411842      0.19588837      0.57416702     -0.000119    -0.000107    -0.000053
C       0.62960123     -1.14795031     -1.03945082     -0.000438    -0.000105     0.000117
C      -3.78361147      0.09911132     -0.54765109      0.000007    -0.000045     0.000164
C      -3.27940238      2.53117822     -0.30091322     -0.000208    -0.000027    -0.000158
C       3.95456176      1.75282639      2.30834597      0.000230    -0.000390    -0.000252
C      -5.86309786     -1.10350102     -0.25558860      0.000211    -0.000155    -0.000053
C       6.97908919     -1.59195985      0.43217595      0.000056     0.000234     0.000038
C       5.63864403     -1.34315821      1.10864801      0.000071     0.000191    -0.000479
C      -5.38228061     -2.49802976      0.20484709     -0.000017     0.000018    -0.000064
C       6.84708606     -1.25542246     -1.05609877     -0.000170     0.000164    -0.000171
C      -7.21865552     -0.83296279      0.29379177      0.000073    -0.000580     0.000275
H       1.08440791      0.94572093     -0.93388071     -0.000627     0.000406    -0.000413
H      -2.79613611      1.01131132      1.11663194      0.000904    -0.000838    -0.000186
H       3.58629493     -0.36752391      2.57414219      0.000241    -0.001223    -0.000103
H       1.44060935      0.01589295      1.74810073      0.000830    -0.000958     0.001037
H      -1.36231861      0.81571532     -1.45265301      0.000121     0.001049    -0.000380
H      -0.22084050     -1.08017238     -1.72490219     -0.000635     0.000704    -0.000587
H       1.53246057     -1.35773537     -1.60050249     -0.000577    -0.000059     0.000380
H       0.46180819     -1.99285144     -0.35816804     -0.000510    -0.001207     0.000492
H       5.89914580      0.67659785      1.03722922     -0.000424     0.000400     0.000321
H      -3.22144051      2.70825732     -1.36691796     -0.000592     0.000410    -0.000394
H      -4.31349811      2.67827759     -0.01628165      0.000467     0.001621     0.000631
H      -2.69149392      3.29032039      0.20652344     -0.000352     0.001007     0.000194
H       2.96298339      2.05673396      2.63692366      0.000343     0.000312     0.001337
H       4.57233015      1.83958981      3.17448844      0.000663    -0.000806    -0.000112
H       4.35862964      2.42875540      1.57211283      0.000587    -0.000729     0.000219
H      -5.92095142     -1.11467603     -1.35068066      0.000950     0.001197     0.000466
H      -5.02222359      0.39012824      1.05536875      0.000327    -0.000526    -0.000420
H       7.69333642     -0.92443384      0.88744431      0.000172    -0.000489     0.000391
H      -5.39675222     -2.56560795      1.31996311      0.000397     0.000291    -0.001204
H      -6.10017055     -3.24880060     -0.18816262      0.000957     0.000462    -0.001717
H      -4.37197765     -2.69540129     -0.12952082     -0.000218     0.000481     0.002326
H       6.13598925     -1.94003094     -1.52224534     -0.000601    -0.000765    -0.000247
H       7.79626679     -1.37469328     -1.49694876      0.000463    -0.001192    -0.000176
H       6.50447509     -0.21750642     -1.23047187     -0.000242    -0.000310     0.001006
H       7.49254912     -3.21555008      1.51261070     -0.000374    -0.000489    -0.000539
H       6.74574085     -3.56659944      0.11976532     -0.000471    -0.000752     0.000169
H      -8.07476315     -0.04079701      1.81011208     -0.000310     0.000253     0.000225
53
Frame 58  Energy = -1313.0386853312 Hartree
O      -0.62300363      0.66974846      1.71158302      0.000118     0.000058    -0.000066
O       3.58149860      0.33983041     -0.56572935     -0.000209     0.000019     0.000097
O      -3.52202837     -0.40840840     -1.56610434     -0.000261    -0.000138     0.000018
O       4.81960985     -2.28733837      1.26051215      0.000042    -0.000004     0.000103
O      -7.28203152     -0.33905802      1.49483222      0.000014    -0.000527     0.000037
O      -8.32110843     -1.12819809     -0.32487342      0.000183     0.000021     0.000127
N       1.75876611      0.01128499      0.78009159     -0.000497    -0.000396    -0.000014
N      -1.54757703      0.95931256     -0.33130067      0.000047    -0.000091     0.000083
N       5.32683427     -0.09802812      1.47699285      0.000158    -0.000460    -0.000096
N      -4.94860017     -0.12410505      0.18393787      0.000035    -0.000287    -0.000295
N       7.39573282     -2.97060994      0.61729616      0.000110     0.000235    -0.000394
C       0.72074996      0.16481550     -0.22909137      0.000181    -0.000075     0.000044
C      -2.89979250      1.21352768      0.12249298      0.000535     0.000083    -0.000093
C       3.97452947      0.32586363      1.78612676      0.000120    -0.000065    -0.000058
C      -0.53668161      0.61281364      0.50399768      0.000309     0.000031    -0.000112
C       3.06957048      0.22090407      0.52713855      0.000342     0.000354    -0.000083
C       0.55230884     -1.12708134     -1.05637313     -0.000018    -0.000179    -0.000208
C      -3.80215305      0.12930905     -0.51763728      0.000027    -0.000133     0.000190
C      -3.37626979      2.62652768     -0.21387792      0.000189     0.000317    -0.000048
C       4.01057247      1.73925475      2.35476505     -0.000252     0.000220     0.000053
C      -5.90547750     -1.09450327     -0.27272609      0.000303     0.000226    -0.000021
C       6.97963084     -1.61245938      0.43707138     -0.000338     0.000176    -0.000103
C       5.59603445     -1.37659146      1.10382184      0.000019    -0.000040    -0.000028
C      -5.47674263     -2.49174435      0.16556293      0.000294    -0.000257    -0.000315
C       6.78040438     -1.38339535     -1.07179345     -0.000100     0.000100    -0.000394
C      -7.30628810     -0.84129348      0.26009854      0.000004     0.000080     0.000126
H       1.07531411      0.95116671     -0.91176935     -0.001264    -0.000147     0.000646
H      -2.95276508      1.05232538      1.20613126     -0.000756    -0.000046     0.001088
H       3.51517576     -0.39073549      2.49626393      0.001316     0.001017    -0.000261
H       1.46927235     -0.00077377      1.74797320      0.000025    -0.001881    -0.001165
H      -1.50350625      0.62641629     -1.28676778     -0.000334     0.000709    -0.000399
H      -0.16302635     -1.01865943     -1.87781763     -0.001155     0.000156     0.000650
H       1.51190613     -1.41524419     -1.52154388     -0.000393    -0.000633     0.000604
H       0.24431308     -1.96603017     -0.43972379      0.000842     0.000150     0.000431
H       5.95338868      0.63107826      1.17213760     -0.000551     0.000284    -0.000833
H      -3.24244455      2.81421757     -1.27067286      0.000370     0.000107    -0.000397
H      -4.41540233      2.77581391      0.07996298     -0.001347     0.000311    -0.000775
H      -2.77915014      3.36778219      0.32757161      0.001021    -0.000170    -0.001051
H       3.03718931      2.11441566      2.66848844     -0.000264    -0.000683     0.000495
H       4.69313446      1.75893525      3.19128024      0.000440     0.000300    -0.000455
H       4.35674451      2.43841310      1.63563929     -0.000192     0.000822    -0.000364
H      -6.00889314     -1.07920206     -1.34492268      0.000986     0.000357    -0.001857
H      -5.09972936      0.33792506      1.04663285     -0.000085    -0.000338     0.000527
H       7.73148474     -0.90668101      0.85537486     -0.000597     0.000474     0.000156
H      -5.39310934     -2.62010813      1.25309724     -0.000588    -0.000720    -0.000016
H      -6.14831449     -3.27941957     -0.19196247     -0.000156    -0.000628     0.000094
H      -4.47555663     -2.68987838     -0.24619191     -0.000305     0.000729     0.000044
H       6.12293027     -2.10173825     -1.52981502      0.000183     0.000767     0.000409
H       7.74978363     -1.40413560     -1.56642426      0.000598     0.000110    -0.000603
H       6.33039000     -0.41088269     -1.21653553      0.000500    -0.002353     0.000538
H       7.67760967     -3.18935134      1.59177355      0.000050    -0.000220    -0.000096
H       6.62435641     -3.59043863      0.35023703      0.000456     0.000328    -0.000456
H      -8.17878076     -0.34212076      1.82396581     -0.000741    -0.000609     0.000407
53
Frame 59  Energy = -1313.0433337192 Hartree
O      -0.68512542      0.58381707      1.75349802     -0.000307    -0.000261    -0.000301
O       3.55428107      0.30273333     -0.57147219     -0.000149    -0.000144    -0.000116
O      -3.58527825     -0.25136670     -1.57870978      0.000213     0.000208    -0.000240
O       4.70201503     -2.30629254      1.08553848      0.000064    -0.000039     0.000012
O      -7.26733112     -0.36125632      1.49754782      0.000231     0.000171     0.000157
O      -8.26508214     -1.13994191     -0.33903391     -0.000182     0.000179     0.000409
N       1.74664078      0.10635873      0.80388484      0.000113    -0.000020     0.000265
N      -1.51353344      1.02543067     -0.30909011     -0.000152    -0.000268    -0.000085
N       5.28279410     -0.15652572      1.49641175      0.000150     0.000009    -0.000216
N      -4.91088363     -0.15891457      0.24615255      0.000045     0.000276    -0.000321
N       7.41510919     -3.00304466      0.69224342     -0.000040     0.000178    -0.000185
C       0.71537451      0.22264228     -0.19910606      0.000182    -0.000097     0.000684
C      -2.87628701      1.23064763      0.15867223     -0.000229     0.000130    -0.000097
C       3.94026223      0.25528058      1.81650967     -0.000114    -0.000206    -0.000111
C      -0.55938091      0.61494844      0.53821927      0.000328    -0.000419     0.000299
C       3.08478628      0.24928436      0.55232462      0.000083     0.000001    -0.000060
C       0.49864106     -1.07672601     -0.95236161      0.000114    -0.000036    -0.000222
C      -3.81602818      0.17673992     -0.46685839      0.000095    -0.000159     0.000204
C      -3.38340461      2.60142279     -0.29714881      0.000093    -0.000216    -0.000006
C       3.99347989      1.65800109      2.35734459     -0.000125    -0.000188     0.000054
C      -5.85074903     -1.10190115     -0.27954514     -0.000163     0.000193    -0.000275
C       6.91240671     -1.66113945      0.41732185     -0.000151     0.000439    -0.000171
C       5.53257910     -1.42689324      1.03434403     -0.000011    -0.000091    -0.000396
C      -5.45054422     -2.55800984      0.00271023      0.000086    -0.000342     0.000119
C       6.84969189     -1.44559055     -1.09408594      0.000008     0.000065     0.000073
C      -7.24309583     -0.88071140      0.24346125     -0.000018    -0.000124    -0.000150
H       1.03234235      0.98168852     -0.87806953     -0.000388    -0.000841    -0.000645
H      -2.84073814      1.12890316      1.22954828      0.000276     0.000672     0.000187
H       3.49957168     -0.44512610      2.52827312     -0.000950    -0.001331    -0.000759
H       1.42795913      0.11791016      1.74779679      0.000222    -0.000192     0.001844
H      -1.34724894      0.70663372     -1.26201963     -0.000234     0.000312     0.000375
H      -0.15355395     -0.96402067     -1.83530493      0.000231     0.000568     0.000931
H       1.44686811     -1.37810367     -1.36402213      0.000196    -0.000710     0.000718
H       0.14996081     -1.88446377     -0.30370099      0.000190     0.000322    -0.000341
H       5.89088010      0.59143940      1.12132760      0.000400    -0.000572    -0.000536
H      -3.39729672      2.61353388     -1.40655762      0.000094    -0.000207    -0.000662
H      -4.37028697      2.78485972      0.12975992      0.000033    -0.000232     0.000767
H      -2.72004419      3.39408680      0.05948721     -0.000747    -0.000599    -0.000055
H       3.01762486      2.03335834      2.61842593      0.001764     0.000473    -0.000682
H       4.64818719      1.71960375      3.24163641      0.001110    -0.000599     0.000627
H       4.37626160      2.29333321      1.58119812     -0.000299    -0.000161    -0.000322
H      -5.91617601     -0.95587107     -1.35313620      0.000126     0.000571    -0.000957
H      -4.98241229      0.19803766      1.18497152      0.000554    -0.000923     0.000573
H       7.56834441     -0.94200596      0.91296902     -0.000261     0.000403    -0.000416
H      -5.39619546     -2.73834566      1.06697479     -0.000521    -0.000033    -0.000512
H      -6.12874545     -3.25656733     -0.49725985      0.000086     0.000105     0.000813
H      -4.45533896     -2.69850178     -0.45078123     -0.001239    -0.000649     0.000971
H       6.30195119     -2.24369524     -1.60685294     -0.000131     0.000346     0.000596
H       7.84444260     -1.42314156     -1.47663257      0.000378    -0.000565    -0.000832
H       6.29054263     -0.52227129     -1.29844318     -0.000150    -0.001064    -0.000512
H       7.47557764     -3.17671275      1.69209845      0.000337     0.001134     0.000881
H       6.73378604     -3.63997068      0.32456735      0.000068    -0.001285    -0.001322
H      -8.22037491     -0.29111312      1.76119746     -0.000619     0.000237    -0.000683
53
Frame 60  Energy = -1313.0270774314 Hartree
O      -0.76274721      0.53595455      1.77748060     -0.000365     0.000034     0.000087
O       3.47622097      0.33317590     -0.53228418     -0.000004     0.000117    -0.000110
O      -3.49460301     -0.33101565     -1.47049600     -0.000005     0.000002    -0.000010
O       4.64880407     -2.27833786      1.14379914      0.000051    -0.000351    -0.000202
O      -7.33612590     -0.25980297      1.46054649      0.000279    -0.000413    -0.000032
O      -8.34134728     -1.25256073     -0.31419773      0.000200    -0.000330     0.000078
N       1.71284716      0.13422351      0.85591899     -0.000036    -0.000141    -0.000043
N      -1.56541580      1.06131492     -0.27929039      0.000335     0.000396     0.000021
N       5.28295947     -0.11908090      1.47397811     -0.000199    -0.000084     0.000310
N      -4.96336553     -0.10836816      0.27158126      0.000087     0.000149    -0.000034
N       7.31629028     -3.03192432      0.56627273      0.000126     0.000125     0.000000
C       0.69054006      0.19779726     -0.14912521     -0.000239     0.000110    -0.000064
C      -2.91242369      1.26617114      0.20961016      0.000090    -0.000055    -0.000221
C       3.95455177      0.27109345      1.81345384     -0.000302    -0.000059    -0.000133
C      -0.61368832      0.60268759      0.56703717      0.000024     0.000240     0.000320
C       3.02914766      0.24852195      0.59858316      0.000001    -0.000242     0.000670
C       0.50630444     -1.16853546     -0.84157201      0.000477    -0.000182     0.000337
C      -3.81131762      0.16222284     -0.39524756      0.000403     0.000079     0.000142
C      -3.45877334      2.65214192     -0.17261788      0.000126     0.000252     0.000102
C       3.98749662      1.68109605      2.38926189     -0.000091    -0.000107    -0.000243
C      -5.94339242     -1.03354049     -0.32510490     -0.000062     0.000026     0.000129
C       6.84891273     -1.64936638      0.39236758     -0.000131    -0.000457     0.000023
C       5.50578905     -1.40119945      1.04616596     -0.000180    -0.000035    -0.000052
C      -5.53505466     -2.46313019     -0.12617990     -0.000133    -0.000392     0.000245
C       6.70247882     -1.35274552     -1.10606414      0.000020     0.000619     0.000177
C      -7.35322742     -0.85140282      0.25051576     -0.000082     0.000039    -0.000143
H       0.92606977      0.98379388     -0.89193381      0.000540     0.000073    -0.000471
H      -2.93818830      1.14867182      1.29220066      0.000705     0.000815    -0.000089
H       3.58935876     -0.43181961      2.54912396      0.000258    -0.001120     0.001071
H       1.40273502      0.09460194      1.80558969      0.000263     0.000624     0.000394
H      -1.50152217      0.75228378     -1.24178015      0.000311    -0.000271    -0.000330
H      -0.22359384     -1.13131747     -1.66948066     -0.001237     0.001571     0.000269
H       1.45146591     -1.46337273     -1.29833236      0.001544    -0.000403    -0.000389
H       0.23845750     -1.93016239     -0.09497875     -0.000376    -0.000085    -0.000348
H       5.91135790      0.57374413      1.08189611      0.000951     0.000574     0.000869
H      -3.75754100      2.71155388     -1.23002436      0.001023     0.000547     0.000373
H      -4.32519504      2.90256350      0.47899013     -0.000413    -0.000875     0.000593
H      -2.66001256      3.39705065     -0.03805118     -0.000709    -0.000130     0.000740
H       2.96414734      2.06395207      2.53997780      0.000086     0.000762     0.000306
H       4.53892693      1.66750875      3.33497684      0.000828     0.001210    -0.001073
H       4.45929365      2.36394590      1.65694026      0.000772    -0.000775     0.000667
H      -5.99742718     -0.78773519     -1.38122697     -0.000131    -0.000051    -0.001769
H      -5.11292594      0.22905018      1.20298131     -0.000263     0.000547     0.000282
H       7.57415900     -1.00252033      0.87712182     -0.000724     0.000216     0.001178
H      -5.39799956     -2.66239883      0.95324010     -0.000241     0.000997     0.001312
H      -6.25724490     -3.16560640     -0.54048926     -0.001294     0.000820     0.000693
H      -4.54605721     -2.61397775     -0.65678440      0.000068    -0.001191     0.000709
H       5.90228841     -1.96272549     -1.54755463     -0.000560     0.000659    -0.000414
H       7.63282821     -1.59838807     -1.56244304      0.000097     0.001899    -0.001065
H       6.44284470     -0.32396837     -1.29787959      0.000125     0.000067    -0.000953
H       7.59339946     -3.19474542      1.52637347      0.000145     0.000906     0.000835
H       6.53226626     -3.65536522      0.39502862     -0.002081     0.001263    -0.000066
H      -8.23357653     -0.15996001      1.80140291     -0.000125    -0.000447     0.000480
53
Frame 61  Energy = -1313.0476419421 Hartree
O      -0.68610522      0.53098105      1.75884924      0.000193    -0.000291    -0.000232
O       3.44685599      0.25663817     -0.53887624      0.000006    -0.000012     0.000217
O      -3.49144814     -0.33022175     -1.50966453      0.000128     0.000099    -0.000082
O       4.70851527     -2.28513920      1.30024422      0.000094    -0.000099    -0.000245
O      -7.28626692     -0.26692551      1.35592845      0.000313    -0.000481    -0.000146
O      -8.35342709     -1.31395128     -0.33573502      0.000094    -0.000170    -0.000080
N       1.72917964      0.09361461      0.87769778      0.000126    -0.000297     0.000124
N      -1.56910551      1.04090021     -0.25555566     -0.000047     0.000041     0.000221
N       5.28690476     -0.10786079      1.47290457      0.000118    -0.000017    -0.000009
N      -5.00818649     -0.08764427      0.17670892     -0.000431     0.000175     0.000015
N       7.23262029     -3.05666673      0.46943819     -0.000083     0.000465     0.000217
C       0.70619662      0.14747560     -0.14946308      0.000100     0.000021     0.000005
C      -2.92778289      1.18141797      0.27826781      0.000013     0.000146     0.000241
C       3.94741761      0.30389786      1.82556030      0.000038    -0.000227    -0.000056
C      -0.58044463      0.57813520      0.54342493     -0.000028     0.000009     0.000156
C       3.04012384      0.21512444      0.59537779     -0.000165     0.000093     0.000038
C       0.50418924     -1.22015875     -0.85023679      0.000180    -0.000111     0.000147
C      -3.83766273      0.18045453     -0.44662100     -0.000202    -0.000080     0.000004
C      -3.36843574      2.61960148      0.08722958      0.000019    -0.000345     0.000188
C       3.93814810      1.75372404      2.32871243      0.000181     0.000070     0.000381
C      -5.93192386     -1.07183751     -0.42017894      0.000081     0.000065     0.000226
C       6.82796762     -1.67249587      0.32468245      0.000087    -0.000133     0.000244
C       5.51282926     -1.40648129      1.07235102      0.000031     0.000157    -0.000220
C      -5.41220556     -2.50310263     -0.20025952      0.000295     0.000073     0.000166
C       6.63389002     -1.31533381     -1.16779850      0.000228     0.000070    -0.000241
C      -7.33591681     -0.90729126      0.15289714      0.000024     0.000364    -0.000129
H       0.98320188      0.91352775     -0.88164345     -0.001494     0.000206     0.000048
H      -2.86300920      0.95726499      1.32586960      0.000975    -0.000703     0.000219
H       3.54538404     -0.36929455      2.57522449      0.000814     0.000139    -0.000868
H       1.39322364     -0.00706567      1.80605051     -0.000323     0.000698     0.001003
H      -1.51898815      0.89971402     -1.23634578      0.001135     0.000122     0.001007
H      -0.34477067     -1.18365772     -1.55283067      0.000451    -0.000527    -0.000643
H       1.40277072     -1.50776555     -1.36825618      0.000298     0.001096     0.001238
H       0.24799159     -1.98243424     -0.10194892      0.000274    -0.000240     0.000958
H       5.86294891      0.58561202      1.00307028     -0.000642    -0.000470     0.001029
H      -3.38143511      2.91476886     -0.96281616      0.000232     0.000365     0.000143
H      -4.37545657      2.73708390      0.50445023      0.000243     0.000422     0.000366
H      -2.68508274      3.32006018      0.63382375      0.000290    -0.000622    -0.000301
H       2.92937610      2.08516430      2.59289172      0.001488     0.001040     0.000446
H       4.56213723      1.89241400      3.23572250      0.000710     0.000571    -0.000560
H       4.33863045      2.45970299      1.57579065      0.001695    -0.000951    -0.000280
H      -5.94108631     -0.91560221     -1.48940322     -0.000070    -0.000428    -0.000593
H      -5.20715728      0.35188106      1.07130901     -0.000530     0.000500    -0.000221
H       7.62878452     -1.05596861      0.71454245     -0.000077     0.000550     0.000777
H      -5.35649596     -2.73546200      0.85425103      0.000564     0.000265    -0.001409
H      -6.03028803     -3.21719509     -0.69706953     -0.000141     0.000684    -0.000773
H      -4.42720327     -2.52520343     -0.64901615     -0.000193    -0.000322    -0.000163
H       5.90940282     -2.00754147     -1.59807793     -0.000927     0.000576     0.000474
H       7.58835507     -1.39798022     -1.69690869      0.001205     0.000456     0.000182
H       6.28556310     -0.30019039     -1.26641897      0.000370     0.001709     0.000552
H       7.48983483     -3.21170641      1.43784270      0.000704    -0.000239    -0.000188
H       6.49191181     -3.68023490      0.21891876     -0.000353    -0.000616     0.000291
H      -8.17277619     -0.22820024      1.72264649     -0.000215    -0.002434     0.000044
53
Frame 62  Energy = -1313.0365335181 Hartree
O      -0.64961662      0.48795981      1.78830527      0.000082    -0.000036    -0.000167
O       3.51713572      0.38880907     -0.55414461      0.000124     0.000179    -0.000132
O      -3.42230186     -0.40809159     -1.44159702     -0.000014    -0.000091     0.000073
O       4.68527438     -2.31541668      1.26075983     -0.000312    -0.000089    -0.000174
O      -7.38068532     -0.17474093      1.20875614      0.000444    -0.000129    -0.000258
O      -8.27880532     -1.32076553     -0.49463758     -0.000125    -0.000110    -0.000066
N       1.75220704     -0.01686003      0.85168539     -0.000059    -0.000215     0.000055
N      -1.51163214      1.09926646     -0.23069679      0.000187    -0.000030     0.000261
N       5.31790983     -0.13420048      1.47864297      0.000263    -0.000087    -0.000221
N      -4.99505149      0.00037891      0.13942707      0.000140     0.000205     0.000209
N       7.28275822     -3.01354233      0.44483736     -0.000321     0.000083    -0.000057
C       0.70159590      0.12173418     -0.15606027     -0.000240     0.000186    -0.000161
C      -2.88312636      1.27766668      0.22927674     -0.000009    -0.000404    -0.000243
C       3.96224614      0.29970995      1.84023346      0.000308     0.000156     0.000059
C      -0.54922785      0.57662670      0.58808421     -0.000093    -0.000044    -0.000181
C       3.04424385      0.19941150      0.57685651     -0.000082     0.000328    -0.000184
C       0.43160986     -1.19998857     -0.82961027     -0.000033    -0.000092    -0.000206
C      -3.79057206      0.18605393     -0.43196597      0.000287    -0.000131    -0.000217
C      -3.40680499      2.64100876     -0.14427630     -0.000037    -0.000342    -0.000162
C       4.03848921      1.73022093      2.30182078      0.000111    -0.000225    -0.000065
C      -5.89833495     -1.00829351     -0.39732013     -0.000067     0.000116    -0.000279
C       6.79169215     -1.67930223      0.30485035     -0.000034     0.000428     0.000014
C       5.48965892     -1.40717239      1.03647225     -0.000020    -0.000142     0.000118
C      -5.44642398     -2.40684714     -0.02738100      0.000188    -0.000285     0.000232
C       6.60693089     -1.37078107     -1.17461116     -0.000100    -0.000103     0.000292
C      -7.31643247     -0.87799837      0.06975197      0.000426    -0.000129    -0.000120
H       1.03024894      0.87575202     -0.87916257      0.000222    -0.000865     0.000748
H      -2.83361166      1.17017542      1.32361976     -0.000142    -0.000116     0.000492
H       3.55719096     -0.32455566      2.65429216     -0.000290     0.000153    -0.002154
H       1.40674457     -0.11527005      1.81224370      0.000244     0.000100    -0.000215
H      -1.39178348      0.85975071     -1.19942167     -0.000235     0.000753     0.000292
H      -0.32229869     -1.13857406     -1.59491463      0.000535    -0.001447    -0.000931
H       1.34053700     -1.58069540     -1.25161042     -0.000145    -0.000764     0.000360
H       0.08735213     -1.89877511     -0.07818053      0.002609    -0.000318     0.000052
H       5.90741984      0.55433314      1.01434523     -0.000532    -0.002133     0.001044
H      -3.36514366      2.79812728     -1.25626122      0.000345    -0.000789    -0.001458
H      -4.45447751      2.69534814      0.23652795     -0.000755     0.000883     0.000045
H      -2.80690468      3.44423215      0.29191313     -0.000806    -0.000349    -0.000257
H       3.02857871      2.11786271      2.58079599      0.000064    -0.000136    -0.000463
H       4.61814048      1.82419712      3.19596124     -0.000377    -0.000511    -0.000970
H       4.41309034      2.39848369      1.53766211     -0.000196    -0.000756    -0.000601
H      -5.93788084     -0.91640036     -1.46680934     -0.000269     0.000809    -0.000477
H      -5.21336657      0.41235511      1.03118890     -0.000216     0.000515     0.001020
H       7.52329356     -1.00892683      0.72773397      0.000083    -0.000640    -0.000854
H      -5.43827736     -2.56212910      1.05015664     -0.000573    -0.000019     0.000342
H      -6.07805207     -3.15848922     -0.52723883     -0.001160    -0.000113     0.000294
H      -4.43855225     -2.57874619     -0.40818351     -0.000149     0.001027     0.001272
H       5.87620432     -2.11043890     -1.53623521     -0.000460     0.000793    -0.000087
H       7.52260276     -1.50640954     -1.75313280      0.001539     0.000398     0.000208
H       6.20473743     -0.38754863     -1.34133725     -0.001233    -0.000532     0.001822
H       7.59957879     -3.23022000      1.36339351      0.000109    -0.000448     0.000177
H       6.56059995     -3.70010139      0.23325087     -0.000279     0.000530    -0.000764
H      -8.30808758     -0.14818408      1.48314089      0.000163    -0.000184     0.000219
53
Frame 63  Energy = -1313.0358108081 Hartree
O      -0.66776251      0.55205624      1.83052931      0.000063    -0.000195    -0.000009
O       3.46381863      0.47335382     -0.47899106      0.000071     0.000229    -0.000035
O      -3.49107943     -0.37737968     -1.46891791     -0.000048    -0.000114     0.000119
O       4.72747554     -2.20626880      1.18739695      0.000012     0.000108     0.000133
O      -7.39685979     -0.10083349      1.19889380      0.000204     0.000339     0.000493
O      -8.22205591     -1.34761758     -0.50079333     -0.000284     0.000202     0.000438
N       1.70988379     -0.00972428      0.89405433     -0.000180    -0.000114     0.000047
N      -1.56439738      1.04022601     -0.20100159     -0.000083     0.000014    -0.000064
N       5.29154931     -0.07293619      1.51858669     -0.000051    -0.000309    -0.000088
N      -4.98305028     -0.00365767      0.17697190     -0.000010    -0.000248     0.000160
N       7.27052445     -2.94428312      0.40337789     -0.000194     0.000376    -0.000036
C       0.67197875      0.15874577     -0.10311586      0.000213     0.000099     0.000111
C      -2.91394204      1.26730969      0.21081647      0.000175    -0.000209    -0.000046
C       3.93757409      0.29473175      1.85648555      0.000299     0.000111    -0.000081
C      -0.57601967      0.64161529      0.61700425     -0.000119    -0.000486    -0.000028
C       3.03444734      0.22982211      0.62166693      0.000469     0.000156    -0.000036
C       0.36496060     -1.09680914     -0.89450579     -0.000195    -0.000111    -0.000078
C      -3.79191208      0.18322131     -0.43040771      0.000131     0.000126    -0.000448
C      -3.45086197      2.64470189     -0.21621099     -0.000027     0.000293     0.000268
C       3.90600813      1.73508164      2.35041535     -0.000250     0.000041    -0.000215
C      -5.88047468     -1.03439576     -0.32019809     -0.000362     0.000325    -0.000162
C       6.85701236     -1.55596111      0.33676984     -0.000223     0.000200     0.000068
C       5.52584124     -1.31667539      1.04800832     -0.000033     0.000184     0.000160
C      -5.39730898     -2.44792724      0.07448494      0.000179    -0.000234    -0.000076
C       6.66905553     -1.15417773     -1.14486623      0.000190    -0.000307    -0.000435
C      -7.30721270     -0.85740063      0.07655075     -0.000352    -0.000117     0.000422
H       1.02836771      0.92072129     -0.78954462     -0.000027     0.000800    -0.000162
H      -2.90137955      1.15917522      1.26648898      0.000431    -0.000285    -0.000240
H       3.55765921     -0.34576977      2.64580482     -0.000489    -0.000440     0.000014
H       1.39546734     -0.31531816      1.79108644      0.000197     0.000486    -0.000127
H      -1.42096293      0.84126404     -1.17270454      0.000145     0.000857    -0.000694
H      -0.47316742     -0.93549308     -1.55188109      0.000375    -0.001380     0.000262
H       1.19457125     -1.32960159     -1.55131478      0.000400     0.000561     0.000327
H       0.14516308     -1.94137380     -0.23844194      0.000645     0.000107     0.000345
H       5.90187479      0.65930006      1.18231608      0.001071    -0.000879    -0.000411
H      -3.58397381      2.60342695     -1.29501597      0.001476     0.000365    -0.001905
H      -4.43216078      2.79064125      0.21388432      0.000597     0.000435     0.000529
H      -2.79688426      3.44618481      0.14920861     -0.000248     0.000427    -0.000518
H       2.88171431      2.02274073      2.65924228      0.000119    -0.000847     0.000554
H       4.53339758      1.84665044      3.24232124      0.000592    -0.000200    -0.001490
H       4.21996948      2.42459856      1.57637189     -0.000118     0.000766     0.000820
H      -5.83504207     -0.90561944     -1.41099079      0.000567    -0.000467     0.000632
H      -5.17493238      0.40648170      1.08512247     -0.000901     0.000658     0.000858
H       7.59931776     -0.96139743      0.83376925     -0.000793     0.000181     0.000988
H      -5.43235598     -2.46000402      1.16160702      0.000228     0.000524    -0.000310
H      -6.02492076     -3.24526540     -0.36155483      0.000483    -0.000196    -0.000387
H      -4.37235418     -2.53285105     -0.26429576      0.000772     0.000751    -0.000591
H       5.95464535     -1.83349525     -1.65546770     -0.000829    -0.000171     0.001210
H       7.60822858     -1.28781009     -1.68974920      0.000828     0.001034    -0.000184
H       6.33812247     -0.11097084     -1.23885332     -0.001192     0.000476    -0.000176
H       7.51093170     -3.16753336      1.35238207      0.000442    -0.000493     0.000530
H       6.47173523     -3.55159858      0.17100077      0.000261     0.000513     0.001830
H      -8.36807989      0.04339385      1.31784407     -0.000726     0.000231    -0.000541
53
Frame 64  Energy = -1313.0474376697 Hartree
O      -0.69564964      0.64300825      1.88396660     -0.000027    -0.000011     0.000070
O       3.42934357      0.39438099     -0.47609408     -0.000036    -0.000003    -0.000345
O      -3.51221889     -0.25924920     -1.39197712     -0.000443    -0.000155     0.000355
O       4.63693278     -2.19619687      1.29968612     -0.000220     0.000077     0.000015
O      -7.47875138     -0.06899761      1.15252502     -0.000024     0.000134     0.000194
O      -8.21032752     -1.31627357     -0.56121785      0.000120     0.000156     0.000178
N       1.69868615     -0.00041677      0.92452289      0.000440    -0.000191    -0.000442
N      -1.59529182      1.09951391     -0.15654852      0.000146    -0.000108    -0.000443
N       5.23957974     -0.04959919      1.46237626      0.000042    -0.000040     0.000080
N      -5.03119207     -0.00886058      0.24817003      0.000094    -0.000195    -0.000007
N       7.24726999     -3.01096820      0.49445953      0.000501     0.000048    -0.000048
C       0.64859743      0.15416199     -0.04018470     -0.000161     0.000124    -0.000405
C      -2.93841777      1.31481175      0.27754728      0.000224     0.000169    -0.000175
C       3.91197211      0.32027275      1.88739672      0.000172    -0.000129     0.000029
C      -0.61085432      0.65901438      0.66875380      0.000332    -0.000015     0.000121
C       2.99848711      0.23629805      0.66039687      0.000099    -0.000337     0.000108
C       0.33284387     -1.18831222     -0.73559664      0.000212     0.000130    -0.000270
C      -3.84528587      0.24875919     -0.33428684     -0.000186    -0.000165    -0.000127
C      -3.44583528      2.67561253     -0.19210459     -0.000013    -0.000248     0.000045
C       3.88685434      1.72472732      2.43541419     -0.000062    -0.000135     0.000009
C      -5.85263376     -1.04589846     -0.33959684     -0.000239    -0.000218    -0.000128
C       6.75562004     -1.62930275      0.34102829      0.000033    -0.000052     0.000136
C       5.46194430     -1.33561137      1.05989478     -0.000040     0.000041    -0.000093
C      -5.42063496     -2.45920218      0.09383328     -0.000244    -0.000106    -0.000060
C       6.57346206     -1.23513595     -1.13582377      0.000029    -0.000163     0.000023
C      -7.30396319     -0.84162819      0.04547667     -0.000424    -0.000325    -0.000402
H       0.98112518      0.84371711     -0.82156963     -0.000372     0.000159     0.000211
H      -2.95703973      1.24401441      1.37174693     -0.000481     0.000085    -0.000573
H       3.59661127     -0.38641621      2.64436717     -0.000356     0.000487     0.000068
H       1.40598076     -0.13445523      1.87360305      0.000332    -0.000318     0.000619
H      -1.50965535      0.79076697     -1.10721314     -0.000034     0.000395    -0.001041
H      -0.48709008     -1.10211252     -1.44122301     -0.000310    -0.000157    -0.000089
H       1.25057424     -1.52405078     -1.20156481      0.000471    -0.001139    -0.000210
H       0.06476674     -1.87723911      0.02620277     -0.000266    -0.000500     0.001083
H       5.83184847      0.65471206      1.05060616     -0.001461     0.000716     0.000474
H      -3.39240962      2.72105898     -1.28345516      0.000014     0.000095     0.000250
H      -4.50329399      2.86226406      0.07368538      0.000471     0.000729    -0.001144
H      -2.81826423      3.41785536      0.23777644      0.000021    -0.001176     0.000699
H       2.85990794      2.01935527      2.71876954     -0.000010    -0.000036     0.000040
H       4.53146324      1.80596505      3.30978964      0.000967     0.000413     0.000909
H       4.19395550      2.40716150      1.64185276     -0.000027     0.000891    -0.000563
H      -5.78643679     -0.95166840     -1.40761024     -0.000165    -0.000155     0.000915
H      -5.23999345      0.33577983      1.17790770     -0.001529    -0.000164    -0.000069
H       7.51815156     -0.96768589      0.77396410     -0.000248     0.001843    -0.000840
H      -5.52681321     -2.59619573      1.19131441      0.000395    -0.001164     0.000215
H      -6.00512434     -3.21942515     -0.41162403     -0.000172    -0.001324     0.000154
H      -4.35857935     -2.60994422     -0.16638091     -0.000494    -0.000400    -0.000862
H       5.67715156     -1.78768657     -1.52107789      0.000019    -0.000148    -0.001189
H       7.45814878     -1.49195158     -1.71718014      0.000196     0.000808     0.000396
H       6.32555381     -0.15693236     -1.25779362      0.000550    -0.000420    -0.001075
H       7.39082135     -3.23820874      1.47205806      0.000420    -0.000110    -0.000040
H       6.55940285     -3.66150473      0.10418817      0.000350     0.000656     0.001535
H      -8.42751646     -0.06700208      1.33236319     -0.000619     0.000697     0.000668
53
Frame 65  Energy = -1313.0454642735 Hartree
O      -0.72613655      0.60777100      1.84073184      0.000344     0.000277     0.000135
O       3.41587949      0.27792344     -0.48845888      0.000040    -0.000259     0.000431
O      -3.43940120     -0.24237180     -1.42747287      0.000348     0.000070    -0.000103
O       4.56703832     -2.22395716      1.30029175      0.000156    -0.000205    -0.000161
O      -7.43495816      0.03298540      1.11008845     -0.000102    -0.000012     0.000274
O      -8.22412299     -1.21962034     -0.57141912      0.000150    -0.000125     0.000227
N       1.70367504      0.08535064      0.92637439     -0.000153     0.000297    -0.000318
N      -1.56507928      1.22716225     -0.17398648     -0.000168     0.000209    -0.000205
N       5.27446011     -0.10740530      1.56404440     -0.000041    -0.000120     0.000172
N      -4.94425382     -0.03106046      0.22496024     -0.000363     0.000028     0.000005
N       7.13755360     -3.04650778      0.43182551      0.000172    -0.000080    -0.000056
C       0.67221568      0.21556094     -0.10602515     -0.000173    -0.000270    -0.000141
C      -2.95257675      1.39258820      0.22787469      0.000044     0.000010    -0.000282
C       3.93548729      0.33471422      1.87792815      0.000104     0.000280    -0.000051
C      -0.58944884      0.69510610      0.62387347      0.000210     0.000034     0.000066
C       2.99584536      0.21020461      0.64902776     -0.000518    -0.000065    -0.000033
C       0.47598508     -1.12517020     -0.77615283      0.000142     0.000043     0.000032
C      -3.80343739      0.27562463     -0.39512049      0.000220    -0.000005     0.000421
C      -3.44712129      2.78636333     -0.24694336      0.000137    -0.000166    -0.000236
C       3.94314393      1.73801166      2.45233351     -0.000257    -0.000306    -0.000177
C      -5.82040276     -1.04709730     -0.33550099      0.000369     0.000217     0.000378
C       6.73649267     -1.66421218      0.37762390     -0.000232     0.000087    -0.000013
C       5.39712918     -1.39140600      1.12232842      0.000306     0.000015     0.000059
C      -5.44642489     -2.47427162      0.15147153      0.000037     0.000143     0.000252
C       6.52668093     -1.17608664     -1.06448693      0.000076    -0.000193    -0.000003
C      -7.27893730     -0.78724558      0.01466128      0.000434     0.000009    -0.000013
H       0.93158656      0.95885447     -0.86051165     -0.000199     0.000798    -0.001024
H      -2.99009238      1.27542312      1.31796799     -0.000299     0.000075     0.000118
H       3.52520781     -0.35835287      2.62178575      0.001032     0.000702    -0.000116
H       1.30739830      0.07630324      1.85793283     -0.000851    -0.000577     0.000058
H      -1.47053474      1.01355488     -1.16829980     -0.000247     0.000122    -0.000198
H      -0.13866363     -1.08470213     -1.66146053      0.000399     0.000360     0.000072
H       1.44531400     -1.47822569     -1.09760963     -0.000697    -0.000258    -0.000058
H       0.06792943     -1.84779367     -0.08004831      0.000051     0.000274    -0.001739
H       5.92218030      0.58784367      1.20231378     -0.000072    -0.000273     0.000357
H      -3.24903559      2.87572615     -1.29866391     -0.000531    -0.000346     0.000769
H      -4.52156544      2.87158047     -0.08032443     -0.000191    -0.000789    -0.000426
H      -2.92718232      3.54755163      0.30311199      0.000961     0.000479     0.000397
H       2.99731159      2.00880961      2.92945181      0.000631    -0.000162    -0.000682
H       4.70834453      1.82809233      3.25100580      0.000929    -0.000198     0.001086
H       4.14617042      2.47806259      1.65126139     -0.000031     0.000333     0.000358
H      -5.70526197     -0.97373880     -1.42583887      0.000211     0.001126     0.000786
H      -5.10334812      0.31506174      1.13437601      0.000432    -0.000415    -0.000959
H       7.49809862     -1.05948456      0.85280489      0.000970     0.000449     0.000405
H      -5.32626040     -2.47972343      1.22545521     -0.000523    -0.000305    -0.000341
H      -6.21372630     -3.20473892     -0.10523190     -0.000684     0.000692     0.001086
H      -4.49271315     -2.75151900     -0.28550714     -0.000286    -0.000273    -0.000163
H       5.82562972     -1.85310877     -1.57354111      0.000711     0.000785     0.000170
H       7.48300165     -1.17024807     -1.56286700     -0.001430     0.000719    -0.000480
H       6.11370203     -0.16112308     -1.08828064     -0.000318    -0.000774    -0.001175
H       7.22869819     -3.30958334      1.40435988      0.000021     0.000174    -0.000254
H       6.37660697     -3.58655058     -0.01076404      0.001314    -0.000543     0.001027
H      -8.39541647      0.19910414      1.15382597     -0.000663    -0.000589    -0.000327
53
Frame 66  Energy = -1313.0432972795 Hartree
O      -0.80085806      0.76274620      1.81679235      0.000291     0.000111     0.000123
O       3.35818838      0.27913546     -0.46875881      0.000105     0.000172     0.000406
O      -3.41954707     -0.37757423     -1.40125045     -0.000010     0.000047     0.000145
O       4.57967238     -2.30040749      1.27846436     -0.000002    -0.000055    -0.000039
O      -7.46220893     -0.03530397      1.18244961     -0.000248    -0.000227    -0.000001
O      -8.27543441     -1.18020851     -0.57210943      0.000280     0.000086     0.000254
N       1.63616106      0.11110651      0.98924490      0.000071     0.000365    -0.000078
N      -1.61080310      1.14594107     -0.25533048      0.000094    -0.000059     0.000106
N       5.16669866     -0.12385668      1.59458623     -0.000278     0.000097    -0.000363
N      -5.02314824      0.02800145      0.15217335      0.000182    -0.000134     0.000125
N       7.09948852     -2.99830956      0.31456524      0.000313    -0.000071    -0.000026
C       0.60330235      0.24677458     -0.04223058     -0.000135     0.000086    -0.000076
C      -2.99263323      1.40551207      0.15608300     -0.000096     0.000052     0.000042
C       3.83802046      0.33027185      1.94233030      0.000212    -0.000100    -0.000415
C      -0.66770855      0.73461068      0.60440009     -0.000080    -0.000308    -0.000435
C       2.95064750      0.22349536      0.67856568     -0.000653     0.000080    -0.000171
C       0.38883212     -1.08665470     -0.80272275      0.000230    -0.000177     0.000361
C      -3.81972096      0.23076642     -0.42468375     -0.000191     0.000164     0.000266
C      -3.48093451      2.79418523     -0.27453137      0.000235     0.000036    -0.000408
C       3.89192827      1.75450133      2.46282872     -0.000295     0.000202     0.000039
C      -5.88606561     -1.02726984     -0.32885641      0.000136     0.000043    -0.000260
C       6.68493407     -1.61284255      0.30491588      0.000167     0.000455    -0.000325
C       5.36081915     -1.38793756      1.07973651     -0.000214    -0.000322    -0.000014
C      -5.47374393     -2.42144390      0.19880957     -0.000016     0.000144    -0.000111
C       6.45994365     -1.12716733     -1.12190414      0.000248    -0.000099    -0.000149
C      -7.32819535     -0.76911435      0.05776048     -0.000287     0.000007    -0.000065
H       0.92293328      1.01184783     -0.72701713     -0.000155     0.000366     0.000343
H      -3.00036723      1.34677832      1.21090628      0.000343     0.000877     0.001306
H       3.41241657     -0.34643934      2.66509522      0.001040     0.000456     0.000273
H       1.33974686      0.08389357      1.96140115     -0.000286     0.000091     0.000280
H      -1.52019399      0.91458934     -1.22219508      0.000176     0.000794    -0.001095
H      -0.36458374     -0.97122694     -1.59010200      0.000251    -0.000262    -0.000574
H       1.31054821     -1.39671651     -1.25577964     -0.000785     0.001563    -0.000364
H       0.02584277     -1.85468480     -0.11714534      0.000543    -0.000717    -0.000349
H       5.73741515      0.57682165      1.16230547     -0.000533     0.000700     0.000219
H      -3.45607999      2.84426743     -1.35188881     -0.000545     0.000292    -0.000859
H      -4.49564791      2.97118735      0.06106394      0.000258    -0.000294    -0.000068
H      -2.84712236      3.54073637      0.18388752      0.000691    -0.000908     0.000538
H       2.93644428      2.03271296      2.86046559      0.000511     0.000915     0.000309
H       4.61587613      1.79556842      3.26494056      0.001154     0.000283     0.000151
H       4.23144621      2.40616322      1.67375536      0.000409     0.000281    -0.000213
H      -5.80659462     -1.08468953     -1.39404163      0.000679     0.000658     0.000501
H      -5.24677371      0.46875802      1.02828111      0.000384    -0.000120     0.000120
H       7.49610893     -1.04327969      0.76437531      0.000838    -0.000825     0.000367
H      -5.53933633     -2.47173621      1.26824219      0.001025    -0.000075     0.000696
H      -6.15492982     -3.18232347     -0.19341632      0.000799    -0.000215    -0.001170
H      -4.46505904     -2.67004872     -0.14716835     -0.000702     0.001231    -0.001025
H       5.61370659     -1.58840183     -1.60542226      0.000029    -0.000955     0.000877
H       7.35459986     -1.34441453     -1.64026266     -0.001475     0.000547     0.000512
H       6.32067886     -0.02720835     -1.13841396      0.000521     0.000672     0.000477
H       7.32318999     -3.25617577      1.25535892      0.000123     0.000014     0.000599
H       6.30824725     -3.57888408      0.05930443     -0.000431     0.000494    -0.000467
H      -8.39165576      0.08020716      1.34142251      0.000387    -0.000071     0.001100
53
Frame 67  Energy = -1313.0297573479 Hartree
O      -0.80969444      0.68378378      1.80334350     -0.000146    -0.000187    -0.000174
O       3.41098029      0.29606464     -0.41386721      0.000127    -0.000113     0.000062
O      -3.54572205     -0.31375558     -1.43413513      0.000132     0.000074     0.000025
O       4.52151645     -2.25386806      1.22613558      0.000011     0.000327    -0.000174
O      -7.50405971      0.01310059      1.04424654      0.000206     0.000448    -0.000302
O      -8.25552866     -1.26679757     -0.60595325      0.000335    -0.000096    -0.000169
N       1.60135023      0.20269599      0.94709231     -0.000295    -0.000011     0.000148
N      -1.64129322      1.25435062     -0.24915081     -0.000137    -0.000023    -0.000250
N       5.11771845     -0.10506386      1.62552498      0.000067     0.000103    -0.000214
N      -5.05388649      0.08501477      0.13656960      0.000056    -0.000074     0.000097
N       7.11129563     -2.94915703      0.48066392      0.000153     0.000050     0.000072
C       0.59424652      0.24201504     -0.05582290     -0.000053    -0.000217    -0.000142
C      -3.01535340      1.43904402      0.14332824      0.000156     0.000284    -0.000154
C       3.78157413      0.34037331      1.96745983      0.000073     0.000032    -0.000224
C      -0.68026339      0.74992177      0.58254952     -0.000048    -0.000001     0.000037
C       2.91551618      0.26354954      0.68759799     -0.000114    -0.000206     0.000104
C       0.42939533     -1.13686263     -0.76367788     -0.000189    -0.000026     0.000147
C      -3.87050602      0.31982771     -0.45192179     -0.000310     0.000184     0.000180
C      -3.50111225      2.78403876     -0.28752581     -0.000310    -0.000195     0.000085
C       3.87546401      1.75838032      2.50309845     -0.000132     0.000093    -0.000030
C      -5.88290236     -0.97661772     -0.37595472     -0.000575     0.000397    -0.000131
C       6.63865537     -1.57314603      0.35493727     -0.000364    -0.000359    -0.000219
C       5.32654690     -1.34403199      1.09849569      0.000123     0.000167     0.000123
C      -5.39878344     -2.34519694      0.09445621      0.000261    -0.000113     0.000262
C       6.43440820     -1.23318047     -1.10926967     -0.000261     0.000221     0.000107
C      -7.33508243     -0.75864474     -0.01625285      0.000129    -0.000039    -0.000029
H       0.86718226      0.97535188     -0.83234837      0.000902     0.000435     0.001723
H      -3.03582238      1.29791359      1.22113502     -0.000207    -0.000490     0.000271
H       3.40632729     -0.35379850      2.74270771     -0.001103     0.000169     0.000582
H       1.27940710      0.14952206      1.90914000      0.000538    -0.000075     0.001007
H      -1.51883526      1.18587966     -1.23417983     -0.000621     0.000236    -0.000320
H      -0.38473586     -1.12559740     -1.50553138     -0.001095     0.000867     0.001843
H       1.37050200     -1.39948879     -1.21725606     -0.000466    -0.000424    -0.000424
H       0.17076095     -1.85993832     -0.00708975      0.000724    -0.000657     0.001095
H       5.66384249      0.61655024      1.14073264     -0.000742     0.000816     0.001604
H      -3.51624567      2.88052389     -1.38284048      0.000214     0.002070    -0.000165
H      -4.53199313      2.96392852      0.05988022      0.000001     0.000331     0.000110
H      -2.83878560      3.54325839      0.11233892      0.000968    -0.000995     0.000254
H       2.90001263      2.17940876      2.77954105      0.001427     0.000246     0.000662
H       4.45158059      1.74190665      3.40677072      0.000838    -0.001584     0.000042
H       4.33046034      2.44357136      1.80136883      0.001034     0.000052    -0.000329
H      -5.84078034     -0.96471349     -1.47723222     -0.001260     0.000717     0.000647
H      -5.45213032      0.71138746      0.81316611      0.000697    -0.000659    -0.000413
H       7.41112291     -0.89334658      0.77343289      0.000247     0.001283     0.000414
H      -5.46698910     -2.49036146      1.18755447      0.000538    -0.000701     0.001171
H      -6.01099918     -3.07884503     -0.40891426     -0.000146     0.001053     0.000510
H      -4.37144121     -2.47612752     -0.21484460      0.000478     0.001634     0.000045
H       5.71284476     -1.94820360     -1.48488905     -0.001766     0.001384     0.000883
H       7.35338452     -1.32765759     -1.66300346      0.000213     0.000293    -0.000824
H       6.00324115     -0.23682706     -1.23660657     -0.000300    -0.000993     0.000149
H       7.38329492     -3.18142756      1.42412052     -0.001049     0.000361     0.000136
H       6.32757707     -3.52783676      0.29086810     -0.000533    -0.000117     0.001113
H      -8.45112419      0.16719918      1.19729033      0.000347     0.000733     0.000326
53
Frame 68  Energy = -1313.0263317046 Hartree
O      -0.89079724      0.58249578      1.85484472      0.000403    -0.000103     0.000180
O       3.36955354      0.37235496     -0.41092013      0.000098     0.000085    -0.000022
O      -3.41381030     -0.38844357     -1.38753105      0.000284    -0.000329     0.000023
O       4.47046623     -2.17802771      1.31940642     -0.000134     0.000297    -0.000161
O      -7.44243863      0.08336238      1.09134068     -0.000161     0.000309     0.000105
O      -8.25723141     -1.32209650     -0.44433277      0.000119     0.000177     0.000134
N       1.62714087      0.06176166      0.99172562     -0.000171     0.000062     0.000219
N      -1.62405896      1.19540630     -0.20438883      0.000034    -0.000027    -0.000162
N       5.17651837     -0.06279125      1.65993557     -0.000087     0.000262     0.000230
N      -5.05885363      0.15602670      0.04645110     -0.000088    -0.000335     0.000064
N       7.11610281     -2.96837634      0.54721258     -0.000054    -0.000026    -0.000147
C       0.58541079      0.19392763     -0.00266635      0.000237     0.000007     0.000370
C      -2.99005292      1.42465207      0.10831503      0.000372     0.000013     0.000320
C       3.80910606      0.32820276      1.94992582      0.000126     0.000356     0.000092
C      -0.70537573      0.69021974      0.66948093      0.000334     0.000056     0.000285
C       2.93257520      0.24909764      0.71493380     -0.000172    -0.000117    -0.000014
C       0.35117554     -1.14343867     -0.73006239      0.000030     0.000248    -0.000177
C      -3.82300711      0.29433469     -0.46523633      0.000239    -0.000147     0.000071
C      -3.52049336      2.75381823     -0.44639918      0.000418     0.000110     0.000022
C       3.76032535      1.69491304      2.63918606     -0.000227    -0.000205     0.000431
C      -5.87613469     -0.98474020     -0.42022723     -0.000007     0.000217     0.000466
C       6.60525545     -1.60919474      0.37046824      0.000084    -0.000123    -0.000227
C       5.31851831     -1.35007058      1.15488253      0.000153    -0.000150     0.000052
C      -5.42909001     -2.35054581      0.04973081      0.000030    -0.000065    -0.000195
C       6.37350602     -1.33027412     -1.08440426      0.000042     0.000338    -0.000099
C      -7.31452370     -0.75047054      0.02122820      0.000112     0.000187    -0.000106
H       0.90813317      0.92768193     -0.69072996     -0.000147     0.000506    -0.001027
H      -3.05064051      1.43601162      1.20490092     -0.001762     0.000488     0.001200
H       3.40358136     -0.47605671      2.60002045      0.000677    -0.001142    -0.000370
H       1.28190801      0.11562367      1.94257349      0.000099     0.001313    -0.000407
H      -1.42009219      1.12101723     -1.21407413     -0.001634    -0.000114    -0.000029
H      -0.54932582     -1.10022632     -1.33462003     -0.000652     0.000129    -0.000080
H       1.22565756     -1.40908041     -1.33643596     -0.000132    -0.000256    -0.000067
H       0.21297563     -1.93187824      0.03266453     -0.000762     0.000037     0.000817
H       5.66618376      0.67584217      1.14638487      0.000150     0.000779     0.001623
H      -3.44487242      2.71196727     -1.52336142      0.000027     0.000126    -0.001327
H      -4.53625339      2.90715805     -0.19117128     -0.001714     0.000350     0.001250
H      -2.89589403      3.59244437     -0.14349952     -0.000807    -0.001189    -0.000556
H       2.73741441      1.86616626      3.00353036      0.001186     0.001146    -0.000357
H       4.45164017      1.67528822      3.47389100     -0.000483    -0.001539    -0.000065
H       4.10947370      2.46773086      1.95099683      0.001056     0.000550    -0.000407
H      -5.92204987     -0.96380912     -1.50969332     -0.000168     0.000022     0.000296
H      -5.33526990      0.62761552      0.91076354     -0.000559     0.000096     0.000272
H       7.37553283     -0.90986769      0.75008033     -0.000698    -0.000731    -0.001183
H      -5.40889031     -2.40552567      1.11355776      0.000385    -0.000802     0.000727
H      -6.08816711     -3.07381674     -0.42255837     -0.001182    -0.000264    -0.001599
H      -4.44964581     -2.55021305     -0.39896578     -0.000798     0.000973    -0.001797
H       5.60125571     -2.02147278     -1.46838886      0.000273    -0.000059     0.000366
H       7.28320514     -1.44378489     -1.65690610      0.002087     0.000163     0.000359
H       6.06632672     -0.28571042     -1.24896770     -0.000245     0.000289    -0.000011
H       7.50078307     -3.10841086      1.47373752     -0.000165     0.000220     0.000098
H       6.38345505     -3.63118436      0.33747584     -0.000472    -0.000596     0.000004
H      -8.38295517      0.11336473      1.37018626      0.000404    -0.000600    -0.000474
53
Frame 69  Energy = -1313.0307495430 Hartree
O      -0.90550129      0.76829725      1.90608138      0.000240     0.000018     0.000254
O       3.25869519      0.44140739     -0.42867327      0.000157    -0.000050    -0.000532
O      -3.36015568     -0.33887428     -1.40354916     -0.000177    -0.000111    -0.000010
O       4.50784442     -2.23096889      1.36733187     -0.000002     0.000070    -0.000197
O      -7.39870069      0.09002378      1.07332204      0.000257    -0.000092    -0.000067
O      -8.14651509     -1.36047211     -0.47570734     -0.000551    -0.000132     0.000113
N       1.58962366      0.12975069      1.05702008      0.000075    -0.000264    -0.000371
N      -1.61873445      1.21496860     -0.23708164      0.000262    -0.000231    -0.000246
N       5.15143421     -0.06737123      1.52577114      0.000072     0.000285     0.000107
N      -4.95543916      0.06199845      0.15039373     -0.000078     0.000069     0.000129
N       7.27693160     -2.91983273      0.54844104      0.000101    -0.000114     0.000005
C       0.56682007      0.21554955      0.04261283      0.000021     0.000106     0.000130
C      -2.96700033      1.46000445      0.13263891      0.000098     0.000068     0.000290
C       3.83693295      0.37744637      1.90145163     -0.000040     0.000005    -0.000185
C      -0.74192739      0.74156640      0.70037431      0.000665     0.000015    -0.000291
C       2.87953571      0.27388911      0.72615279     -0.000086     0.000407    -0.000210
C       0.41547703     -1.13448820     -0.63094777      0.000134    -0.000031    -0.000056
C      -3.77083526      0.28653089     -0.43396053      0.000339     0.000191    -0.000020
C      -3.44583208      2.75858825     -0.51096962     -0.000252    -0.000233     0.000001
C       3.90803653      1.80850688      2.48507644     -0.000232    -0.000281    -0.000223
C      -5.79954825     -1.01105978     -0.37343064      0.000388     0.000063    -0.000204
C       6.68241514     -1.59103548      0.40393635      0.000109    -0.000178    -0.000198
C       5.32836168     -1.36763557      1.12763230     -0.000149    -0.000046    -0.000106
C      -5.33599791     -2.39445121      0.06684479      0.000140     0.000000    -0.000121
C       6.47062279     -1.29525368     -1.07896463     -0.000245    -0.000216    -0.000095
C      -7.23867721     -0.79063963      0.03838618     -0.000082     0.000080     0.000013
H       0.90865695      0.94217858     -0.69116641      0.000346    -0.000059     0.000639
H      -3.01556982      1.50276597      1.23438956     -0.001004     0.001173    -0.001646
H       3.50074266     -0.34112972      2.65519529      0.000953    -0.000290    -0.001112
H       1.30965257      0.10609417      2.03814801     -0.001049    -0.000911    -0.000316
H      -1.51890916      0.80279363     -1.17089553      0.000297     0.000665     0.000254
H      -0.26934210     -1.07492461     -1.47569986      0.000107    -0.000046    -0.000407
H       1.41570165     -1.44691338     -0.94210669      0.000001    -0.000615     0.000229
H       0.02114659     -1.88610228      0.04459637     -0.001620     0.000009    -0.000600
H       5.75365541      0.61114249      1.06428174      0.000771    -0.001725    -0.001473
H      -3.37617857      2.63466395     -1.57792900      0.000455    -0.000470     0.000887
H      -4.48143961      3.02994345     -0.20153854      0.001050    -0.000067    -0.000500
H      -2.77984985      3.55704628     -0.19534585     -0.000252    -0.000126     0.000497
H       2.90470495      2.09280979      2.86240591     -0.000086     0.000864    -0.002040
H       4.62800242      1.86049942      3.32919779      0.000101    -0.001488    -0.001024
H       4.22934405      2.49780080      1.70814998      0.000499     0.000160    -0.001071
H      -5.75414731     -0.93796786     -1.46451480      0.001557     0.000217     0.000662
H      -5.26182661      0.56143718      0.95727927      0.000361    -0.000363     0.000332
H       7.43164717     -0.88691183      0.78804688      0.000358     0.000982    -0.001900
H      -5.32137223     -2.45830415      1.15364563     -0.000491     0.000744     0.000328
H      -6.00584037     -3.12475554     -0.34796769     -0.000467    -0.000610     0.000438
H      -4.33472612     -2.56548355     -0.30898989     -0.000365     0.000758     0.000820
H       5.65108120     -1.97005082     -1.46624257     -0.000773    -0.000019    -0.000743
H       7.39535588     -1.40149168     -1.63243456     -0.000119    -0.000745    -0.000284
H       6.13939272     -0.27921626     -1.25314944      0.000554    -0.000718     0.000694
H       7.31596776     -3.19527385      1.53749914     -0.000356     0.000227     0.000278
H       6.62881670     -3.57580419      0.18025272     -0.000712     0.000367    -0.001055
H      -8.37017585      0.15908540      1.22606129     -0.000451    -0.001011     0.000464
53
Frame 70  Energy = -1313.0335449827 Hartree
O      -0.89106942      0.78722274      1.90041328      0.000003    -0.000001     0.000193
O       3.27367273      0.45490225     -0.42743640      0.000133    -0.000032    -0.000148
O      -3.43125259     -0.29742780     -1.43573449      0.000059    -0.000090     0.000251
O       4.61267600     -2.24916177      1.23699778      0.000155    -0.000084     0.000202
O      -7.47152027     -0.00468315      1.19807434      0.000199     0.000203    -0.000044
O      -8.15365675     -1.40434289     -0.39913509      0.000384    -0.000011     0.000324
N       1.58927106      0.12790541      1.05850843     -0.000326     0.000401     0.000223
N      -1.58263080      1.23528755     -0.23201861     -0.000414     0.000117    -0.000112
N       5.18848118     -0.07282243      1.57469883      0.000186     0.000059     0.000198
N      -4.99721660      0.08397601      0.13107605     -0.000100     0.000062    -0.000403
N       7.31785814     -2.86853267      0.66236976      0.000009     0.000357     0.000215
C       0.57908323      0.26631003      0.04064641     -0.000192     0.000075    -0.000067
C      -2.97944364      1.50845274      0.06842418      0.000165    -0.000167    -0.000241
C       3.85419256      0.35122320      1.90915756      0.000257     0.000135    -0.000173
C      -0.70792501      0.76066005      0.67542939      0.000197    -0.000021     0.000463
C       2.90135060      0.25061005      0.71883979      0.000210     0.000015    -0.000293
C       0.32699019     -1.12246408     -0.55507326     -0.000072    -0.000066     0.000036
C      -3.83143127      0.34494400     -0.48312206     -0.000183    -0.000008     0.000179
C      -3.36648071      2.85343648     -0.56549161     -0.000415     0.000342    -0.000235
C       3.86814523      1.78087114      2.41291618      0.000043     0.000359    -0.000009
C      -5.83325561     -1.00411239     -0.32183675      0.000416    -0.000207    -0.000114
C       6.75705731     -1.55282304      0.40026526      0.000110     0.000013    -0.000344
C       5.42941062     -1.35564823      1.12897712      0.000101     0.000244     0.000333
C      -5.32188360     -2.36368849      0.12919295      0.000304    -0.000019    -0.000039
C       6.48398577     -1.39104594     -1.10441569     -0.000108     0.000154     0.000055
C      -7.25615047     -0.81902110      0.11347535     -0.000072     0.000049     0.000066
H       0.93069068      0.98397694     -0.70646014      0.000158     0.000616    -0.001265
H      -3.03843091      1.55524808      1.15637001     -0.000460    -0.001548     0.000615
H       3.48142605     -0.26808044      2.71982909      0.000476    -0.000451    -0.000316
H       1.19924661     -0.04565626      1.98779174     -0.000384    -0.001007    -0.000698
H      -1.40390119      1.00208088     -1.20414104     -0.000132     0.000588    -0.000665
H      -0.35225174     -1.08850658     -1.43194608     -0.001136    -0.000678    -0.000394
H       1.24989382     -1.56922335     -0.88393633      0.000641     0.000884     0.000091
H      -0.12299385     -1.74136042      0.22090249     -0.001190     0.001509    -0.001072
H       5.83137797      0.64106156      1.26141070     -0.000247    -0.001025     0.000529
H      -3.08408527      2.78458152     -1.60121971     -0.000127    -0.000945    -0.000776
H      -4.46499529      3.03726311     -0.48619997     -0.000246    -0.000221     0.001502
H      -2.76770678      3.65773417     -0.10181564     -0.000402     0.000162    -0.000235
H       2.88903997      2.09171727      2.75986638      0.000395    -0.000660     0.001724
H       4.57050560      1.78944401      3.27176723     -0.000227    -0.000446     0.001192
H       4.27414943      2.45774716      1.61932961      0.000500    -0.000487     0.000156
H      -5.82203716     -1.01097842     -1.39770999      0.000226     0.000973    -0.000127
H      -5.25743338      0.62266646      0.94052640      0.000262     0.001965     0.000444
H       7.50868656     -0.81591405      0.66476534     -0.000337     0.000550     0.000734
H      -5.36027019     -2.51013642      1.20078865      0.001637    -0.000564     0.000611
H      -5.88784244     -3.18329334     -0.33057632      0.000137    -0.000492    -0.000096
H      -4.26139952     -2.39118013     -0.13250361      0.000500     0.000077    -0.000792
H       5.71922870     -2.10558728     -1.41348580     -0.001178     0.000392     0.000282
H       7.43250088     -1.58504133     -1.63928298      0.000009     0.000312     0.000144
H       6.17692760     -0.36922029     -1.39084220     -0.000141     0.000893     0.001158
H       7.51748177     -2.93043374      1.64709081     -0.001195    -0.000019     0.000057
H       6.58279827     -3.54281963      0.48164501     -0.000158    -0.000004     0.000925
H      -8.41134481     -0.06160723      1.40275955      0.001123    -0.000170     0.000485
53
Frame 71  Energy = -1313.0439745477 Hartree
O      -0.85464840      0.90187595      1.80843132     -0.000165    -0.000102     0.000112
O       3.29177732      0.36818154     -0.31176919     -0.000058    -0.000192     0.000311
O      -3.44290005     -0.24216944     -1.51827369     -0.000236    -0.000145    -0.000046
O       4.57762108     -2.26072759      1.21487100      0.000174    -0.000266    -0.000188
O      -7.45294473     -0.05512109      1.13214529      0.000180    -0.000253     0.000135
O      -8.19281762     -1.33600360     -0.52149171      0.000094    -0.000113     0.000083
N       1.61285228      0.20635933      1.12264530      0.000190    -0.000047     0.000024
N      -1.55658737      1.21910062     -0.31188221     -0.000136    -0.000221    -0.000066
N       5.18228394     -0.11026427      1.53307141     -0.000054     0.000154    -0.000035
N      -4.99579030      0.20137891      0.03987640      0.000212     0.000248     0.000237
N       7.40641471     -2.88087752      0.64475796     -0.000123     0.000257    -0.000057
C       0.64477037      0.25479204      0.06050443     -0.000297    -0.000155     0.000107
C      -2.94064384      1.53632693      0.02031563      0.000074    -0.000185     0.000100
C       3.88474256      0.31625566      1.99890100     -0.000134    -0.000157    -0.000307
C      -0.65929507      0.83488018      0.62957327     -0.000158    -0.000224    -0.000433
C       2.91355963      0.26640211      0.82551352      0.000135     0.000306     0.000437
C       0.42805510     -1.12999360     -0.58473855      0.000151     0.000181    -0.000058
C      -3.81038940      0.40508330     -0.55083490      0.000093    -0.000151     0.000420
C      -3.39283769      2.88545182     -0.54915808     -0.000068     0.000230     0.000194
C       3.97354945      1.76244947      2.50669834     -0.000018     0.000293     0.000309
C      -5.81234438     -0.92084375     -0.36175403     -0.000354     0.000148     0.000483
C       6.73874687     -1.58336403      0.35422753      0.000031     0.000396    -0.000081
C       5.39800902     -1.37165665      1.08121335     -0.000105     0.000373    -0.000132
C      -5.29177471     -2.25130542      0.25542460     -0.000144     0.000127     0.000233
C       6.51389934     -1.46252411     -1.15578642      0.000046     0.000073    -0.000153
C      -7.25896013     -0.81069709      0.03474334     -0.000242     0.000278    -0.000187
H       1.02731732      0.87018266     -0.76423808     -0.000214     0.000013    -0.000423
H      -3.03990594      1.58500199      1.11998722      0.000244    -0.001076     0.000223
H       3.54514991     -0.28511125      2.81552061      0.000212    -0.000072     0.000189
H       1.30379751      0.15158436      2.07599948     -0.000230     0.000714    -0.001238
H      -1.36828538      0.94034226     -1.24410746      0.000582    -0.000212     0.000683
H      -0.22483215     -1.09617330     -1.44934797      0.001502     0.000488    -0.000137
H       1.41107266     -1.43274899     -0.90850651      0.000681     0.000495    -0.000289
H       0.02708658     -1.87968230      0.07213398     -0.000227    -0.000423    -0.000892
H       5.79059149      0.61752596      1.21997569     -0.000536    -0.000502     0.001674
H      -3.16757651      2.88792455     -1.61669545      0.000148    -0.000572     0.001606
H      -4.44985778      3.05162703     -0.37223793      0.000081     0.000529     0.000267
H      -2.78686394      3.68194046     -0.12037700     -0.000375     0.000167     0.000694
H       3.00199171      2.09753408      2.85718884      0.001816     0.000491    -0.000447
H       4.68735506      1.84099396      3.34303813      0.000066    -0.000025    -0.000359
H       4.26743198      2.40972740      1.70421777     -0.000679     0.000065     0.000052
H      -5.74498744     -1.00076397     -1.44081128     -0.000048     0.000232     0.001089
H      -5.20654601      0.67810239      0.90336201     -0.000869    -0.000331    -0.000759
H       7.43110326     -0.81438448      0.66679354      0.000629    -0.001093     0.001400
H      -5.29364092     -2.24023930      1.33915435     -0.000011     0.000944     0.000957
H      -5.96023621     -3.04372020     -0.10573075      0.000242     0.000897     0.000584
H      -4.29956929     -2.43673601     -0.13368040      0.000294    -0.000948    -0.000618
H       5.79575338     -2.22872161     -1.45502453     -0.000115     0.000758    -0.000004
H       7.44362274     -1.56644352     -1.69542840      0.000303    -0.000656    -0.000773
H       6.10044725     -0.47964582     -1.39406539     -0.000129    -0.000476    -0.000049
H       7.70350276     -2.89706860      1.59568010     -0.000716     0.000769     0.001086
H       6.72880457     -3.62824830      0.50547372      0.000166    -0.000774     0.001142
H      -8.41214297     -0.03922677      1.32502085      0.000790     0.000270    -0.000298
53
Frame 72  Energy = -1313.0362840141 Hartree
O      -0.83826653      0.80511342      1.80323956     -0.000089    -0.000101     0.000302
O       3.33553957      0.44710488     -0.33596128     -0.000329    -0.000160     0.000216
O      -3.39324477     -0.24640688     -1.56033385     -0.000034    -0.000065     0.000306
O       4.67443641     -2.23371110      1.16163269     -0.000153     0.000133    -0.000097
O      -7.38415550      0.12828074      1.04111955     -0.000120     0.000266    -0.000168
O      -8.16483666     -1.30286798     -0.48407987      0.000510    -0.000115    -0.000169
N       1.64710933      0.19539798      1.10730607     -0.000028    -0.000074    -0.000065
N      -1.54658143      1.24969133     -0.33219957     -0.000083     0.000139    -0.000228
N       5.26160392     -0.09840339      1.54024127     -0.000055    -0.000081     0.000061
N      -4.96968231      0.22543163      0.00586551      0.000034     0.000249    -0.000455
N       7.49491292     -2.81960972      0.64011947     -0.000140    -0.000048     0.000012
C       0.65275926      0.25117091      0.00986868     -0.000521     0.000224    -0.000071
C      -2.92195787      1.54398813     -0.00476595     -0.000146    -0.000218     0.000043
C       3.94581004      0.30005004      2.00079697     -0.000062     0.000102     0.000183
C      -0.65317025      0.80101833      0.59701383      0.000143     0.000041    -0.000231
C       2.96429091      0.28485713      0.81659354     -0.000417     0.000337    -0.000135
C       0.41587017     -1.15504384     -0.53851688     -0.000216     0.000032     0.000106
C      -3.77187664      0.41701443     -0.59881638      0.000384     0.000127     0.000233
C      -3.38472307      2.91784549     -0.54048432     -0.000174     0.000230     0.000179
C       3.96899692      1.65636103      2.61775182      0.000046     0.000034    -0.000202
C      -5.78472577     -0.91330274     -0.40115019      0.000109     0.000415     0.000152
C       6.84085541     -1.54136132      0.42224152     -0.000012    -0.000317    -0.000162
C       5.50214363     -1.34405817      1.09302122     -0.000006    -0.000180     0.000279
C      -5.30267809     -2.24712154      0.19954627     -0.000088     0.000111    -0.000114
C       6.59974952     -1.39612160     -1.09005450     -0.000394     0.000191    -0.000353
C      -7.23127486     -0.72196793      0.00409941      0.000130    -0.000328     0.000201
H       0.98633411      0.94612350     -0.73207036      0.000240     0.000189     0.000710
H      -2.95980014      1.54219924      1.10084799     -0.000168    -0.001432    -0.001372
H       3.61323272     -0.46484654      2.72879751      0.000453    -0.000080    -0.001494
H       1.27933968      0.03383568      2.02619782     -0.000522     0.000372    -0.000276
H      -1.38604696      1.05154535     -1.30251998      0.000932    -0.000317    -0.001012
H      -0.27046236     -1.08837847     -1.38035144      0.000685    -0.000717    -0.001254
H       1.35751526     -1.60590507     -0.84142896     -0.000917     0.000704     0.001565
H      -0.02065738     -1.78416034      0.25400184      0.001429     0.000924     0.001074
H       5.87635058      0.62052826      1.21750595     -0.000490    -0.000655     0.000845
H      -3.16080560      2.95658898     -1.62921772     -0.000669     0.000142    -0.000627
H      -4.45533983      3.02109216     -0.32207613     -0.000288     0.000594    -0.000871
H      -2.88086870      3.71964431     -0.01334769     -0.000485    -0.000667    -0.000386
H       3.01715583      1.85735543      3.07923326     -0.001396    -0.000429    -0.001052
H       4.72813723      1.74095375      3.38621292      0.000875     0.000160     0.000182
H       4.14804723      2.39494511      1.84235739      0.001021     0.000286     0.000398
H      -5.73594916     -0.90568236     -1.51082968      0.000219    -0.000960    -0.000116
H      -5.17901705      0.63287511      0.89593374      0.000430     0.000812     0.000765
H       7.55419295     -0.76900858      0.73526737      0.000238     0.000284    -0.000856
H      -5.27238826     -2.18876613      1.29132902     -0.000369     0.000354     0.000619
H      -6.02723244     -3.03204243     -0.06244371      0.000023    -0.000428     0.001287
H      -4.29601779     -2.47541922     -0.18211436      0.000802     0.001131    -0.000374
H       5.92905416     -2.20458399     -1.40274079      0.000150     0.000196    -0.001079
H       7.56108006     -1.55888914     -1.61022867     -0.000922     0.000350     0.000144
H       6.18000358     -0.43072068     -1.32806474      0.000017     0.000707    -0.000555
H       7.87183995     -2.83534584      1.59578338      0.000344     0.000290     0.000962
H       6.79973673     -3.56453331      0.57362757      0.001274    -0.000376    -0.000244
H      -8.33748914      0.10617085      1.23341738      0.000710     0.000657     0.000183
53
Frame 73  Energy = -1313.0490188697 Hartree
O      -0.87649485      0.79143197      1.85489641     -0.000071     0.000273     0.000120
O       3.39347869      0.40173414     -0.39449940      0.000175     0.000034     0.000036
O      -3.38879489     -0.10855276     -1.54823204     -0.000026     0.000384    -0.000059
O       4.71812699     -2.24352411      1.27976311     -0.000043    -0.000040    -0.000151
O      -7.44953021      0.22100830      0.87732705      0.000188     0.000031    -0.000233
O      -8.11658854     -1.45608356     -0.43809841     -0.000171    -0.000038     0.000155
N       1.61923784      0.15377696      1.05455343     -0.000281     0.000137    -0.000283
N      -1.53707764      1.30492185     -0.26178818      0.000056     0.000060     0.000103
N       5.24047036     -0.05926410      1.51785084     -0.000067    -0.000224    -0.000082
N      -4.98356178      0.21888550      0.05523498     -0.000002    -0.000143    -0.000160
N       7.41019287     -2.85015353      0.70841251      0.000060     0.000201     0.000327
C       0.60604095      0.21966342      0.05091703     -0.000079     0.000342     0.000104
C      -2.93639757      1.57041766      0.08757913      0.000099     0.000006    -0.000028
C       3.91163939      0.27168484      1.95122877      0.000407     0.000057    -0.000256
C      -0.65390826      0.82770619      0.65312972     -0.000011     0.000064     0.000122
C       2.94112201      0.28508871      0.73935108      0.000042    -0.000017    -0.000322
C       0.30722968     -1.14713838     -0.54802826     -0.000069    -0.000139    -0.000051
C      -3.79744049      0.44471792     -0.54925950      0.000331    -0.000291    -0.000075
C      -3.38086098      2.91920015     -0.47519920      0.000070    -0.000048    -0.000374
C       3.93385010      1.58819760      2.71879276     -0.000222     0.000137    -0.000225
C      -5.80555372     -0.93236903     -0.36833375     -0.000015     0.000116     0.000188
C       6.84826371     -1.55837535      0.37970004     -0.000211     0.000163     0.000281
C       5.50368760     -1.32505759      1.09592521     -0.000232     0.000181     0.000172
C      -5.31155124     -2.29642663      0.12299754     -0.000225    -0.000353    -0.000149
C       6.55092753     -1.47037455     -1.13219660     -0.000006    -0.000135     0.000061
C      -7.24166444     -0.75624532     -0.02079715      0.000085    -0.000130    -0.000184
H       0.97738202      0.85929892     -0.76726255      0.000307    -0.000292     0.000994
H      -3.05495791      1.55879077      1.15974003      0.000263    -0.000253    -0.000632
H       3.56175653     -0.51317911      2.61954418     -0.000055     0.000406     0.000886
H       1.29050776      0.14689477      2.02033595      0.000746    -0.000066    -0.001841
H      -1.44166578      0.96004528     -1.21479555     -0.000701    -0.000569     0.000361
H      -0.38696142     -1.09002543     -1.39666969      0.000402     0.000988     0.000132
H       1.23463786     -1.59238525     -0.90597807      0.000263     0.001685     0.001829
H      -0.11331287     -1.83900877      0.14731027      0.001345     0.001113     0.000676
H       5.78575397      0.68972573      1.12999645      0.000359     0.000506    -0.000548
H      -3.35831836      2.90753065     -1.57202081      0.000297     0.000289    -0.000352
H      -4.38141256      3.17854843     -0.14184893      0.000209     0.000791     0.000228
H      -2.72162565      3.69249055     -0.11571281      0.000363     0.000819    -0.000160
H       2.92926864      1.79021080      3.15535174      0.000819     0.000193    -0.000245
H       4.71904053      1.56956052      3.49045542      0.000627    -0.000155    -0.001580
H       4.19961865      2.36966822      2.02224440      0.000528    -0.000041     0.001551
H      -5.74219575     -0.90681217     -1.43960164     -0.000871    -0.000162    -0.000685
H      -5.08648135      0.56481515      0.99739060      0.000238     0.000359     0.000241
H       7.52851964     -0.74626973      0.63871063      0.000368    -0.000141    -0.000975
H      -5.22201763     -2.28477472      1.21687339      0.000895    -0.000543     0.000518
H      -6.05742421     -3.04207829     -0.21283573     -0.000133     0.000431    -0.000700
H      -4.36306135     -2.51557749     -0.33714337     -0.000585     0.000634    -0.001637
H       5.89885619     -2.26224305     -1.41688802     -0.000212    -0.000726     0.000154
H       7.46596863     -1.54628206     -1.64853348      0.000260     0.000836     0.000605
H       6.05105554     -0.51970148     -1.43686770     -0.000032    -0.000864    -0.000953
H       7.99946228     -2.80598428      1.53717246      0.000036     0.000287     0.000504
H       6.63600731     -3.48482556      0.89281071     -0.000220     0.000889    -0.000623
H      -8.40905612      0.32732428      0.97874711      0.000380     0.001184     0.000615
53
Frame 74  Energy = -1313.0370273068 Hartree
O      -0.92082248      0.72025689      1.95067418     -0.000057     0.000050    -0.000331
O       3.27368070      0.37040962     -0.40379146      0.000209    -0.000114    -0.000157
O      -3.39329529     -0.07513538     -1.54467216      0.000120    -0.000122     0.000254
O       4.78894550     -2.30667255      1.27393417     -0.000088    -0.000133    -0.000151
O      -7.49311161      0.14346723      0.92268175      0.000239    -0.000145     0.000071
O      -8.14854330     -1.48899064     -0.43791489      0.000007    -0.000080     0.000113
N       1.61869821      0.22762424      1.11106951     -0.000168    -0.000164    -0.000094
N      -1.55298427      1.32236039     -0.16531791      0.000347    -0.000259    -0.000170
N       5.21297298     -0.08450004      1.50297661      0.000232    -0.000219    -0.000190
N      -4.99405679      0.16598417      0.06869439     -0.000158     0.000419     0.000108
N       7.52106102     -2.82813634      0.77862894      0.000144     0.000122    -0.000117
C       0.57412260      0.25049934      0.11934786     -0.000018     0.000177    -0.000150
C      -2.93437830      1.56102876      0.12393753      0.000080    -0.000075     0.000225
C       3.88410163      0.23085784      1.95402172     -0.000225     0.000109     0.000232
C      -0.71600269      0.78793789      0.74814837     -0.000133    -0.000192     0.000311
C       2.92577208      0.27793852      0.76438353      0.000084     0.000385    -0.000284
C       0.30119441     -1.11100387     -0.51314625      0.000017     0.000124     0.000200
C      -3.79551867      0.45173641     -0.50378373      0.000442    -0.000113    -0.000052
C      -3.37375464      2.92900464     -0.43531603      0.000169    -0.000222     0.000155
C       3.98564104      1.54178610      2.73014224      0.000636    -0.000102     0.000007
C      -5.78573017     -0.92738686     -0.43415170     -0.000174    -0.000485    -0.000020
C       6.89850419     -1.54346343      0.45682951     -0.000025    -0.000147    -0.000313
C       5.54134063     -1.36824895      1.14107346     -0.000220     0.000104     0.000187
C      -5.18965463     -2.25371434      0.01592621     -0.000213     0.000041    -0.000117
C       6.59903376     -1.47555481     -1.05432133     -0.000002     0.000295     0.000001
C      -7.25201121     -0.79815491     -0.01962272      0.000103     0.000013    -0.000119
H       0.88466275      0.94373467     -0.65196155     -0.001077    -0.001629    -0.001204
H      -3.00770193      1.59436526      1.20128837     -0.000157    -0.000014    -0.000082
H       3.53926808     -0.57434427      2.63802794     -0.000012     0.000151     0.001196
H       1.32865705      0.09566355      2.09008641     -0.000533     0.000291    -0.001024
H      -1.32006501      1.21032697     -1.16077084     -0.000759    -0.000332     0.000254
H      -0.38097180     -0.96000978     -1.36197807      0.000177    -0.001401     0.000238
H       1.22864850     -1.56087888     -0.85201134     -0.000143    -0.000706     0.000467
H      -0.16443924     -1.74798504      0.27656715      0.000357     0.000242     0.000567
H       5.80869848      0.63963765      1.10690585      0.000312    -0.000669     0.000843
H      -3.15855107      2.95655848     -1.51856286     -0.000272     0.000084     0.000319
H      -4.43523121      3.10128453     -0.27573751     -0.000253     0.000001     0.001508
H      -2.68663431      3.69164635      0.00465340     -0.001287    -0.001622     0.000282
H       3.03211495      1.82645085      3.21001618     -0.000039    -0.000561     0.000858
H       4.68733395      1.40285230      3.56349656      0.000356     0.000337     0.000147
H       4.33379447      2.36168411      2.08718892     -0.000676     0.001014    -0.000383
H      -5.75587265     -0.90329433     -1.51413034      0.001381     0.000242    -0.000943
H      -5.23326406      0.56620221      0.96200631     -0.001170     0.000917    -0.001003
H       7.53970563     -0.73662232      0.75333020      0.000203    -0.000365     0.000171
H      -5.26002113     -2.32284045      1.10404726     -0.000769     0.001034    -0.000694
H      -5.71458907     -3.11418712     -0.44174397     -0.000370     0.001023    -0.001024
H      -4.11475649     -2.24207311     -0.20313509      0.000215    -0.000881    -0.000648
H       5.90288381     -2.27202757     -1.27764123      0.001173     0.000482    -0.000107
H       7.50539227     -1.57640545     -1.62973334      0.000819     0.000020    -0.000095
H       6.14558164     -0.49958082     -1.30079357     -0.001222     0.000365     0.000087
H       7.70450808     -2.85434903      1.76480086      0.000842    -0.000424    -0.000179
H       6.84426587     -3.56639735      0.64542654      0.000777     0.000023    -0.002007
H      -8.43461960      0.08902488      1.15627890      0.000879    -0.000323     0.000076
53
Frame 75  Energy = -1313.0380278564 Hartree
O      -0.98931225      0.69114626      1.88469083     -0.000418    -0.000171     0.000105
O       3.26785177      0.30028996     -0.38751075      0.000031    -0.000076     0.000125
O      -3.35475308     -0.02569655     -1.59686314      0.000225     0.000348     0.000036
O       4.69625212     -2.33333405      1.30522382      0.000227     0.000262     0.000298
O      -7.40944657      0.20586895      0.94750022     -0.000092     0.000128    -0.000098
O      -8.10010064     -1.50370270     -0.34495729     -0.000070    -0.000155     0.000021
N       1.61342765      0.19002242      1.13162396     -0.000196    -0.000015     0.000186
N      -1.53746004      1.36280473     -0.22574619      0.000000     0.000189    -0.000038
N       5.20646822     -0.14385416      1.54093585      0.000216    -0.000020     0.000159
N      -4.95671203      0.23458723     -0.01254566      0.000193    -0.000045     0.000129
N       7.53076346     -2.85020711      0.79600062     -0.000160    -0.000184     0.000198
C       0.57248207      0.16316675      0.12196402      0.000015     0.000273     0.000708
C      -2.92524550      1.59848018      0.09103930     -0.000243    -0.000044     0.000373
C       3.89065172      0.21014409      1.95188904      0.000112    -0.000276    -0.000140
C      -0.69269351      0.78690713      0.70595477     -0.000177    -0.000013     0.000135
C       2.91196239      0.21649903      0.76173461     -0.000098    -0.000359    -0.000245
C       0.25431113     -1.26454046     -0.35012027     -0.000007     0.000242     0.000344
C      -3.76031209      0.52579362     -0.60161124      0.000127     0.000388    -0.000031
C      -3.31492661      2.98307970     -0.39843515     -0.000006    -0.000130     0.000194
C       3.88195706      1.56668983      2.71164197     -0.000100    -0.000004     0.000147
C      -5.78623950     -0.87339404     -0.47217309     -0.000040    -0.000007    -0.000023
C       6.87130675     -1.57626031      0.55981395      0.000269     0.000016    -0.000128
C       5.49634003     -1.40665971      1.19071377      0.000471    -0.000288    -0.000140
C      -5.21360583     -2.23650202      0.00494685      0.000201    -0.000193     0.000434
C       6.64944828     -1.39541680     -0.94231607     -0.000018     0.000408     0.000044
C      -7.22439270     -0.77049755      0.00869176      0.000159    -0.000068    -0.000260
H       0.95385424      0.76423708     -0.71785351     -0.000067     0.000066     0.000528
H      -3.04238270      1.49580019      1.16691148      0.000368    -0.000529     0.000432
H       3.52114624     -0.59617211      2.56626653     -0.000087    -0.001074     0.000932
H       1.32208618     -0.00187707      2.07204730      0.000323     0.000177    -0.000502
H      -1.30246241      1.16261138     -1.19571839      0.000697    -0.000449    -0.000754
H      -0.46356799     -1.30786842     -1.16381870     -0.000047    -0.001206    -0.000452
H       1.18376337     -1.74742316     -0.68612768      0.000840    -0.000345     0.000256
H      -0.13291261     -1.84208007      0.47956801     -0.000352    -0.000196     0.000258
H       5.81307133      0.60242258      1.23468159      0.000505    -0.000429    -0.000409
H      -3.28774425      3.01435619     -1.48869933      0.001008     0.000192    -0.000510
H      -4.34924752      3.21555661     -0.10152956      0.000916     0.000888     0.000259
H      -2.67197971      3.70189868      0.03650423      0.000142     0.000025     0.001063
H       2.87837203      1.85298227      3.00609618     -0.000977    -0.000229    -0.000589
H       4.54675614      1.45621133      3.57096235      0.000258     0.000174    -0.000005
H       4.27349173      2.34038547      2.06356981      0.000157     0.000810    -0.001262
H      -5.81099182     -0.83759173     -1.55355560      0.000455    -0.000447     0.000450
H      -5.22847366      0.72175863      0.84685370     -0.001068    -0.001118    -0.000806
H       7.52877187     -0.80603101      0.96612682      0.000329     0.000967    -0.000152
H      -5.31997432     -2.39510392      1.06537724     -0.000560    -0.001337     0.000405
H      -5.74866290     -3.03921038     -0.50255803     -0.000299     0.000416     0.000108
H      -4.15218818     -2.34149764     -0.26613169      0.000546     0.001864     0.000265
H       6.11103823     -2.26994719     -1.35881675     -0.000160    -0.000053    -0.000479
H       7.60836050     -1.32618695     -1.43108636      0.001736    -0.000854    -0.002215
H       6.09428211     -0.48447763     -1.20233745      0.000011     0.000012    -0.000643
H       7.54894537     -3.08784160      1.78968533     -0.000954    -0.000788    -0.000211
H       6.97319597     -3.55712962      0.37232366      0.000475    -0.000576     0.000048
H      -8.33474519      0.15167927      1.17872334      0.001431    -0.000674    -0.001226
53
Frame 76  Energy = -1313.0456498966 Hartree
O      -0.87132242      0.74051422      1.87761596      0.000090     0.000128    -0.000110
O       3.25341726      0.28116805     -0.36913529     -0.000009     0.000002    -0.000028
O      -3.39476481     -0.14120652     -1.59527379      0.000016    -0.000117    -0.000028
O       4.73246528     -2.38544379      1.39388337      0.000033    -0.000310    -0.000020
O      -7.35089020      0.21261610      0.90108098     -0.000205    -0.000041    -0.000039
O      -8.10561387     -1.46783004     -0.39665205     -0.000163    -0.000384     0.000349
N       1.58760042      0.05740795      1.11289316     -0.000000    -0.000193     0.000335
N      -1.52628849      1.24726091     -0.24828199     -0.000093     0.000052     0.000116
N       5.18617918     -0.16759880      1.53606203      0.000353     0.000012    -0.000200
N      -4.99173463      0.24540274     -0.04533259     -0.000343    -0.000034     0.000002
N       7.46240736     -2.95738674      0.79617990      0.000139    -0.000293    -0.000172
C       0.59048268      0.15717280      0.08171477      0.000075    -0.000107    -0.000035
C      -2.90929934      1.48400578      0.10310838     -0.000225     0.000122    -0.000077
C       3.85526443      0.17516104      1.97140734     -0.000154    -0.000024    -0.000063
C      -0.65709271      0.75097088      0.66880139      0.000003    -0.000136    -0.000257
C       2.88768358      0.16679705      0.79201072     -0.000016     0.000085    -0.000020
C       0.30552336     -1.21926582     -0.52430889      0.000183    -0.000193    -0.000060
C      -3.79988779      0.47104621     -0.60022244      0.000149     0.000035    -0.000197
C      -3.31241489      2.90668815     -0.27545346      0.000036    -0.000277    -0.000173
C       3.86897646      1.56403126      2.61344835     -0.000156    -0.000460    -0.000058
C      -5.78827650     -0.89841129     -0.51100261     -0.000065    -0.000099    -0.000183
C       6.88284452     -1.65732859      0.59791977      0.000060    -0.000066    -0.000135
C       5.48451127     -1.45791813      1.19913754     -0.000033     0.000208    -0.000086
C      -5.19917247     -2.19570371     -0.03895718      0.000322     0.000076     0.000100
C       6.83679070     -1.30595732     -0.90043024      0.000329     0.000397    -0.000310
C      -7.19994688     -0.76431537     -0.04550049     -0.000020     0.000273     0.000330
H       0.91147537      0.87504178     -0.67703488     -0.000391    -0.000563    -0.000533
H      -3.01550627      1.29230413      1.18274858      0.000091     0.000165     0.000700
H       3.54020548     -0.58203607      2.70544891      0.001059    -0.000477     0.001043
H       1.27441022      0.12108516      2.05339328      0.000071     0.000702     0.001384
H      -1.40180552      0.88601595     -1.18542963      0.000362    -0.000007    -0.000423
H      -0.35056861     -1.15569448     -1.38646224      0.000357     0.000589     0.000497
H       1.25153941     -1.61544562     -0.86331272     -0.000465    -0.000644     0.000566
H      -0.08006855     -1.85829576      0.25513160     -0.000802    -0.001393     0.000088
H       5.69259713      0.53624006      1.04660046     -0.000797     0.000506    -0.000313
H      -3.26957312      3.05134681     -1.37722453      0.000830    -0.000753     0.000563
H      -4.32499717      3.10867848      0.04909214     -0.000945    -0.000556     0.000375
H      -2.60051073      3.62229949      0.15271868     -0.000420     0.000035    -0.000144
H       2.88259558      1.88884910      2.94714039     -0.000400     0.001381     0.000737
H       4.54301352      1.58959613      3.47038488      0.000102     0.000103    -0.000313
H       4.22311735      2.30760998      1.88603022     -0.000580     0.000079    -0.000763
H      -5.77027432     -0.85279719     -1.62006607     -0.001040     0.001088    -0.000327
H      -5.17636442      0.66529729      0.84034907     -0.001243    -0.001007     0.001552
H       7.52499908     -0.97030724      1.14749486     -0.000483     0.001372     0.000135
H      -5.17125666     -2.24053536      1.04431219     -0.001316     0.000283    -0.001251
H      -5.77639751     -3.00017243     -0.46773078      0.000955    -0.000857     0.000249
H      -4.16636671     -2.28689102     -0.36742591      0.002322    -0.000202     0.000860
H       6.23643346     -2.00564522     -1.44673233      0.000322     0.000058    -0.000005
H       7.86281540     -1.36525746     -1.28206371      0.000217    -0.000181     0.000468
H       6.41596914     -0.29823751     -1.09855923     -0.000627     0.000098    -0.001015
H       7.66688173     -3.12386338      1.78525130      0.000058     0.001121    -0.000131
H       6.75457261     -3.66238600      0.53746035     -0.000235    -0.000989    -0.001409
H      -8.27749788      0.19611870      1.21083189      0.000646    -0.000307     0.000613
53
Frame 77  Energy = -1313.0508074209 Hartree
O      -0.93742841      0.78231574      1.91039431      0.000079     0.000377     0.000100
O       3.26491304      0.04409116     -0.33709463      0.000101    -0.000114    -0.000242
O      -3.39950999     -0.26368365     -1.55650318      0.000050     0.000001     0.000003
O       4.79764247     -2.34115325      1.39856605      0.000126     0.000041     0.000068
O      -7.41008924      0.30444788      0.77889311      0.000274     0.000228    -0.000253
O      -8.17346930     -1.44943818     -0.37315505     -0.000145    -0.000125    -0.000196
N       1.58039324      0.11681389      1.14655838      0.000022    -0.000057     0.000225
N      -1.54565844      1.24206895     -0.23562663     -0.000048     0.000185    -0.000196
N       5.22940571     -0.16375921      1.65485516      0.000006    -0.000025    -0.000176
N      -5.00558870      0.23036955     -0.07924794      0.000137     0.000038    -0.000074
N       7.50631104     -2.90466527      0.75956298     -0.000023    -0.000188    -0.000027
C       0.58283315      0.21657580      0.11366568      0.000043     0.000220     0.000197
C      -2.93138261      1.48172002      0.06670814      0.000144    -0.000300     0.000285
C       3.88264856      0.18183894      1.97863046     -0.000165     0.000111    -0.000116
C      -0.70466435      0.77131339      0.70361779      0.000320     0.000108    -0.000321
C       2.90137665      0.10448509      0.81413033      0.000151     0.000080     0.000033
C       0.27847826     -1.13015334     -0.50568155      0.000105    -0.000120     0.000038
C      -3.79953142      0.41110965     -0.61577232      0.000070     0.000250    -0.000045
C      -3.35396923      2.86680362     -0.37532725      0.000283     0.000061    -0.000039
C       3.88919282      1.63456528      2.48376361      0.000238    -0.000261    -0.000029
C      -5.80668602     -0.92610723     -0.52937818     -0.000194    -0.000117     0.000310
C       6.94276603     -1.57288984      0.59977600     -0.000273    -0.000142     0.000182
C       5.55235307     -1.42073132      1.24963310     -0.000112    -0.000093     0.000027
C      -5.26501085     -2.26669310      0.00389792      0.000120    -0.000148    -0.000090
C       6.78275229     -1.25017889     -0.87559853     -0.000233     0.000350    -0.000327
C      -7.23835435     -0.74295012     -0.07586492      0.000016     0.000083     0.000265
H       0.94318208      0.91421863     -0.66459136      0.002051     0.000349    -0.000783
H      -3.07766890      1.38169764      1.15686343     -0.000260     0.000761     0.000105
H       3.55545141     -0.51482096      2.77720521      0.000466     0.000726     0.000083
H       1.27459395      0.14157176      2.10305505      0.000046    -0.000779    -0.000855
H      -1.36911553      0.99389450     -1.20773974     -0.001405    -0.000031    -0.000768
H      -0.37505011     -1.04920423     -1.34237865      0.000497    -0.000105     0.000876
H       1.18904450     -1.62676590     -0.85915656      0.000317     0.000996     0.000376
H      -0.19952151     -1.78968831      0.25528874      0.000019    -0.000078     0.000973
H       5.83354916      0.57353248      1.29093090     -0.001165    -0.001129    -0.000823
H      -3.39872427      2.88403695     -1.47070682      0.000852    -0.001604    -0.000198
H      -4.33127737      3.11639185      0.00301155      0.000271     0.000190    -0.000607
H      -2.67742279      3.63712677     -0.03166458     -0.001638    -0.001020     0.000704
H       2.87779379      2.02458738      2.73754269      0.000591     0.000001    -0.000526
H       4.57885565      1.75917578      3.31667173     -0.000501     0.000531    -0.000877
H       4.24055741      2.27137571      1.65791774     -0.000411     0.000071    -0.000714
H      -5.78355985     -0.94771457     -1.61920068     -0.000305     0.000255    -0.000484
H      -5.29600828      0.75658012      0.72392856     -0.000221     0.000458     0.000711
H       7.63808796     -0.84547370      1.06427774      0.001224    -0.000755     0.000054
H      -5.28086977     -2.26614955      1.11180157      0.000950     0.000541    -0.000858
H      -5.90749654     -3.09266391     -0.36290425     -0.000696     0.000734     0.000817
H      -4.23684077     -2.39088514     -0.38438244     -0.001092     0.000128    -0.000151
H       6.04553117     -1.92572033     -1.35492345      0.000128     0.000860    -0.000793
H       7.74036363     -1.44103400     -1.37864541      0.001398    -0.000425    -0.000025
H       6.43396732     -0.21247277     -1.08712393      0.000485     0.000178     0.001010
H       7.58166270     -3.18655727      1.72203834      0.000264    -0.000052    -0.000302
H       6.87556191     -3.58077014      0.30608477     -0.000280    -0.000079    -0.001149
H      -8.33333727      0.26752080      1.06279176     -0.000007     0.000259     0.000336
53
Frame 78  Energy = -1313.0279553886 Hartree
O      -0.88765743      0.73910270      1.88158737     -0.000344    -0.000012     0.000188
O       3.33209517      0.04626895     -0.37595377     -0.000089    -0.000265    -0.000206
O      -3.29813105     -0.27256393     -1.57291595      0.000002    -0.000293    -0.000017
O       4.87664412     -2.37358482      1.46285236     -0.000346     0.000257     0.000023
O      -7.41216514      0.19230435      0.97266220      0.000083     0.000208     0.000341
O      -8.15630385     -1.38858562     -0.46284287      0.000235     0.000126     0.000236
N       1.61079599      0.00050069      1.11768317      0.000354    -0.000441    -0.000024
N      -1.51903075      1.25191337     -0.25295372     -0.000014     0.000069     0.000193
N       5.22726482     -0.15861243      1.63919503     -0.000325     0.000173     0.000210
N      -4.94470652      0.13631558     -0.02846270      0.000071     0.000322    -0.000293
N       7.57440411     -2.80639974      0.71854857     -0.000203    -0.000103    -0.000015
C       0.59229821      0.12008157      0.10728633     -0.000442    -0.000022     0.000214
C      -2.94096154      1.46429288      0.05341752     -0.000117     0.000161     0.000205
C       3.85820311      0.17153523      2.00568475      0.000479    -0.000323    -0.000219
C      -0.67068944      0.73613488      0.68601845      0.000098    -0.000204     0.000118
C       2.90660456      0.04415892      0.77228409     -0.000186    -0.000206     0.000293
C       0.23524115     -1.23086193     -0.50658087     -0.000142     0.000602    -0.000206
C      -3.76507504      0.37854651     -0.63953330     -0.000184    -0.000077     0.000240
C      -3.38350961      2.88886458     -0.29848803     -0.000105    -0.000267     0.000032
C       3.87216973      1.62634153      2.46108131     -0.000179    -0.000059     0.000414
C      -5.83966292     -0.95051268     -0.46707977     -0.000273    -0.000209    -0.000174
C       6.93463692     -1.51486298      0.59402071     -0.000075    -0.000033    -0.000120
C       5.59610680     -1.41837331      1.30076952      0.000212    -0.000168     0.000210
C      -5.31699315     -2.29369018      0.09346772      0.000188     0.000291     0.000095
C       6.79130859     -1.09168155     -0.84322091     -0.000380    -0.000131    -0.000261
C      -7.25473254     -0.74350441     -0.01043061     -0.000247    -0.000248     0.000026
H       0.97319170      0.76563776     -0.68024145     -0.000956    -0.000208    -0.000376
H      -3.06252522      1.30419577      1.11847361     -0.000517     0.000267    -0.000495
H       3.49370061     -0.51375361      2.75294703      0.000947    -0.000762    -0.000298
H       1.29212541      0.06026692      2.06382764      0.000942     0.000170    -0.000293
H      -1.29928925      1.00036483     -1.19491886      0.001138     0.000910    -0.000453
H      -0.39350580     -1.12751017     -1.42907858     -0.000185    -0.000550     0.000365
H       1.13855426     -1.71310680     -0.88161447      0.000092     0.000586     0.000258
H      -0.23766736     -1.89117199      0.19000692      0.000280     0.000544    -0.000428
H       5.77409690      0.58552168      1.28948583     -0.001085    -0.000278     0.000870
H      -3.11194291      3.06922869     -1.33669382     -0.000403    -0.000201     0.000560
H      -4.45624388      2.99897424     -0.15673228     -0.000009    -0.000459     0.000111
H      -2.91584609      3.62489965      0.33728169     -0.001092    -0.000238     0.001209
H       2.94928320      1.90764740      2.88624601     -0.000635     0.000273     0.001048
H       4.58527246      1.72241220      3.31128242     -0.001038    -0.000496     0.000405
H       4.18563038      2.27293626      1.63224665     -0.001010     0.000517     0.001092
H      -5.82490571     -0.99395136     -1.56798117      0.000392     0.000964     0.000761
H      -5.15328280      0.66364382      0.83816072      0.000700    -0.000142    -0.000748
H       7.60706308     -0.82660790      1.10533296     -0.000601    -0.000367     0.000513
H      -5.26801401     -2.23552408      1.16550529      0.000016     0.000005    -0.000428
H      -5.94826999     -3.12016164     -0.16871345      0.000774    -0.000605     0.000302
H      -4.30243143     -2.44493073     -0.31246550      0.000792     0.000811     0.001270
H       6.12947995     -1.77474010     -1.39242785      0.001203    -0.000316    -0.000530
H       7.74970001     -1.14561972     -1.30846898      0.000865    -0.000353    -0.000558
H       6.37333128     -0.08733654     -0.98148150     -0.000113    -0.000285    -0.000059
H       7.75907496     -3.00765907      1.69830366      0.000835    -0.000420    -0.001508
H       6.95380472     -3.56495913      0.44934070     -0.001130    -0.000978     0.000087
H      -8.36093394      0.26015439      1.21141029      0.000729     0.000513    -0.001620
53
Frame 79  Energy = -1313.0596739398 Hartree
O      -0.82439608      0.68672637      1.88465703     -0.000099    -0.000161    -0.000170
O       3.39150102     -0.03853132     -0.33867956     -0.000136     0.000123     0.000175
O      -3.23764156     -0.31925842     -1.54867510     -0.000247    -0.000192    -0.000116
O       4.85315545     -2.29059175      1.52069012      0.000201    -0.000215     0.000094
O      -7.22850588      0.09440750      1.04899094     -0.000079     0.000035     0.000156
O      -8.10444626     -1.29889784     -0.47669398      0.000004     0.000280     0.000053
N       1.65139773     -0.00180178      1.11317788      0.000311    -0.000229     0.000011
N      -1.47667767      1.21183216     -0.24782958     -0.000136     0.000064    -0.000142
N       5.27016441     -0.09355292      1.71153292      0.000013    -0.000116    -0.000168
N      -4.88683118      0.11411310     -0.09032776      0.000187     0.000082    -0.000152
N       7.45060248     -2.81982659      0.59023954     -0.000045     0.000011     0.000180
C       0.64019520      0.11072790      0.09214225      0.000004    -0.000035    -0.000100
C      -2.87231937      1.41832387      0.05660009      0.000071     0.000447     0.000100
C       3.86440890      0.19358203      2.01398909      0.000028    -0.000119    -0.000472
C      -0.61385670      0.72139096      0.68551768      0.000026     0.000073     0.000056
C       2.96016106      0.01962051      0.78817686     -0.000049    -0.000180     0.000105
C       0.28635807     -1.26126001     -0.52275344     -0.000036     0.000048    -0.000036
C      -3.65891131      0.28320827     -0.59402357     -0.000038    -0.000090    -0.000158
C      -3.34410555      2.76497228     -0.48983782      0.000069     0.000356    -0.000040
C       3.75461530      1.62332783      2.55051703     -0.000191     0.000209     0.000061
C      -5.77193392     -0.93618213     -0.52935879     -0.000222     0.000243     0.000129
C       6.91630045     -1.47776821      0.59668090     -0.000111     0.000034     0.000259
C       5.59798623     -1.35320403      1.32285870     -0.000420     0.000028     0.000127
C      -5.20289899     -2.27527297     -0.10921760     -0.000063     0.000098     0.000053
C       6.68987878     -1.02180039     -0.86707424      0.000236     0.000096    -0.000023
C      -7.15926620     -0.74900260     -0.00497300     -0.000042    -0.000094     0.000498
H       1.02391082      0.77539526     -0.71481184      0.000066     0.000305     0.000375
H      -2.94377523      1.42352331      1.13871757     -0.000240    -0.000414    -0.000983
H       3.56213828     -0.53532359      2.76427084     -0.000053     0.000277     0.000117
H       1.32020995      0.13529928      2.09647806     -0.000925    -0.000388     0.000221
H      -1.32987343      0.95127287     -1.21638613     -0.001164    -0.000134    -0.000669
H      -0.47700263     -1.15397912     -1.27890479      0.000145    -0.000315    -0.000469
H       1.15545096     -1.62925169     -1.07560632     -0.000554    -0.000128     0.000747
H      -0.05055954     -1.93068875      0.25622036     -0.000595    -0.000479    -0.000094
H       5.80479280      0.64704111      1.24987625      0.000891    -0.000160     0.000150
H      -3.13896628      2.84627551     -1.57005610     -0.001319     0.000887    -0.001263
H      -4.39655221      2.98373911     -0.28831864     -0.000973     0.001060    -0.000239
H      -2.79153075      3.55981067     -0.01707241      0.000179     0.000387     0.000298
H       2.75483054      1.82848840      2.88033155     -0.000393    -0.001584    -0.001000
H       4.44892264      1.75638946      3.37781829     -0.000363    -0.000544     0.000246
H       4.01617638      2.31047422      1.74305748     -0.000444     0.001972    -0.000507
H      -5.88252499     -0.89427711     -1.60094006      0.000454     0.000219     0.000226
H      -5.10437739      0.59983588      0.76661243      0.000269     0.000257     0.001359
H       7.63801137     -0.79421813      1.07331221      0.000574     0.000264    -0.000307
H      -5.13732029     -2.36045330      0.97642159      0.000276     0.000171    -0.000098
H      -5.82277574     -3.10081750     -0.44759477      0.000695     0.000165    -0.000499
H      -4.24631552     -2.42043181     -0.62056678     -0.000166    -0.000649     0.000191
H       5.98402722     -1.70579246     -1.35208914      0.000444     0.000684     0.000509
H       7.63953231     -1.11179604     -1.37335092     -0.000500     0.000316     0.001223
H       6.34231178      0.00672036     -0.93354533     -0.000053    -0.000968    -0.000434
H       7.63188094     -3.13646445      1.51912197      0.000274     0.000895    -0.000558
H       6.78997572     -3.48055738      0.20372210     -0.001187    -0.000719    -0.000263
H      -8.14817247      0.23235858      1.26520647     -0.000586     0.000624    -0.000005
53
Frame 80  Energy = -1313.0431750549 Hartree
O      -0.82356844      0.70525140      1.84860337     -0.000202    -0.000178     0.000111
O       3.48465159     -0.01071122     -0.33263293     -0.000242     0.000038     0.000093
O      -3.29389289     -0.29559517     -1.54607721      0.000103    -0.000055     0.000204
O       4.78979308     -2.29917373      1.52840994      0.000511    -0.000170    -0.000256
O      -7.24269993     -0.19642847      1.11653783      0.000046     0.000167    -0.000089
O      -8.09712856     -1.32238789     -0.61273674     -0.000260     0.000142     0.000175
N       1.70193965     -0.02942537      1.07318547      0.000190    -0.000054     0.000027
N      -1.44559327      1.18034034     -0.31288246      0.000169    -0.000032     0.000279
N       5.26609423     -0.10775026      1.70356285      0.000147     0.000046     0.000122
N      -4.89497726      0.05437867      0.01893811      0.000158    -0.000021    -0.000315
N       7.51621847     -2.81644779      0.62484604      0.000117     0.000008     0.000024
C       0.69043845      0.06747048      0.06110260      0.000069     0.000089    -0.000190
C      -2.84646570      1.43770784      0.01908701     -0.000241     0.000128    -0.000070
C       3.90575625      0.27025437      2.04970064      0.000337    -0.000059    -0.000225
C      -0.60930554      0.68256979      0.64681618     -0.000280    -0.000506    -0.000122
C       3.03990516      0.02789754      0.79148278      0.000160    -0.000188    -0.000100
C       0.35963720     -1.29802813     -0.54049747     -0.000107     0.000185    -0.000264
C      -3.69337496      0.29632414     -0.56502302     -0.000160     0.000165     0.000033
C      -3.28219907      2.75389627     -0.64970426     -0.000137     0.000101    -0.000061
C       3.85144484      1.74018604      2.42697253     -0.000365     0.000392     0.000407
C      -5.69706767     -1.01399433     -0.51944450     -0.000108    -0.000029     0.000055
C       6.89370781     -1.50469169      0.54527230      0.000093    -0.000244    -0.000020
C       5.56649913     -1.37835892      1.31406209     -0.000120    -0.000146    -0.000019
C      -5.14955103     -2.40345742     -0.16037742      0.000054    -0.000079    -0.000349
C       6.69038636     -1.07681612     -0.89923677     -0.000025    -0.000213     0.000021
C      -7.15378769     -0.86024053     -0.04982940      0.000040     0.000205    -0.000206
H       1.04995813      0.68698477     -0.76530945     -0.000441    -0.000504     0.001047
H      -2.94219816      1.48163343      1.09676560      0.001035     0.000603     0.001592
H       3.53751325     -0.41617262      2.82492026     -0.000251     0.001368    -0.001596
H       1.40018120     -0.06268819      2.04195373     -0.000621    -0.001361    -0.000506
H      -1.33411417      0.84497158     -1.24329039      0.000004     0.001381     0.000370
H      -0.43244113     -1.21346575     -1.27825664     -0.000197    -0.000266     0.000893
H       1.25451213     -1.76343495     -1.00614850      0.000403     0.000536     0.000906
H      -0.00414759     -1.92671816      0.29343917      0.001109    -0.000722    -0.000020
H       5.82594973      0.63031166      1.29594633     -0.000153     0.001009    -0.000693
H      -3.17627266      2.63409687     -1.71824795     -0.000390    -0.000241    -0.001297
H      -4.31664911      2.96896663     -0.40738560      0.000238    -0.000009     0.000110
H      -2.67301493      3.58227307     -0.30756137     -0.001156    -0.001914     0.000727
H       2.84146219      2.04815270      2.63912516      0.000389     0.000606    -0.000115
H       4.44289996      1.90641245      3.35655057     -0.001149     0.001051    -0.000152
H       4.26960056      2.40349276      1.67653456      0.000851     0.000300     0.000381
H      -5.70742289     -0.92934014     -1.59783142      0.000209    -0.000278     0.000241
H      -5.03923140      0.38005442      0.96670429     -0.001207    -0.000767    -0.000129
H       7.56467262     -0.77913357      1.03634292     -0.000584    -0.000155    -0.000278
H      -5.14813408     -2.53633164      0.92175302      0.000020    -0.000700     0.000427
H      -5.76866911     -3.20186994     -0.57797815      0.000604    -0.000014    -0.000133
H      -4.14865271     -2.52347456     -0.58036600     -0.000719     0.000913    -0.000008
H       6.05613033     -1.78593336     -1.42429295     -0.000453     0.001499     0.000558
H       7.68456638     -1.03108711     -1.40571687     -0.000277     0.000512    -0.000601
H       6.24661461     -0.08697253     -1.02445945      0.000045    -0.000390     0.001961
H       7.79703746     -3.02976437      1.58400523     -0.000531     0.000278    -0.000395
H       6.94017232     -3.55625852      0.28529389     -0.000516     0.000187     0.000020
H      -8.16764576     -0.16311443      1.38046477      0.000167     0.000123    -0.000056
53
Frame 81  Energy = -1313.0370148741 Hartree
O      -0.86397953      0.68290236      1.82273939      0.000001     0.000393     0.000211
O       3.34353046      0.11535299     -0.41393710     -0.000138     0.000407     0.000387
O      -3.33587977     -0.28184133     -1.56079334     -0.000008    -0.000076    -0.000147
O       4.80674429     -2.36992174      1.55900649     -0.000077     0.000532     0.000406
O      -7.24079997     -0.27061709      1.15156503      0.000222    -0.000074    -0.000001
O      -8.13214121     -1.19699035     -0.69563658      0.000391    -0.000008     0.000295
N       1.61659857      0.02007047      1.06126450      0.000173    -0.000209    -0.000011
N      -1.47283054      1.21406340     -0.30261988     -0.000230     0.000126     0.000184
N       5.18001383     -0.10287580      1.66695001     -0.000063    -0.000271    -0.000085
N      -4.87439798      0.03434741      0.05801124     -0.000248     0.000089    -0.000256
N       7.36289119     -2.88916926      0.59703902     -0.000113    -0.000052     0.000077
C       0.61067672      0.05939610      0.03388390      0.000026    -0.000101     0.000220
C      -2.85504777      1.46423586     -0.00047723      0.000232    -0.000334    -0.000323
C       3.82878082      0.26341570      1.96787617     -0.000015    -0.000010     0.000223
C      -0.63633918      0.68940412      0.61532377     -0.000574    -0.000198    -0.000106
C       2.92086049      0.09155546      0.72831686      0.000040    -0.000031    -0.000647
C       0.24521635     -1.33515292     -0.57195216      0.000261    -0.000083    -0.000367
C      -3.69401131      0.31406942     -0.55781603     -0.000134    -0.000216    -0.000012
C      -3.31902067      2.77130397     -0.60665298     -0.000256    -0.000185    -0.000088
C       3.78869075      1.71238744      2.44434866      0.000216    -0.000073    -0.000097
C      -5.70216137     -0.99097136     -0.51560498     -0.000105    -0.000005    -0.000113
C       6.83979753     -1.52236390      0.55364504      0.000209     0.000012     0.000072
C       5.50896443     -1.39318880      1.31770010      0.000084    -0.000224     0.000016
C      -5.23183264     -2.36938907     -0.08783308      0.000235     0.000107    -0.000022
C       6.62667344     -1.04914689     -0.88415194      0.000451     0.000096    -0.000173
C      -7.16390774     -0.83158383     -0.06798943     -0.000074    -0.000044     0.000073
H       1.00569796      0.67693378     -0.75285193      0.000516     0.001742    -0.000002
H      -2.91719088      1.47100955      1.09162328     -0.000158    -0.000569     0.001061
H       3.46836337     -0.43586268      2.75635074     -0.000481     0.000345     0.000244
H       1.30924452     -0.00506521      2.01170412     -0.000505    -0.000367     0.000775
H      -1.28787505      0.91048420     -1.26671747     -0.000128     0.000019     0.000676
H      -0.45948427     -1.24407982     -1.40529428     -0.001197     0.000990     0.000952
H       1.12995631     -1.82914552     -0.96904094      0.001245    -0.000522    -0.001053
H      -0.18340053     -1.96877596      0.19815922      0.000979    -0.000355    -0.000455
H       5.75876068      0.63333087      1.29945203     -0.001357    -0.000268    -0.000055
H      -3.13200373      2.73396284     -1.69027485      0.000392     0.000015    -0.000887
H      -4.37516224      2.98707441     -0.44756985     -0.000865     0.000745    -0.000340
H      -2.70683412      3.57863488     -0.20385009     -0.000541     0.000068    -0.000248
H       2.76476614      1.95319444      2.73442595     -0.000611    -0.000942     0.000337
H       4.44122720      1.87066725      3.31289004     -0.000780     0.001079     0.000052
H       4.02902134      2.35453157      1.60763516      0.000728     0.000691    -0.001081
H      -5.65770491     -0.87161384     -1.59281321      0.000273     0.000368     0.000075
H      -5.09754243      0.51692159      0.91292165      0.000423    -0.000800     0.000838
H       7.60376414     -0.84559034      0.99763670      0.001345    -0.000634     0.000175
H      -5.24913446     -2.47590928      0.98646684      0.000556     0.000262    -0.000527
H      -5.90611954     -3.15093359     -0.46062033     -0.000016    -0.000483     0.001285
H      -4.21406541     -2.51825850     -0.43520906     -0.000277    -0.000517    -0.000518
H       5.93423651     -1.72676991     -1.37615018      0.001021     0.000825    -0.000355
H       7.51997710     -1.10890761     -1.46943930     -0.000121     0.000953     0.000469
H       6.20436987     -0.03569382     -0.90219088      0.000046    -0.000362    -0.000722
H       7.79111317     -3.04934516      1.50390275     -0.000073     0.000613     0.000183
H       6.61233145     -3.55885941      0.51013239      0.000835     0.001166    -0.000367
H      -8.19099367     -0.16243992      1.35936595     -0.000892     0.000880    -0.000131
53
Frame 82  Energy = -1313.0365915817 Hartree
O      -0.86319688      0.68411611      1.81430707     -0.000254    -0.000031    -0.000118
O       3.36431585      0.18708942     -0.38858033     -0.000076    -0.000089     0.000128
O      -3.35891540     -0.23928669     -1.65705869     -0.000047     0.000030    -0.000148
O       4.80215566     -2.30730234      1.57829678      0.000185    -0.000068    -0.000056
O      -7.25082185     -0.21970683      1.11128011      0.000160     0.000077    -0.000132
O      -8.06383575     -1.25431160     -0.66830334      0.000345    -0.000321    -0.000015
N       1.60281722     -0.02924291      1.01715882      0.000224    -0.000212     0.000229
N      -1.46575499      1.17569882     -0.34164864      0.000109     0.000182     0.000083
N       5.19789398     -0.06834957      1.64898524      0.000216     0.000073    -0.000090
N      -4.82217891      0.01842818      0.04333601      0.000429    -0.000360    -0.000221
N       7.39790898     -2.89393984      0.66618519     -0.000104     0.000273     0.000102
C       0.59546071      0.04376358     -0.01784534      0.000217     0.000160    -0.000221
C      -2.85479171      1.47720736     -0.04930535     -0.000101     0.000245    -0.000228
C       3.83576573      0.26469451      2.01930129      0.000064    -0.000006     0.000459
C      -0.62326831      0.70122579      0.60815418     -0.000061     0.000152     0.000025
C       2.92966557      0.12618686      0.75642925     -0.000079    -0.000584    -0.000221
C       0.25811046     -1.34832977     -0.54651730      0.000233     0.000325    -0.000055
C      -3.67886731      0.32714216     -0.61742644     -0.000140     0.000396     0.000029
C      -3.29207521      2.81887218     -0.61924039      0.000280    -0.000142    -0.000002
C       3.77280854      1.71263746      2.46424446     -0.000036    -0.000171    -0.000225
C      -5.68588393     -1.02897678     -0.50626223      0.000035    -0.000152     0.000024
C       6.89448356     -1.52416382      0.59624682      0.000131     0.000207     0.000067
C       5.52257723     -1.34460648      1.30605772     -0.000166     0.000029     0.000359
C      -5.24506363     -2.46407754     -0.21136552      0.000101    -0.000096     0.000026
C       6.75266022     -1.09894656     -0.86706221     -0.000055    -0.000068     0.000066
C      -7.13146120     -0.85906336     -0.05675852     -0.000085     0.000227     0.000229
H       1.03431207      0.65520131     -0.80809873      0.000533     0.000298    -0.000016
H      -2.94802951      1.44485937      1.03550225     -0.002439    -0.000099     0.000450
H       3.48823264     -0.40922087      2.81403369      0.000013    -0.000092    -0.000278
H       1.23856788     -0.10285954      1.95781150     -0.001014    -0.000525    -0.000867
H      -1.33281227      0.83368567     -1.26718342      0.000216     0.000701    -0.001221
H      -0.59667681     -1.26616727     -1.19988263      0.001795     0.000682     0.000194
H       1.11223278     -1.71350633     -1.13023580     -0.000841    -0.000179     0.000924
H       0.00684422     -2.09272245      0.21899018     -0.000188     0.001503    -0.000763
H       5.66675473      0.67088801      1.16791818      0.000374    -0.000762    -0.000810
H      -3.29126460      2.81428096     -1.70630411      0.000286    -0.000939     0.000267
H      -4.28789591      3.02722938     -0.24726417     -0.001741    -0.000302     0.001261
H      -2.62082905      3.64172260     -0.37213832      0.000802    -0.000376     0.000298
H       2.78862178      1.94816541      2.89899468     -0.001008     0.000100     0.000384
H       4.49308309      1.90987223      3.26570233      0.000337    -0.000899    -0.000398
H       3.99400456      2.35172821      1.61751533     -0.000617    -0.000394    -0.000183
H      -5.70874779     -0.86369172     -1.56421131     -0.000567    -0.000114     0.001093
H      -5.05396714      0.44189355      0.94688358      0.000545    -0.000416    -0.000018
H       7.62589141     -0.87820872      1.07622377     -0.000427    -0.001078     0.001199
H      -5.23768261     -2.63094528      0.85252000      0.000685    -0.000412    -0.000450
H      -5.92531511     -3.17585985     -0.65485801      0.000008    -0.001261     0.001474
H      -4.22365581     -2.58577612     -0.59340780     -0.001560    -0.000838    -0.000062
H       5.94356753     -1.73618853     -1.30910455      0.000034    -0.000491    -0.000348
H       7.68452241     -1.23567991     -1.36759065      0.000409     0.000495     0.000121
H       6.49155534     -0.03830576     -0.99972926     -0.000699     0.000365     0.000216
H       7.46978235     -3.13617523      1.65386557      0.000511    -0.000412     0.000587
H       6.67905336     -3.50866366      0.29268988     -0.000301    -0.001003     0.000767
H      -8.17861784     -0.12479096      1.32876556     -0.000678    -0.001391    -0.000457
53
Frame 83  Energy = -1313.0323348126 Hartree
O      -0.84341655      0.79850214      1.80206885     -0.000076    -0.000025     0.000176
O       3.28872355      0.33415429     -0.36469290      0.000004    -0.000052    -0.000223
O      -3.22053113     -0.22306218     -1.56779701     -0.000471    -0.000023    -0.000257
O       4.83474851     -2.36214718      1.52864309     -0.000337     0.000262     0.000055
O      -7.14652381     -0.16884991      1.14220944     -0.000117     0.000480    -0.000094
O      -8.12470506     -1.13879140     -0.60671759     -0.000070     0.000322    -0.000148
N       1.60426850     -0.06996750      1.05284356      0.000216    -0.000123     0.000011
N      -1.44753989      1.23822219     -0.35118701     -0.000217    -0.000051    -0.000108
N       5.17196036     -0.12374018      1.60672964     -0.000225    -0.000311     0.000448
N      -4.82236238      0.08805665     -0.00154076      0.000116    -0.000024    -0.000375
N       7.45567717     -2.88553776      0.70176615     -0.000227    -0.000131    -0.000367
C       0.60656023      0.06549935      0.01559195     -0.000171    -0.000263     0.000022
C      -2.85051313      1.51467955     -0.00048760     -0.000114     0.000018    -0.000166
C       3.84243292      0.24028899      1.99404128     -0.000380    -0.000156    -0.000022
C      -0.62015215      0.74649628      0.59561064      0.000286     0.000284    -0.000231
C       2.90155403      0.14778485      0.77404031      0.000003     0.000064    -0.000231
C       0.20555850     -1.31815563     -0.61008183      0.000100     0.000006     0.000371
C      -3.65791996      0.37869468     -0.59262824     -0.000212     0.000429     0.000138
C      -3.29820185      2.82524303     -0.65918327     -0.000162    -0.000203    -0.000042
C       3.83490684      1.72568101      2.42055839      0.000472     0.000108    -0.000234
C      -5.67669311     -0.94750716     -0.56923890      0.000239     0.000102     0.000198
C       6.93033225     -1.52956427      0.64814413      0.000032    -0.000119    -0.000166
C       5.56238639     -1.40192978      1.30832754      0.000277    -0.000285    -0.000531
C      -5.21397749     -2.36672260     -0.16441801     -0.000001     0.000207    -0.000119
C       6.81882522     -1.11589612     -0.78402516      0.000293    -0.000052    -0.000211
C      -7.11404143     -0.76453432     -0.06781936      0.000077    -0.000027     0.000017
H       1.02906806      0.68526345     -0.76156124     -0.000561    -0.000811     0.001625
H      -2.89701765      1.54459928      1.06458205     -0.000626     0.000377     0.000303
H       3.46923258     -0.45970235      2.77392418     -0.001481     0.000393     0.000183
H       1.24614728     -0.15736043      1.99795442      0.000682     0.000186     0.000961
H      -1.34746472      0.92668557     -1.29719892     -0.000362     0.000423    -0.000583
H      -0.65888712     -1.19582562     -1.25603808     -0.000589     0.000193     0.000818
H       1.04521161     -1.71356951     -1.14093923      0.000134    -0.000150    -0.000599
H      -0.05610095     -2.02906272      0.15836024     -0.001895     0.001038     0.000218
H       5.76564529      0.61242065      1.25635007      0.000685    -0.000769     0.000067
H      -3.00551016      2.85030674     -1.73499861     -0.000477    -0.000505     0.000952
H      -4.36381864      2.93483273     -0.59420722     -0.000218    -0.000432    -0.000045
H      -2.79495124      3.63530239     -0.18205491      0.000942    -0.000512     0.000040
H       2.82740278      2.03395164      2.78077582     -0.002080    -0.000776     0.000280
H       4.55806815      1.96528559      3.17343858     -0.001013     0.000614     0.000910
H       4.03967778      2.37104867      1.57735832      0.000409     0.000675    -0.000845
H      -5.66548531     -0.86885710     -1.68187584     -0.000615    -0.000121     0.000885
H      -5.00773090      0.44673419      0.92684269      0.000069    -0.000012    -0.000202
H       7.63478327     -0.85128306      1.15687134      0.000685     0.000141     0.000014
H      -5.19300711     -2.48524998      0.91044763     -0.001357     0.000111     0.000164
H      -5.87619271     -3.15322698     -0.60910354      0.000390    -0.000125    -0.001253
H      -4.19716106     -2.51133597     -0.52273214     -0.000261    -0.000723     0.000168
H       6.18251429     -1.79431701     -1.29431838     -0.000341     0.000442    -0.000639
H       7.77243339     -1.14365931     -1.27320013     -0.000833    -0.000142     0.000469
H       6.38905230     -0.13185335     -0.90410434     -0.000154    -0.000435     0.000130
H       7.51924973     -3.18275735      1.66156174      0.000527    -0.001179    -0.001138
H       6.75534390     -3.50683889      0.27335700      0.000154     0.000601    -0.000385
H      -8.05625967     -0.16671162      1.45324642      0.000551     0.000179    -0.000450
53
Frame 84  Energy = -1313.0422315526 Hartree
O      -0.85192496      0.78141675      1.81510818      0.000041     0.000167     0.000071
O       3.33367879      0.34403336     -0.32420578     -0.000001    -0.000173     0.000345
O      -3.29328000     -0.29146822     -1.57857599     -0.000191     0.000166    -0.000061
O       4.78746633     -2.29823644      1.47563468     -0.000043    -0.000037    -0.000130
O      -7.19707553     -0.05061683      1.14864639      0.000373    -0.000041    -0.000079
O      -8.08477163     -1.34443479     -0.39861247      0.000292     0.000095     0.000061
N       1.62018668      0.06190935      1.09813820      0.000184    -0.000075     0.000050
N      -1.48025585      1.27976684     -0.34607091      0.000195     0.000031     0.000143
N       5.23581543     -0.06815563      1.60945833      0.000032    -0.000010     0.000265
N      -4.90413140      0.19976670     -0.08990273      0.000304     0.000166    -0.000032
N       7.43997003     -2.87828301      0.67246241     -0.000007     0.000207    -0.000122
C       0.60708944      0.04997406      0.06156309      0.000113    -0.000089    -0.000147
C      -2.87897952      1.51514497     -0.04237917     -0.000312    -0.000136     0.000335
C       3.88853692      0.30187914      1.99587722      0.000111     0.000106    -0.000231
C      -0.64080673      0.73171724      0.61624944     -0.000398    -0.000303    -0.000012
C       2.91970481      0.21488040      0.80220385      0.000047     0.000171    -0.000259
C       0.31187924     -1.38218673     -0.41215144     -0.000042     0.000092    -0.000008
C      -3.69074104      0.36559984     -0.64092487      0.000074     0.000256    -0.000227
C      -3.33724061      2.86683848     -0.54180286      0.000226    -0.000114     0.000171
C       3.85645362      1.72589316      2.56065508      0.000126     0.000116     0.000032
C      -5.75258616     -0.89103697     -0.57275307      0.000485    -0.000082    -0.000084
C       6.89992346     -1.50043825      0.61244388      0.000047     0.000099    -0.000089
C       5.51481854     -1.34500399      1.25019680      0.000134     0.000190    -0.000234
C      -5.19169928     -2.28728890     -0.21577476      0.000121    -0.000002    -0.000178
C       6.84428697     -1.04474070     -0.85278246      0.000085    -0.000099     0.000120
C      -7.11784826     -0.77731389      0.01347590     -0.000362    -0.000401     0.000202
H       0.97811239      0.66712985     -0.73389339      0.000252     0.000583    -0.000874
H      -3.01046523      1.42355704      1.03981026     -0.001158     0.000989    -0.000819
H       3.56188213     -0.39869509      2.77709688      0.000232     0.000275    -0.000695
H       1.28862289      0.01323621      2.05741354     -0.000691     0.000817    -0.001125
H      -1.31030530      0.97493987     -1.29211560     -0.000339    -0.000408     0.000869
H      -0.31285664     -1.35730803     -1.29556626      0.000152     0.000376    -0.000897
H       1.23677014     -1.79422327     -0.71962457      0.001887    -0.000244    -0.000419
H      -0.16910736     -1.99368726      0.37115929      0.000403     0.000122    -0.001691
H       5.81093995      0.64740021      1.14286364      0.000493     0.001251    -0.000912
H      -3.04658650      2.94656010     -1.58668859     -0.000513     0.001281    -0.000619
H      -4.39888800      2.98529507     -0.40590966     -0.000261    -0.000538    -0.000576
H      -2.80599736      3.64852350      0.00448707     -0.000546     0.000713    -0.000149
H       2.84607551      2.01259619      2.83699699      0.000688    -0.000184     0.000435
H       4.49199796      1.80769655      3.47509937     -0.001182    -0.000292    -0.000857
H       4.16546801      2.37940024      1.73245725     -0.000642    -0.000001    -0.000138
H      -5.83731504     -0.79682302     -1.64099877     -0.001005    -0.000307    -0.000085
H      -5.08702656      0.59109954      0.81877203     -0.001161    -0.001463    -0.000435
H       7.56283558     -0.83544847      1.18602739      0.001166     0.000602     0.000390
H      -5.18418754     -2.41392761      0.86254340      0.000691     0.000285    -0.000627
H      -5.85122678     -3.04389472     -0.65032486     -0.001120    -0.000624    -0.000185
H      -4.19761992     -2.39560600     -0.63095376      0.000370     0.000405    -0.000192
H       6.22322797     -1.71727108     -1.43891161     -0.001722     0.000211    -0.000339
H       7.82701639     -0.98348215     -1.32254090      0.000319    -0.000179     0.000799
H       6.40090843     -0.03713887     -0.90761264      0.000593     0.000623    -0.000208
H       7.46417601     -3.15961758      1.64178268      0.000829     0.000366    -0.000679
H       6.78010680     -3.53397413      0.20918890     -0.000247     0.000618    -0.000080
H      -8.13937391     -0.04422092      1.40138920     -0.002546    -0.000069    -0.000134
53
Frame 85  Energy = -1313.0337977313 Hartree
O      -0.81667361      0.93194292      1.72299390     -0.000234    -0.000109     0.000363
O       3.33637836      0.34651128     -0.38131470     -0.000020     0.000131     0.000004
O      -3.32848256     -0.21261278     -1.61422076     -0.000081     0.000011     0.000079
O       4.70096929     -2.25113094      1.26144622      0.000185    -0.000237     0.000084
O      -7.15056641     -0.03773518      1.13078343      0.000110     0.000125     0.000211
O      -8.09712079     -1.29819057     -0.44695829      0.000219     0.000413    -0.000048
N       1.58558830      0.13952816      1.05844397     -0.000023    -0.000023     0.000078
N      -1.48289471      1.34765527     -0.42280771      0.000015     0.000129    -0.000047
N       5.20378747     -0.03998617      1.58446672      0.000048    -0.000402     0.000230
N      -4.86172586      0.15892497     -0.02868778      0.000028    -0.000146    -0.000196
N       7.28599141     -2.89999518      0.51992312     -0.000292     0.000299    -0.000056
C       0.59256642      0.07928005      0.01068397     -0.000281     0.000005     0.000004
C      -2.87531504      1.53893670     -0.04300610      0.000406    -0.000225     0.000061
C       3.85090793      0.26223538      1.96915270     -0.000122     0.000086     0.000266
C      -0.64572446      0.84502361      0.51644466      0.000182    -0.000354    -0.000538
C       2.90304247      0.21893545      0.76743397     -0.000076     0.000137    -0.000095
C       0.21478949     -1.34997152     -0.33884123     -0.000117     0.000107     0.000465
C      -3.69304817      0.41037219     -0.63362755     -0.000043    -0.000006     0.000335
C      -3.31279345      2.93605316     -0.56398717     -0.000150    -0.000254     0.000105
C       3.79917342      1.61742992      2.69526555      0.000038     0.000430     0.000309
C      -5.70574937     -0.94505631     -0.48739341      0.000093    -0.000186    -0.000108
C       6.87148623     -1.50758509      0.55513404     -0.000246    -0.000138    -0.000290
C       5.49160182     -1.32282239      1.14312001     -0.000315     0.000087    -0.000158
C      -5.12938050     -2.32551311     -0.15048802      0.000610     0.000224    -0.000362
C       6.84863110     -0.96686583     -0.87198058     -0.000100    -0.000166     0.000110
C      -7.11371268     -0.79352840      0.02135088     -0.000115    -0.000155     0.000214
H       1.02950680      0.55565894     -0.86570273     -0.000684    -0.001760    -0.000332
H      -2.95908386      1.51464840      1.02588172      0.000197     0.001280    -0.000976
H       3.52348760     -0.50917096      2.64848080     -0.000537    -0.000041     0.000111
H       1.33586031     -0.02453766      1.98978291      0.001316     0.000487     0.000861
H      -1.28731385      1.06918263     -1.36465942      0.000103    -0.000633     0.000446
H      -0.53606080     -1.36251255     -1.12626375      0.000889     0.000902     0.000026
H       1.08759651     -1.89959367     -0.71065429     -0.000194    -0.000174    -0.000145
H      -0.22175650     -1.85101502      0.54087224      0.000023    -0.000653    -0.000213
H       5.79568976      0.67644279      1.15737877     -0.000318    -0.000890    -0.000480
H      -3.25105756      2.99870840     -1.65710460     -0.000578    -0.000352    -0.001807
H      -4.34948749      3.12405426     -0.27042971      0.000673     0.000731    -0.000723
H      -2.67659735      3.69962187     -0.11333658      0.000100    -0.001270     0.000044
H       2.76453102      1.94470059      2.91618810     -0.000529     0.000099    -0.000090
H       4.38604847      1.56284834      3.63093975      0.000029    -0.001901     0.000243
H       4.24782805      2.41349427      2.09922271     -0.000450    -0.001260     0.000219
H      -5.78854190     -0.84983614     -1.57694427      0.000859     0.000196     0.000014
H      -5.08777210      0.58241270      0.85014161     -0.000064     0.000827     0.000884
H       7.57389485     -0.94896350      1.19371956      0.001211     0.001320     0.000082
H      -5.13888599     -2.51858182      0.94125719     -0.000877    -0.000261     0.000042
H      -5.74080186     -3.09416148     -0.64174414     -0.000879    -0.000836    -0.001449
H      -4.11065516     -2.36853117     -0.48859850     -0.000387    -0.000312    -0.000274
H       6.00589252     -1.42928818     -1.42382985      0.000039     0.000671     0.000248
H       7.81202683     -1.15022823     -1.32342830      0.000963     0.000447     0.000947
H       6.56415216      0.07274102     -0.96828354      0.000599     0.000892     0.000369
H       6.98600935     -3.35385907      1.36917961     -0.000391    -0.000395    -0.000361
H       6.72645864     -3.35959352     -0.21063611      0.000002    -0.000125    -0.000046
H      -8.07179060      0.01939043      1.44094248      0.000221    -0.000344    -0.000780
53
Frame 86  Energy = -1313.0465875814 Hartree
O      -0.78906284      0.92083665      1.80267197     -0.000046     0.000213     0.000296
O       3.30979946      0.44828786     -0.38739159     -0.000080     0.000036     0.000012
O      -3.23447658     -0.19212036     -1.57051194     -0.000198    -0.000202    -0.000245
O       4.73601487     -2.21832859      1.27318397     -0.000265    -0.000348     0.000079
O      -7.19911578     -0.08516411      1.15519269     -0.000238     0.000221    -0.000020
O      -7.96778686     -1.43561155     -0.47561174      0.000042    -0.000068    -0.000054
N       1.63691495      0.19389501      1.08574818      0.000132    -0.000112    -0.000034
N      -1.43992124      1.33861329     -0.34136843     -0.000184    -0.000213    -0.000054
N       5.21815396     -0.03324780      1.55195654      0.000177    -0.000261     0.000011
N      -4.80050245      0.18679294     -0.00363818     -0.000009    -0.000469    -0.000431
N       7.32947232     -2.86960179      0.55713597     -0.000077    -0.000239    -0.000099
C       0.62795073      0.12682304      0.07766425      0.000220     0.000099    -0.000113
C      -2.84380179      1.61908768     -0.06007732      0.000065     0.000013     0.000128
C       3.88467580      0.30854074      1.97218598      0.000274    -0.000205     0.000121
C      -0.58854963      0.83713916      0.60942270     -0.000082     0.000063     0.000234
C       2.93530853      0.32157191      0.76338672      0.000266     0.000175     0.000017
C       0.23552531     -1.31100138     -0.29600103     -0.000228     0.000079     0.000086
C      -3.62292060      0.45727296     -0.60318758     -0.000260     0.000350    -0.000101
C      -3.27999465      2.95332363     -0.65377936      0.000193    -0.000148    -0.000033
C       3.89251045      1.64335075      2.66193897      0.000166    -0.000051     0.000039
C      -5.64142579     -0.88801864     -0.49637594      0.000020    -0.000007    -0.000010
C       6.88654093     -1.47503401      0.47651746      0.000209     0.000042     0.000047
C       5.51294631     -1.29575738      1.13251869      0.000080     0.000013     0.000507
C      -5.10624137     -2.29833416     -0.15771667      0.000183     0.000186    -0.000238
C       6.79794065     -1.00241641     -0.97616106     -0.000196    -0.000075     0.000243
C      -7.07194070     -0.81869653      0.03792919      0.000013    -0.000153    -0.000269
H       1.03650115      0.63723884     -0.78802125     -0.000011     0.001002    -0.000248
H      -2.87154136      1.60885372      1.01155440     -0.000403     0.000996    -0.000166
H       3.55316426     -0.50663454      2.59065977     -0.000784    -0.000489    -0.000176
H       1.34193955      0.07853747      2.04196019      0.000331    -0.000376    -0.000322
H      -1.25673342      1.02225798     -1.26210212     -0.000558     0.000904     0.000484
H      -0.43683138     -1.29321509     -1.14147356     -0.000101    -0.001041     0.000897
H       1.11753735     -1.88660568     -0.53840472      0.001226     0.000121    -0.000205
H      -0.22827418     -1.80530236      0.54689437      0.000050    -0.000328    -0.000511
H       5.71653476      0.69040050      1.08482541     -0.000337     0.000236     0.000353
H      -2.97433630      2.96570612     -1.68974259      0.000600    -0.001815    -0.001057
H      -4.34450125      3.12617468     -0.58426349     -0.001203     0.000695    -0.001453
H      -2.70178841      3.74330713     -0.12964496      0.000261    -0.000099     0.001240
H       2.88325749      1.95307779      2.95246178     -0.001359    -0.000386    -0.000323
H       4.49074412      1.65739913      3.57405143     -0.001042    -0.000169    -0.001250
H       4.25542891      2.37944161      1.95917020     -0.000081     0.000264    -0.000013
H      -5.75324713     -0.78188732     -1.57301922     -0.001430     0.001520    -0.000274
H      -5.04636266      0.66742238      0.83436293     -0.000494    -0.001047     0.000222
H       7.62534593     -0.87670397      0.98015022     -0.000264     0.000140    -0.000042
H      -5.04623375     -2.48254584      0.91979862     -0.000231    -0.001544    -0.000093
H      -5.73746488     -3.06132664     -0.60703577     -0.000164     0.000574     0.000001
H      -4.12058496     -2.37636471     -0.56857214      0.000189     0.001030     0.000947
H       6.07727769     -1.62339766     -1.47991059     -0.000867     0.000881    -0.000403
H       7.76617256     -1.13431827     -1.41448322      0.000488     0.001081    -0.000982
H       6.45762043      0.03153167     -1.10194849     -0.000442    -0.000856    -0.000400
H       7.41206558     -3.14579820      1.52479426      0.000453    -0.001288     0.000419
H       6.59171658     -3.43447827      0.15029209     -0.000252     0.000740    -0.000049
H      -8.09343625     -0.17714617      1.49272453     -0.000780     0.000478    -0.000406
53
Frame 87  Energy = -1313.0473330198 Hartree
O      -0.82640170      0.84537191      1.84642548      0.000062    -0.000051    -0.000105
O       3.38397181      0.46102335     -0.41507988      0.000009     0.000358     0.000001
O      -3.25271298     -0.22857580     -1.60011193      0.000125     0.000029     0.000247
O       4.78589717     -2.18857141      1.34370257     -0.000137     0.000082    -0.000254
O      -7.15165365      0.03238592      1.07772855     -0.000029     0.000406     0.000171
O      -8.03690118     -1.39013285     -0.39315508      0.000134     0.000138     0.000137
N       1.67322223      0.23470320      1.06669094      0.000076     0.000187    -0.000099
N      -1.45025301      1.31332859     -0.30235337     -0.000201     0.000395    -0.000274
N       5.26066480     -0.00016335      1.50709526     -0.000140     0.000051    -0.000287
N      -4.86339295      0.20196330     -0.08220171      0.000006    -0.000138     0.000112
N       7.36394094     -2.79392799      0.34830971     -0.000113     0.000363    -0.000100
C       0.65923910      0.20412519      0.06568446     -0.000127     0.000025     0.000142
C      -2.85859683      1.51816352      0.00943859      0.000187     0.000157     0.000009
C       3.89815486      0.33541486      1.90821565     -0.000016    -0.000074     0.000028
C      -0.58706028      0.86321813      0.64734925      0.000046     0.000202    -0.000248
C       2.95485274      0.38996090      0.71109929      0.000241     0.000261     0.000057
C       0.32139188     -1.21717268     -0.36057161      0.000046     0.000147     0.000173
C      -3.63762463      0.38983178     -0.63808492      0.000299     0.000228    -0.000512
C      -3.33036866      2.83204061     -0.64641672      0.000204     0.000012    -0.000182
C       3.91956599      1.67211373      2.65036103     -0.000537     0.000251    -0.000076
C      -5.66103405     -0.92665196     -0.53170305      0.000196    -0.000059    -0.000264
C       6.88830351     -1.44144114      0.33054828     -0.000476     0.000219    -0.000152
C       5.53854629     -1.26610779      1.07787910      0.000083     0.000123    -0.000125
C      -5.10991790     -2.26558378     -0.07985223      0.000006     0.000191    -0.000183
C       6.79730741     -0.93410150     -1.12043763     -0.000204    -0.000138     0.000236
C      -7.09409923     -0.78393008      0.00513223      0.000036     0.000098     0.000167
H       0.94236099      0.77298207     -0.80041330      0.000701     0.000476     0.000306
H      -2.92700120      1.52521642      1.09543148     -0.000528    -0.000427    -0.000805
H       3.63658127     -0.49837598      2.55332398      0.000573    -0.001172     0.000043
H       1.36315818      0.29624770      2.03050762     -0.000711     0.000094     0.000383
H      -1.25292128      0.99555590     -1.25364417     -0.000421    -0.000339    -0.000838
H      -0.50881313     -1.22831515     -1.05908916      0.000118     0.000173     0.001648
H       1.17317672     -1.69499427     -0.81703492     -0.000999    -0.001290     0.000520
H       0.00355602     -1.79612533      0.50574073     -0.000767     0.001317     0.000738
H       5.83479552      0.73213087      1.11914321     -0.000541     0.000408     0.000629
H      -3.16227423      2.78419615     -1.70891390      0.000425    -0.000153     0.000188
H      -4.41155793      3.02987599     -0.50755276      0.000460     0.000881     0.000005
H      -2.78119271      3.66791867     -0.23054747     -0.000977     0.001274     0.000294
H       2.93678131      1.86597111      3.10419712     -0.000319    -0.001549     0.001405
H       4.63609430      1.65821158      3.47854503     -0.000810     0.001090    -0.000173
H       4.15966040      2.47502934      1.94513914     -0.000304    -0.000166     0.000195
H      -5.75004655     -0.84794747     -1.63204830     -0.000004    -0.000660     0.000416
H      -5.00087421      0.60998101      0.83366877      0.000262     0.000067    -0.000741
H       7.64734381     -0.81332030      0.83803278      0.000824    -0.000893    -0.000075
H      -4.95131782     -2.30058490      0.99875594     -0.000281    -0.000558    -0.000261
H      -5.83053976     -3.06672025     -0.32085885     -0.000299    -0.001176     0.000355
H      -4.15031170     -2.44184407     -0.62791236      0.000565     0.000139    -0.000192
H       6.01148709     -1.45820015     -1.69916582      0.000299    -0.000241    -0.000591
H       7.77421989     -1.11243031     -1.54542128      0.000652    -0.000227     0.000684
H       6.58250100      0.11141154     -1.15095461     -0.000916     0.000159    -0.000452
H       7.51599842     -3.13463378      1.29406674      0.000234    -0.000395     0.000479
H       6.65239031     -3.41197406     -0.02309561     -0.000560     0.000283    -0.000264
H      -8.08223114     -0.01630879      1.39383917      0.000190    -0.000600     0.000561
53
Frame 88  Energy = -1313.0326598535 Hartree
O      -0.81381562      0.96758561      1.88321645      0.000132    -0.000036    -0.000181
O       3.32395270      0.46922501     -0.41071957     -0.000077    -0.000192    -0.000026
O      -3.25943619     -0.20473461     -1.60350153      0.000242     0.000235    -0.000128
O       4.81600866     -2.15307222      1.29809307     -0.000199     0.000273    -0.000037
O      -7.23763518      0.14257835      1.01936987     -0.000073     0.000166     0.000038
O      -8.11672432     -1.38582560     -0.35296911      0.000023     0.000183    -0.000207
N       1.67424555      0.19831676      1.09225867     -0.000323     0.000414     0.000235
N      -1.48815616      1.28988835     -0.27622003     -0.000151     0.000286    -0.000144
N       5.27287422      0.03990629      1.46706647      0.000107    -0.000036    -0.000177
N      -4.91207811      0.22811471     -0.13810897      0.000151     0.000385    -0.000069
N       7.41426177     -2.75743909      0.42127323     -0.000237    -0.000023    -0.000288
C       0.61366854      0.22069210      0.09836686     -0.000028    -0.000139     0.000295
C      -2.85655019      1.56398234     -0.02992094      0.000432    -0.000144     0.000056
C       3.93476510      0.42185361      1.92870518      0.000138    -0.000118    -0.000123
C      -0.62846292      0.87004316      0.69217684     -0.000289    -0.000313     0.000185
C       2.96112554      0.39633450      0.74780648     -0.000159    -0.000336    -0.000256
C       0.26026139     -1.17125510     -0.41143238     -0.000469     0.000093     0.000104
C      -3.67249391      0.43673536     -0.63718291     -0.000079     0.000005    -0.000425
C      -3.33938318      2.87222508     -0.67528172      0.000176     0.000168     0.000392
C       3.96956158      1.79890150      2.62867746      0.000185     0.000140     0.000157
C      -5.73207839     -0.92327628     -0.53408955     -0.000418     0.000084     0.000278
C       6.89442391     -1.39235927      0.34478840     -0.000198    -0.000154     0.000092
C       5.56739166     -1.21252563      1.06044472      0.000143     0.000064     0.000097
C      -5.05465236     -2.20948646     -0.06198996      0.000193     0.000087     0.000123
C       6.76879720     -0.92980893     -1.11566006     -0.000015     0.000150     0.000003
C      -7.14698049     -0.76899929      0.05223291      0.000284    -0.000033     0.000278
H       0.96352177      0.84876649     -0.72097998     -0.000343     0.000086     0.001828
H      -3.00494553      1.60582232      1.02963119     -0.000324     0.001322     0.000370
H       3.60980892     -0.40734326      2.55372427      0.000907     0.000940     0.000141
H       1.41835570      0.13607073      2.07156212     -0.000164     0.000611     0.000496
H      -1.32050413      0.94365234     -1.20932420     -0.000591    -0.000277    -0.001519
H      -0.52967748     -1.16170171     -1.16876445      0.001201     0.001278     0.000057
H       1.14372970     -1.65598001     -0.81324306      0.000394     0.000063    -0.000301
H      -0.08248100     -1.76532241      0.44278198      0.000536     0.000150     0.000070
H       5.87684145      0.83469472      1.18835650     -0.001247     0.000212    -0.000314
H      -3.14987852      2.89832477     -1.75601706     -0.000362     0.000801     0.000683
H      -4.37541752      3.07725976     -0.47005556     -0.001082    -0.000711    -0.000006
H      -2.83979594      3.71544524     -0.19507312      0.000222    -0.000210    -0.000504
H       2.96059033      2.12964118      2.82656625     -0.000152    -0.000461    -0.000088
H       4.57132935      1.80256592      3.50668817     -0.001263     0.000383    -0.000419
H       4.38996589      2.54348324      1.93508327      0.000170     0.000051    -0.000066
H      -5.81047794     -0.93739043     -1.61526757     -0.000284    -0.000090     0.000214
H      -5.25271167      0.70104060      0.68828386     -0.001467     0.001179     0.000707
H       7.62786473     -0.74631522      0.82484631     -0.000493     0.000805     0.000888
H      -4.99778529     -2.17675352      1.04482615     -0.000398    -0.000551     0.000404
H      -5.56171314     -3.10091682     -0.42857101      0.000106    -0.000524     0.000120
H      -4.04289502     -2.20184599     -0.45999593     -0.000438     0.000645    -0.000467
H       6.07857722     -1.59280611     -1.64362469      0.000316     0.000486    -0.000686
H       7.74238029     -0.98004050     -1.61196748      0.001230    -0.000797     0.000589
H       6.31998892      0.05060122     -1.15749058      0.000819    -0.000870    -0.001194
H       7.38294976     -3.12722543      1.35780789     -0.001834     0.000199    -0.000672
H       6.78080980     -3.32100881     -0.11485837     -0.000704     0.001217     0.001298
H      -8.16430850      0.06646443      1.35782548      0.000541     0.001188    -0.001021
53
Frame 89  Energy = -1313.0471490954 Hartree
O      -0.86272123      0.89955183      1.96321870      0.000090    -0.000153     0.000121
O       3.26050569      0.47264275     -0.36179135     -0.000053     0.000038     0.000137
O      -3.24617642     -0.05537592     -1.64707258      0.000049     0.000020     0.000106
O       4.82883760     -2.15753803      1.27489881     -0.000389    -0.000111    -0.000078
O      -7.09387161      0.07339360      1.22206579     -0.000297    -0.000154    -0.000203
O      -8.08688741     -1.33007055     -0.23032974      0.000020    -0.000236     0.000094
N       1.61823244      0.11638967      1.13421441      0.000240     0.000040     0.000166
N      -1.46559391      1.30651487     -0.19373296      0.000043    -0.000249     0.000052
N       5.22246687      0.05281780      1.60586952      0.000128    -0.000230     0.000176
N      -4.83344688      0.16010925      0.00725828     -0.000073    -0.000464     0.000201
N       7.48214199     -2.62799082      0.53925233     -0.000101    -0.000071    -0.000111
C       0.57294328      0.13445812      0.15469617      0.000007    -0.000086     0.000021
C      -2.87714216      1.59550256      0.02482703      0.000059     0.000486     0.000086
C       3.87499818      0.41788610      1.97163252     -0.000246    -0.000229    -0.000377
C      -0.64022059      0.81961364      0.76300745      0.000206     0.000240     0.000242
C       2.90125653      0.33443101      0.77960945      0.000028     0.000052     0.000070
C       0.26586716     -1.24582963     -0.40569685     -0.000182    -0.000351     0.000094
C      -3.67966720      0.45940381     -0.60854321      0.000263    -0.000169     0.000069
C      -3.32248225      2.90607289     -0.61255245      0.000138     0.000216    -0.000343
C       3.91309844      1.88128063      2.45415271     -0.000290     0.000258     0.000223
C      -5.69882431     -0.88821612     -0.45753228      0.000002    -0.000215     0.000003
C       6.85957872     -1.30907743      0.38280979     -0.000264     0.000048    -0.000269
C       5.53220039     -1.19534330      1.13387430      0.000133    -0.000253     0.000030
C      -5.13052924     -2.24393561     -0.05171355     -0.000117    -0.000240     0.000113
C       6.68298888     -0.99356635     -1.09399256      0.000178    -0.000254     0.000229
C      -7.09027911     -0.75512645      0.12700991     -0.000022    -0.000037    -0.000002
H       0.88805243      0.73492309     -0.68258392      0.000428    -0.000463     0.000709
H      -3.09691182      1.57540401      1.12941879      0.001834    -0.000531    -0.000776
H       3.55347105     -0.24871206      2.79772874     -0.000979    -0.000241    -0.000064
H       1.30621166      0.02030893      2.10047219      0.000165    -0.000445     0.000176
H      -1.24839404      1.14205005     -1.15585882      0.000123     0.000495     0.000140
H      -0.55984048     -1.24587061     -1.07349493      0.000209    -0.000384    -0.000026
H       1.13659403     -1.61207993     -0.93890347      0.000412    -0.000111     0.000574
H       0.03036164     -1.92271790      0.43885098      0.000098    -0.000267     0.000484
H       5.78368350      0.80256315      1.21516166     -0.000320     0.000427    -0.000846
H      -3.15085882      2.85613897     -1.68002218      0.000829    -0.000131    -0.000150
H      -4.39368468      2.96990114     -0.45206256     -0.001467     0.000384     0.000445
H      -2.79690410      3.75282994     -0.21035353     -0.000192    -0.000204     0.000032
H       2.96395148      2.23886639      2.81995763      0.000835    -0.000485     0.000078
H       4.60162547      1.98845277      3.28156814     -0.000453     0.000122     0.000440
H       4.23257369      2.57928370      1.68295086      0.000134     0.000379    -0.000362
H      -5.78434711     -0.82828031     -1.57440741     -0.000992     0.000547    -0.000976
H      -5.01330066      0.59815895      0.89019989      0.000377     0.000142     0.000761
H       7.55349272     -0.55197350      0.78059253     -0.000577    -0.001355     0.000428
H      -5.12867065     -2.42147817      1.04759159     -0.000016     0.001598     0.001811
H      -5.71239495     -3.04188105     -0.49779810      0.001077    -0.001615     0.000209
H      -4.13428174     -2.26941377     -0.45527592     -0.000080     0.000270     0.000166
H       5.98418825     -1.67330404     -1.56248978      0.000748    -0.000123    -0.000781
H       7.66726286     -1.07012029     -1.59160383     -0.000075    -0.000030    -0.000904
H       6.26489748      0.00428506     -1.25497529     -0.000503    -0.000034     0.000543
H       7.64464052     -2.85614897      1.51581752     -0.000415     0.001123    -0.001062
H       6.81049411     -3.30886931      0.17395903      0.000253    -0.001193     0.000233
H      -7.98611651      0.00457708      1.57139936     -0.000912    -0.000932    -0.000072
53
Frame 90  Energy = -1313.0554975815 Hartree
O      -0.92975214      0.82666410      1.95068684     -0.000004     0.000116     0.000040
O       3.21507057      0.45683981     -0.45462841     -0.000072     0.000019     0.000309
O      -3.28448439     -0.05918857     -1.58254172      0.000266     0.000033     0.000129
O       4.82750629     -2.16152916      1.34239490     -0.000229     0.000010    -0.000003
O      -7.15654618      0.08493368      1.16231996     -0.000126    -0.000207     0.000023
O      -8.05529739     -1.36957094     -0.25792435      0.000130    -0.000312    -0.000324
N       1.58920984      0.10497878      1.08663913     -0.000457    -0.000241    -0.000257
N      -1.49872983      1.38681626     -0.19817238      0.000089    -0.000237     0.000361
N       5.22097385      0.06329132      1.42305321     -0.000098    -0.000072     0.000204
N      -4.83990373      0.20919492      0.02152747      0.000003    -0.000115    -0.000170
N       7.41499620     -2.68907555      0.49380695     -0.000165     0.000030     0.000037
C       0.53013109      0.09499929      0.11866589     -0.000087    -0.000069     0.000111
C      -2.89601369      1.68148088      0.02992599     -0.000422    -0.000010    -0.000276
C       3.89346420      0.34526390      1.87682883      0.000122     0.000131     0.000210
C      -0.70714026      0.80028248      0.73217309     -0.000084     0.000021    -0.000057
C       2.88070349      0.29903345      0.71493184     -0.000271     0.000005     0.000133
C       0.17916189     -1.31343273     -0.34994535     -0.000161    -0.000263     0.000083
C      -3.66518581      0.51791249     -0.58494039     -0.000059     0.000014    -0.000016
C      -3.31440903      3.01408283     -0.57487456     -0.000210    -0.000062    -0.000158
C       3.87098081      1.74260593      2.44044417      0.000288    -0.000221    -0.000195
C      -5.66563352     -0.89563336     -0.42236636     -0.000308     0.000046     0.000295
C       6.85355317     -1.37856314      0.31975847     -0.000222    -0.000130     0.000078
C       5.54811396     -1.21901686      1.08700168      0.000233     0.000022    -0.000172
C      -5.14043343     -2.27581501     -0.00257784      0.000095     0.000111     0.000243
C       6.56834747     -1.12368437     -1.14915240     -0.000204     0.000382     0.000030
C      -7.08338593     -0.77785907      0.12809254     -0.000123    -0.000111    -0.000283
H       0.87558566      0.68232772     -0.74320900     -0.000566     0.000172     0.000624
H      -3.01122271      1.72390914      1.11668164      0.001055     0.000535    -0.000743
H       3.61028674     -0.38312414      2.62892204     -0.000120     0.000349     0.000264
H       1.32858518      0.04351128      2.04275884     -0.000544    -0.000517     0.000883
H      -1.28251060      1.06657979     -1.13674216     -0.000131     0.000285     0.000118
H      -0.52126430     -1.20642246     -1.18497734      0.000144     0.000382     0.000486
H       1.15309024     -1.74389948     -0.66721141     -0.000412    -0.001045     0.000429
H      -0.24633813     -1.88539820      0.46775196      0.000028     0.000066    -0.000603
H       5.72520532      0.85427691      1.00805680     -0.000188    -0.000231     0.000984
H      -3.03828009      3.08191590     -1.64088905     -0.000254    -0.000753    -0.000887
H      -4.38512601      3.13186352     -0.48029645      0.000480     0.000064     0.000349
H      -2.76802718      3.81768289     -0.09614572     -0.001315    -0.000431    -0.000204
H       2.87477683      2.04514967      2.80800889      0.000846     0.000336     0.001585
H       4.57310935      1.85631329      3.28009976      0.000140    -0.000281    -0.000704
H       4.12288230      2.42140523      1.61736123      0.000934     0.000551     0.000022
H      -5.71087449     -0.92663666     -1.49999048     -0.000479    -0.000443    -0.000213
H      -5.04460092      0.55583987      0.93570936     -0.001291    -0.000865     0.001243
H       7.53531903     -0.60990331      0.68708302     -0.000412     0.000483     0.000608
H      -5.13482473     -2.37812939      1.11078653      0.000762    -0.000202    -0.000461
H      -5.72454383     -3.09705417     -0.41328971     -0.001199     0.000366     0.001279
H      -4.12612837     -2.38319012     -0.34107782     -0.000085     0.000029    -0.000960
H       6.00090089     -1.93288162     -1.56205026     -0.000646     0.000874    -0.000142
H       7.51000429     -1.06937450     -1.68303790     -0.000202     0.000756    -0.000247
H       5.98737697     -0.22158119     -1.28873524     -0.000052     0.000274     0.000286
H       7.79053229     -2.79472157      1.44531570     -0.000192    -0.000396    -0.000200
H       6.62264431     -3.32702547      0.43691279     -0.000142    -0.000062     0.000743
H      -8.06509459      0.10619743      1.50855281     -0.000692     0.001510     0.000085
53
Frame 91  Energy = -1313.0503736950 Hartree
O      -0.95093256      0.91527873      1.91117030      0.000231     0.000020     0.000398
O       3.27187957      0.62204274     -0.36181448      0.000123     0.000104     0.000150
O      -3.27302714     -0.00729916     -1.58871101     -0.000209     0.000018    -0.000117
O       4.78446574     -2.20977405      1.38227935     -0.000063     0.000014     0.000083
O      -7.18698233      0.09346376      1.11794840     -0.000145     0.000039    -0.000069
O      -8.02897726     -1.29994605     -0.37489614     -0.000085    -0.000249     0.000217
N       1.61635052      0.21631496      1.11723890      0.000466    -0.000226     0.000082
N      -1.45849029      1.49768540     -0.22456258      0.000074     0.000043     0.000061
N       5.24620390      0.01332213      1.51738212      0.000094    -0.000199     0.000033
N      -4.80285580      0.23891191      0.05231384     -0.000180    -0.000151     0.000091
N       7.33864134     -2.83116469      0.42882025     -0.000350    -0.000083     0.000163
C       0.53938682      0.18858573      0.15359961     -0.000107     0.000064    -0.000120
C      -2.86572948      1.75390161      0.01442192     -0.000236    -0.000001    -0.000081
C       3.91489154      0.38145501      1.97505792      0.000224    -0.000014    -0.000126
C      -0.67800737      0.89551129      0.72423752     -0.000001     0.000321     0.000081
C       2.90896235      0.41484295      0.78666312     -0.000159     0.000125    -0.000054
C       0.17351833     -1.24442411     -0.20173014     -0.000217     0.000256     0.000232
C      -3.66555211      0.56534886     -0.59390716      0.000141     0.000107    -0.000241
C      -3.28203152      3.08512506     -0.62371961     -0.000099     0.000034    -0.000111
C       3.93943238      1.80992806      2.52313099     -0.000122     0.000391    -0.000078
C      -5.67220876     -0.86817411     -0.43022383     -0.000064     0.000251    -0.000095
C       6.79579065     -1.49143299      0.28740465      0.000252    -0.000105     0.000611
C       5.50313399     -1.27526222      1.07997563     -0.000152    -0.000162    -0.000066
C      -5.16804111     -2.27435022     -0.01476717      0.000030     0.000245     0.000303
C       6.46832259     -1.20033868     -1.20083502      0.000308    -0.000145    -0.000174
C      -7.10160527     -0.72412879      0.06937515     -0.000009     0.000112    -0.000029
H       0.88523407      0.71170010     -0.72848264     -0.000089     0.001880    -0.001129
H      -3.02133029      1.81778442      1.07675274     -0.001105     0.000694    -0.000301
H       3.58153037     -0.31988161      2.76398252      0.000383     0.000265     0.000289
H       1.34360694      0.07662916      2.09284725      0.001079     0.000520    -0.000786
H      -1.25454549      1.23453014     -1.17432343     -0.000214    -0.000663    -0.000741
H      -0.59736826     -1.27404447     -0.96607920      0.000367    -0.000612    -0.000738
H       1.07961782     -1.73143195     -0.56732165      0.000332     0.000636     0.000472
H      -0.20411412     -1.73043585      0.74163570     -0.000016    -0.000479     0.000287
H       5.66624215      0.75615771      0.95331742      0.000017    -0.000580     0.000219
H      -3.20445396      3.04506492     -1.71940081      0.000543    -0.000377     0.000890
H      -4.30895631      3.28170931     -0.35528846     -0.000248    -0.000582    -0.001967
H      -2.65419626      3.89106298     -0.25273186      0.001654     0.000072     0.000752
H       2.95988928      2.08670323      2.88429418     -0.000334     0.000187    -0.000943
H       4.66941433      1.91842151      3.33337781      0.000057     0.000728     0.000601
H       4.19654394      2.50671400      1.73934785     -0.000188    -0.001631    -0.000225
H      -5.69443477     -0.79993534     -1.52222737      0.000253    -0.000271    -0.000215
H      -5.06046388      0.68746594      0.93039262      0.001009     0.000569     0.000933
H       7.54523744     -0.77670541      0.61454142     -0.000648    -0.000909     0.000399
H      -5.34211634     -2.42643190      1.05565874      0.000059    -0.000604    -0.000238
H      -5.75508444     -3.05360369     -0.52787076     -0.000990    -0.000501     0.000036
H      -4.11934556     -2.43186814     -0.31052553      0.000535     0.000603     0.000669
H       5.82259460     -1.95864312     -1.60777513      0.000315    -0.001152     0.000556
H       7.40493958     -1.16793096     -1.78239233     -0.000124     0.000213     0.000400
H       5.94795613     -0.26911177     -1.29341996     -0.000074    -0.000500     0.000123
H       7.58177331     -2.96387134      1.40879620      0.000198     0.000236    -0.000124
H       6.61000614     -3.51297610      0.18427984     -0.000418    -0.000793    -0.000290
H      -8.09360055      0.07357731      1.45443123      0.001316    -0.001115     0.001029
53
Frame 92  Energy = -1313.0367750462 Hartree
O      -0.95849048      0.78662436      1.89600857     -0.000153    -0.000137     0.000319
O       3.31396905      0.46661040     -0.40658252      0.000002     0.000054    -0.000003
O      -3.25209717     -0.01868996     -1.47886108      0.000124    -0.000157    -0.000145
O       4.78643105     -2.22334293      1.36627478      0.000143     0.000270    -0.000195
O      -7.23482433      0.12838095      1.12926980     -0.000070     0.000053     0.000226
O      -8.02094145     -1.34957590     -0.35173295     -0.000493     0.000106    -0.000114
N       1.60270048      0.22944611      1.06825516     -0.000024     0.000135     0.000018
N      -1.48402771      1.50703041     -0.19599656      0.000244     0.000067    -0.000055
N       5.21667035      0.01003978      1.49106726     -0.000146     0.000358     0.000210
N      -4.85296491      0.26508853      0.09496211      0.000183    -0.000421     0.000182
N       7.34886943     -2.70350618      0.32598850     -0.000044     0.000170     0.000393
C       0.52607748      0.23598024      0.08275702      0.000549    -0.000221     0.000260
C      -2.89766931      1.78807389      0.07770164     -0.000138    -0.000300    -0.000219
C       3.85931497      0.33254488      1.92374987      0.000287     0.000133     0.000117
C      -0.68951473      0.88060585      0.70876682      0.000077    -0.000085     0.000078
C       2.91063441      0.32558810      0.74474782     -0.000303    -0.000128     0.000165
C       0.19682761     -1.18155262     -0.36867121     -0.000173     0.000058    -0.000355
C      -3.64550814      0.56666064     -0.48882897     -0.000035     0.000048    -0.000373
C      -3.37892115      3.06123817     -0.59721051     -0.000154    -0.000093    -0.000103
C       3.81394292      1.69271722      2.59469047      0.000121     0.000095    -0.000099
C      -5.69538501     -0.79762651     -0.44803710      0.000030    -0.000045     0.000290
C       6.75791128     -1.40563952      0.22709838     -0.000152     0.000288    -0.000097
C       5.47171253     -1.26728438      1.06033839      0.000470     0.000060    -0.000102
C      -5.15802597     -2.19119178     -0.14890958      0.000141    -0.000019    -0.000030
C       6.40023835     -1.17912328     -1.25027598      0.000176    -0.000019    -0.000563
C      -7.10443464     -0.71153923      0.07173838      0.000340    -0.000343    -0.000053
H       0.83679695      0.82529819     -0.77076820     -0.000276    -0.001241     0.000990
H      -3.04987905      1.86523834      1.13908141     -0.001084     0.000183     0.001387
H       3.54912016     -0.47007235      2.59423877      0.000079    -0.000636     0.000148
H       1.31364393      0.14643684      2.04240856      0.000022     0.000306    -0.001321
H      -1.29132636      1.36094871     -1.21441625      0.000715     0.000747     0.000805
H      -0.56394086     -1.08943859     -1.13350339      0.000406     0.000187    -0.000516
H       1.05087511     -1.73849475     -0.77635861      0.000193     0.000677    -0.001371
H      -0.21841757     -1.73507077      0.49096440     -0.000631     0.000243     0.000343
H       5.69278386      0.73258876      1.00418789      0.001059     0.000476     0.000445
H      -3.20885247      3.00397528     -1.67167273      0.000539     0.000281    -0.000236
H      -4.45563004      3.12926830     -0.49665056      0.000294     0.000597     0.000875
H      -2.92657088      3.95179968     -0.15382311     -0.000244     0.000208    -0.000489
H       2.83558806      1.92275635      2.92648947     -0.001016    -0.000419    -0.000795
H       4.46302449      1.67610061      3.46893112     -0.000249     0.000276     0.000659
H       4.16169334      2.47571519      1.94287485      0.000969    -0.000908     0.000435
H      -5.79942853     -0.66383840     -1.53589588     -0.001089    -0.000765    -0.000223
H      -5.05360347      0.65366029      1.00812093     -0.000928    -0.001265    -0.000513
H       7.50568031     -0.66341772      0.57041198     -0.000543    -0.000031    -0.000442
H      -5.17868304     -2.35915028      0.90837312     -0.001215    -0.001006     0.000713
H      -5.69217682     -2.94527615     -0.69129720      0.000454    -0.000172    -0.000015
H      -4.10123721     -2.21856179     -0.43539957     -0.000704    -0.000788    -0.000139
H       5.82241938     -2.03992746     -1.61585188      0.000360     0.000622    -0.000749
H       7.31170813     -1.10042236     -1.82579588      0.000706    -0.000322     0.000728
H       5.78656196     -0.27702902     -1.39548396      0.000607     0.000488    -0.000592
H       7.64059127     -2.87288279      1.31789364      0.001043     0.000550     0.000275
H       6.65587720     -3.40086223      0.13885275      0.000073    -0.000954     0.001412
H      -8.17160767      0.13027266      1.35087942      0.001611     0.000129     0.000044
53
Frame 93  Energy = -1313.0443368595 Hartree
O      -1.08115951      0.59884430      1.88440726      0.000114     0.000112     0.000136
O       3.28146930      0.56355465     -0.41261748      0.000037     0.000042     0.000146
O      -3.26458189      0.02788891     -1.47416269     -0.000276    -0.000105    -0.000031
O       4.79364895     -2.23587703      1.24738633     -0.000151     0.000137    -0.000109
O      -7.30178247      0.12602986      1.07988989      0.000199     0.000288    -0.000344
O      -7.98351593     -1.34061730     -0.47337373     -0.000086    -0.000043     0.000098
N       1.54803593      0.22138279      1.02959619      0.000016    -0.000095    -0.000128
N      -1.53939837      1.60583714     -0.08423735      0.000143     0.000145     0.000151
N       5.17497040     -0.01341081      1.45637753      0.000003     0.000184    -0.000087
N      -4.81304292      0.15625092      0.16854639     -0.000187    -0.000175     0.000207
N       7.42957444     -2.67642703      0.44274572      0.000002    -0.000049    -0.000124
C       0.48982710      0.29016933      0.02026334      0.000081    -0.000041     0.000341
C      -2.96310126      1.75524825      0.12006564      0.000264     0.000241    -0.000165
C       3.84523574      0.32685938      1.92121060     -0.000113    -0.000084     0.000061
C      -0.76296847      0.84541631      0.72377109      0.000097    -0.000247     0.000146
C       2.88361879      0.32855233      0.72744240      0.000143    -0.000223    -0.000087
C       0.11056922     -1.07527293     -0.49848710      0.000138     0.000149     0.000339
C      -3.67620861      0.53742061     -0.44724083     -0.000061    -0.000322     0.000203
C      -3.45429940      3.02134257     -0.60691733      0.000097    -0.000146    -0.000122
C       3.85180182      1.69993718      2.55318056      0.000160     0.000086     0.000299
C      -5.65058633     -0.90161547     -0.36687248     -0.000337     0.000133    -0.000238
C       6.81585537     -1.36703715      0.30338067     -0.000266     0.000304     0.000231
C       5.49506405     -1.26860418      1.06981612      0.000263     0.000192     0.000042
C      -5.16114837     -2.28673552      0.09522133     -0.000163    -0.000058     0.000230
C       6.50304292     -1.09771358     -1.18336919      0.000011    -0.000112     0.000256
C      -7.08697661     -0.72432650      0.02403129      0.000004     0.000091    -0.000126
H       0.80188539      0.95195258     -0.78148009      0.001373    -0.000741    -0.000064
H      -3.19900299      1.84614342      1.17878612      0.000505    -0.000165     0.000173
H       3.51386900     -0.39092549      2.65659420     -0.000325    -0.001717     0.000039
H       1.26494573     -0.10595387      1.93439539     -0.000734    -0.000291    -0.000463
H      -1.28709674      1.64774025     -1.06848655      0.000787     0.001396     0.001098
H      -0.63093490     -0.99726477     -1.31564873     -0.001386     0.000136     0.000710
H       1.00903094     -1.58741258     -0.88278660     -0.000712     0.001180     0.000596
H      -0.31996386     -1.68357981      0.29905299     -0.000345    -0.001061    -0.000305
H       5.60566297      0.73210859      0.92607437     -0.000027    -0.000150    -0.000067
H      -3.31893118      2.94979712     -1.70605872      0.000014    -0.000808     0.001231
H      -4.52898332      3.14272537     -0.44218588     -0.000158     0.000779    -0.000942
H      -2.94080564      3.90819626     -0.25626412     -0.001126     0.000537    -0.001170
H       2.86469017      1.93494977      2.95825009     -0.000181    -0.000328     0.000439
H       4.59027989      1.67273177      3.38312050      0.000578    -0.001134     0.000524
H       4.13792820      2.48606683      1.84619750      0.000796    -0.000949    -0.001532
H      -5.60655216     -0.86435477     -1.45007269      0.000087    -0.001527     0.000820
H      -5.10264518      0.55491837      1.06169022      0.001602     0.001641     0.000065
H       7.51283417     -0.59702675      0.65787826      0.000166     0.001059    -0.000433
H      -5.32781265     -2.38220330      1.16202487     -0.000153     0.000318     0.001132
H      -5.77173747     -3.04319564     -0.39737266     -0.000288    -0.000760     0.000447
H      -4.14327496     -2.39315463     -0.17271580      0.000632    -0.000608    -0.000286
H       5.78558272     -1.83991935     -1.52324929     -0.000152    -0.000825     0.001030
H       7.45485790     -1.22003757     -1.73461448     -0.000563     0.000335    -0.000302
H       6.07133116     -0.09524348     -1.37386195     -0.000219     0.000257    -0.000617
H       7.56823339     -2.92950550      1.43022761      0.000367    -0.000144     0.000241
H       6.74573205     -3.34439393      0.11556690      0.001308    -0.000289    -0.000101
H      -8.21373191      0.08708072      1.34209542      0.000720    -0.001135    -0.001081
53
Frame 94  Energy = -1313.0458180840 Hartree
O      -1.12906355      0.60583790      1.81923999      0.000181     0.000251     0.000071
O       3.22775119      0.63110951     -0.31073013      0.000223     0.000446    -0.000237
O      -3.30665192     -0.02296142     -1.46324456     -0.000026    -0.000283    -0.000104
O       4.77872957     -2.21263656      1.36229198     -0.000131     0.000085    -0.000093
O      -7.21005184      0.25298017      1.10543962     -0.000087     0.000160    -0.000392
O      -7.99865729     -1.19272666     -0.41498339      0.000119     0.000109     0.000203
N       1.52908822      0.22835003      1.12017349      0.000001    -0.000079     0.000005
N      -1.51383637      1.59762731     -0.17789632      0.000073     0.000272    -0.000047
N       5.14162877      0.03871182      1.54065761      0.000164    -0.000279     0.000104
N      -4.77744067      0.20542009      0.24249533     -0.000117    -0.000020    -0.000065
N       7.41001898     -2.64909899      0.51373498     -0.000024     0.000070    -0.000028
C       0.52346458      0.33196168      0.08585130     -0.000171     0.000130    -0.000408
C      -2.92372769      1.78358051      0.08263823      0.000630     0.000144     0.000196
C       3.81168504      0.38403845      1.97427724     -0.000017     0.000119    -0.000043
C      -0.74637980      0.89138688      0.69325233      0.000082     0.000096     0.000068
C       2.82902302      0.37058164      0.82665915     -0.000047     0.000028     0.000194
C       0.17428269     -1.04152045     -0.48684756      0.000187    -0.000033    -0.000236
C      -3.67310139      0.56048685     -0.44383215     -0.000063    -0.000066    -0.000078
C      -3.40022471      3.04591935     -0.62768363      0.000037     0.000136    -0.000292
C       3.79889062      1.75030179      2.58208165     -0.000099     0.000056    -0.000049
C      -5.65942869     -0.83409746     -0.32173546      0.000163    -0.000123    -0.000083
C       6.76091313     -1.35718085      0.35409053      0.000126    -0.000074     0.000015
C       5.46392079     -1.23913632      1.13692124      0.000088    -0.000412     0.000262
C      -5.19635989     -2.24004193      0.02236086     -0.000186     0.000180     0.000215
C       6.48911439     -1.01798409     -1.10027287      0.000290    -0.000038    -0.000042
C      -7.08790530     -0.61393884      0.09320926      0.000579    -0.000108     0.000164
H       0.92006604      1.03899315     -0.64392478     -0.000281    -0.000281    -0.000830
H      -3.08002968      1.89017093      1.15259834      0.000024     0.000592    -0.000393
H       3.49083401     -0.31620830      2.71976062     -0.001676     0.000014     0.000445
H       1.22597969      0.07607113      2.08956835      0.000534     0.000020     0.001590
H      -1.18042493      1.66131894     -1.11754238      0.000907     0.000828    -0.000247
H      -0.67476143     -0.91052364     -1.18351328     -0.000094    -0.000295    -0.001054
H       1.05117237     -1.51199564     -0.97503298     -0.000447    -0.000054    -0.000885
H      -0.05793212     -1.68405370      0.33270137     -0.000399    -0.000032     0.000183
H       5.60046148      0.81258060      1.09057364      0.000146    -0.000720    -0.000797
H      -3.20423203      2.99726280     -1.69773842      0.000863    -0.000746    -0.000274
H      -4.49709102      3.19260301     -0.49719993     -0.000745    -0.000061    -0.000731
H      -2.88594620      3.91210343     -0.19837143      0.000118    -0.000491    -0.001195
H       2.78458081      2.08828024      2.82962533      0.000936    -0.000331     0.000037
H       4.38219407      1.78689357      3.50057910      0.000194     0.000025     0.000700
H       4.28162998      2.47577985      1.91637132      0.000914    -0.000024     0.000390
H      -5.65048808     -0.75387025     -1.38319876      0.001078     0.000804     0.000083
H      -5.12331534      0.70129236      1.05129107      0.000982    -0.001829    -0.000370
H       7.45375539     -0.56210050      0.69318730      0.000731     0.000989     0.000408
H      -5.19440125     -2.40920597      1.10357694      0.000648    -0.000901    -0.000273
H      -5.86329333     -2.96054088     -0.45754530      0.000523     0.000322     0.000912
H      -4.19638977     -2.36318276     -0.36137354      0.000690    -0.000824     0.000447
H       5.86132589     -1.75471815     -1.57550169      0.000284    -0.000348     0.000409
H       7.42668669     -0.94303360     -1.61222928     -0.000045     0.000442    -0.001336
H       5.91839868     -0.09009973     -1.18232070     -0.001176    -0.000375    -0.000099
H       7.65010092     -2.86865955      1.49425343     -0.000345     0.000985     0.000350
H       6.75628917     -3.35647488      0.23997938     -0.000441    -0.000665     0.000663
H      -8.12775420      0.31126801      1.33105214     -0.001346    -0.000328    -0.000178
53
Frame 95  Energy = -1313.0409095606 Hartree
O      -1.02924831      0.65727426      1.85570613     -0.000403    -0.000365     0.000102
O       3.22194715      0.54861448     -0.33057995     -0.000105     0.000014    -0.000100
O      -3.30749675      0.11650290     -1.54971582     -0.000020    -0.000179    -0.000053
O       4.71040289     -2.14660012      1.21567297      0.000307    -0.000092    -0.000104
O      -7.22068652      0.19069708      1.17058921      0.000038    -0.000080     0.000041
O      -8.06050964     -1.17464393     -0.39571947      0.000275    -0.000108    -0.000092
N       1.53181007      0.28930738      1.12109407      0.000010     0.000029     0.000047
N      -1.50384854      1.60524865     -0.13242752     -0.000049    -0.000101     0.000098
N       5.13460436      0.06940673      1.53464383      0.000004    -0.000074    -0.000161
N      -4.80354405      0.26573219      0.16976270      0.000217     0.000064    -0.000139
N       7.40107724     -2.60961275      0.50627358     -0.000251     0.000213    -0.000083
C       0.52615609      0.36913548      0.09114449      0.000088    -0.000178    -0.000149
C      -2.93773946      1.82579185      0.07878297     -0.000010    -0.000473     0.000035
C       3.79854229      0.38512906      1.98259055     -0.000207    -0.000461    -0.000196
C      -0.73660693      0.89123215      0.70935375     -0.000070     0.000174    -0.000164
C       2.83415778      0.41954476      0.80544314     -0.000274    -0.000257     0.000088
C       0.18856173     -1.02406029     -0.44356168     -0.000149     0.000208     0.000095
C      -3.67835238      0.62242167     -0.49531691     -0.000187    -0.000040    -0.000016
C      -3.39377709      3.09769714     -0.63809797     -0.000081    -0.000037     0.000137
C       3.82287256      1.70275908      2.66871951      0.000140     0.000264    -0.000339
C      -5.68688792     -0.78610020     -0.38131467      0.000153     0.000114    -0.000183
C       6.79500220     -1.27685306      0.39754646      0.000114    -0.000503     0.000083
C       5.44195544     -1.17844544      1.10339992      0.000035    -0.000059     0.000229
C      -5.17679504     -2.18176353      0.03975144      0.000004     0.000069     0.000377
C       6.59665577     -0.90929959     -1.07947111     -0.000330     0.000515     0.000118
C      -7.12049293     -0.61156106      0.09176894     -0.000313    -0.000072     0.000229
H       0.95446631      1.01830702     -0.65243318      0.000388    -0.001252    -0.000455
H      -3.14054905      1.91401112      1.13581568     -0.001376     0.000418     0.000343
H       3.44876012     -0.42253415      2.63204090     -0.000553     0.000537     0.001161
H       1.18269840      0.09936045      2.03265076     -0.000827     0.001266     0.000733
H      -1.29743837      1.45959724     -1.12221929     -0.000668     0.000974     0.000234
H      -0.69737950     -1.03660494     -1.05724251     -0.000113     0.000507     0.000052
H       1.03481864     -1.41126413     -1.07472118     -0.001112    -0.000234    -0.000272
H       0.04615499     -1.71282927      0.39935105     -0.000371    -0.000708    -0.000019
H       5.68039401      0.82899580      1.22899030     -0.000112     0.000213    -0.000175
H      -3.00593248      3.12266901     -1.65696804     -0.000185     0.000742     0.000324
H      -4.45559871      3.17316052     -0.65619902     -0.001447    -0.000023     0.000224
H      -2.99977541      3.97413648     -0.05951469      0.001002    -0.000200    -0.000657
H       2.84065523      1.99239665      3.08840209     -0.000487    -0.001120     0.001397
H       4.57845180      1.73006946      3.47642192      0.000223     0.000375    -0.000781
H       4.10253481      2.49776510      1.96578805     -0.000499    -0.000239    -0.000801
H      -5.70613214     -0.67927880     -1.47516162      0.000434     0.000251     0.001556
H      -4.89023004      0.49226062      1.13773160     -0.000151     0.001064     0.000105
H       7.50772959     -0.56566344      0.77595061      0.000362     0.000637    -0.001490
H      -5.15573284     -2.22832301      1.11395992      0.000907    -0.000157     0.000088
H      -5.80612337     -2.96638390     -0.35992159     -0.000123     0.000113     0.000761
H      -4.14994824     -2.32403187     -0.30306813      0.000003     0.000347     0.000275
H       5.90328828     -1.58613590     -1.55884502     -0.001321    -0.000902     0.001192
H       7.58676993     -0.93416040     -1.57078567     -0.000199    -0.000571     0.000444
H       6.18073554      0.09658668     -1.20946295     -0.000755    -0.000593    -0.000742
H       7.79562331     -2.73576535      1.45318375     -0.000211    -0.000324    -0.001106
H       6.64348054     -3.27956598      0.42073735     -0.000146     0.000669    -0.001198
H      -8.14165522      0.13246641      1.45088333     -0.000903     0.000995    -0.000867
53
Frame 96  Energy = -1313.0305079560 Hartree
O      -1.11931596      0.63483391      1.89579184      0.000035    -0.000257     0.000305
O       3.26865870      0.55628024     -0.29547889     -0.000007    -0.000002     0.000028
O      -3.27673932      0.10430601     -1.59998132     -0.000112     0.000133     0.000091
O       4.69688599     -2.14020107      1.26640039      0.000373    -0.000473     0.000171
O      -7.21499955      0.11636632      1.18184252     -0.000041     0.000055     0.000152
O      -8.04899879     -1.10292833     -0.48916952      0.000065     0.000045     0.000021
N       1.54680946      0.26208651      1.13571642     -0.000265     0.000134    -0.000074
N      -1.51951205      1.58148714     -0.12377076     -0.000104    -0.000128    -0.000201
N       5.15257919      0.09225503      1.59060019      0.000225    -0.000398     0.000142
N      -4.81973717      0.28422402      0.08185734     -0.000176     0.000140    -0.000408
N       7.40980203     -2.62773494      0.49860106      0.000342     0.000224    -0.000164
C       0.50264418      0.35160272      0.14277971      0.000132    -0.000053    -0.000145
C      -2.92360089      1.76358265      0.08578072     -0.000016    -0.000192    -0.000437
C       3.80501698      0.38113062      2.02516746      0.000011     0.000143    -0.000143
C      -0.77285968      0.84473330      0.75982931     -0.000456     0.000209    -0.000191
C       2.86248278      0.36891199      0.84254504      0.000290    -0.000113    -0.000126
C       0.28919012     -1.03285886     -0.50010763     -0.000113     0.000094     0.000296
C      -3.66383648      0.60799995     -0.55747705      0.000125     0.000008    -0.000255
C      -3.39900173      3.06476297     -0.49714700      0.000211    -0.000332     0.000069
C       3.79219581      1.74960101      2.65581585     -0.000027    -0.000078    -0.000138
C      -5.64765036     -0.78442241     -0.41935595     -0.000224     0.000084    -0.000115
C       6.81575136     -1.29423541      0.44645361      0.000334     0.000540    -0.000264
C       5.44683669     -1.18166724      1.14478869     -0.000132     0.000088     0.000259
C      -5.10097936     -2.13127345      0.03828453      0.000395    -0.000001    -0.000370
C       6.61734629     -0.84754441     -1.01218653     -0.000106     0.000085     0.000215
C      -7.08643710     -0.63539444      0.04610803      0.000215    -0.000060     0.000150
H       0.81269880      1.02721698     -0.65559025     -0.000906    -0.000820     0.000719
H      -3.10429477      1.71396259      1.15612357     -0.000234    -0.000047     0.001848
H       3.53381650     -0.36537377      2.77845729      0.001394    -0.000194    -0.001588
H       1.25735115      0.05801716      2.08032462     -0.000782    -0.000002    -0.000016
H      -1.22701614      1.55966099     -1.09092473     -0.000109    -0.000666     0.000109
H      -0.38634943     -0.97951000     -1.33091126      0.000388    -0.000721     0.000974
H       1.25815091     -1.31967869     -0.95773216      0.000349    -0.000716    -0.000784
H      -0.03972934     -1.75011796      0.25466670     -0.000168    -0.000124    -0.000244
H       5.58705313      0.84454779      1.07225668      0.000260    -0.000255     0.000453
H      -3.12299585      3.18031556     -1.52434152     -0.000365     0.000229    -0.001073
H      -4.47905863      3.16292343     -0.44265318     -0.001693    -0.000412    -0.000792
H      -2.90253977      3.83972750      0.08652383     -0.000359     0.001943    -0.001081
H       2.84204203      2.07540057      3.04364730      0.000708    -0.000331    -0.000036
H       4.47504599      1.71256872      3.47673049      0.001242     0.000512     0.000651
H       4.13153866      2.52281205      1.96522491     -0.001436     0.000374     0.000250
H      -5.64909826     -0.74293573     -1.53035356     -0.000256     0.000121    -0.001175
H      -5.08748823      0.82261935      0.90516098      0.000154     0.000355     0.000571
H       7.50600081     -0.59093330      0.91317838     -0.000499    -0.000319     0.000078
H      -5.09760818     -2.27588176      1.12098431     -0.000557     0.000373     0.000959
H      -5.62391945     -2.95091155     -0.43159150      0.000699    -0.000540    -0.000691
H      -4.03741108     -2.18921213     -0.26344830     -0.000873     0.000063    -0.000523
H       6.00783704     -1.60114778     -1.52646379     -0.000768    -0.000475    -0.000574
H       7.54525327     -0.73720446     -1.56722429      0.000016    -0.000292     0.000522
H       6.05058785      0.08728366     -1.04375037      0.000664    -0.000957     0.000742
H       7.47853710     -2.95844536      1.47228038     -0.002301     0.000727     0.000123
H       6.80553804     -3.26983191      0.03654995     -0.000312     0.000187     0.000685
H      -8.15749269      0.18193897      1.39229191     -0.000155     0.000454     0.001202
53
Frame 97  Energy = -1313.0368002570 Hartree
O      -1.08401055      0.63937646      1.87548883      0.000106    -0.000099    -0.000143
O       3.23666411      0.56132727     -0.30394011     -0.000024    -0.000102    -0.000287
O      -3.34162553      0.10843664     -1.55042490      0.000020     0.000223    -0.000257
O       4.60165824     -2.08512914      1.27915564     -0.000068     0.000241     0.000206
O      -7.19248275      0.08944633      1.30528592      0.000050     0.000144    -0.000060
O      -8.11202762     -1.06203890     -0.38754858      0.000234    -0.000256     0.000033
N       1.53620169      0.20599058      1.14570777     -0.000043     0.000145    -0.000388
N      -1.50792910      1.57415378     -0.14031295     -0.000067    -0.000070     0.000059
N       5.11334529      0.09566935      1.61943859      0.000010     0.000080    -0.000148
N      -4.87437276      0.32606365      0.12577483      0.000390    -0.000030     0.000153
N       7.23174115     -2.69836041      0.59293679     -0.000088     0.000069     0.000112
C       0.54320420      0.33244925      0.10547041     -0.000043    -0.000175    -0.000248
C      -2.92206505      1.77522392      0.10558704      0.000305     0.000266     0.000189
C       3.75701564      0.43397756      2.02719158     -0.000092    -0.000088    -0.000120
C      -0.72933183      0.88300189      0.73033610      0.000123    -0.000332    -0.000189
C       2.82267561      0.39953350      0.83360553     -0.000047    -0.000140    -0.000217
C       0.17365977     -1.05381717     -0.48407113      0.000273    -0.000076    -0.000250
C      -3.71309884      0.63948495     -0.52929726     -0.000219     0.000473    -0.000253
C      -3.33105838      3.14122310     -0.45495222     -0.000300     0.000459     0.000066
C       3.68539882      1.84561654      2.60300187      0.000368    -0.000163    -0.000008
C      -5.68514696     -0.74850110     -0.35629265     -0.000093    -0.000020     0.000326
C       6.73851588     -1.34719480      0.49143851      0.000108     0.000368     0.000096
C       5.39779366     -1.15850953      1.14362468      0.000012     0.000128     0.000282
C      -5.21089868     -2.15061103      0.02315501      0.000315     0.000108     0.000385
C       6.54666853     -0.97220981     -0.96944793     -0.000039     0.000390    -0.000054
C      -7.13421499     -0.59847571      0.14014801     -0.000423     0.000068     0.000199
H       0.99175159      1.00977301     -0.67260748      0.001005    -0.000822     0.000466
H      -3.08857985      1.78481153      1.18868258      0.000604    -0.001361    -0.000129
H       3.42835136     -0.30749037      2.73528879      0.000627    -0.000080     0.000962
H       1.23133859      0.00082309      2.09340336      0.001379    -0.000480    -0.000246
H      -1.23119647      1.62022036     -1.11956546     -0.000201     0.000126     0.000773
H      -0.53612144     -0.94088159     -1.32283894      0.000576     0.000592    -0.000381
H       1.06617804     -1.57134904     -0.81847640      0.000769    -0.000500    -0.000634
H      -0.26726182     -1.68059895      0.30548289     -0.001151    -0.000777     0.000217
H       5.66332751      0.83028256      1.24552879      0.000925    -0.000712    -0.001153
H      -3.16627979      3.17662625     -1.53896281      0.000316    -0.001263    -0.000743
H      -4.38935403      3.35466549     -0.25716422     -0.000014    -0.001223    -0.001802
H      -2.74179186      3.95921099     -0.02805182      0.000106     0.000436     0.000424
H       2.67327573      2.09818994      2.91187341      0.001749     0.001360     0.000392
H       4.34537186      1.87631953      3.47337865      0.000620     0.000334     0.002042
H       4.02539569      2.55868010      1.84136976     -0.000553     0.001314     0.000576
H      -5.74051353     -0.71501991     -1.46182339      0.000796    -0.000124    -0.000554
H      -5.03209231      0.63735814      1.06708549     -0.000743    -0.000472    -0.000165
H       7.47654541     -0.67929906      0.92895275     -0.000048    -0.001389     0.000457
H      -5.03329037     -2.28738619      1.09423421     -0.000027     0.001605    -0.000479
H      -5.93183887     -2.90975006     -0.36752491     -0.000503     0.000297    -0.000374
H      -4.21743473     -2.34008022     -0.42130540     -0.000826    -0.000154    -0.000091
H       5.82604144     -1.65137962     -1.45627373     -0.000320     0.000214     0.000069
H       7.45206853     -1.02297137     -1.56666867     -0.000528    -0.000016     0.000726
H       6.11964882      0.02653169     -1.07211448     -0.000095    -0.000140    -0.000439
H       7.49975052     -2.92018889      1.53339570     -0.000009     0.000419     0.000287
H       6.49236346     -3.33355786      0.36697844     -0.000597    -0.000782     0.000640
H      -8.11517033      0.08599269      1.56066204      0.000417     0.000134    -0.000575
53
Frame 98  Energy = -1313.0452648909 Hartree
O      -1.09974573      0.55537148      1.78982630      0.000023     0.000449    -0.000213
O       3.27814566      0.66403331     -0.26640067      0.000044     0.000029     0.000056
O      -3.40379063      0.17369413     -1.54203363      0.000174     0.000081    -0.000030
O       4.60820135     -2.03745392      1.34998682      0.000278    -0.000188     0.000042
O      -7.12647494      0.14085694      1.33481364      0.000129     0.000096     0.000096
O      -8.12732884     -0.93861562     -0.38576412      0.000196    -0.000067     0.000149
N       1.52669641      0.24126621      1.07584133      0.000120     0.000099    -0.000057
N      -1.46782086      1.63932667     -0.15655037     -0.000277    -0.000039     0.000121
N       5.10878686      0.12301535      1.73649296     -0.000076     0.000038     0.000250
N      -4.86207283      0.42213771      0.13448651     -0.000077     0.000106    -0.000019
N       7.28961487     -2.60167243      0.71650809     -0.000212     0.000036    -0.000175
C       0.52773891      0.28263379      0.03702894     -0.000051     0.000052     0.000085
C      -2.88719861      1.86522859      0.14477674      0.000319    -0.000087    -0.000089
C       3.74698040      0.43906319      2.10037077      0.000037    -0.000050     0.000254
C      -0.74835951      0.86078094      0.66000966     -0.000030     0.000326    -0.000017
C       2.83870724      0.43146630      0.85006597      0.000033    -0.000113    -0.000500
C       0.17719304     -1.10799078     -0.49466797      0.000081    -0.000116     0.000423
C      -3.71161449      0.74067170     -0.48521206     -0.000153    -0.000147     0.000523
C      -3.39097164      3.15040850     -0.46783956      0.000151     0.000325    -0.000276
C       3.71455998      1.83630504      2.74928143     -0.000147     0.000472    -0.000187
C      -5.70367096     -0.65203950     -0.37467158      0.000018     0.000074    -0.000103
C       6.73449670     -1.26810757      0.48817700      0.000305     0.000117    -0.000004
C       5.40238481     -1.11903147      1.25202039      0.000225     0.000174    -0.000473
C      -5.18427672     -2.05188360     -0.04177878      0.000119     0.000208    -0.000052
C       6.51860744     -1.02972443     -0.99097050      0.000134     0.000129    -0.000304
C      -7.12261846     -0.52675717      0.12760190     -0.000186     0.000046     0.000226
H       0.90546940      0.97843058     -0.73620491      0.000597     0.000381    -0.000485
H      -2.98012973      1.82539312      1.24180364     -0.001140    -0.000882    -0.000993
H       3.43743919     -0.33190725      2.80580507      0.001184     0.000327     0.000507
H       1.15689856      0.13846246      2.00521403      0.000002     0.001636    -0.000377
H      -1.20319566      1.59711402     -1.12078885     -0.000856    -0.000408    -0.000042
H      -0.61982772     -1.04645180     -1.27636347      0.000501     0.000045     0.000698
H       1.07720272     -1.55078449     -0.85725656      0.000513     0.000374    -0.000758
H      -0.17507282     -1.73936805      0.29819444      0.001815    -0.000047     0.001076
H       5.63801334      0.89529230      1.36066024      0.000263     0.000179     0.000075
H      -3.29104641      3.03620125     -1.53587693      0.000362     0.000416    -0.000104
H      -4.43726821      3.29925386     -0.22250624     -0.000517    -0.000168     0.000030
H      -2.77803371      3.99061406     -0.14020391      0.000736     0.001436    -0.000825
H       2.74577602      2.07057265      3.11456148      0.000227     0.000831     0.000779
H       4.35766889      1.84503793      3.61831014      0.000076    -0.000635     0.000971
H       3.98597598      2.61678722      2.04706623     -0.000248     0.000144    -0.000179
H      -5.68754177     -0.53779223     -1.47520296     -0.000188    -0.000028    -0.002184
H      -5.02959833      0.74103672      1.07751528     -0.000758    -0.000484    -0.000440
H       7.44666933     -0.52738095      0.89600191     -0.000723     0.000421     0.000419
H      -5.20952286     -2.21746711      1.04048654     -0.000097    -0.000853    -0.000516
H      -5.76646806     -2.81789990     -0.54940218     -0.000110    -0.000064     0.000495
H      -4.12662441     -2.17482798     -0.34869919      0.000191    -0.000238     0.000997
H       5.89763992     -1.82075371     -1.40076826      0.000754    -0.000030    -0.000200
H       7.46721356     -1.09348803     -1.48174479     -0.000625     0.000468     0.000798
H       6.01932924     -0.07896329     -1.18564298      0.000535    -0.000796     0.000816
H       7.57774998     -2.68360590      1.68570040      0.000529    -0.000067    -0.000149
H       6.51922018     -3.28131035      0.61637091      0.000779     0.001834     0.000834
H      -8.01619637      0.08242548      1.69702136      0.000269    -0.000176     0.000809
53
Frame 99  Energy = -1313.0446034412 Hartree
O      -1.02961853      0.53434862      1.68455117      0.000064    -0.000046     0.000072
O       3.26674854      0.67610664     -0.34049147     -0.000029     0.000112    -0.000033
O      -3.33818799      0.15849201     -1.56276130     -0.000044    -0.000165     0.000022
O       4.60305677     -2.04688219      1.39494168      0.000217     0.000019     0.000319
O      -7.21097972      0.09258788      1.32563253     -0.000113    -0.000080     0.000072
O      -8.08958846     -1.08101697     -0.36229499     -0.000049     0.000129     0.000165
N       1.53960699      0.28743649      1.03897114      0.000063    -0.000382    -0.000175
N      -1.47643386      1.67657615     -0.22579326     -0.000027    -0.000152     0.000123
N       5.08996303      0.15911811      1.74791039     -0.000132    -0.000183     0.000185
N      -4.85746724      0.37653493      0.10990663      0.000420     0.000116    -0.000173
N       7.29520937     -2.54086448      0.82381339     -0.000228     0.000175    -0.000221
C       0.59126220      0.34130474     -0.01931307     -0.000018    -0.000120    -0.000414
C      -2.89861532      1.84091174      0.07262600      0.000021    -0.000068     0.000181
C       3.73325892      0.46997608      2.06098908      0.000039     0.000329     0.000071
C      -0.70890244      0.85272140      0.57034739      0.000033    -0.000204     0.000225
C       2.85506890      0.45642011      0.78588422     -0.000100     0.000079    -0.000039
C       0.30921313     -1.04948776     -0.63533620     -0.000264    -0.000092     0.000078
C      -3.69962271      0.68595583     -0.52979841     -0.000304     0.000399     0.000135
C      -3.41632440      3.15223491     -0.54374935      0.000217     0.000097     0.000401
C       3.63258747      1.82946380      2.68366804      0.000221     0.000091     0.000090
C      -5.74691300     -0.65360413     -0.39658658      0.000307     0.000531    -0.000225
C       6.70110271     -1.24678369      0.52942634     -0.000050    -0.000467    -0.000110
C       5.36316964     -1.10157245      1.25241090     -0.000166     0.000102     0.000112
C      -5.25695937     -2.07061490     -0.00581225      0.000202    -0.000320    -0.000116
C       6.46566748     -1.03119860     -0.97169543      0.000389     0.000025     0.000251
C      -7.14896773     -0.53628448      0.15834566     -0.000269    -0.000089    -0.000104
H       0.99051051      1.00528872     -0.79244441      0.000111    -0.000320     0.000380
H      -2.98679027      1.89068821      1.16964749      0.000732     0.000093    -0.000618
H       3.34984264     -0.27143473      2.79390914      0.000897     0.000362    -0.000090
H       1.22218872      0.19692469      1.98093619     -0.000928    -0.000864     0.001079
H      -1.24840493      1.64276600     -1.21289113      0.000482    -0.000201    -0.000505
H      -0.45918631     -0.96819953     -1.38515008     -0.000298     0.000076    -0.000083
H       1.20008737     -1.44786971     -1.12045853      0.000677     0.000400     0.000112
H       0.06950898     -1.73487682      0.18821826     -0.000814     0.002138     0.000170
H       5.69214465      0.90033669      1.42546691     -0.001167     0.000807    -0.000346
H      -3.20940392      3.27753364     -1.63245230      0.000556    -0.000409     0.000098
H      -4.51121991      3.23127560     -0.35321760      0.001146     0.001180    -0.000544
H      -2.93783214      3.97542437     -0.03741554      0.000131     0.000234     0.000174
H       2.61435609      2.05954904      3.01749164      0.000478     0.001594    -0.000183
H       4.27203219      1.88913431      3.56881468      0.000511    -0.000079     0.000016
H       3.90043620      2.62814894      1.98819595      0.000757     0.000038    -0.001174
H      -5.79618023     -0.58100573     -1.49137367      0.000782     0.001451    -0.000474
H      -4.97238975      0.70444103      1.06014760     -0.000143    -0.000541     0.000865
H       7.38093727     -0.45381085      0.90384382      0.000320    -0.000700    -0.000375
H      -5.22601914     -2.16161834      1.07023787      0.000969    -0.000617     0.000812
H      -5.92187114     -2.83821492     -0.38336047      0.000442    -0.000204     0.000229
H      -4.26345021     -2.17741326     -0.48871832      0.000507    -0.000198    -0.000196
H       5.93303655     -1.89270105     -1.36840551     -0.000144     0.000120    -0.000106
H       7.38002404     -0.90166098     -1.52574329     -0.001386     0.001454    -0.000343
H       5.81952557     -0.17280456     -1.10143326      0.000022    -0.000053    -0.000304
H       7.70332102     -2.67713270      1.74242999      0.001199    -0.000597     0.000387
H       6.57612042     -3.23911240      0.68639783     -0.000169     0.000397    -0.000599
H      -8.09728256     -0.03295085      1.65893338     -0.000172    -0.000764    -0.001090
53
Frame 100  Energy = -1313.0334976654 Hartree
O      -1.04771688      0.58397303      1.68344731     -0.000121    -0.000094    -0.000417
O       3.38615091      0.88143907     -0.27506600     -0.000285    -0.000127     0.000029
O      -3.36884341      0.24372128     -1.65647795     -0.000116    -0.000027     0.000505
O       4.64103109     -2.03408650      1.45103071     -0.000144     0.000076    -0.000194
O      -7.18913355      0.23084304      1.32765793      0.000018    -0.000080    -0.000291
O      -8.07749943     -1.05984612     -0.32380528     -0.000138    -0.000038     0.000053
N       1.54463755      0.30748088      1.00284281     -0.000080     0.000013    -0.000018
N      -1.50479704      1.65539981     -0.25393015      0.000025     0.000056     0.000191
N       5.09326019      0.14920321      1.70436709      0.000119     0.000249    -0.000053
N      -4.82663837      0.35998837      0.13580031      0.000009     0.000137    -0.000288
N       7.30397106     -2.60672263      0.77263104      0.000228    -0.000248     0.000241
C       0.58426171      0.42265078     -0.03304278     -0.000071    -0.000090    -0.000159
C      -2.90302402      1.84366501      0.06339834      0.000476     0.000125     0.000385
C       3.71599960      0.49359288      2.04008116     -0.000168    -0.000299    -0.000319
C      -0.73526475      0.90148352      0.55253628     -0.000186     0.000378     0.000208
C       2.84324353      0.55994514      0.77106040     -0.000113     0.000066    -0.000131
C       0.26176512     -0.94825857     -0.67277662     -0.000068    -0.000012    -0.000065
C      -3.70577008      0.68224817     -0.56947179      0.000135    -0.000237     0.000122
C      -3.42405916      3.17570791     -0.50626492      0.000001    -0.000085     0.000060
C       3.65990235      1.83245583      2.73418874     -0.000018    -0.000212     0.000170
C      -5.72369601     -0.67334722     -0.30424586      0.000225     0.000106     0.000006
C       6.76158951     -1.28754567      0.57760678     -0.000197    -0.000311    -0.000489
C       5.41306161     -1.08923302      1.30118024      0.000210    -0.000067     0.000121
C      -5.14253256     -2.04079181      0.08738856     -0.000060     0.000204    -0.000113
C       6.54228874     -0.97207460     -0.89677812      0.000139     0.000058     0.000015
C      -7.14128564     -0.53059131      0.21589639     -0.000448     0.000371    -0.000292
H       0.95258178      1.11719049     -0.75944547      0.000108     0.000651    -0.000435
H      -3.05205623      1.87907249      1.12253579     -0.000717     0.000248     0.000422
H       3.29784356     -0.31713742      2.65884859     -0.000068     0.000524     0.000128
H       1.20764478     -0.01300922      1.87997789     -0.000335    -0.000106     0.000034
H      -1.25444907      1.73822911     -1.24043452     -0.001924     0.000304     0.000220
H      -0.55697797     -0.85126220     -1.39359650     -0.000753    -0.000656    -0.000872
H       1.15520164     -1.31910940     -1.19488406      0.000681     0.001092     0.000179
H      -0.01449185     -1.67095759      0.10946262     -0.000720     0.001222     0.000322
H       5.62461290      0.91880255      1.30540689     -0.000152    -0.000081    -0.001476
H      -3.31729483      3.30636370     -1.59631014      0.000611     0.000639    -0.000794
H      -4.49548395      3.26819439     -0.27428799      0.002309     0.000866     0.000008
H      -2.87150710      3.98338132     -0.05810918      0.000698    -0.000820     0.000168
H       2.63644431      2.11499579      2.92089407      0.000475     0.000317     0.000780
H       4.17917752      1.78902214      3.68999058      0.000189    -0.000196    -0.001414
H       4.12252908      2.61939125      2.15271311     -0.000844    -0.000904    -0.000203
H      -5.80076536     -0.65463089     -1.38049634      0.000760     0.001261     0.000783
H      -4.87573145      0.66757032      1.10116863     -0.000022     0.000860    -0.001269
H       7.48244851     -0.58896697      1.00267059      0.000283    -0.000898     0.000185
H      -5.15061904     -2.21805496      1.14492194      0.000154    -0.000227    -0.000785
H      -5.72585283     -2.85471975     -0.38947430     -0.000454     0.000102     0.000134
H      -4.13818584     -2.14968925     -0.28293736      0.000488    -0.000917     0.001022
H       5.78030783     -1.65979397     -1.29552714     -0.000470    -0.000098    -0.000248
H       7.46817153     -1.11303233     -1.42689996     -0.000541     0.000596    -0.000067
H       6.15437287      0.05240788     -1.07558319     -0.000655     0.000467    -0.000316
H       7.45500518     -2.74800801      1.77863350     -0.000277    -0.000444    -0.000406
H       6.63110303     -3.26588266      0.42281535      0.002902     0.000086    -0.000198
H      -8.12767786      0.33146767      1.57509090     -0.000105     0.001100    -0.000394
53
Frame 101  Energy = -1313.0335986357 Hartree
O      -1.09424708      0.61239016      1.70727181      0.000145    -0.000054    -0.000108
O       3.24402622      0.98425654     -0.31723011      0.000011    -0.000074     0.000048
O      -3.38120621      0.16830109     -1.64441835      0.000256    -0.000144     0.000145
O       4.60966253     -2.04931247      1.45091095     -0.000240     0.000448    -0.000410
O      -7.16246856      0.16130941      1.37205596     -0.000184    -0.000139    -0.000167
O      -8.09003153     -1.02440767     -0.31383504      0.000331    -0.000176    -0.000019
N       1.54292504      0.31348374      0.98284605     -0.000390     0.000000    -0.000062
N      -1.54300695      1.64032479     -0.27455808      0.000031     0.000262     0.000131
N       5.08854599      0.15820107      1.69076027     -0.000086    -0.000118    -0.000180
N      -4.83551507      0.33547464      0.11103226      0.000144    -0.000026    -0.000198
N       7.30995641     -2.61459178      0.81694986      0.000162     0.000089    -0.000172
C       0.54509315      0.38011503     -0.04096677     -0.000071    -0.000410    -0.000137
C      -2.92360237      1.84894508      0.03288558      0.000134     0.000022    -0.000376
C       3.70617938      0.54109983      2.01173154     -0.000014     0.000270    -0.000384
C      -0.77501127      0.90060304      0.56723987      0.000229    -0.000539     0.000081
C       2.82841071      0.60205245      0.76432245     -0.000094    -0.000373     0.000228
C       0.30925719     -0.98752799     -0.68049326     -0.000088    -0.000209     0.000019
C      -3.71894873      0.69032327     -0.57957744     -0.000268     0.000147    -0.000093
C      -3.41730425      3.20143353     -0.50366139     -0.000456    -0.000099    -0.000055
C       3.67123974      1.88979226      2.70870766      0.000141    -0.000051     0.000290
C      -5.71905962     -0.72375004     -0.33354797     -0.000136    -0.000361     0.000027
C       6.73621843     -1.30646432      0.58996001      0.000193     0.000271     0.000301
C       5.39349433     -1.12110679      1.30834630     -0.000279    -0.000297    -0.000408
C      -5.25304276     -2.13595043      0.06541689     -0.000092     0.000044     0.000229
C       6.50408916     -1.10729364     -0.92978423      0.000108     0.000027     0.000136
C      -7.11809118     -0.56057345      0.21123892     -0.000107     0.000173     0.000343
H       0.87064081      1.11970408     -0.78469269     -0.000465    -0.001483     0.000972
H      -2.97949595      1.79361521      1.12580000      0.001302    -0.000446     0.001390
H       3.34529060     -0.20779215      2.69377201     -0.001598     0.000695     0.001257
H       1.21932875      0.04390683      1.89033473      0.000006    -0.000755     0.000684
H      -1.31611766      1.66070956     -1.26028239     -0.000426     0.000243     0.000182
H      -0.56774967     -0.98203598     -1.31032138      0.000176    -0.000161     0.000048
H       1.19357927     -1.27880852     -1.27423081     -0.000676     0.001078    -0.000944
H       0.14566501     -1.73540289      0.09175615      0.001106    -0.001063     0.000233
H       5.63484904      0.87336834      1.25095677     -0.000572    -0.000593    -0.000746
H      -3.26108421      3.17719671     -1.60847338     -0.000001     0.000715    -0.000178
H      -4.48666557      3.27870291     -0.33814043     -0.000068    -0.000070     0.001037
H      -2.88885743      4.03910905     -0.07193028     -0.000008    -0.000235    -0.000549
H       2.65014353      2.08794696      3.03259678     -0.000208     0.000431    -0.000042
H       4.35183829      1.88934215      3.55874796      0.001004     0.000487    -0.001995
H       3.92269473      2.69307894      2.03720783     -0.000262    -0.000175     0.000507
H      -5.82691442     -0.70915547     -1.42979887     -0.000012    -0.000171    -0.000629
H      -5.09434618      0.81608067      0.95291028      0.000268    -0.000647    -0.000832
H       7.45612254     -0.54999611      0.91081010     -0.000647    -0.000653     0.000106
H      -5.13297890     -2.27829835      1.15007007      0.000302     0.000541     0.000197
H      -5.95441861     -2.87783773     -0.30566622     -0.000110     0.000916     0.000310
H      -4.31386662     -2.34520044     -0.40923794     -0.001139    -0.000530     0.000118
H       6.01079063     -2.00123620     -1.32939846      0.000098     0.001576     0.000721
H       7.45341213     -0.99115343     -1.42908643     -0.001030    -0.001331    -0.000602
H       5.86512206     -0.25726603     -1.15935431      0.000911     0.001717    -0.000672
H       7.69143226     -2.68045187      1.76567189     -0.001404    -0.000038    -0.000217
H       6.55267406     -3.28604440      0.71991183      0.000326     0.000142    -0.001021
H      -8.06074833      0.14121574      1.75499478      0.000087    -0.000369    -0.000004
53
Frame 102  Energy = -1313.0451062020 Hartree
O      -1.07167803      0.76444954      1.79335271      0.000169    -0.000211     0.000275
O       3.24385433      0.90787428     -0.26281034     -0.000250     0.000052     0.000136
O      -3.37508566      0.07072834     -1.51824503      0.000088     0.000374    -0.000086
O       4.59557259     -2.02005688      1.63872878      0.000246     0.000182    -0.000102
O      -7.15686491      0.10959758      1.43380854     -0.000197     0.000132    -0.000025
O      -8.08326102     -1.07797914     -0.20612702      0.000151    -0.000055     0.000072
N       1.49029468      0.29649130      1.04626699      0.000102     0.000073    -0.000174
N      -1.53487780      1.66964260     -0.25846726     -0.000264     0.000058    -0.000125
N       5.08093869      0.18641099      1.70306331      0.000442    -0.000275     0.000106
N      -4.91643897      0.43324092      0.12675024     -0.000038     0.000385    -0.000115
N       7.28411084     -2.57709361      0.97761283     -0.000151     0.000106     0.000207
C       0.48801707      0.42553743      0.01579671      0.000080     0.000215    -0.000309
C      -2.93382534      1.87777919      0.03153938     -0.000167    -0.000139     0.000058
C       3.72667273      0.53272576      2.04818531      0.000078     0.000064     0.000329
C      -0.76662917      0.98818601      0.63011367      0.000121     0.000053    -0.000295
C       2.79023724      0.57078235      0.81728352     -0.000086     0.000029    -0.000120
C       0.15205028     -0.95963069     -0.61109552      0.000052     0.000183    -0.000135
C      -3.75681037      0.68675112     -0.55123248     -0.000058     0.000163     0.000183
C      -3.44133883      3.17271613     -0.61956079      0.000116    -0.000117     0.000096
C       3.71946305      1.87926250      2.70736845     -0.000109    -0.000081     0.000307
C      -5.70973293     -0.70416180     -0.29166620     -0.000096     0.000245     0.000071
C       6.65117158     -1.30734477      0.59257521     -0.000259    -0.000041    -0.000037
C       5.33477104     -1.10737842      1.32836742     -0.000438     0.000047     0.000218
C      -5.13876757     -2.07078903      0.07589809      0.000080     0.000057     0.000315
C       6.45135498     -1.20688154     -0.92705709     -0.000041     0.000101    -0.000059
C      -7.09744091     -0.57164519      0.27081839      0.000182     0.000423     0.000134
H       0.90866890      1.10262409     -0.75656984     -0.000744     0.001136    -0.000307
H      -3.05865605      1.88841185      1.10768385      0.000340    -0.000561     0.000014
H       3.34920727     -0.26394459      2.73262693      0.000830    -0.000058     0.000147
H       1.16084889      0.01896426      1.95696137      0.000873    -0.000154    -0.000219
H      -1.29827415      1.56911067     -1.23507472      0.000294     0.000182    -0.000374
H      -0.56519302     -0.89609552     -1.39870194      0.000659    -0.000328     0.000584
H       1.09430711     -1.37045947     -0.99535591     -0.000207    -0.000294     0.000346
H      -0.22000949     -1.58996570      0.17475859     -0.000334     0.000030     0.001080
H       5.59247894      0.89432148      1.20127778      0.000835     0.000908    -0.000616
H      -3.28993911      3.08461708     -1.69423267     -0.000011     0.000472    -0.001068
H      -4.51132812      3.23855696     -0.40449322      0.000601    -0.001409     0.000261
H      -2.90642272      4.04939101     -0.21588543     -0.000735    -0.000137    -0.002137
H       2.68675338      2.19044521      2.92106971     -0.000600    -0.001115    -0.001306
H       4.30691565      1.85159639      3.61056537      0.002081     0.000451     0.000407
H       4.16301010      2.62660357      2.04639709      0.000982     0.000131    -0.000884
H      -5.86303552     -0.63366531     -1.36122171      0.000965     0.000411     0.000439
H      -5.00089943      0.76110061      1.06129196     -0.000213    -0.000265    -0.001066
H       7.34696964     -0.49124018      0.87270717     -0.000041    -0.000966    -0.001037
H      -4.81647485     -2.08689377      1.12284999      0.001332    -0.000530     0.000586
H      -5.85678435     -2.86604665     -0.06570287     -0.001033     0.000047     0.001596
H      -4.22635657     -2.24917508     -0.55008756     -0.000273    -0.001052     0.000053
H       5.73185876     -1.92972699     -1.30028120     -0.000548     0.001263     0.000090
H       7.40034247     -1.38384162     -1.42551066      0.000930     0.000033    -0.000972
H       6.07939157     -0.20723351     -1.19477477      0.000941     0.000276    -0.000342
H       7.56831051     -2.51210255      1.95531352     -0.000147    -0.000248     0.000503
H       6.55868682     -3.30885071      0.89546143     -0.000048    -0.000219    -0.001091
H      -8.08667944      0.07625583      1.74854812     -0.000487     0.000401    -0.000486
53
Frame 103  Energy = -1313.0451979163 Hartree
O      -1.09213730      0.75625750      1.83008506     -0.000252    -0.000033     0.000373
O       3.26137523      0.92542563     -0.24139843     -0.000051     0.000061    -0.000038
O      -3.43709335      0.17480011     -1.51175300     -0.000289    -0.000004    -0.000146
O       4.57646522     -2.02009985      1.53615007     -0.000098     0.000178     0.000078
O      -7.13553007      0.26869888      1.41969948     -0.000301    -0.000181    -0.000044
O      -8.07147967     -1.13999634     -0.07796025      0.000230     0.000368    -0.000094
N       1.50103640      0.34690451      1.09592679     -0.000033    -0.000090    -0.000053
N      -1.56619216      1.74040466     -0.18177405      0.000489    -0.000202     0.000128
N       5.09291342      0.19021018      1.71656700     -0.000020     0.000094     0.000343
N      -4.89607298      0.37825103      0.20645944      0.000350     0.000276     0.000092
N       7.24918617     -2.64525064      0.96350552     -0.000127     0.000106    -0.000282
C       0.51775185      0.50965725      0.07338578     -0.000492    -0.000029     0.000141
C      -2.97841208      1.92181789      0.07930377      0.000307     0.000298     0.000009
C       3.71648170      0.53698748      2.06021915     -0.000109     0.000220     0.000120
C      -0.78315115      1.01316063      0.67396047     -0.000146    -0.000090     0.000259
C       2.81996662      0.60875069      0.85219204     -0.000122     0.000030    -0.000018
C       0.27629937     -0.78453486     -0.67291320      0.000038    -0.000044    -0.000209
C      -3.78233412      0.75278190     -0.47503603     -0.000274    -0.000200    -0.000078
C      -3.48237465      3.23524185     -0.54063345      0.000232     0.000065     0.000097
C       3.70527723      1.87188649      2.83739446     -0.000018     0.000043     0.000581
C      -5.72418125     -0.71013601     -0.21704236     -0.000192    -0.000103     0.000082
C       6.69539009     -1.33360528      0.67330884      0.000089     0.000349    -0.000165
C       5.36222619     -1.08677160      1.35080308      0.000381     0.000101    -0.000399
C      -5.10533938     -2.03659046      0.23666534      0.000070     0.000150     0.000119
C       6.45702678     -1.15730198     -0.84504536     -0.000076    -0.000006     0.000243
C      -7.11584271     -0.56317212      0.37674914      0.000077    -0.000018    -0.000146
H       0.91843628      1.25659392     -0.63022976      0.000304    -0.001325    -0.000145
H      -3.08977450      1.90877417      1.17114447      0.000298    -0.000461    -0.000189
H       3.39572681     -0.28028128      2.71963447      0.000303     0.000125     0.000917
H       1.16270453      0.06691012      2.02267264     -0.000322    -0.000558    -0.000166
H      -1.27933921      1.73967044     -1.15196173     -0.000755     0.000488    -0.000601
H      -0.42861694     -0.68856762     -1.50597790     -0.000132     0.000038     0.001083
H       1.25044084     -1.07948813     -1.08735327     -0.000262     0.000680     0.000153
H      -0.08582743     -1.56222577      0.03588892     -0.000333    -0.000142    -0.000987
H       5.65846043      0.92936229      1.28856680     -0.000567    -0.000272    -0.000370
H      -3.30306347      3.21151780     -1.61934652      0.000179    -0.000219     0.000571
H      -4.56728223      3.41394004     -0.34494942      0.001417     0.000016    -0.000520
H      -2.92815709      4.05334720     -0.12993630      0.000906     0.000043     0.000437
H       2.71629828      2.04825235      3.30271727      0.000269    -0.000659    -0.000860
H       4.51219805      1.87987695      3.55818513      0.000754    -0.000049     0.000340
H       3.85350670      2.69033988      2.13478442      0.000374    -0.000441    -0.001094
H      -5.81023411     -0.70642933     -1.29586950     -0.000086     0.001068    -0.000190
H      -5.16195719      0.88377793      1.02992819      0.000879    -0.001462    -0.000895
H       7.44353158     -0.53903648      0.95005647      0.000249    -0.000830    -0.000149
H      -4.97533102     -2.07638265      1.32645946      0.001349     0.000144    -0.000248
H      -5.73527389     -2.86843557     -0.07753482      0.000832    -0.000391     0.000937
H      -4.09952256     -2.13025069     -0.20019804     -0.000495     0.001420     0.000263
H       5.85412837     -1.99126344     -1.24423123      0.000313     0.000080    -0.000621
H       7.43270115     -1.30950306     -1.27483439      0.000521     0.000209     0.000567
H       6.03310791     -0.21107618     -1.09013173      0.000942     0.000003     0.000803
H       7.53584914     -2.69337244      1.95013523     -0.000200    -0.000599    -0.000113
H       6.53986497     -3.33086186      0.82866704     -0.000096    -0.000085    -0.001048
H      -8.02303916      0.29860665      1.75167652     -0.001505     0.000779     0.001003
53
Frame 104  Energy = -1313.0459410441 Hartree
O      -1.12288421      0.75352046      1.74402204      0.000241     0.000206     0.000156
O       3.32678159      0.95856379     -0.25119160     -0.000226     0.000118     0.000143
O      -3.42494106      0.17718709     -1.51455273      0.000353    -0.000271    -0.000018
O       4.55911919     -2.10249427      1.59658171     -0.000231     0.000182     0.000110
O      -7.14230872      0.10984162      1.47247282     -0.000262     0.000048     0.000060
O      -8.07441784     -1.03251143     -0.16680108     -0.000105     0.000220    -0.000157
N       1.54926140      0.39343470      1.02856315     -0.000127    -0.000023    -0.000039
N      -1.55147003      1.80464034     -0.21767303      0.000350    -0.000072     0.000144
N       5.03190446      0.11656157      1.71866882     -0.000012     0.000259     0.000290
N      -4.77030204      0.24742288      0.31861588      0.000093     0.000068    -0.000280
N       7.35658341     -2.56663938      1.03429568     -0.000239     0.000155     0.000248
C       0.55003900      0.56408625     -0.01216435      0.000057    -0.000264     0.000080
C      -2.96403896      1.91792892      0.10061195     -0.000269     0.000317     0.000116
C       3.69905932      0.52720384      2.09776845      0.000209    -0.000146     0.000148
C      -0.77409800      1.03760134      0.60291933     -0.000141     0.000013    -0.000209
C       2.85358519      0.67230584      0.83531977      0.000216     0.000120     0.000131
C       0.28228530     -0.79314009     -0.69867278     -0.000173    -0.000121    -0.000180
C      -3.71494010      0.63842842     -0.42704521     -0.000110     0.000092     0.000033
C      -3.55498860      3.17323509     -0.53173473     -0.000149     0.000108    -0.000020
C       3.75627172      1.85851907      2.84860470      0.000224    -0.000007    -0.000048
C      -5.65487307     -0.81867192     -0.12544190     -0.000076     0.000187     0.000237
C       6.68016862     -1.32768158      0.66933231      0.000170    -0.000125    -0.000019
C       5.30597652     -1.15578398      1.37000801      0.000372    -0.000398    -0.000077
C      -5.16719729     -2.19835909      0.37660678     -0.000122     0.000137     0.000035
C       6.43688138     -1.23287018     -0.83428739     -0.000106    -0.000470    -0.000019
C      -7.09079985     -0.60865457      0.33034376      0.000370     0.000085     0.000323
H       0.94049767      1.31144251     -0.69286636     -0.000198     0.001246     0.000923
H      -3.02766051      1.90781361      1.19570214     -0.001183    -0.001498    -0.000398
H       3.29677463     -0.23740526      2.75394519      0.001071    -0.000032    -0.000351
H       1.27349148      0.11668444      1.95394406     -0.000021    -0.001229    -0.001111
H      -1.32609246      1.70929996     -1.20610644      0.000379    -0.001158     0.000748
H      -0.52508627     -0.73064747     -1.45523779      0.001072    -0.000270    -0.000271
H       1.19047393     -1.16108210     -1.19011866     -0.001354     0.000133     0.000519
H      -0.03352394     -1.47179072      0.11144143      0.001104    -0.000226    -0.000431
H       5.64713427      0.83519518      1.41464205     -0.001634     0.000289     0.000182
H      -3.35281809      3.17564208     -1.61120050     -0.000271     0.000290     0.000161
H      -4.63416864      3.21065372     -0.35552821     -0.000068     0.000123    -0.000741
H      -3.09683222      4.06020343     -0.05759701     -0.000619    -0.000281     0.000271
H       2.75150858      2.17891346      3.19282699      0.000633     0.000270    -0.001814
H       4.38544024      1.80087495      3.73960397     -0.000467     0.000408    -0.000192
H       4.19581544      2.64631000      2.19828829     -0.000133     0.001263    -0.000760
H      -5.62912875     -0.79035151     -1.23078411     -0.000665    -0.000079     0.000432
H      -4.94464612      0.66333302      1.21013006      0.000047    -0.000315     0.000958
H       7.34090304     -0.52701876      1.04556420      0.000257     0.000062     0.000575
H      -5.18054222     -2.17822958      1.44389597      0.000296    -0.000330     0.000892
H      -5.72996955     -2.98854243     -0.07583371     -0.000029     0.000659     0.000017
H      -4.11337064     -2.35753296      0.08222699     -0.000053     0.000722    -0.001712
H       5.81078750     -2.03661746     -1.18585374      0.000424     0.000567    -0.000464
H       7.44302811     -1.26376346     -1.27740334      0.000186     0.000095    -0.000028
H       5.96311382     -0.26986192     -1.07604362      0.000203     0.000563     0.001221
H       7.65601683     -2.49137381      1.99387142      0.000179    -0.000080    -0.000083
H       6.69584129     -3.32941514      0.96831304     -0.000393    -0.000197     0.000868
H      -8.06043451      0.14916843      1.74104509     -0.000636    -0.000875     0.000459
53
Frame 105  Energy = -1313.0515856925 Hartree
O      -1.03677972      0.82185497      1.70500171     -0.000095    -0.000141     0.000078
O       3.32959833      0.97545521     -0.23469869     -0.000037    -0.000178    -0.000116
O      -3.48830232      0.21518515     -1.46275076     -0.000075     0.000004     0.000093
O       4.63885436     -2.08196393      1.66504378      0.000280     0.000212     0.000013
O      -7.28318606      0.10631053      1.50991421     -0.000145    -0.000121     0.000088
O      -8.05473057     -1.04028650     -0.27135634     -0.000003     0.000271    -0.000273
N       1.49982086      0.48583196      1.01041949      0.000007     0.000055    -0.000319
N      -1.57971068      1.79606601     -0.24172833     -0.000052    -0.000070    -0.000024
N       4.99829879      0.16759093      1.75663031      0.000167     0.000122    -0.000110
N      -4.82274765      0.35490678      0.38329955      0.000458    -0.000033    -0.000097
N       7.29784778     -2.55316280      0.94989013     -0.000102     0.000024     0.000101
C       0.54214081      0.61325542     -0.06586695     -0.000015     0.000084     0.000015
C      -2.98830341      1.92325063      0.15853505      0.000099    -0.000289    -0.000115
C       3.63370300      0.48341898      2.10825171     -0.000174     0.000444     0.000033
C      -0.75171876      1.08421464      0.55118529      0.000258     0.000125    -0.000048
C       2.81040469      0.64661814      0.82870544      0.000092    -0.000031     0.000142
C       0.35783883     -0.73794720     -0.78548767     -0.000070     0.000351    -0.000336
C      -3.77413469      0.72672250     -0.38656713      0.000228     0.000106    -0.000070
C      -3.55728769      3.21955157     -0.33381251      0.000067    -0.000011     0.000250
C       3.67460628      1.88657569      2.82602883     -0.000172     0.000060    -0.000429
C      -5.66808252     -0.73846782     -0.04128750      0.000119    -0.000128     0.000008
C       6.68277032     -1.26224433      0.67464028      0.000008    -0.000207    -0.000316
C       5.33017835     -1.12808476      1.40274197     -0.000252     0.000231     0.000169
C      -5.15766191     -2.10082190      0.42407840      0.000014    -0.000274     0.000125
C       6.38976133     -1.12018504     -0.81264399      0.000360     0.000282    -0.000015
C      -7.13087536     -0.57110455      0.34632424     -0.000043    -0.000027    -0.000082
H       0.94620295      1.36038069     -0.73680753     -0.000217     0.000190    -0.000346
H      -3.03304121      1.91478797      1.23152498      0.000873     0.001842     0.000690
H       3.22115277     -0.30383604      2.76077224     -0.000236    -0.000865    -0.001049
H       1.17308734      0.14731694      1.90030372     -0.000087    -0.000167    -0.000933
H      -1.41710216      1.85326415     -1.24046399     -0.000123    -0.000164     0.000283
H      -0.32649038     -0.70207714     -1.61399494      0.000302    -0.000238    -0.000325
H       1.33384438     -1.03044014     -1.15718655     -0.000241     0.000059    -0.000142
H      -0.01761433     -1.48755392     -0.07944945      0.000983    -0.000458    -0.000437
H       5.59730050      0.90970740      1.39192023     -0.000696     0.000424     0.000996
H      -3.46592829      3.34856095     -1.42207599      0.000809    -0.000715    -0.001113
H      -4.66279466      3.25216093     -0.12585439      0.000652     0.001387     0.001143
H      -3.12188785      4.08294513      0.15039930      0.000475     0.000068     0.000741
H       2.70680451      2.21426033      3.17859332     -0.000977     0.000252     0.000753
H       4.30287482      1.80258455      3.70085233      0.000066    -0.000484     0.000032
H       4.09194383      2.63328695      2.14538737      0.000241     0.000678    -0.000216
H      -5.63768511     -0.70044785     -1.12648208      0.001340    -0.001730     0.000176
H      -4.94998687      0.63184981      1.36788917      0.001006    -0.000289     0.000359
H       7.41296332     -0.50157857      0.95560266      0.000942     0.000346     0.000340
H      -5.01780599     -2.07962547      1.50217972     -0.001368    -0.000848     0.000207
H      -5.84470397     -2.88298638      0.14506237      0.000378     0.000552    -0.000322
H      -4.16927418     -2.27222664     -0.01166320     -0.000042     0.001291     0.001017
H       5.70499537     -1.93923521     -1.09431656     -0.000529    -0.000970    -0.000402
H       7.28305988     -1.15018216     -1.41913502     -0.000242    -0.000561     0.000713
H       5.88171836     -0.15445251     -0.98820235      0.000528    -0.000494     0.000528
H       7.42170963     -2.69277528      1.92604147      0.000406     0.000383     0.001253
H       6.72779042     -3.29432161      0.57416237     -0.000519    -0.000018    -0.000223
H      -8.22341521      0.18328647      1.70115616      0.000122     0.000153     0.000648
53
Frame 106  Energy = -1313.0614279340 Hartree
O      -1.01697381      0.83182082      1.76875261      0.000131     0.000080    -0.000022
O       3.28471466      0.98428001     -0.19821319     -0.000069    -0.000237    -0.000309
O      -3.49032746      0.25654318     -1.46538784      0.000030    -0.000154    -0.000129
O       4.54745865     -2.06077626      1.59731991      0.000036    -0.000187     0.000046
O      -7.21332533      0.05778442      1.52475600      0.000174    -0.000066    -0.000068
O      -8.13123156     -1.06889785     -0.17469417     -0.000155     0.000094     0.000015
N       1.48728112      0.49137389      1.03355262     -0.000336     0.000172     0.000236
N      -1.61726981      1.79206319     -0.20795059     -0.000214     0.000152     0.000260
N       5.02587629      0.13296736      1.76289244      0.000180     0.000245    -0.000227
N      -4.89494078      0.35759601      0.32414907     -0.000261     0.000080     0.000147
N       7.31311154     -2.56112770      0.98355335     -0.000137    -0.000235    -0.000129
C       0.53869038      0.61417064     -0.05628379     -0.000056    -0.000106    -0.000161
C      -3.02368583      1.91253849      0.20049977     -0.000212    -0.000033    -0.000098
C       3.69557319      0.52917845      2.12330228     -0.000212     0.000048     0.000179
C      -0.77977581      1.08031359      0.60078263     -0.000141    -0.000270    -0.000064
C       2.81219169      0.67138024      0.87881586      0.000258    -0.000352    -0.000235
C       0.28461063     -0.71915557     -0.77865951     -0.000111     0.000252    -0.000069
C      -3.80918079      0.74595186     -0.39695628      0.000028    -0.000183     0.000132
C      -3.58142337      3.28488621     -0.23087360      0.000039    -0.000103     0.000365
C       3.73646280      1.86855909      2.86494020      0.000326    -0.000198    -0.000012
C      -5.71250402     -0.78693761     -0.07525256      0.000187     0.000027     0.000151
C       6.66546805     -1.30639003      0.67126454      0.000033    -0.000154    -0.000035
C       5.32069166     -1.13082240      1.38391663      0.000168     0.000009    -0.000160
C      -5.19532016     -2.07933899      0.49953094     -0.000174    -0.000160    -0.000250
C       6.38157456     -1.20829735     -0.82312204      0.000042     0.000041     0.000197
C      -7.15556158     -0.61247695      0.36953791     -0.000140    -0.000193     0.000004
H       0.91106924      1.34092531     -0.79869947     -0.000786     0.000294     0.000179
H      -3.04861108      1.80323337      1.28900771     -0.000634     0.000153    -0.000815
H       3.24981348     -0.27137320      2.71942561      0.000400     0.000972     0.000427
H       1.05148569      0.32982439      1.94869849     -0.000074     0.000074     0.000815
H      -1.44033578      1.76302294     -1.18215116      0.000134     0.000135    -0.000468
H      -0.47847392     -0.51364068     -1.53669045     -0.000048     0.000707     0.000170
H       1.21332066     -0.98727663     -1.25395357     -0.000095    -0.000497    -0.000239
H      -0.01280346     -1.48709911     -0.07702554      0.000187     0.000785     0.001354
H       5.61170468      0.90747759      1.42199999     -0.000335     0.000131    -0.000109
H      -3.55647591      3.42970845     -1.31494412     -0.000172     0.000289    -0.000643
H      -4.61554567      3.38871663      0.07517514     -0.000564     0.000320     0.001904
H      -3.00842778      4.07547414      0.24078601      0.000071    -0.001020     0.000014
H       2.76140514      2.17177103      3.24278638     -0.000306     0.000023    -0.000228
H       4.37311133      1.77786722      3.74235107     -0.000198    -0.000464    -0.000777
H       4.18843959      2.63787958      2.21459495      0.000388     0.000978     0.000275
H      -5.65461194     -0.79882948     -1.17323516      0.001129    -0.001365    -0.000048
H      -5.00343507      0.63768037      1.26238421     -0.000712    -0.000211    -0.000384
H       7.28580448     -0.45649741      0.93573412      0.000060    -0.000495    -0.000885
H      -5.21802580     -2.05935401      1.58900234     -0.000578    -0.001373    -0.001286
H      -5.69464581     -2.92251224      0.10516727      0.000479    -0.000780     0.000554
H      -4.17377487     -2.19007188      0.15671196      0.001010     0.000796     0.000410
H       5.82914520     -2.10559622     -1.08026967      0.000506    -0.000111     0.000845
H       7.31870916     -1.21052952     -1.36265842      0.000251    -0.000281    -0.000582
H       5.71838800     -0.35291695     -1.05142056      0.000231    -0.000370     0.000500
H       7.64639412     -2.55200714      1.94609012     -0.000027    -0.000240    -0.000371
H       6.62278263     -3.29839435      0.95105575      0.000541    -0.000358    -0.000291
H      -8.08489560      0.07353026      1.89727302     -0.000475    -0.000336     0.000994
53
Frame 107  Energy = -1313.0403795217 Hartree
O      -1.06056588      0.76073292      1.75824321     -0.000131    -0.000116    -0.000079
O       3.23980976      0.99034638     -0.24796303     -0.000300    -0.000173     0.000155
O      -3.49465596      0.30768019     -1.43390141     -0.000142     0.000328    -0.000196
O       4.56608038     -2.11582189      1.56782026      0.000172     0.000012    -0.000161
O      -7.22959507      0.10384771      1.54819685     -0.000271     0.000149     0.000043
O      -8.15347464     -0.95424183     -0.21984773      0.000152     0.000119     0.000286
N       1.48664434      0.46929514      1.03977128      0.000166     0.000187    -0.000122
N      -1.61592183      1.79464244     -0.15725424     -0.000285     0.000281    -0.000124
N       5.02163100      0.09568823      1.64922376     -0.000373    -0.000169     0.000075
N      -4.87452097      0.36255359      0.37018397      0.000110    -0.000109    -0.000161
N       7.32981527     -2.64438302      1.05320349     -0.000002    -0.000031    -0.000334
C       0.53516538      0.59125683     -0.04574422     -0.000147    -0.000346     0.000003
C      -3.01319525      1.95879397      0.22524795     -0.000051    -0.000204    -0.000048
C       3.69235042      0.50181677      2.08176117      0.000054    -0.000060     0.000027
C      -0.77689148      1.04546120      0.60552979     -0.000106    -0.000484     0.000291
C       2.79561765      0.69534275      0.83548244     -0.000128    -0.000074    -0.000212
C       0.25333537     -0.72823174     -0.75539466     -0.000270    -0.000410    -0.000262
C      -3.81816536      0.78891991     -0.36312423     -0.000121    -0.000017    -0.000174
C      -3.56552815      3.26413079     -0.33610386     -0.000182    -0.000034     0.000331
C       3.82351601      1.79628660      2.89515222     -0.000009    -0.000197     0.000322
C      -5.70915045     -0.73678233     -0.08160280      0.000222    -0.000033    -0.000141
C       6.69546998     -1.34872443      0.76079379      0.000043     0.000038     0.000256
C       5.32551312     -1.17414727      1.38331893     -0.000129     0.000160     0.000061
C      -5.25977449     -2.12082985      0.46176395      0.000119    -0.000081    -0.000081
C       6.56168414     -1.20398217     -0.78058627     -0.000177     0.000172    -0.000230
C      -7.18652301     -0.54212452      0.34909942     -0.000171     0.000245     0.000027
H       0.90373852      1.33263409     -0.77301126     -0.000001     0.000313     0.000773
H      -3.04158199      1.98097860      1.31068029      0.000065    -0.001106    -0.000375
H       3.25092659     -0.30113376      2.64813154     -0.001275    -0.001301     0.000082
H       1.13012065      0.25713506      1.96768959     -0.000505     0.000678    -0.000265
H      -1.41160045      1.76312745     -1.14865482      0.000048     0.000033    -0.000421
H      -0.59750199     -0.64478634     -1.42737441     -0.000299    -0.001116     0.000421
H       1.14115445     -1.01471851     -1.30112850     -0.001599    -0.000001    -0.002151
H       0.00833958     -1.52688469     -0.04165458      0.001050     0.000199    -0.000064
H       5.60432276      0.77985599      1.18198282      0.000262     0.000247     0.001108
H      -3.46374241      3.26184645     -1.41971444     -0.000087     0.000184    -0.000058
H      -4.59768005      3.44695603     -0.03572676      0.000212     0.000513    -0.000299
H      -2.93858685      4.10209075     -0.00004429     -0.000364    -0.001164    -0.000861
H       2.84605565      2.14968463      3.20025477     -0.000987     0.001022     0.000106
H       4.44439137      1.61041204      3.75048735     -0.000169    -0.000356    -0.000802
H       4.28552978      2.58551185      2.25332456      0.000410    -0.000472     0.000281
H      -5.66521601     -0.73355094     -1.16618994     -0.001131     0.000335     0.000257
H      -5.01780293      0.76596642      1.27305474      0.000202     0.000850     0.001765
H       7.29298028     -0.51141648      1.04014824     -0.000786     0.000208    -0.000497
H      -5.43554830     -2.23521714      1.54800763      0.000678     0.001300     0.001787
H      -5.81494548     -2.91055490     -0.03684676      0.001884    -0.000359     0.000032
H      -4.20227988     -2.26989253      0.23575462     -0.000133    -0.000005     0.001010
H       6.00403292     -2.06887142     -1.20497331      0.000315     0.000084     0.000546
H       7.55164692     -1.15496828     -1.23954171      0.000296     0.000033    -0.000051
H       5.98390775     -0.34146026     -1.06367814     -0.000898    -0.000999     0.000783
H       7.69677729     -2.67573916      2.00622844     -0.000348     0.000489    -0.001134
H       6.60383056     -3.33918530      1.00518075     -0.000039     0.000467    -0.000216
H      -8.15637708      0.21412338      1.74885377      0.000357     0.000176    -0.001206
53
Frame 108  Energy = -1313.0474263236 Hartree
O      -1.05615674      0.82427422      1.84533284      0.000071    -0.000178     0.000059
O       3.23144743      1.00533749     -0.20121535     -0.000002    -0.000001    -0.000176
O      -3.58254149      0.26936441     -1.44908312      0.000060     0.000110    -0.000057
O       4.59578588     -2.13301310      1.47361135     -0.000036     0.000039     0.000398
O      -7.21463045     -0.01260276      1.67129405     -0.000381    -0.000127    -0.000130
O      -8.19151491     -0.78798952     -0.18434679      0.000336    -0.000032     0.000007
N       1.44405905      0.32271861      1.00376203      0.000279    -0.000277    -0.000023
N      -1.66449809      1.70424197     -0.14757767      0.000035     0.000105     0.000090
N       4.99298835      0.06302621      1.73187517     -0.000082    -0.000046    -0.000145
N      -4.99971252      0.48970658      0.34349292      0.000120     0.000041     0.000404
N       7.36768447     -2.57132154      1.08768953      0.000146    -0.000137    -0.000082
C       0.48345946      0.54065068     -0.01694632      0.000033    -0.000240    -0.000012
C      -3.04265895      1.93165984      0.17641724     -0.000166    -0.000021    -0.000039
C       3.63086654      0.39994700      2.07621745     -0.000350     0.000157     0.000124
C      -0.79877378      1.03258141      0.66902467      0.000065     0.000230    -0.000107
C       2.75439929      0.59165711      0.83162868     -0.000156    -0.000299     0.000503
C       0.17407703     -0.77017218     -0.78213370     -0.000116     0.000335    -0.000068
C      -3.85490734      0.79610808     -0.38956782     -0.000296     0.000083    -0.000010
C      -3.53755418      3.25701502     -0.38561811     -0.000304     0.000327    -0.000076
C       3.65366197      1.74177326      2.79123487     -0.000211     0.000127     0.000150
C      -5.76679979     -0.66757816     -0.05569383      0.000098    -0.000180     0.000201
C       6.74625038     -1.32250131      0.74511286     -0.000190     0.000073     0.000044
C       5.35899098     -1.18813455      1.36087597      0.000014     0.000183    -0.000133
C      -5.20714634     -1.97940101      0.52473905     -0.000154     0.000242    -0.000078
C       6.58069221     -1.22113591     -0.74772945     -0.000160    -0.000211     0.000018
C      -7.19187659     -0.51160415      0.43135635     -0.000141    -0.000037    -0.000072
H       0.85987525      1.30957572     -0.70899115     -0.000261     0.000875    -0.000564
H      -3.14836889      1.94437516      1.25604711      0.000387     0.000684     0.000811
H       3.21497414     -0.36325607      2.72305359     -0.000239    -0.000090    -0.000434
H       1.12958910      0.02695303      1.90481540     -0.000352    -0.000652    -0.000135
H      -1.42080279      1.72630389     -1.13113495      0.001020     0.000218     0.000378
H      -0.61624353     -0.59236263     -1.53661114      0.001345    -0.001622     0.000479
H       1.05834416     -1.12966749     -1.28913037      0.000698     0.000508    -0.000022
H      -0.12372381     -1.52654722     -0.07455279      0.001038     0.000139    -0.000949
H       5.60444912      0.82009102      1.52776660     -0.000276     0.000588     0.001640
H      -3.41821247      3.26993343     -1.46552914     -0.001443     0.000712     0.000247
H      -4.58642239      3.33386432     -0.08647474     -0.001230     0.000316     0.000262
H      -3.06068162      4.09856681      0.03706821      0.000235     0.000254     0.000910
H       2.61948360      2.01296399      3.06858806     -0.000440    -0.000010     0.000125
H       4.23140215      1.72581354      3.66955413     -0.000464    -0.000310     0.001185
H       4.02991048      2.46921114      2.11205277      0.000437    -0.000455     0.000344
H      -5.71771869     -0.74343442     -1.12394059      0.001011     0.000704     0.000088
H      -4.96721633      0.77611714      1.29659429      0.000361     0.000686    -0.000230
H       7.34382455     -0.52989413      1.16320577      0.000941    -0.000371     0.000781
H      -5.15038435     -1.96254923      1.63560385     -0.000418    -0.000908    -0.000304
H      -5.82693400     -2.81056424      0.16230390      0.000903    -0.000281     0.000436
H      -4.21513321     -2.15541345      0.08660215      0.000159    -0.001009    -0.001011
H       5.97476991     -2.06326120     -1.13137412      0.001516     0.000698    -0.000116
H       7.50905785     -1.21718762     -1.31005209     -0.000310    -0.001431    -0.000347
H       6.03854602     -0.32144513     -0.99506062      0.001173     0.000475     0.000008
H       7.36289022     -2.71565144      2.10528018      0.000009     0.001009    -0.001101
H       6.85285505     -3.37981796      0.70606632      0.000112    -0.000032     0.000063
H      -8.15449708      0.11555456      1.90699882      0.000269    -0.000024     0.000541
53
Frame 109  Energy = -1313.0238245435 Hartree
O      -0.99939319      0.92752268      1.80977293     -0.000219     0.000014     0.000172
O       3.25887040      0.93772714     -0.23045436     -0.000207     0.000078     0.000238
O      -3.59405855      0.32932890     -1.53115158      0.000210    -0.000160     0.000177
O       4.55523232     -2.11403735      1.60665103      0.000197    -0.000024     0.000191
O      -7.18989683      0.14115143      1.62835279     -0.000153     0.000114    -0.000347
O      -8.17323426     -0.90746015     -0.09427557      0.000303    -0.000186     0.000053
N       1.46574223      0.34647692      1.04609545      0.000040     0.000062    -0.000458
N      -1.62120980      1.69798016     -0.23663279      0.000053    -0.000011    -0.000104
N       5.02654720      0.10682481      1.76272030      0.000001    -0.000033     0.000076
N      -4.87371732      0.37658875      0.33810130     -0.000232     0.000182     0.000334
N       7.35887077     -2.66332789      1.18543346     -0.000235    -0.000012    -0.000041
C       0.52127372      0.52235841     -0.01626953     -0.000021    -0.000285    -0.000210
C      -3.00355783      1.90836936      0.16281993      0.000116    -0.000222     0.000303
C       3.65978441      0.46687598      2.11542332      0.000008    -0.000009    -0.000302
C      -0.74935563      1.07723055      0.62879354     -0.000429    -0.000128     0.000351
C       2.77197761      0.61765886      0.84344153     -0.000064     0.000210    -0.000150
C       0.24736758     -0.77765810     -0.75591828      0.000110     0.000652     0.000072
C      -3.84179001      0.78028527     -0.42726266      0.000027    -0.000060    -0.000469
C      -3.56611058      3.25673884     -0.30733722      0.000431    -0.000322    -0.000010
C       3.66109843      1.76972574      2.90999945     -0.000377     0.000202    -0.000097
C      -5.74400052     -0.71210288     -0.03837043      0.000412     0.000184    -0.000382
C       6.70659523     -1.40113264      0.85025767      0.000210     0.000152     0.000317
C       5.35572695     -1.19503784      1.44704527      0.000094    -0.000251     0.000003
C      -5.25164869     -2.03848427      0.57238669      0.000203     0.000105    -0.000251
C       6.58822658     -1.34750245     -0.72590651      0.000145    -0.000007     0.000082
C      -7.17852830     -0.48691207      0.42343663      0.000087     0.000321    -0.000091
H       0.91339693      1.26072900     -0.70611587     -0.000342    -0.000564     0.000602
H      -2.96084449      1.82518903      1.23708049     -0.001541    -0.000566    -0.000619
H       3.24597343     -0.35341903      2.69937078     -0.000670     0.000172    -0.000044
H       1.10655835      0.20813926      1.96585392      0.001230    -0.000417     0.000388
H      -1.44844214      1.63270601     -1.24650439      0.000523    -0.000625    -0.000339
H      -0.58096229     -0.63655453     -1.48581876     -0.000041    -0.002223     0.000570
H       1.15702077     -1.06922039     -1.26880172     -0.000513     0.000142    -0.001168
H       0.02964299     -1.61898628     -0.05593251      0.000525    -0.000634     0.000398
H       5.63187150      0.85881112      1.48068317      0.000283    -0.000399     0.000058
H      -3.45387616      3.29914944     -1.38785380      0.000609     0.000873     0.000911
H      -4.62424989      3.33597663     -0.05897331     -0.001677    -0.000547     0.000922
H      -3.02870241      4.06518551      0.19812512      0.000177     0.000879     0.000252
H       2.63404547      2.11078734      3.08169144      0.000402     0.001107     0.000364
H       4.13956232      1.59781310      3.86061021      0.000571    -0.000403    -0.000692
H       4.20820495      2.55660649      2.37824055      0.000382     0.001316    -0.001805
H      -5.75776891     -0.80098532     -1.11654839      0.000672    -0.000626     0.000456
H      -5.06735547      0.80694750      1.25688789      0.000722    -0.000374    -0.000679
H       7.41230148     -0.61575292      1.14942953     -0.000358     0.000161    -0.000240
H      -5.14994625     -1.91176401      1.64595502     -0.000324     0.000502    -0.001897
H      -5.92869969     -2.83551608      0.31717194      0.001901     0.000264    -0.000862
H      -4.25759826     -2.23226909      0.17580563      0.000463    -0.000362    -0.000535
H       6.00692550     -2.23940188     -1.00988428      0.000883     0.001619     0.000479
H       7.60505789     -1.41075716     -1.12260541     -0.000085     0.000359    -0.000387
H       6.08086659     -0.45728082     -1.13159138      0.000701     0.000153     0.001429
H       7.52784834     -2.69896452      2.19749853     -0.000403    -0.000819    -0.000534
H       6.71384422     -3.43063837      1.00024835      0.000575     0.000942    -0.000640
H      -8.11898971      0.13552709      1.90871953     -0.001428    -0.000669    -0.000761
53
Frame 110  Energy = -1313.0290143037 Hartree
O      -0.95303069      0.80935693      1.81942164      0.000127     0.000200     0.000063
O       3.38527743      0.83962499     -0.16221494     -0.000199    -0.000406    -0.000096
O      -3.56043241      0.29493299     -1.48986298      0.000137    -0.000052     0.000035
O       4.36108069     -2.07342430      1.53251617     -0.000087    -0.000024    -0.000345
O      -7.28221201      0.10767281      1.60075603      0.000195    -0.000031     0.000446
O      -8.07254792     -0.91567134     -0.22083038     -0.000335     0.000170    -0.000140
N       1.53341265      0.36171529      1.04479715     -0.000119     0.000180    -0.000277
N      -1.61349654      1.63350898     -0.19398260     -0.000223     0.000150    -0.000047
N       4.99708004      0.08079631      1.87633851     -0.000170     0.000190    -0.000124
N      -4.90041833      0.40942298      0.36396275      0.000117    -0.000047     0.000071
N       7.20609697     -2.68283696      1.31036244     -0.000388     0.000055     0.000221
C       0.56782093      0.55244405     -0.02412592     -0.000177    -0.000165     0.000126
C      -2.99617447      1.92306420      0.17696639     -0.000286     0.000116     0.000364
C       3.65702210      0.47803122      2.21196675     -0.000178     0.000163    -0.000103
C      -0.74040120      1.00064579      0.63104245      0.000204    -0.000367     0.000261
C       2.84864321      0.56030185      0.88882456     -0.000046    -0.000033    -0.000074
C       0.29104925     -0.73842714     -0.79990676      0.000088    -0.000133     0.000314
C      -3.84569132      0.79209698     -0.40393549      0.000150     0.000394    -0.000062
C      -3.45163480      3.31076067     -0.33890969      0.000730    -0.000174    -0.000035
C       3.63397563      1.79694245      2.99022048      0.000276     0.000244    -0.000082
C      -5.68920030     -0.75937260      0.05098194      0.000299    -0.000275     0.000032
C       6.59184254     -1.45589743      0.90937357     -0.000332     0.000141    -0.000003
C       5.21640397     -1.19736746      1.44268520     -0.000319     0.000047     0.000291
C      -5.14639379     -2.08427753      0.63165991     -0.000075    -0.000439    -0.000064
C       6.52874319     -1.35201790     -0.60526026      0.000110    -0.000043     0.000010
C      -7.13769934     -0.52805577      0.43527529      0.000391    -0.000122    -0.000111
H       0.92553463      1.34144825     -0.69478538     -0.000098    -0.001471     0.001095
H      -3.03971772      1.90850591      1.25870267     -0.000014    -0.000328    -0.000407
H       3.26308383     -0.34051525      2.81129353      0.000170    -0.000051     0.000232
H       1.12335960      0.15646210      1.93957856      0.000135     0.000398    -0.001158
H      -1.39152942      1.68038877     -1.18491941     -0.000272     0.001083     0.000439
H      -0.44762956     -0.55873511     -1.57100355     -0.000249    -0.000037     0.000572
H       1.21377374     -1.10568174     -1.24094868     -0.000201     0.000955    -0.000857
H      -0.04116088     -1.51878844     -0.09964894      0.000390     0.000741     0.000070
H       5.62547405      0.80488281      1.57245015      0.000823    -0.000667     0.000345
H      -3.41097735      3.33121751     -1.43198622      0.001303     0.000913     0.000142
H      -4.46285031      3.43769545      0.01814327     -0.001791    -0.000340    -0.002010
H      -2.82777760      4.07995678      0.09957683      0.000429    -0.001417    -0.000811
H       2.58572468      2.06173884      3.19590830      0.000854    -0.000769    -0.001464
H       4.13750485      1.64635931      3.94115604      0.000400     0.000692    -0.000273
H       4.07468739      2.62842646      2.45599258      0.000245    -0.000264    -0.001813
H      -5.66847964     -0.84701013     -1.04310572     -0.000336     0.000394     0.000170
H      -4.93711283      0.73926907      1.31015718      0.000443    -0.000090     0.000518
H       7.25539325     -0.63023667      1.31012926     -0.000401    -0.001442     0.000925
H      -5.11452711     -2.05601911      1.71300322     -0.000198    -0.000435    -0.000543
H      -5.76889029     -2.89177132      0.27510462      0.000371     0.000528    -0.000573
H      -4.13134841     -2.19576265      0.27392291      0.000248     0.000662    -0.000700
H       6.02725813     -2.25357652     -0.97545279      0.000453    -0.000514     0.000822
H       7.54078250     -1.33420073     -1.00811057      0.000631    -0.000708     0.000700
H       6.00922358     -0.44101274     -0.89839935     -0.000141    -0.000310    -0.001617
H       7.26277239     -2.67348345      2.31853664     -0.000937    -0.002103    -0.000290
H       6.57528456     -3.46468916      1.05050038     -0.000183    -0.000592    -0.000355
H      -8.23391429      0.20876927      1.77257383      0.000488     0.000635     0.000243
53
Frame 111  Energy = -1313.0457099790 Hartree
O      -0.96516881      0.77896813      1.77689358     -0.000242    -0.000338     0.000234
O       3.39124155      0.71083704     -0.23677920     -0.000020    -0.000198     0.000314
O      -3.59271687      0.39758306     -1.54163631     -0.000160     0.000140    -0.000085
O       4.44322340     -2.06942432      1.63160978      0.000117    -0.000001    -0.000135
O      -7.26102292      0.06476798      1.65515877     -0.000123     0.000001     0.000253
O      -8.09965907     -0.82331848     -0.23843170      0.000073     0.000046     0.000110
N       1.52365984      0.42193187      1.03793664      0.000465     0.000054    -0.000063
N      -1.58828639      1.66657324     -0.22441872     -0.000071     0.000149    -0.000071
N       5.03058792      0.11142945      1.89283096     -0.000041    -0.000310     0.000176
N      -4.85857147      0.44395752      0.38020206      0.000124    -0.000083     0.000143
N       7.19556626     -2.71116782      1.17058274      0.000226    -0.000059    -0.000274
C       0.56872994      0.54104687     -0.01524392      0.000168     0.000301    -0.000287
C      -2.95692868      1.96444688      0.13342559      0.000157     0.000256     0.000016
C       3.65171464      0.49509896      2.14793559     -0.000003     0.000303     0.000066
C      -0.71791164      1.01195258      0.60892472     -0.000007     0.000023    -0.000035
C       2.86281484      0.53287849      0.84955067      0.000401    -0.000158    -0.000150
C       0.41644578     -0.76763301     -0.75875691     -0.000050    -0.000346    -0.000048
C      -3.82416345      0.84687543     -0.42595171     -0.000237     0.000096     0.000049
C      -3.43053993      3.29146303     -0.43308526      0.000038    -0.000059    -0.000027
C       3.59243844      1.83452605      2.84524453      0.000033    -0.000049     0.000054
C      -5.70685524     -0.67286012      0.00919254     -0.000383    -0.000028     0.000057
C       6.61535797     -1.39581314      0.87608331      0.000030    -0.000147    -0.000257
C       5.26836184     -1.17462658      1.50482042      0.000307     0.000020     0.000082
C      -5.19104096     -1.97276839      0.62977498      0.000087    -0.000090     0.000241
C       6.41246415     -1.29327129     -0.65907170     -0.000186     0.000288    -0.000516
C      -7.16272426     -0.45339323      0.42681151     -0.000186     0.000125     0.000008
H       0.92072901      1.30312761     -0.73164705     -0.000553     0.000633    -0.000834
H      -3.02072866      1.94031117      1.21436386      0.001355     0.000409    -0.000664
H       3.23447576     -0.26854621      2.79752434     -0.000183    -0.001000     0.000012
H       1.11038271      0.30581481      1.95979440     -0.001095     0.000217    -0.000121
H      -1.39588679      1.63719531     -1.20202334      0.000821    -0.000372    -0.000220
H      -0.26802585     -0.70988001     -1.64113624     -0.000030    -0.000978     0.000740
H       1.36382430     -1.13644949     -1.12853824      0.001937     0.000238    -0.000072
H       0.06147749     -1.51209945     -0.06524965     -0.000714    -0.000587    -0.001270
H       5.66376258      0.82248758      1.56421097     -0.000410    -0.000462    -0.000692
H      -3.39875426      3.27794404     -1.51728205     -0.000533     0.000146    -0.000159
H      -4.47548433      3.49013693     -0.18157710      0.000350    -0.000770    -0.000511
H      -2.83323571      4.11855472     -0.02532654      0.000006    -0.000645     0.001167
H       2.54361613      2.12097637      2.97482697      0.001164    -0.000662    -0.000161
H       4.07899596      1.77698840      3.83278458     -0.000496    -0.001656    -0.000684
H       4.11029674      2.60125671      2.26594137     -0.000269    -0.001410    -0.000318
H      -5.69984880     -0.78048809     -1.08276425      0.000868     0.000417     0.000392
H      -4.97330266      0.83416293      1.29275268     -0.000035    -0.001154     0.000707
H       7.35014483     -0.66159545      1.18102643      0.000583     0.000567    -0.000522
H      -4.88361532     -1.79237450      1.66114865     -0.000735     0.001430    -0.000053
H      -5.97213884     -2.71779988      0.59534799     -0.000465    -0.000382     0.000202
H      -4.31272148     -2.33970855      0.09457524     -0.001311    -0.000565    -0.000469
H       5.85152967     -2.15905367     -0.99538086     -0.000550    -0.001503     0.000036
H       7.38400209     -1.36289067     -1.11756793      0.000324     0.000246    -0.000846
H       5.89233746     -0.36102923     -0.92659531     -0.000618    -0.000069     0.000297
H       7.40994604     -2.79468053      2.15517875      0.000067     0.000710     0.000096
H       6.49438975     -3.43129436      0.98092895      0.000518     0.000996     0.000943
H      -8.21970991      0.19595060      1.77797012     -0.000670    -0.001323    -0.000883
53
Frame 112  Energy = -1313.0489052668 Hartree
O      -1.08618052      0.69209728      1.74173367      0.000118    -0.000002     0.000048
O       3.26003537      0.70690538     -0.18478977     -0.000068    -0.000024     0.000012
O      -3.66328460      0.35760863     -1.48624738      0.000062     0.000154     0.000142
O       4.48077412     -2.05732643      1.72160739     -0.000346     0.000191     0.000169
O      -7.25144015      0.17649519      1.65004398     -0.000129    -0.000190     0.000031
O      -8.16229790     -0.77260962     -0.15850992      0.000067    -0.000308    -0.000060
N       1.48062638      0.35453504      1.08808313     -0.000064    -0.000168    -0.000223
N      -1.55517519      1.65800981     -0.27755106      0.000042    -0.000340     0.000002
N       5.03546427      0.11851676      1.93564586      0.000235     0.000210     0.000126
N      -4.89051574      0.48125038      0.44228556     -0.000053     0.000283     0.000140
N       7.21995880     -2.69437013      0.93938112      0.000248    -0.000039     0.000128
C       0.54349924      0.52368211     -0.00105113     -0.000049    -0.000089     0.000120
C      -2.91732154      1.97047259      0.12601295      0.000245    -0.000048     0.000071
C       3.63402419      0.48940725      2.18366691      0.000099    -0.000234     0.000054
C      -0.78339984      0.96419711      0.57716413      0.000258    -0.000083    -0.000316
C       2.78545627      0.53760638      0.91477438     -0.000228    -0.000107    -0.000027
C       0.36989454     -0.76092604     -0.80601263      0.000267    -0.000140    -0.000004
C      -3.86681134      0.85614653     -0.39867584      0.000171     0.000026     0.000041
C      -3.39365405      3.32163653     -0.34096440      0.000096     0.000092     0.000187
C       3.55954292      1.83562998      2.93469575      0.000274    -0.000116    -0.000001
C      -5.75976697     -0.60869543      0.00417678      0.000321    -0.000384     0.000107
C       6.58216093     -1.38991398      0.74125552      0.000010     0.000234     0.000191
C       5.28871643     -1.17596188      1.52626878     -0.000201     0.000168     0.000064
C      -5.21338949     -1.92062461      0.51900098     -0.000071    -0.000035     0.000325
C       6.18484535     -1.21712502     -0.74037218      0.000198    -0.000140     0.000102
C      -7.17844560     -0.40057332      0.45018484      0.000196     0.000023    -0.000231
H       0.94294163      1.29842229     -0.63026718      0.000251     0.001373     0.000089
H      -2.88632841      1.94584986      1.23557474     -0.000578     0.000564    -0.000720
H       3.21570839     -0.29606762      2.81756528     -0.001198     0.000069    -0.000560
H       1.04236093      0.16527634      1.98872277      0.000499     0.000478    -0.000538
H      -1.25656177      1.74498977     -1.22565268      0.001240     0.000272    -0.001334
H      -0.45174783     -0.72592986     -1.51763421     -0.000554    -0.000075     0.000761
H       1.29214182     -1.00458776     -1.32051014     -0.000009    -0.000638    -0.000523
H       0.15379709     -1.56432006     -0.08965954      0.000303    -0.000345    -0.000081
H       5.59618828      0.81622511      1.47916261     -0.000246    -0.000178    -0.001358
H      -3.25751965      3.38354867     -1.44073326     -0.000960     0.000059     0.000546
H      -4.43512600      3.47971900     -0.07563064     -0.000659    -0.000354     0.001130
H      -2.76877792      4.12937738      0.03778652      0.002098    -0.000051     0.000703
H       2.52390897      2.15859842      3.09360390     -0.000292     0.000074     0.000204
H       3.98413411      1.67484379      3.92462647     -0.000279    -0.001795     0.000601
H       4.12286227      2.59158264      2.39995435      0.000368    -0.000168     0.000570
H      -5.76461400     -0.59566911     -1.08414400      0.000077    -0.000126     0.000114
H      -4.94447798      0.81711898      1.40236323      0.000872    -0.000015     0.000467
H       7.34327918     -0.65228787      1.02282175      0.000760    -0.000960    -0.000084
H      -5.12834268     -1.92232966      1.58475264     -0.000457     0.000090     0.000475
H      -5.82859959     -2.71770221      0.15380399     -0.000383    -0.000182    -0.001428
H      -4.19473859     -2.03490292      0.08011245     -0.000462    -0.000331     0.000157
H       5.40920018     -1.94554089     -0.94101533     -0.000192    -0.000017     0.001469
H       7.01107308     -1.45882241     -1.40988709      0.000589     0.000692     0.000165
H       5.80874782     -0.20521038     -0.99350249      0.000846     0.001577    -0.000062
H       7.59962768     -2.76418480      1.90235488      0.001289    -0.000673    -0.000665
H       6.52932556     -3.42077714      0.92223185     -0.001372     0.000324     0.000175
H      -8.18662347      0.31072558      1.93693298     -0.000666     0.000043    -0.000406
53
Frame 113  Energy = -1313.0417462367 Hartree
O      -0.95913516      0.70360214      1.75706407     -0.000136     0.000183     0.000035
O       3.34422183      0.82151865     -0.18195720      0.000006     0.000201    -0.000032
O      -3.65364660      0.41108238     -1.52523106      0.000037    -0.000068    -0.000243
O       4.51828677     -2.12365729      1.75950440      0.000041    -0.000153    -0.000029
O      -7.22400027      0.27401738      1.68560890      0.000084     0.000097     0.000295
O      -8.13048976     -0.68970367     -0.12513207     -0.000181     0.000284     0.000095
N       1.51018000      0.31190047      1.02190543     -0.000165     0.000014     0.000051
N      -1.58331802      1.60831293     -0.24514935     -0.000246     0.000198     0.000114
N       4.96587039      0.10567965      1.89856033      0.000126     0.000099    -0.000117
N      -4.82553585      0.48453325      0.43319701      0.000037    -0.000389     0.000224
N       7.08989530     -2.70688569      1.02219661      0.000187    -0.000285    -0.000323
C       0.57794211      0.51138628     -0.06569439      0.000237    -0.000133     0.000197
C      -2.90708157      1.90173971      0.14672761      0.000519     0.000391     0.000120
C       3.62257032      0.52563522      2.21134867      0.000095     0.000045     0.000368
C      -0.72967044      0.96849620      0.59238038      0.000170    -0.000306    -0.000176
C       2.83174176      0.53728314      0.88348366     -0.000188    -0.000093     0.000177
C       0.28415953     -0.75786445     -0.81800520      0.000400    -0.000135    -0.000195
C      -3.83308769      0.84751649     -0.41139060      0.000001     0.000234     0.000479
C      -3.34468323      3.26838011     -0.41850587      0.000297    -0.000058    -0.000115
C       3.61466272      1.93565307      2.84009814      0.000090    -0.000124    -0.000003
C      -5.71589487     -0.57315013      0.05661723     -0.000441    -0.000443     0.000004
C       6.53086485     -1.41926193      0.75539444      0.000502    -0.000224     0.000112
C       5.25219305     -1.18559311      1.53907153      0.000022     0.000035    -0.000043
C      -5.29873427     -1.97053030      0.51370638      0.000548    -0.000386     0.000141
C       6.18501212     -1.25621013     -0.74800368      0.000071     0.000164     0.000088
C      -7.15996549     -0.33700119      0.49307278     -0.000272     0.000041    -0.000024
H       0.97515624      1.27627800     -0.72670577     -0.000527     0.000054    -0.000730
H      -2.95618725      1.90511030      1.24065322      0.001664    -0.000012     0.000404
H       3.18601569     -0.18630093      2.89568702     -0.001406    -0.000038     0.001131
H       1.10493380      0.15872348      1.93209989      0.000805     0.000236    -0.000801
H      -1.36326408      1.58364351     -1.21491210      0.000876    -0.000534    -0.000154
H      -0.42653798     -0.64680238     -1.62489107     -0.000945    -0.000239    -0.000241
H       1.22077501     -1.06364968     -1.29554602      0.000592    -0.000628    -0.000282
H      -0.01999333     -1.55033699     -0.13674025      0.000144     0.000769     0.000628
H       5.58802763      0.78808782      1.53199995      0.000608    -0.000459    -0.000008
H      -3.34659896      3.18430951     -1.51752694      0.000205     0.000223     0.000124
H      -4.32867576      3.53617691     -0.08493064     -0.001271    -0.001274    -0.000949
H      -2.63029403      4.06187832     -0.12496701      0.000228     0.000246     0.000609
H       2.59853567      2.33084240      2.88096381      0.000592     0.000512     0.000008
H       4.08881150      1.90627216      3.83347910      0.000151     0.000794     0.000232
H       4.22454545      2.59757678      2.21205329      0.000152     0.000682     0.000128
H      -5.77794666     -0.55525270     -1.03663325     -0.001189     0.000363     0.000789
H      -4.79617727      0.73839986      1.40089149     -0.000878    -0.000220     0.000069
H       7.27809506     -0.65191851      1.05911352     -0.000264     0.001001    -0.000259
H      -5.31711944     -2.03192900      1.59150747      0.000421     0.000268    -0.000493
H      -5.94808201     -2.73662734      0.08856565     -0.001460     0.000707     0.000815
H      -4.28808239     -2.13559827      0.17679436     -0.000818    -0.000376     0.000806
H       5.49700975     -2.02644266     -1.10413243      0.001249     0.000068    -0.000068
H       7.10009074     -1.38034740     -1.33144511      0.000645     0.000950     0.000514
H       5.75583901     -0.27460554     -0.89115379     -0.000260    -0.000181    -0.000406
H       7.46642058     -2.70625262      1.95929132      0.000085     0.000895    -0.000298
H       6.38900620     -3.43674637      0.96847335      0.000034     0.000290     0.001059
H      -8.16980536      0.32971119      1.90830428      0.000741    -0.000471    -0.000340
53
Frame 114  Energy = -1313.0442688169 Hartree
O      -0.98746542      0.73002734      1.81200954     -0.000303     0.000017     0.000221
O       3.35590230      0.78310259     -0.19419901      0.000344     0.000026     0.000017
O      -3.70059403      0.49722671     -1.52634796      0.000148    -0.000023     0.000079
O       4.49332257     -2.04935898      1.66845270     -0.000196     0.000028    -0.000205
O      -7.25848404      0.37434950      1.56696893      0.000080    -0.000064     0.000157
O      -8.21042279     -0.86135835     -0.07260555      0.000194    -0.000262     0.000325
N       1.52683609      0.31972733      1.07236825     -0.000008    -0.000019     0.000161
N      -1.59498952      1.64914560     -0.14146786     -0.000102     0.000113     0.000451
N       5.03582811      0.12382768      1.88116280      0.000112     0.000116    -0.000004
N      -4.89821049      0.41538986      0.41501049     -0.000068     0.000092     0.000052
N       7.12657287     -2.74800906      0.90067061     -0.000048    -0.000202     0.000003
C       0.55200655      0.51567794      0.01015721     -0.000028     0.000299    -0.000168
C      -2.96965480      1.91677940      0.24275052      0.000006    -0.000323    -0.000292
C       3.66641233      0.48977514      2.18768234      0.000657     0.000257     0.000008
C      -0.73186047      0.97667260      0.65026164      0.000284     0.000012    -0.000055
C       2.84158564      0.53286642      0.89485431     -0.000093     0.000198     0.000078
C       0.37610884     -0.74868947     -0.82751076     -0.000006     0.000200     0.000230
C      -3.87579520      0.85065187     -0.36593931      0.000233     0.000308     0.000062
C      -3.38723505      3.30864487     -0.26678701     -0.000143     0.000242    -0.000078
C       3.60013951      1.83484727      2.88054941     -0.000177    -0.000116    -0.000363
C      -5.81224004     -0.61615857     -0.00907048      0.000180    -0.000334    -0.000240
C       6.57531329     -1.39496772      0.68178520     -0.000103    -0.000223    -0.000063
C       5.27229409     -1.14810276      1.47729595      0.000204     0.000064     0.000086
C      -5.38700731     -2.00993200      0.46030980     -0.000088    -0.000090     0.000061
C       6.26244989     -1.30207197     -0.80351934     -0.000121     0.000004    -0.000124
C      -7.23948003     -0.37589575      0.44640129      0.000056    -0.000351     0.000198
H       0.92998392      1.34985441     -0.58877312      0.000753     0.000418    -0.001437
H      -3.01341136      1.91436253      1.33504820     -0.001116    -0.001075     0.001198
H       3.25953678     -0.26438522      2.89227655      0.001040    -0.000181    -0.000116
H       1.14264370     -0.02378464      1.92614100      0.000027     0.000344     0.000470
H      -1.37139434      1.73664630     -1.12454943      0.001666    -0.000678    -0.000028
H      -0.34656394     -0.55745263     -1.63912710      0.000035     0.000233     0.000675
H       1.31902598     -1.06448279     -1.25829780      0.000263     0.000689     0.000972
H       0.05950638     -1.56614028     -0.19146137      0.000529    -0.000491     0.000571
H       5.57214470      0.84724653      1.42820206      0.000536     0.000041     0.000626
H      -3.25852129      3.36562186     -1.33782373      0.000719     0.000552    -0.000051
H      -4.41792774      3.54506248     -0.08879973     -0.000799     0.000176     0.000536
H      -2.72962105      4.04517957      0.17725510     -0.001208     0.001039    -0.000132
H       2.56523443      2.08315781      3.10096033     -0.000794     0.001113    -0.001205
H       4.23160063      1.81166030      3.76718491     -0.000198     0.000396     0.001119
H       4.00630748      2.60745032      2.23244313     -0.001213     0.000465    -0.000620
H      -5.78024796     -0.58790504     -1.11750415     -0.001552     0.000960     0.000820
H      -4.95383005      0.70484948      1.40400201      0.000489    -0.000255     0.001192
H       7.35990330     -0.70633432      0.92594464      0.000521     0.000759     0.000182
H      -5.43227740     -2.11124133      1.55504366     -0.000377     0.001206     0.000242
H      -6.02747263     -2.77917249      0.03827367     -0.000207     0.000168     0.000043
H      -4.38203319     -2.17248450      0.07616788      0.000907     0.000203     0.000807
H       5.63348241     -2.13555640     -1.09233018      0.000719    -0.000126    -0.001187
H       7.15521398     -1.42170290     -1.36778998     -0.000686    -0.000844    -0.000497
H       5.67960681     -0.39267478     -1.08679222      0.000695     0.000472     0.000993
H       7.56889519     -2.81970022      1.82920921      0.000610     0.000660    -0.000313
H       6.36074857     -3.41769726      0.91406790      0.000393     0.000277     0.000584
H      -8.20147554      0.36580200      1.89091375     -0.000448     0.000170     0.000165
53
Frame 115  Energy = -1313.0537670505 Hartree
O      -0.99058941      0.59354867      1.79318255      0.000142    -0.000026     0.000062
O       3.39201914      0.78294940     -0.11307717      0.000201    -0.000155     0.000040
O      -3.69909191      0.53024989     -1.53022788      0.000032     0.000091     0.000095
O       4.40169495     -2.06903531      1.44868746     -0.000041    -0.000055     0.000044
O      -7.27777173      0.38067791      1.50766187     -0.000086    -0.000145    -0.000008
O      -8.16731013     -0.85122185     -0.17385748      0.000099     0.000245    -0.000063
N       1.53536322      0.35427567      1.09954013      0.000052    -0.000165    -0.000372
N      -1.59657085      1.62803583     -0.13056955     -0.000206     0.000050     0.000038
N       5.03297245      0.02514438      1.99229038     -0.000297     0.000078    -0.000003
N      -4.90529218      0.45955877      0.42102141      0.000112    -0.000213     0.000125
N       7.12819053     -2.73091446      1.02306294      0.000075     0.000342     0.000072
C       0.61976938      0.58456117      0.02783248     -0.000029     0.000077     0.000073
C      -2.97470264      1.92334964      0.22678520      0.000186     0.000200     0.000159
C       3.68097762      0.42639704      2.25934490     -0.000070    -0.000137    -0.000355
C      -0.74497807      0.94982759      0.65932580     -0.000063    -0.000117    -0.000127
C       2.85619175      0.51117107      0.94301306      0.000064     0.000075    -0.000145
C       0.44014422     -0.59771697     -0.91768595      0.000086     0.000314     0.000293
C      -3.88000858      0.88374920     -0.37974896      0.000152    -0.000164    -0.000141
C      -3.37492510      3.30034536     -0.29674783     -0.000104     0.000291     0.000260
C       3.71971297      1.77080492      2.95403956      0.000468     0.000315    -0.000054
C      -5.77711274     -0.60764607     -0.01602736     -0.000210     0.000150     0.000068
C       6.59673033     -1.40122469      0.72343019     -0.000032     0.000037     0.000264
C       5.25812945     -1.18560689      1.42457753     -0.000154    -0.000192     0.000088
C      -5.29986816     -1.97121478      0.44474107     -0.000075    -0.000081     0.000236
C       6.30155850     -1.23005794     -0.75219837     -0.000277     0.000092    -0.000063
C      -7.19778448     -0.39501277      0.38362239     -0.000154     0.000464     0.000072
H       0.93810674      1.42673187     -0.58795271     -0.000688    -0.001057     0.001300
H      -3.02118030      1.90121880      1.30905043     -0.000403    -0.000058     0.000371
H       3.21942475     -0.31208673      2.91895555      0.000264     0.000078     0.000759
H       1.08384378      0.12935459      1.95905664      0.000102    -0.000158     0.001225
H      -1.39203289      1.66927115     -1.12424772      0.000204     0.000208     0.001125
H      -0.33488262     -0.40700881     -1.64833682      0.000424    -0.000186    -0.000642
H       1.35903839     -0.88059950     -1.39795382     -0.000758     0.000154    -0.001454
H       0.08519519     -1.41958562     -0.28638435     -0.000031     0.000374    -0.002091
H       5.61678130      0.74477607      1.66124050     -0.000196    -0.000134    -0.000976
H      -3.17858914      3.37340642     -1.37746563     -0.000663     0.000888    -0.000308
H      -4.43395862      3.49260739     -0.06231315      0.001114    -0.000763    -0.000907
H      -2.77314268      4.02592295      0.20146178     -0.000221    -0.000519    -0.000484
H       2.71013497      2.11683740      3.12509209      0.000752    -0.000238     0.000210
H       4.22002851      1.58696827      3.91945185     -0.000830     0.000011     0.000162
H       4.26649311      2.53769584      2.38015476      0.001688     0.000047    -0.000218
H      -5.78995095     -0.58090844     -1.11772825     -0.002006     0.000512     0.000201
H      -4.83550493      0.61407913      1.41022891     -0.000455    -0.000264    -0.000589
H       7.30377784     -0.65287762      1.06704351      0.000900     0.000861     0.000189
H      -5.12773209     -1.95399092      1.52054332      0.001069    -0.000481     0.000735
H      -6.05863881     -2.69729430      0.21620264     -0.000120     0.000102     0.000028
H      -4.36185958     -2.18753233     -0.05607014      0.000092    -0.001323    -0.000421
H       5.53073600     -1.92732403     -1.09123871      0.000396    -0.000280    -0.000724
H       7.17929910     -1.43842191     -1.34867683      0.000536    -0.001052     0.000356
H       5.94263067     -0.20729903     -0.99066921      0.000184     0.000385     0.000522
H       7.42228227     -2.76834925      1.99717490     -0.000061     0.001078     0.000028
H       6.36813664     -3.40855075      0.93964730      0.000620    -0.000931    -0.000064
H      -8.20788028      0.46184952      1.71528026      0.000244    -0.000241    -0.000078
53
Frame 116  Energy = -1313.0386236973 Hartree
O      -1.01647128      0.56309330      1.76287489      0.000211     0.000195     0.000139
O       3.35398084      0.66409811     -0.17153131      0.000005    -0.000136    -0.000092
O      -3.77516159      0.43850330     -1.55750589     -0.000019    -0.000099    -0.000155
O       4.31955094     -2.06912638      1.32312892     -0.000132     0.000090     0.000138
O      -7.30111276      0.26182255      1.64819876      0.000186    -0.000097    -0.000052
O      -8.22961520     -0.78890053     -0.10387069      0.000098     0.000154    -0.000476
N       1.53818141      0.36994769      1.09492617     -0.000026    -0.000270    -0.000085
N      -1.60683223      1.59423332     -0.16184619     -0.000129     0.000100    -0.000147
N       5.04199263     -0.05013234      1.94966961     -0.000230     0.000162     0.000071
N      -4.93627480      0.41767091      0.39655100      0.000066     0.000415     0.000061
N       7.11953507     -2.79440828      0.92903191      0.000227    -0.000379     0.000110
C       0.63308335      0.61315029      0.01425546     -0.000050     0.000024     0.000184
C      -2.98184265      1.82551881      0.21626543      0.000330    -0.000105     0.000042
C       3.69176996      0.39130860      2.25369119     -0.000040    -0.000155    -0.000260
C      -0.72560082      0.94511434      0.64009422     -0.000010    -0.000480     0.000030
C       2.86774817      0.45796058      0.94056926     -0.000275    -0.000019    -0.000018
C       0.48457418     -0.61847781     -0.92840210      0.000384     0.000692    -0.000262
C      -3.91247508      0.80629502     -0.42118356     -0.000044    -0.000267     0.000023
C      -3.43358041      3.23324344     -0.14435489      0.000159    -0.000298     0.000107
C       3.69989819      1.73589978      2.97158277      0.000239     0.000056    -0.000061
C      -5.82608208     -0.66355416      0.00109410      0.000014    -0.000242    -0.000153
C       6.57514539     -1.45810283      0.68995898      0.000060    -0.000493    -0.000406
C       5.21980197     -1.24629670      1.34087787      0.000021     0.000051    -0.000089
C      -5.34662661     -2.01605066      0.50743941     -0.000051    -0.000013     0.000081
C       6.33769687     -1.26610209     -0.80627415     -0.000044    -0.000408    -0.000386
C      -7.24916565     -0.42361294      0.45633811     -0.000077     0.000030     0.000277
H       1.00614351      1.47602375     -0.56719411     -0.000144    -0.000389     0.000563
H      -3.01074083      1.71883011      1.29702265      0.000289     0.000812     0.000382
H       3.23955054     -0.40080228      2.86662710     -0.001378    -0.000266    -0.000228
H       1.17815926      0.27106921      2.01686709      0.000893    -0.001074     0.000278
H      -1.36962557      1.76481568     -1.15750431     -0.000614     0.000193     0.000344
H      -0.21481106     -0.43993954     -1.74000774     -0.000758     0.001183     0.000219
H       1.47169400     -0.81598523     -1.35000049      0.000188     0.000157     0.000881
H       0.16758444     -1.49299479     -0.35692756      0.000736     0.000029     0.000864
H       5.68163985      0.67884633      1.69606502      0.000428    -0.000298    -0.000158
H      -3.45717186      3.41114260     -1.23168449      0.000998     0.000156     0.001214
H      -4.44618439      3.39419168      0.27236133      0.000490     0.000400     0.001299
H      -2.73980228      3.98586126      0.30767574      0.000221    -0.000161    -0.000623
H       2.67512758      2.11664392      3.15842189      0.001283    -0.000332    -0.001196
H       4.19158893      1.65377156      3.94899008     -0.000677     0.000608     0.000456
H       4.22484664      2.47218476      2.38787445     -0.000436     0.000572    -0.000007
H      -5.83249986     -0.66559074     -1.08932045      0.000922    -0.000713    -0.000511
H      -4.82888701      0.55369102      1.38693817     -0.000891     0.000079    -0.001385
H       7.30122632     -0.72217644      1.03136511     -0.000859     0.000316     0.000984
H      -5.38952395     -2.11838979      1.59183645     -0.000666     0.000056    -0.000283
H      -5.98757875     -2.79724540      0.08596787      0.000158    -0.000284     0.000106
H      -4.31591558     -2.20586625      0.19968287      0.000638    -0.002367    -0.001135
H       5.60926534     -1.98837585     -1.14266593     -0.000144     0.000600     0.000447
H       7.26676639     -1.36270079     -1.35734336     -0.000741    -0.000656    -0.000421
H       5.89065467     -0.28794822     -0.96246139     -0.000528     0.000592     0.000238
H       7.44507126     -2.85828433      1.89157192      0.001872    -0.001060     0.000181
H       6.37495312     -3.49927660      0.84538930      0.000618    -0.000868     0.000343
H      -8.24680486      0.36627578      1.85547597      0.000248     0.000971     0.000098
53
Frame 117  Energy = -1313.0364577081 Hartree
O      -1.14675409      0.63365497      1.78212166      0.000235     0.000269     0.000159
O       3.38650446      0.85756822     -0.07848632      0.000340     0.000141     0.000301
O      -3.79340436      0.45089216     -1.57195073     -0.000016    -0.000312    -0.000007
O       4.35655464     -2.14747295      1.33707602      0.000067    -0.000051    -0.000119
O      -7.34024216      0.47566911      1.54402124      0.000016     0.000230     0.000055
O      -8.26584872     -0.76267819     -0.09755406     -0.000296    -0.000126     0.000105
N       1.49957681      0.39518007      1.09353381     -0.000261    -0.000289     0.000016
N      -1.63539208      1.66995078     -0.16693492     -0.000082    -0.000013    -0.000185
N       5.00764431     -0.05489613      1.92731869     -0.000274     0.000401    -0.000068
N      -4.93684968      0.36581506      0.40225067      0.000110    -0.000333     0.000185
N       7.12825700     -2.81506251      0.96629308      0.000201     0.000199     0.000184
C       0.56873856      0.67064675      0.04243544      0.000222     0.000054     0.000166
C      -3.02626091      1.86665185      0.20097326      0.000040     0.000243     0.000278
C       3.65065257      0.37808822      2.23530051     -0.000196     0.000211    -0.000370
C      -0.80530376      0.96596011      0.66429694      0.000002     0.000082    -0.000222
C       2.83322808      0.53960333      0.94444212      0.000045    -0.000114     0.000120
C       0.44786579     -0.49511671     -0.96918192      0.000209     0.000315    -0.000154
C      -3.93570370      0.80513846     -0.41366272     -0.000063    -0.000133    -0.000263
C      -3.43743203      3.26594448     -0.21554231     -0.000176    -0.000051    -0.000296
C       3.70669189      1.71215453      2.96650659     -0.000157    -0.000396    -0.000060
C      -5.88170018     -0.63198290     -0.01661288     -0.000093    -0.000261    -0.000172
C       6.57020032     -1.47246526      0.72976083      0.000284     0.000053     0.000046
C       5.20788048     -1.25858105      1.36939696     -0.000394    -0.000198    -0.000102
C      -5.55009694     -2.03386613      0.45041423      0.000218    -0.000233    -0.000175
C       6.40859415     -1.29602013     -0.78666083     -0.000071     0.000049    -0.000334
C      -7.26454111     -0.32241917      0.43711862     -0.000246     0.000069     0.000214
H       0.92493599      1.55331945     -0.53430399      0.000184    -0.000659    -0.000136
H      -3.07957072      1.77550028      1.29616772     -0.000467    -0.000601     0.000690
H       3.17943620     -0.40965673      2.83545757      0.000163    -0.001188    -0.000720
H       1.12379649      0.12257259      1.98985827      0.000029     0.000425     0.000597
H      -1.44271330      1.63019282     -1.15244938      0.000835     0.000852     0.001733
H      -0.34276576     -0.27926548     -1.71822629     -0.000094    -0.000218    -0.000184
H       1.40474572     -0.59009490     -1.51027111     -0.000141    -0.000651    -0.000640
H       0.16766712     -1.44867804     -0.50264311      0.000773    -0.000968    -0.000039
H       5.65484419      0.68425105      1.68807442      0.000713     0.000456     0.000634
H      -3.29670151      3.33701405     -1.29408737     -0.000117     0.001082    -0.001035
H      -4.46698666      3.51274476      0.01148956     -0.000147     0.000502     0.000044
H      -2.78145404      3.98655913      0.26536397     -0.000318     0.001369    -0.000416
H       2.74607565      2.06950526      3.31864409      0.000187    -0.001423     0.000544
H       4.33133648      1.65373038      3.85537589      0.000693     0.000975     0.000607
H       4.14794015      2.49377227      2.32010699     -0.001390     0.001468     0.000169
H      -5.96390392     -0.54422602     -1.07495202     -0.000237    -0.000244    -0.000892
H      -4.85344460      0.48370031      1.39703037     -0.000974     0.000155     0.000449
H       7.28472225     -0.77371152      1.13547010     -0.000475     0.000812    -0.000731
H      -5.49631639     -2.08847813      1.53791222     -0.000209    -0.000092    -0.001510
H      -6.27438914     -2.77749711      0.09840162      0.000268     0.000083    -0.000840
H      -4.57946235     -2.35721425      0.07986874      0.001169    -0.001066     0.001073
H       5.66520888     -2.02072256     -1.12254679     -0.000118     0.000131     0.001192
H       7.31982361     -1.56581513     -1.30245260      0.000378    -0.000544    -0.000679
H       6.10619475     -0.29930468     -1.05820192      0.001023    -0.000271     0.001358
H       7.45650103     -2.93539078      1.93790813     -0.000468     0.001202    -0.000021
H       6.37913503     -3.47778004      0.88379105     -0.001774    -0.000229    -0.000636
H      -8.25749610      0.53671488      1.79643274      0.000119     0.000111    -0.000482
53
Frame 118  Energy = -1313.0307063609 Hartree
O      -1.14473894      0.68627844      1.80461872     -0.000288    -0.000010     0.000091
O       3.32507564      0.74623160     -0.10974181      0.000204     0.000086     0.000127
O      -3.80518464      0.36414183     -1.54224800     -0.000342    -0.000422     0.000371
O       4.35652436     -2.17356337      1.42715676      0.000298    -0.000035    -0.000222
O      -7.40165644      0.44789713      1.56861537      0.000026    -0.000090    -0.000237
O      -8.28080385     -0.74225866     -0.09613610     -0.000099    -0.000038    -0.000158
N       1.41062529      0.41899690      1.06237697     -0.000022     0.000287     0.000029
N      -1.73002386      1.71168608     -0.13562091     -0.000088    -0.000155     0.000133
N       4.96809486     -0.05967553      1.91779392     -0.000082    -0.000003     0.000084
N      -4.92297353      0.32295237      0.42324284     -0.000099    -0.000252    -0.000053
N       7.05675594     -2.86608302      0.89472566     -0.000381     0.000117    -0.000278
C       0.49622312      0.76260827     -0.00899399     -0.000213    -0.000288     0.000500
C      -3.11975219      1.91791841      0.20378339      0.000135    -0.000168    -0.000160
C       3.58759401      0.36911333      2.23019183      0.000143    -0.000091     0.000294
C      -0.87009065      1.04397578      0.66152333     -0.000064     0.000263     0.000017
C       2.76482705      0.46575563      0.92849357     -0.000161    -0.000106     0.000039
C       0.36138310     -0.37436485     -0.99228515     -0.000005    -0.000101     0.000139
C      -3.96782466      0.78116820     -0.41334941      0.000279    -0.000223    -0.000043
C      -3.63169944      3.29740774     -0.24253645      0.000169    -0.000299    -0.000222
C       3.60515960      1.69243167      2.94205347      0.000251    -0.000079    -0.000138
C      -5.88056604     -0.66316793      0.00860853      0.000066     0.000015     0.000219
C       6.56263398     -1.51618853      0.76846135     -0.000353     0.000195     0.000012
C       5.20571677     -1.29222021      1.39980187     -0.000419     0.000212     0.000073
C      -5.48814233     -2.08052070      0.44414618      0.000039     0.000251     0.000035
C       6.29521501     -1.18805859     -0.73520684     -0.000023    -0.000356    -0.000305
C      -7.31451384     -0.33551625      0.46953598     -0.000220    -0.000395     0.000212
H       0.86297807      1.64754189     -0.56196734      0.000456    -0.000044    -0.000119
H      -3.09543021      1.84560767      1.28778637     -0.001076    -0.000350     0.000655
H       3.10881693     -0.40738422      2.85830041     -0.000603     0.000087     0.000706
H       0.95755898      0.20383991      1.93657165      0.000686    -0.000445    -0.000535
H      -1.45363280      1.91406146     -1.08504591     -0.000564    -0.000767    -0.001242
H      -0.30998401     -0.16028734     -1.78166049      0.000093     0.000806    -0.000649
H       1.36519243     -0.54231905     -1.44472447      0.000613    -0.000953    -0.000112
H       0.05617885     -1.28538263     -0.45379347      0.000172     0.000953    -0.000028
H       5.54552148      0.69140741      1.56102945      0.001745    -0.000401    -0.000182
H      -3.66410558      3.26452898     -1.32624217      0.000166    -0.000137    -0.000176
H      -4.61517365      3.46581827      0.19022689      0.000965     0.000930     0.000332
H      -2.89370900      4.06850246     -0.00088932     -0.001242     0.000652     0.000026
H       2.58794870      2.03652499      3.13974645     -0.000269    -0.000520    -0.000534
H       4.09570011      1.55599338      3.89188912      0.001048     0.000929    -0.000541
H       4.14959031      2.44206694      2.34791114      0.000794    -0.000185    -0.000583
H      -5.84725733     -0.69457866     -1.07253797     -0.000042     0.000888    -0.000050
H      -5.05575521      0.82631708      1.27687370     -0.000704     0.000757    -0.001058
H       7.28651707     -0.79323737      1.16037828     -0.000061    -0.001447     0.000186
H      -5.31986485     -2.14716863      1.52227487      0.000397     0.001817    -0.001862
H      -6.23516488     -2.78617491      0.11393566     -0.000684     0.001231     0.000190
H      -4.52965332     -2.30649741     -0.00226206     -0.002184    -0.000675     0.000279
H       5.59094653     -1.91878547     -1.09924690      0.000288    -0.000629     0.000774
H       7.21798266     -1.28639516     -1.34257759     -0.000221    -0.001587    -0.000566
H       5.86745795     -0.20665389     -0.91106562     -0.000184     0.001314     0.000664
H       7.40390870     -3.05591787      1.82540723     -0.000457    -0.000534    -0.000340
H       6.25948925     -3.46417990      0.70235008     -0.000452     0.000251     0.000141
H      -8.35813251      0.58459726      1.75049021      0.000042    -0.000069     0.000186
53
Frame 119  Energy = -1313.0455258776 Hartree
O      -1.19991220      0.64859973      1.75499915     -0.000065     0.000264     0.000011
O       3.34402326      0.72264765     -0.11967103      0.000059    -0.000047     0.000171
O      -3.85767938      0.44553893     -1.55235589      0.000144     0.000252    -0.000068
O       4.32418288     -2.19254766      1.40568472      0.000201     0.000027     0.000106
O      -7.42504648      0.36261793      1.61323233      0.000333     0.000029    -0.000098
O      -8.39471110     -0.62973261     -0.11179746      0.000033    -0.000134    -0.000027
N       1.40224716      0.40776720      1.06865928      0.000044    -0.000097     0.000322
N      -1.77044495      1.70740075     -0.13511411     -0.000006     0.000040    -0.000528
N       4.91353662     -0.05881239      1.91474374      0.000318    -0.000262    -0.000112
N      -5.02553885      0.38190080      0.40475013      0.000260    -0.000131     0.000034
N       6.95144813     -2.86271791      0.89563201      0.000147     0.000372    -0.000154
C       0.47446493      0.71764110      0.00446232     -0.000125     0.000293     0.000065
C      -3.13804426      1.88981811      0.24315075     -0.000264    -0.000291    -0.000214
C       3.53621529      0.30666275      2.20425806      0.000135     0.000288    -0.000053
C      -0.88913261      1.01049377      0.62162546     -0.000103     0.000314     0.000229
C       2.74926979      0.48401529      0.91101827     -0.000241    -0.000259    -0.000259
C       0.39732380     -0.41288817     -1.03445051      0.000077     0.000181     0.000405
C      -3.98988671      0.80056633     -0.38985192     -0.000052    -0.000125    -0.000100
C      -3.69314540      3.24163596     -0.25203429      0.000154    -0.000001     0.000115
C       3.45735830      1.62170688      3.00005182     -0.000039    -0.000233    -0.000204
C      -5.99994831     -0.57379795     -0.03791902     -0.000213    -0.000112    -0.000182
C       6.45465599     -1.53647690      0.64389700      0.000051    -0.000130    -0.000237
C       5.13527787     -1.30608179      1.34367896     -0.000080     0.000234    -0.000227
C      -5.61749118     -2.02559372      0.33093090      0.000012     0.000140    -0.000326
C       6.24558459     -1.35309088     -0.88076250      0.000122     0.000338    -0.000193
C      -7.40993437     -0.27911467      0.46715733      0.000152     0.000163    -0.000258
H       0.80967785      1.59282274     -0.53581872      0.000640    -0.000995    -0.000087
H      -3.15443384      1.80494100      1.31305917     -0.000060    -0.000065    -0.000044
H       3.10433065     -0.54199575      2.74503845     -0.001109    -0.000076    -0.000141
H       0.99131983      0.16319782      1.97860034     -0.000135     0.000039     0.000137
H      -1.49662962      1.95761839     -1.06454436      0.000791     0.001090    -0.000119
H      -0.24295526     -0.14922568     -1.88163477     -0.000302     0.000989    -0.000832
H       1.39763477     -0.63868626     -1.40789301     -0.002104     0.000446    -0.001241
H       0.06275450     -1.36318446     -0.57529880      0.000030     0.000273    -0.000338
H       5.45413341      0.68089275      1.53632678     -0.000513    -0.000093     0.000036
H      -3.71705036      3.23485519     -1.33440920      0.000103    -0.000461    -0.000629
H      -4.68779901      3.42143087      0.15589843      0.000379     0.000341     0.001337
H      -3.06293730      4.06613153      0.06655591      0.000061    -0.000612     0.000623
H       2.41289442      1.84924629      3.20176800      0.000375     0.000631     0.001601
H       4.01785886      1.61460169      3.94274908      0.000822     0.000651     0.000499
H       3.91708244      2.38648403      2.38609512     -0.000616    -0.000133    -0.000442
H      -6.08483236     -0.48267608     -1.11439908      0.000365     0.001187    -0.000104
H      -5.06637587      0.64125206      1.39360706      0.001110     0.000597     0.000263
H       7.19405497     -0.80537835      0.97651529     -0.000945    -0.000992     0.000004
H      -5.50630732     -2.13605467      1.41136191      0.001099     0.000799     0.001726
H      -6.35064160     -2.75842819      0.01605023      0.000230     0.000331    -0.001105
H      -4.68004973     -2.26015902     -0.13965485     -0.000330    -0.000346    -0.000880
H       5.49525435     -2.06344187     -1.21373517     -0.000384    -0.000374    -0.000096
H       7.20390707     -1.50133129     -1.37421129      0.000165    -0.000407    -0.000490
H       5.84934271     -0.33239071     -1.14303852      0.000141     0.000131     0.000543
H       7.27499575     -2.93036962      1.86499453      0.000048    -0.001061     0.000645
H       6.18287820     -3.47082193      0.74929610     -0.000382     0.000336     0.000636
H      -8.32793986      0.40844334      1.93178545      0.000522    -0.000579     0.000325
53
Frame 120  Energy = -1313.0447275738 Hartree
O      -1.13671223      0.73328286      1.81535927      0.000039     0.000233     0.000486
O       3.21136693      0.73994032     -0.16838737      0.000078    -0.000198     0.000113
O      -3.92727471      0.51766114     -1.48151931      0.000220     0.000127    -0.000139
O       4.24302681     -2.19544503      1.46690305      0.000103    -0.000164    -0.000173
O      -7.33113132      0.34756813      1.69689507      0.000077     0.000123    -0.000144
O      -8.34940273     -0.69481168     -0.00554468     -0.000021    -0.000052     0.000391
N       1.36763801      0.36138934      1.05157783     -0.000028     0.000174    -0.000298
N      -1.78256388      1.70612483     -0.15563366      0.000003     0.000072     0.000009
N       4.91067498     -0.05844602      1.82882342      0.000121    -0.000444    -0.000001
N      -5.01021179      0.38058064      0.48595295     -0.000027    -0.000289    -0.000219
N       6.95108124     -2.89541246      0.82864389     -0.000114    -0.000058    -0.000075
C       0.42528058      0.66176939     -0.00671743     -0.000021     0.000311     0.000039
C      -3.13131099      1.90710085      0.31573427      0.000298    -0.000484     0.000088
C       3.56285984      0.31071717      2.20081055     -0.000041    -0.000025     0.000278
C      -0.89909416      1.01868221      0.62768059      0.000087    -0.000041    -0.000213
C       2.70892741      0.47734954      0.89794132     -0.000123     0.000200     0.000266
C       0.31673914     -0.52417572     -1.00296432     -0.000273    -0.000314     0.000077
C      -4.02923444      0.83585711     -0.31268675      0.000153    -0.000159    -0.000063
C      -3.68149986      3.25653115     -0.14728087      0.000287     0.000391     0.000003
C       3.50582724      1.58164406      2.99036485      0.000223    -0.000087    -0.000289
C      -5.96639141     -0.57012719     -0.01622461      0.000130    -0.000350    -0.000053
C       6.40558310     -1.55962083      0.59261682     -0.000213    -0.000163     0.000135
C       5.07706241     -1.33396162      1.32888258      0.000040     0.000279     0.000224
C      -5.59343522     -2.03285322      0.29230595     -0.000303    -0.000268    -0.000034
C       6.09299996     -1.47568663     -0.87263689      0.000248    -0.000185     0.000031
C      -7.35156895     -0.31330109      0.51492630     -0.000231    -0.000060     0.000299
H       0.75277718      1.52422788     -0.58153616      0.000545    -0.001180     0.000119
H      -3.11336228      1.81562525      1.39841381      0.001049     0.000248     0.001149
H       3.12489621     -0.53807252      2.76063372      0.000797     0.000295    -0.001020
H       0.97313815      0.20888136      1.95807859      0.000433     0.000247     0.000234
H      -1.64346033      1.65389510     -1.14259180      0.000909     0.000291    -0.000396
H      -0.27222397     -0.32838482     -1.89908169      0.000027    -0.000347    -0.000448
H       1.32334347     -0.73197001     -1.37115396     -0.000899     0.000037    -0.000178
H      -0.11914042     -1.39536939     -0.54664890     -0.000054    -0.000191     0.001462
H       5.46499863      0.65136200      1.39925896      0.000774     0.000324    -0.000528
H      -3.50577364      3.31188643     -1.22937471      0.000321     0.000178     0.000288
H      -4.73684675      3.32968562      0.09500624     -0.000948     0.000079    -0.000929
H      -3.16591697      4.05771827      0.35657063      0.000914    -0.000581     0.000415
H       2.51198353      1.76440834      3.45360690      0.000362    -0.000642     0.000034
H       4.22468234      1.60301915      3.80205852     -0.000059    -0.001009    -0.000398
H       3.73623080      2.45639329      2.36682097      0.000384    -0.000630     0.001549
H      -6.03930236     -0.43138963     -1.10504235     -0.000136    -0.000955     0.000863
H      -5.02409543      0.58387931      1.47963869     -0.000687    -0.000724     0.000016
H       7.08562998     -0.81253972      0.90863462     -0.000529     0.002090     0.000100
H      -5.69368447     -2.22894329      1.36060500     -0.000721     0.000792    -0.000000
H      -6.26415330     -2.73459987     -0.22808836      0.000290     0.000206     0.000245
H      -4.57415418     -2.21385019     -0.04860597      0.000437     0.000657    -0.000552
H       5.38669902     -2.28106944     -1.17851828      0.001229     0.000327     0.000362
H       7.00152236     -1.57412089     -1.44672470      0.000789    -0.000052     0.000831
H       5.63115195     -0.52747299     -1.14225659     -0.000459    -0.000578    -0.000820
H       7.14456794     -3.02392691      1.80912871      0.000414     0.000691     0.001417
H       6.23003009     -3.60321901      0.62910143     -0.001034     0.000382     0.000715
H      -8.24285343      0.37958786      2.01922062     -0.000078    -0.000302     0.000001
53
Frame 121  Energy = -1313.0442865295 Hartree
O      -1.14765265      0.69434978      1.81100083      0.000203     0.000143     0.000158
O       3.23349574      0.71913468     -0.18898677     -0.000084     0.000118    -0.000188
O      -3.81997828      0.51927440     -1.54832275     -0.000174    -0.000153     0.000159
O       4.30366381     -2.25574327      1.45108746     -0.000023     0.000112    -0.000135
O      -7.38670771      0.33361880      1.65579204      0.000040     0.000118     0.000154
O      -8.41273230     -0.65796906     -0.07418945     -0.000164    -0.000489    -0.000164
N       1.38980478      0.43073628      1.06131355     -0.000008    -0.000184    -0.000121
N      -1.72939346      1.71894736     -0.13009562     -0.000140    -0.000344     0.000174
N       4.86493682     -0.13142195      1.90271394      0.000196    -0.000192    -0.000374
N      -5.03556245      0.39508211      0.37654378     -0.000164    -0.000338     0.000120
N       7.08781011     -2.76997732      0.81576922      0.000044    -0.000130     0.000290
C       0.44662717      0.69705004      0.00805208      0.000068     0.000082     0.000298
C      -3.11327463      1.92333725      0.24618680     -0.000247     0.000219     0.000207
C       3.50572962      0.25541122      2.17774326     -0.000260    -0.000024    -0.000022
C      -0.89025618      1.03359748      0.66543002      0.000399     0.000145    -0.000136
C       2.70507622      0.46566583      0.87163800      0.000091    -0.000036     0.000003
C       0.33976145     -0.43194371     -1.00475939     -0.000319     0.000023     0.000255
C      -4.01565258      0.85752952     -0.39851128      0.000157    -0.000151     0.000054
C      -3.60743140      3.28027855     -0.11314560      0.000123    -0.000075     0.000180
C       3.51319216      1.61859712      2.89486862     -0.000216     0.000074    -0.000470
C      -5.98645226     -0.59883815     -0.07124639      0.000247     0.000123    -0.000103
C       6.41036045     -1.49520610      0.59622428      0.000192    -0.000077    -0.000208
C       5.08912352     -1.34302350      1.35371613      0.000246     0.000423    -0.000718
C      -5.65340988     -2.02026120      0.42863053     -0.000045    -0.000083    -0.000013
C       6.06331496     -1.31960638     -0.88273588      0.000122     0.000109    -0.000092
C      -7.38771650     -0.30129762      0.45354206     -0.000098    -0.000084    -0.000275
H       0.83744354      1.58097890     -0.49548760     -0.001352    -0.000366     0.000200
H      -3.14371514      1.81562980      1.35311130     -0.000135     0.000279     0.000265
H       3.05176029     -0.52475920      2.78301787     -0.000046     0.000784     0.000445
H       1.03656320      0.15032006      1.96911926      0.000449     0.000565    -0.001438
H      -1.51542375      1.74675765     -1.11661464      0.000127     0.000335     0.000006
H      -0.37371884     -0.21239114     -1.79818424      0.000382    -0.000471    -0.001273
H       1.34181154     -0.57484512     -1.43762837     -0.000554    -0.000269    -0.000415
H      -0.00523097     -1.34603860     -0.52468565     -0.000663    -0.000476    -0.000298
H       5.37527077      0.60954740      1.46602799      0.000212     0.000109     0.000084
H      -3.59225927      3.47393251     -1.20328377      0.000830    -0.000227    -0.000787
H      -4.62557580      3.44881280      0.25428690      0.000249     0.000347     0.000189
H      -2.95401994      4.01619030      0.32974398      0.000110    -0.000196     0.000980
H       2.47872450      1.89724170      3.16396138      0.000998    -0.001159    -0.000363
H       4.07003315      1.55340452      3.80664373     -0.000139    -0.000018     0.000286
H       3.93530033      2.40576753      2.28468944      0.000491     0.000911     0.000297
H      -6.05462245     -0.57228919     -1.17380005     -0.000063     0.000457    -0.000917
H      -5.03073002      0.60318975      1.35392031     -0.001197     0.000873    -0.000123
H       7.05960912     -0.67411185      0.90625275     -0.000608    -0.000847    -0.000288
H      -5.64808913     -2.05713109      1.49857091      0.000472    -0.001516    -0.001210
H      -6.43547177     -2.74133476      0.09223681     -0.000116    -0.000243    -0.000022
H      -4.66659795     -2.27330279      0.07841063      0.000067     0.001121     0.000915
H       5.45415838     -2.16013806     -1.21508517     -0.000091    -0.000329     0.000406
H       6.98412079     -1.31105864     -1.53511490      0.000414     0.000327     0.000581
H       5.51395625     -0.40685875     -1.08221435     -0.000648    -0.000197     0.001178
H       7.56045980     -2.82785791      1.72730384      0.000491     0.000771     0.001762
H       6.38331142     -3.51807930      0.80526416      0.000757     0.001161     0.000922
H      -8.29340116      0.36052799      1.99044430     -0.000866    -0.000749    -0.000327
53
Frame 122  Energy = -1313.0321079184 Hartree
O      -1.18621128      0.66932915      1.81170773      0.000125     0.000016    -0.000076
O       3.24014855      0.67733523     -0.13226543     -0.000404    -0.000282     0.000275
O      -3.79583270      0.54998857     -1.50578118      0.000259    -0.000102     0.000138
O       4.38968352     -2.22347458      1.40114349     -0.000240     0.000044     0.000029
O      -7.37606721      0.37871264      1.58253198      0.000180     0.000114     0.000152
O      -8.39835748     -0.69553485     -0.09086286     -0.000132     0.000058     0.000292
N       1.38443809      0.36850003      1.09586363     -0.000119    -0.000101    -0.000166
N      -1.75441882      1.73948830     -0.08940773      0.000387     0.000212    -0.000302
N       4.87399176     -0.09972217      1.92888991      0.000648     0.000265    -0.000097
N      -5.06265264      0.44244801      0.34920046      0.000419     0.000011     0.000119
N       7.18989167     -2.62642562      0.69857722      0.000110    -0.000034    -0.000072
C       0.45631613      0.69334500      0.04068674     -0.000130     0.000139    -0.000100
C      -3.13941908      1.96533432      0.33723687     -0.000035    -0.000135     0.000534
C       3.51709255      0.29172846      2.22587562     -0.000049    -0.000030    -0.000135
C      -0.90538582      1.01963477      0.68331401     -0.000040    -0.000103    -0.000112
C       2.71722727      0.44881144      0.94863183     -0.000215     0.000558     0.000055
C       0.36319721     -0.44500024     -0.96600389      0.000349    -0.000020    -0.000313
C      -4.01318340      0.90287375     -0.37386312     -0.000062     0.000019     0.000037
C      -3.63948528      3.33351927      0.00541917      0.000118     0.000056     0.000214
C       3.44457188      1.58760187      2.98147994      0.000102     0.000051    -0.000164
C      -5.97962203     -0.59013535     -0.12457715     -0.000190     0.000398    -0.000238
C       6.48407158     -1.37500896      0.56621169     -0.000230    -0.000202     0.000170
C       5.13882664     -1.27623234      1.31321445     -0.000148     0.000200     0.000142
C      -5.62134139     -2.00965909      0.28097214     -0.000101    -0.000473     0.000066
C       6.15724231     -1.17904380     -0.93695842      0.000456    -0.000271     0.000037
C      -7.37845562     -0.29210918      0.41852835      0.000152     0.000083    -0.000071
H       0.76108218      1.59678628     -0.48987515      0.000002    -0.000964    -0.000515
H      -3.14384829      1.80751036      1.41706656     -0.000383     0.000452     0.000467
H       3.09742016     -0.52291504      2.80034182      0.000096    -0.000851     0.000427
H       1.00733270      0.17871256      2.01520543      0.000062    -0.000455     0.002412
H      -1.56328082      1.80676335     -1.08828059     -0.000387    -0.000385     0.000601
H      -0.45510913     -0.30758441     -1.71322512      0.000240     0.000847     0.000237
H       1.31729920     -0.51588145     -1.49485468     -0.000720     0.000131     0.001204
H       0.18432501     -1.37623502     -0.44169886     -0.001423    -0.000304    -0.000583
H       5.46542429      0.67773391      1.62720098      0.000100    -0.000350    -0.000787
H      -3.67022813      3.52015310     -1.07616616      0.000310    -0.000291     0.000349
H      -4.63564271      3.45626736      0.39858998     -0.000771     0.000729     0.000862
H      -2.96189453      4.04291796      0.45401842     -0.001393     0.001836    -0.001216
H       2.45477206      1.82089485      3.37268131      0.000905     0.001087     0.001467
H       4.07833643      1.47447851      3.85771175      0.000226    -0.000624    -0.000505
H       3.78422212      2.44494783      2.37605776      0.000526    -0.000912     0.000311
H      -6.06338273     -0.54605135     -1.20729304      0.000114     0.000447    -0.000651
H      -5.20573428      0.66560658      1.32195587      0.000555    -0.000550    -0.000503
H       7.15152235     -0.61012301      0.89787649     -0.000129    -0.000295     0.000919
H      -5.65776240     -2.14075452      1.35976602     -0.000110     0.000289    -0.000128
H      -6.35237095     -2.71320165     -0.13710219     -0.001238     0.000791     0.001012
H      -4.61732649     -2.30970377     -0.04156188      0.000158    -0.000303    -0.000159
H       5.43232251     -1.95524375     -1.18340269      0.000122     0.000712    -0.000064
H       7.04468984     -1.31426361     -1.57009979     -0.000660     0.000288     0.000134
H       5.62341171     -0.24426609     -1.08576096     -0.000388     0.000242     0.000256
H       7.49727546     -2.81473409      1.65205529      0.000411    -0.000036    -0.000723
H       6.54819909     -3.37284300      0.47709895      0.000674    -0.000128     0.000908
H      -8.30973145      0.42697579      1.88829823      0.001589    -0.000380    -0.000363
