17
Image 0  Energy = -421.88893379
C  -1.9872138761  0.4974002559  0.0178104552
O  -2.0781146730  1.7007990160 -0.0024232605
C  -0.7203382270 -0.2914233113 -0.0191451092
C   0.5472908764  0.5409359640 -0.0724170844
C   1.8032907064 -0.3309199109 -0.1079455306
O   1.6635722254 -1.5314650707 -0.3392899847
C   3.0905156126  0.3142997700  0.1764757351
O   4.3069851629  2.6744700711  0.0453986142
H  -2.9165141387 -0.1092843791  0.0747925544
H  -0.7278791053 -0.9399563394  0.8636517058
H  -0.7791613537 -0.9830751027 -0.8636212671
H   0.5899516075  1.2254266872  0.7730992703
H   0.5476803279  1.1651340889 -0.9681008927
H   3.0454672524  0.7023851383  1.1902284911
H   3.5343430948  1.4249833886 -0.2565815599
H   3.8960658431 -0.4036203104  0.1117794413
H   4.7340612300  3.2139133888 -0.6237105062
17
Image 1  Energy = -421.91753267
C  -1.9710757965  0.5027246405  0.0231104900
O  -2.0937570926  1.7060916887  0.0335876483
C  -0.6998264889 -0.2683770419 -0.0095795382
C   0.5845678514  0.5344620904 -0.0333504996
C   1.8107666679 -0.3893271062 -0.1417902110
O   1.6242335053 -1.5127151849 -0.6629817123
C   3.0221379817  0.1466799936  0.3207936514
O   4.0654148166  2.7829237774 -0.0603760401
H  -2.8918443950 -0.1204358234  0.0471238825
H  -0.7141665153 -0.9414301210  0.8572496360
H  -0.7205870393 -0.9477507697 -0.8646306479
H   0.6503094106  1.1815755687  0.8384061988
H   0.5863441557  1.1811882345 -0.9099518692
H   2.9679232716  0.8169923142  1.1702363790
H   3.7265838608  1.8561797038 -0.0871435980
H   3.8949086534 -0.5028771473  0.2502153203
H   4.7080679787  2.8440932716 -0.7709195764
17
Image 2  Energy = -421.92334726
C  -1.9693628755  0.4967930890  0.0185122240
O  -2.0996001644  1.6995134784  0.0209156491
C  -0.6973589717 -0.2623555121 -0.0175430546
C   0.5790522856  0.5481901187 -0.0364119260
C   1.7957776457 -0.3932329073 -0.1167536930
O   1.5964960779 -1.4882905604 -0.6883074796
C   2.9940099608  0.0863074288  0.4173182846
O   4.1798961085  2.7332008130 -0.0187639989
H  -2.8874021294 -0.1297151037  0.0567684210
H  -0.6931557990 -0.9344425117  0.8485023123
H  -0.6963880692 -0.9498181371 -0.8664574467
H   0.6366992346  1.2011278367  0.8302705448
H   0.5892771617  1.1911899094 -0.9176123337
H   2.9716533301  0.8348246542  1.1925855974
H   3.7999622171  1.8290742776 -0.0509668819
H   3.9047131773 -0.4701323046  0.2227331327
H   4.5457327140  2.8777669401 -0.8947879633
17
Image 3  Energy = -421.93142802
C  -1.7361445294  0.2291933261  0.5592073799
O  -1.9136114363  1.3521852218  0.9672270412
C  -0.7050017617 -0.2185131083 -0.4091384768
C   0.5346812378  0.6660951602 -0.5608413855
C   1.8144894054 -0.1199353097 -0.2213416886
O   2.0859332985 -1.0684882519 -1.0173164122
C   2.5039296935  0.2727525825  0.9041786171
O   4.8276695293  2.3748197004 -0.1042393735
H  -2.4349514493 -0.5663447100  0.8938107914
H  -0.3994274422 -1.2298715273 -0.1382898993
H  -1.2564590191 -0.3364424684 -1.3486712750
H   0.4371853978  1.5623013452  0.0462011367
H   0.6177478191  0.9735276849 -1.6012376671
H   2.0719821745  0.9830057648  1.5971945618
H   4.1925773422  1.7052377510  0.2037541189
H   3.3885292906 -0.2703582442  1.2234954634
H   4.5208704977  2.5608349777 -0.9939932759
17
Image 4  Energy = -421.87167148
C  -0.8051069053 -0.1946351434  0.9480715570
O  -1.2331024655  0.7210824485  1.7490534702
C  -0.7184674689  0.1002230750 -0.5968019847
C   0.6176993784  0.8089323763 -0.7997523517
C   1.6173750714  0.4780211345  0.2918707903
O   2.7990263573  0.7931972522  0.2536191385
C   0.8933951936 -0.2944676512  1.3572234784
O   4.8764595321  2.2589526042 -0.7686390542
H  -1.3318765622 -1.2019062532  1.0585758888
H  -0.7524373518 -0.8401711752 -1.1576611525
H  -1.5353279606  0.7203469281 -1.0040812903
H   0.4917394903  1.8890322622 -0.7751784598
H   1.0717059884  0.5347014003 -1.7455607385
H   1.2772177845 -1.3291404557  1.2800293533
H   4.8253334233  1.3531272591 -1.1022089599
H   1.4198784596  0.0435632679  2.3208352724
H   5.0364880043  3.0291406464 -1.3093949610
