17
Image 0  Energy = -421.91122620
C  -1.9863062102  0.4986897582  0.0187025086
O  -2.0766690103  1.6976024610 -0.0041044285
C  -0.7205088860 -0.2964276789 -0.0170189829
C   0.5439108998  0.5394618701 -0.0733497824
C   1.8047993001 -0.3162745747 -0.1117061255
O   1.6818548655 -1.5236511892 -0.3345216312
C   3.0913293095  0.3430490270  0.1729169400
O   4.3636213250  2.6881984660  0.0947224959
H  -2.9173918308 -0.1080387403  0.0754010765
H  -0.7313631945 -0.9419460465  0.8658608355
H  -0.7884370101 -0.9876085287 -0.8615392261
H   0.5873612668  1.2220052350  0.7720020670
H   0.5430554812  1.1618695885 -0.9702664379
H   3.0565027152  0.7301314231  1.1922266094
H   3.4545293612  1.3281685245 -0.3159590402
H   3.9092334173 -0.3691844914  0.1098252494
H   4.7344795580  3.2039558789 -0.6131918270
17
Image 1  Energy = -421.88893379
C  -1.9872138761  0.4974002559  0.0178104552
O  -2.0781146730  1.7007990160 -0.0024232605
C  -0.7203382270 -0.2914233113 -0.0191451092
C   0.5472908764  0.5409359640 -0.0724170844
C   1.8032907064 -0.3309199109 -0.1079455306
O   1.6635722254 -1.5314650707 -0.3392899847
C   3.0905156126  0.3142997700  0.1764757351
O   4.3069851629  2.6744700711  0.0453986142
H  -2.9165141387 -0.1092843791  0.0747925544
H  -0.7278791053 -0.9399563394  0.8636517058
H  -0.7791613537 -0.9830751027 -0.8636212671
H   0.5899516075  1.2254266872  0.7730992703
H   0.5476803279  1.1651340889 -0.9681008927
H   3.0454672524  0.7023851383  1.1902284911
H   3.5343430948  1.4249833886 -0.2565815599
H   3.8960658431 -0.4036203104  0.1117794413
H   4.7340612300  3.2139133888 -0.6237105062
17
Image 2  Energy = -421.89339711
C  -1.9826141695  0.4977190458  0.0179237072
O  -2.0790161612  1.7018969367  0.0010256017
C  -0.7146828939 -0.2850898138 -0.0185812171
C   0.5559706470  0.5455900327 -0.0663714167
C   1.8120237069 -0.3273103632 -0.1184547884
O   1.6661074270 -1.5204251875 -0.3955899249
C   3.0940252904  0.3091565087  0.1937700994
O   4.2436846918  2.6717724079  0.0378972027
H  -2.9103045062 -0.1119514358  0.0722744700
H  -0.7209207677 -0.9377485051  0.8620726068
H  -0.7657150341 -0.9759600641 -0.8646894000
H   0.5944228784  1.2268339423  0.7814384273
H   0.5496654596  1.1731184353 -0.9593093119
H   3.0326830389  0.7158844904  1.1965268501
H   3.5866788463  1.4800271764 -0.1903826005
H   3.8919294968 -0.4214773757  0.1236226079
H   4.6960652875  3.1279693983 -0.6731712579
17
Image 3  Energy = -421.89676384
C  -1.9787320888  0.4983377301  0.0181230426
O  -2.0828557866  1.7020228219  0.0034597811
C  -0.7086950307 -0.2791947738 -0.0172563967
C   0.5641784492  0.5497977261 -0.0599674076
C   1.8207660269 -0.3229777759 -0.1283656641
O   1.6733149338 -1.5054406674 -0.4571883077
C   3.0933124448  0.3048158705  0.2186302822
O   4.2052245621  2.6585311953  0.0341741390
H  -2.9042854150 -0.1155296285  0.0698718678
H  -0.7163127223 -0.9356351193  0.8613049369
H  -0.7545554230 -0.9690841610 -0.8647759689
H   0.6003874909  1.2271138218  0.7906310440
H   0.5516409963  1.1799557584 -0.9508229089
H   3.0172107388  0.7335010688  1.2104870081
H   3.6225974683  1.5241302801 -0.1447800493
H   3.8964996264 -0.4238857503  0.1390852466
H   4.6503066157  3.0435460057 -0.7226091541
17
Image 4  Energy = -421.90478201
C  -1.9788163409  0.4982441695  0.0186032311
O  -2.0886593979  1.7034383973  0.0036267170
C  -0.7090332327 -0.2756629703 -0.0145234832
C   0.5670989935  0.5471122453 -0.0540483664
C   1.8177160838 -0.3442933168 -0.1244794113
O   1.6661774773 -1.5182528784 -0.4986101476
C   3.0678945549  0.2694931363  0.2408842568
O   4.1956845214  2.6171005966  0.0355684812
H  -2.9047699855 -0.1165247845  0.0692328977
H  -0.7167724759 -0.9356470881  0.8624323153
H  -0.7527233170 -0.9660577031 -0.8624596368
H   0.6062632349  1.2232412458  0.7964188542
H   0.5551706441  1.1752561842 -0.9465790838
H   2.9974675259  0.7712964605  1.1981128479
H   3.7106300435  1.6454012357 -0.1269521034
H   3.9021679090 -0.4231555836  0.1438744114
H   4.6145055464  2.9990127154 -0.7411009707
17
Image 5  Energy = -421.91243726
C  -1.9826500648  0.4993728200  0.0195774294
O  -2.0946057152  1.7039412355  0.0037767430
C  -0.7136354257 -0.2764259604 -0.0108239857
C   0.5665544846  0.5350483495 -0.0487112323
C   1.8080788475 -0.3716189027 -0.1198190476
O   1.6431221172 -1.5382056023 -0.5309371681
C   3.0346159359  0.2236265179  0.2605956024
O   4.2329828711  2.6368242966  0.0553783709
H  -2.9082859107 -0.1155618741  0.0683469708
H  -0.7215707679 -0.9393423010  0.8639248180
H  -0.7538342714 -0.9654941679 -0.8595989772
H   0.6134118075  1.2125793323  0.8019246934
H   0.5615319950  1.1604819304 -0.9429164623
H   2.9818335240  0.8122063313  1.1649870965
H   3.7862420064  1.7359287506 -0.1130695278
H   3.9013618331 -0.4216897753  0.1538251625
H   4.5948461369  2.9783267874 -0.7664609489
17
Image 6  Energy = -421.93360892
C  -1.9828576939  0.5028397578  0.0213025307
O  -2.1015294220  1.7065564730  0.0145576046
C  -0.7142386666 -0.2712463220 -0.0085163114
C   0.5737668325  0.5275631551 -0.0375650143
C   1.8014350964 -0.3942176302 -0.1187987414
O   1.6208758965 -1.5510428065 -0.5817052295
C   3.0141603123  0.1615977911  0.2946649733
O   4.1792731885  2.7228903091  0.0233568671
H  -2.9046626443 -0.1181563672  0.0587879473
H  -0.7206277404 -0.9417755357  0.8586211166
H  -0.7416399819 -0.9527739081 -0.8623801557
H   0.6293907361  1.1933276628  0.8204248119
H   0.5791445460  1.1545208578 -0.9283743973
H   2.9767936090  0.8401344250  1.1378362988
H   3.7928580361  1.8154712505 -0.0923071925
H   3.9026298224 -0.4605576849  0.1878032637
H   4.6452287088  2.9348665922 -0.7877097094
17
Image 7  Energy = -421.91753267
C  -1.9710757965  0.5027246405  0.0231104900
O  -2.0937570926  1.7060916887  0.0335876483
C  -0.6998264889 -0.2683770419 -0.0095795382
C   0.5845678514  0.5344620904 -0.0333504996
C   1.8107666679 -0.3893271062 -0.1417902110
O   1.6242335053 -1.5127151849 -0.6629817123
C   3.0221379817  0.1466799936  0.3207936514
O   4.0654148166  2.7829237774 -0.0603760401
H  -2.8918443950 -0.1204358234  0.0471238825
H  -0.7141665153 -0.9414301210  0.8572496360
H  -0.7205870393 -0.9477507697 -0.8646306479
H   0.6503094106  1.1815755687  0.8384061988
H   0.5863441557  1.1811882345 -0.9099518692
H   2.9679232716  0.8169923142  1.1702363790
H   3.7265838608  1.8561797038 -0.0871435980
H   3.8949086534 -0.5028771473  0.2502153203
H   4.7080679787  2.8440932716 -0.7709195764
17
Image 8  Energy = -421.91837903
C  -1.9696432676  0.5028739640  0.0269289193
O  -2.0898216213  1.7062686048  0.0502571964
C  -0.6988934904 -0.2720775473 -0.0083086967
C   0.5837739995  0.5331654540 -0.0362503958
C   1.8176382739 -0.3784593192 -0.1660515201
O   1.6500974949 -1.4632845380 -0.7666034060
C   3.0089320958  0.1353794594  0.3676824975
O   4.1295513969  2.7790883203 -0.0617666841
H  -2.8920378173 -0.1177019418  0.0414666369
H  -0.7173017383 -0.9388631654  0.8634589701
H  -0.7216572754 -0.9530549443 -0.8613377205
H   0.6541440354  1.1706226889  0.8416427045
H   0.5759891002  1.1868274369 -0.9072438423
H   2.9295136355  0.8052777311  1.2159742626
H   3.7637892215  1.8649037247 -0.0300166454
H   3.8893893400 -0.5046517237  0.3065336440
H   4.6365375029  2.8136842917 -0.8763647877
17
Image 9  Energy = -421.92434378
C  -1.9730556278  0.5020079681  0.0278872248
O  -2.0949123986  1.7055361517  0.0536278309
C  -0.7057390238 -0.2716163519 -0.0097003480
C   0.5762448331  0.5325346099 -0.0442177269
C   1.8135271951 -0.3768792967 -0.1668850825
O   1.6500378402 -1.4560272373 -0.7788086342
C   2.9969342843  0.1322365998  0.3873341758
O   4.2741517814  2.7218374070 -0.0214666585
H  -2.8967685034 -0.1178630435  0.0428191335
H  -0.7179438377 -0.9346143404  0.8649806217
H  -0.7278645872 -0.9584174590 -0.8583266768
H   0.6476607952  1.1739143654  0.8308684087
H   0.5671552655  1.1849958586 -0.9167156630
H   2.9108794412  0.8237433226  1.2157187399
H   3.8629257620  1.8321349913  0.0013946808
H   3.8848615828 -0.4932584267  0.3175141044
H   4.4819081662  2.8697358287 -0.9460214720
17
Image 10  Energy = -421.94147317
C  -1.9756448280  0.4997006790  0.0230582759
O  -2.1031356487  1.7024444002  0.0322029083
C  -0.7061300712 -0.2640251817 -0.0132397534
C   0.5748974737  0.5403986561 -0.0429569619
C   1.7957372296 -0.3924046497 -0.1286417064
O   1.6143880476 -1.4946447518 -0.7082971835
C   2.9855428817  0.0976304341  0.4083889382
O   4.2882216438  2.7077832641 -0.0034991500
H  -2.8943105085 -0.1270878671  0.0530488403
H  -0.7014028617 -0.9322961726  0.8559046311
H  -0.7147761414 -0.9525703973 -0.8619029816
H   0.6361231334  1.1960003784  0.8216811515
H   0.5769180616  1.1803817814 -0.9254006978
H   2.9456429806  0.8434489416  1.1900198943
H   3.8726628188  1.8224722488 -0.0282616917
H   3.8944958254 -0.4773190559  0.2487122894
H   4.4607729342  2.9200878307 -0.9208149309
17
Image 11  Energy = -421.93853970
C  -1.9738935794  0.4962489924  0.0162250114
O  -2.0984833347  1.6986563754  0.0184897728
C  -0.7059345040 -0.2627119232 -0.0224387638
C   0.5727884820  0.5451026111 -0.0461145158
C   1.7804743619 -0.4106645675 -0.1017221947
O   1.5731584738 -1.5355356936 -0.6532622975
C   2.9764244264  0.0659951330  0.4348072944
O   4.2893318729  2.7133284664  0.0311332219
H  -2.8899739444 -0.1332440526  0.0622332977
H  -0.6837191458 -0.9274057543  0.8471929195
H  -0.7024454341 -0.9586032598 -0.8666304089
H   0.6190072748  1.2210174619  0.8050375587
H   0.5695913158  1.1948494163 -0.9227280909
H   3.0000105245  0.8683685395  1.1712075024
H   3.8687669294  1.8182420495 -0.0712965351
H   3.8983610699 -0.4548184107  0.1850247515
H   4.4565382068  2.9311751244 -0.8871573186
17
Image 12  Energy = -421.92334726
C  -1.9693628755  0.4967930890  0.0185122240
O  -2.0996001644  1.6995134784  0.0209156491
C  -0.6973589717 -0.2623555121 -0.0175430546
C   0.5790522856  0.5481901187 -0.0364119260
C   1.7957776457 -0.3932329073 -0.1167536930
O   1.5964960779 -1.4882905604 -0.6883074796
C   2.9940099608  0.0863074288  0.4173182846
O   4.1798961085  2.7332008130 -0.0187639989
H  -2.8874021294 -0.1297151037  0.0567684210
H  -0.6931557990 -0.9344425117  0.8485023123
H  -0.6963880692 -0.9498181371 -0.8664574467
H   0.6366992346  1.2011278367  0.8302705448
H   0.5892771617  1.1911899094 -0.9176123337
H   2.9716533301  0.8348246542  1.1925855974
H   3.7999622171  1.8290742776 -0.0509668819
H   3.9047131773 -0.4701323046  0.2227331327
H   4.5457327140  2.8777669401 -0.8947879633
17
Image 13  Energy = -421.94184409
C  -1.9757028681  0.4981352671  0.0260699004
O  -2.0974244889  1.7007971238  0.0269153170
C  -0.7108340085 -0.2747801389 -0.0036067571
C   0.5728653529  0.5254247858 -0.0422355372
C   1.8019455761 -0.3963269155 -0.1428044912
O   1.6360487039 -1.4926717298 -0.7371540705
C   2.9851000818  0.1148741515  0.3925904896
O   4.1867540891  2.7678845271 -0.0241184044
H  -2.8978492178 -0.1206349624  0.0603841162
H  -0.7185516992 -0.9328876338  0.8718343163
H  -0.7286633901 -0.9676888912 -0.8472289745
H   0.6418707931  1.1788266124  0.8250181219
H   0.5651920495  1.1611845310 -0.9286033203
H   2.9187190813  0.8477671644  1.1849963490
H   3.8069529682  1.8595165869 -0.0626959545
H   3.9017638760 -0.4516482530  0.2516520485
H   4.6618138230  2.8522297956 -0.8510118682
17
Image 14  Energy = -421.94152784
C  -1.9817686952  0.5012704640  0.0303373421
O  -2.0893435881  1.7052403142  0.0391995234
C  -0.7250044721 -0.2870883415 -0.0014396389
C   0.5642465853  0.5054517240 -0.0479444125
C   1.8018306332 -0.4064281504 -0.1555817392
O   1.6373903383 -1.5149149918 -0.7250081894
C   2.9914003956  0.1326851011  0.3519613516
O   4.1876685309  2.8184243125 -0.0269767841
H  -2.9114807705 -0.1078987889  0.0588447220
H  -0.7383639485 -0.9406131060  0.8775569486
H  -0.7526892014 -0.9821872690 -0.8427577232
H   0.6399666130  1.1564245447  0.8198817801
H   0.5509570780  1.1468640426 -0.9297784929
H   2.9162694084  0.8487937453  1.1616349579
H   3.8201192791  1.9049391209 -0.0633723060
H   3.8900283007 -0.4731473090  0.2550949287
H   4.7487727600  2.8621874225 -0.8016515173
17
Image 15  Energy = -421.94234072
C  -1.9641036836  0.5086786024  0.0274192905
O  -2.0780810101  1.7115261295  0.0582757101
C  -0.7027351824 -0.2710790437 -0.0081944470
C   0.5864524059  0.5249010088 -0.0340428160
C   1.8089380884 -0.3936552826 -0.1631377883
O   1.6386235795 -1.4829217382 -0.7675156407
C   3.0037737367  0.1048065483  0.3693848995
O   4.0829809606  2.8323143430 -0.0718297095
H  -2.8897446253 -0.1063648121  0.0371536777
H  -0.7177695168 -0.9374034399  0.8603561467
H  -0.7155117482 -0.9550323133 -0.8598667552
H   0.6609818228  1.1521786684  0.8485680661
H   0.5737484321  1.1869913412 -0.8982158286
H   2.9426922954  0.7968001938  1.2009637935
H   3.7287870574  1.9108598743 -0.0595161754
H   3.8927616521 -0.5173398914  0.2661787556
H   4.6982068212  2.8047441250 -0.8059810192
17
Image 16  Energy = -421.92463704
C  -1.9626436886  0.5006259698  0.0269169246
O  -2.0880287389  1.7026528061  0.0725196325
C  -0.6928343969 -0.2662373547 -0.0144335770
C   0.5850024170  0.5421854024 -0.0367689060
C   1.8094775187 -0.3831882753 -0.1678719923
O   1.6294657046 -1.4529157343 -0.7891170190
C   2.9975826002  0.1081834175  0.3955097012
O   4.1672452945  2.7878266470 -0.0564370421
H  -2.8839663436 -0.1232062030  0.0272807869
H  -0.7034709650 -0.9369089930  0.8536595023
H  -0.6936787664 -0.9484087865 -0.8673409981
H   0.6612463800  1.1682666649  0.8495514921
H   0.5735504423  1.2109860724 -0.8981325678
H   2.9164931967  0.8005616084  1.2248376841
H   3.7960586854  1.8778142772 -0.0052424793
H   3.8781586368 -0.5257183061  0.3160004579
H   4.5603433356  2.8074832408 -0.9309314846
17
Image 17  Energy = -421.92485669
C  -1.9603599264  0.4930665531  0.0287818949
O  -2.0934966187  1.6940308542  0.0859838433
C  -0.6861827274 -0.2634623869 -0.0164674346
C   0.5835156694  0.5568659797 -0.0403563619
C   1.8141118396 -0.3586973184 -0.1730587533
O   1.6481848431 -1.4101747469 -0.8286261009
C   2.9878320578  0.1140996094  0.4319073005
O   4.2482579722  2.7351836293 -0.0711130280
H  -2.8784434864 -0.1350748944  0.0208543544
H  -0.6906360303 -0.9355363708  0.8515118017
H  -0.6798833141 -0.9450549263 -0.8706423223
H   0.6556371588  1.1839147371  0.8453320331
H   0.5657172199  1.2243829289 -0.9022816603
H   2.8893282554  0.8123945419  1.2541783813
H   3.8559320356  1.8378804243  0.0269485454
H   3.8685789198 -0.5205987587  0.3698814872
H   4.4219078917  2.7867806088 -1.0128336707
17
Image 18  Energy = -421.92492809
C  -1.9756319683  0.4832461220  0.0331122981
O  -2.1050689259  1.6847937175  0.0766073314
C  -0.7011438002 -0.2764505932 -0.0106583556
C   0.5645745507  0.5502702322 -0.0644767535
C   1.8074754501 -0.3486140610 -0.1862168491
O   1.6620174222 -1.3965371719 -0.8517266677
C   2.9659575435  0.1347194785  0.4374401500
O   4.3894862808  2.6816111529 -0.0421579470
H  -2.8946643417 -0.1429127620  0.0403018011
H  -0.6990325137 -0.9257394360  0.8742976849
H  -0.7059967968 -0.9767039691 -0.8488250642
H   0.6386524673  1.1971483653  0.8056730421
H   0.5364786297  1.1978999924 -0.9409450501
H   2.8471005062  0.8578476729  1.2355043338
H   3.9371093352  1.8119888468  0.0399822735
H   3.8603297431 -0.4793551050  0.3929864031
H   4.4223576275  2.8167816104 -0.9909000481
17
Image 19  Energy = -421.92464408
C  -1.9896660503  0.4791254384  0.0352043157
O  -2.1145185450  1.6815774228  0.0588284279
C  -0.7161615184 -0.2870717128 -0.0033126490
C   0.5514035977  0.5391944735 -0.0827979870
C   1.8039835600 -0.3494929091 -0.1973686922
O   1.6684787648 -1.4082516101 -0.8488951310
C   2.9589957668  0.1626775849  0.4136987136
O   4.4514742345  2.6531214306  0.0039728884
H  -2.9104186098 -0.1460837059  0.0610966194
H  -0.7123452255 -0.9168798653  0.8964896857
H  -0.7352796387 -1.0041052811 -0.8279072548
H   0.6265655888  1.2042787492  0.7743709728
H   0.5128567764  1.1692390269 -0.9724456952
H   2.8296632024  0.8886948879  1.2095545209
H   3.9579142250  1.8010490679  0.0296951117
H   3.8576967890 -0.4468356122  0.3825736881
H   4.5093579069  2.8497532460 -0.9327609850
17
Image 20  Energy = -421.92483344
C  -1.9935136255  0.4674038295  0.0432460394
O  -2.1300312718  1.6684847286  0.0714126725
C  -0.7146377005 -0.2851486488 -0.0024805793
C   0.5453658911  0.5486160441 -0.0861422280
C   1.7961016129 -0.3420177248 -0.1882732055
O   1.6643993929 -1.3981085105 -0.8437451260
C   2.9411833656  0.1641626845  0.4392876740
O   4.5448884895  2.5880610355 -0.0269288986
H  -2.9090831060 -0.1634344048  0.0676672355
H  -0.7006573885 -0.9199990451  0.8927453789
H  -0.7309610334 -0.9984926434 -0.8290528995
H   0.6155980784  1.2229820123  0.7638480975
H   0.5083406286  1.1651989525 -0.9847959009
H   2.8125773372  0.9332204380  1.1914798840
H   4.0140298304  1.7620382080  0.0219494173
H   3.8551118740 -0.4195738270  0.4040344514
H   4.4312867509  2.8766088888 -0.9342519655
17
Image 21  Energy = -421.94258064
C  -2.0059210100  0.4618927452  0.0571210612
O  -2.1422293265  1.6626705470  0.0801932156
C  -0.7282512536 -0.2912796328 -0.0053440656
C   0.5324618580  0.5421219766 -0.1000118742
C   1.7886528872 -0.3397872359 -0.1789059073
O   1.6723632924 -1.4229924297 -0.8075286997
C   2.9290986250  0.1870571441  0.4287732260
O   4.6336015073  2.5375193650 -0.0236525215
H  -2.9186380174 -0.1713038447  0.0985647276
H  -0.6990403461 -0.9304663558  0.8854083764
H  -0.7583806537 -0.9994009528 -0.8359780832
H   0.5931210319  1.2303483269  0.7397167059
H   0.4951659576  1.1429175771 -1.0097445230
H   2.7970593310  0.9834808771  1.1511142968
H   4.0586332094  1.7385009910 -0.0005069808
H   3.8494386220 -0.3867908837  0.4005640876
H   4.4528646382  2.9255085855 -0.8797822056
17
Image 22  Energy = -421.94228962
C  -2.0140806588  0.4550897611  0.0674938779
O  -2.1524665746  1.6555067705  0.0874007397
C  -0.7367211048 -0.2963961395 -0.0093933339
C   0.5225750630  0.5381611325 -0.1107790731
C   1.7840933534 -0.3372390526 -0.1765670651
O   1.6730180707 -1.4351493488 -0.7789558190
C   2.9248182067  0.2083617990  0.4149726736
O   4.6858563649  2.5113822789 -0.0201948089
H  -2.9252508437 -0.1776683219  0.1230782875
H  -0.6989671200 -0.9394673130  0.8775874197
H  -0.7778814428 -1.0003647475 -0.8424083514
H   0.5798684790  1.2349656573  0.7214775047
H   0.4850256976  1.1293376189 -1.0261820303
H   2.7881100034  1.0154982312  1.1233822298
H   4.0887523008  1.7281123532 -0.0071644849
H   3.8448176299 -0.3663034332  0.4035475958
H   4.4784297810  2.9461704496 -0.8472955716
17
Image 23  Energy = -421.94246149
C  -2.0106457891  0.4507645264  0.0892756840
O  -2.1526000359  1.6510272727  0.1228113558
C  -0.7317602249 -0.2957175054 -0.0265453495
C   0.5254051603  0.5469699230 -0.1301271824
C   1.7856508118 -0.3290524300 -0.1812883280
O   1.6719556641 -1.4223051545 -0.7901397443
C   2.9170993485  0.2144535283  0.4354367164
O   4.6839601798  2.5044473865 -0.0235135988
H  -2.9162678979 -0.1910061840  0.1643911950
H  -0.6726965777 -0.9578509593  0.8462736607
H  -0.7878024827 -0.9824815834 -0.8748942534
H   0.5742175447  1.2504444101  0.6967648996
H   0.4889152608  1.1313156091 -1.0508609945
H   2.7677641944  1.0301184079  1.1360100554
H   4.0878832192  1.7201296597  0.0030354222
H   3.8349567906 -0.3651897417  0.4484345971
H   4.4839669037  2.9139324620 -0.8650643138
17
Image 24  Energy = -421.92453357
C  -2.0061335011  0.4404150685  0.1241735073
O  -2.1577486856  1.6384608134  0.1834384954
C  -0.7245084879 -0.2909836488 -0.0515821585
C   0.5223559707  0.5619961687 -0.1624945873
C   1.7865305129 -0.3164144196 -0.1881443013
O   1.6835476769 -1.4008368563 -0.8003293199
C   2.9007797050  0.2258446639  0.4649843297
O   4.6930809060  2.4843527388 -0.0318745658
H  -2.9021130323 -0.2136129543  0.2211174913
H  -0.6329469746 -0.9803110072  0.7988415823
H  -0.8059888944 -0.9538880392 -0.9165593452
H   0.5646239156  1.2787381270  0.6542218477
H   0.4932427545  1.1296528559 -1.0930885262
H   2.7360812152  1.0511390495  1.1477179813
H   4.0940674170  1.7059391323  0.0184309536
H   3.8125637369 -0.3588622363  0.5183191207
H   4.4925659224  2.8683720555 -0.8871730801
17
Image 25  Energy = -421.94021615
C  -1.9914712837  0.4247002902  0.1717019947
O  -2.1553000126  1.6223452145  0.2769100309
C  -0.7223560429 -0.2853874279 -0.0833690510
C   0.5198446012  0.5691266582 -0.2063405475
C   1.7806989288 -0.3041234677 -0.1818851810
O   1.6871811082 -1.4089428406 -0.7755399066
C   2.8763931807  0.2414655253  0.4851416766
O   4.6996300333  2.4750457077 -0.0235720835
H  -2.8763953922 -0.2308583607  0.2850756806
H  -0.5930801782 -1.0077638998  0.7317574368
H  -0.8486500948 -0.9107890339 -0.9700706517
H   0.5466042118  1.3079367928  0.5879784089
H   0.5042271305  1.1067567797 -1.1522853136
H   2.7078640785  1.0787774993  1.1480833586
H   4.0958569015  1.6994218205  0.0385170316
H   3.7877288429 -0.3417351668  0.5642465302
H   4.5312240785  2.8340241930 -0.8963493841
17
Image 26  Energy = -421.93948744
C  -1.9845185919  0.4182676648  0.2231328692
O  -2.1422968671  1.6107760110  0.3791480954
C  -0.7311083676 -0.2837254312 -0.1186357519
C   0.5167588322  0.5648680874 -0.2500683565
C   1.7773423219 -0.3090761788 -0.1706035622
O   1.6903826073 -1.4374063980 -0.7185791467
C   2.8648574751  0.2626010613  0.4884305116
O   4.7060481042  2.4731561594 -0.0001547092
H  -2.8643921967 -0.2411471375  0.3529420305
H  -0.5700427381 -1.0473346832  0.6509301539
H  -0.9119809059 -0.8637449323 -1.0272511809
H   0.5303253986  1.3310321795  0.5184504775
H   0.5271190025  1.0679098668 -1.2150083478
H   2.6836988171  1.1127106395  1.1307976620
H   4.0898782171  1.7055297921  0.0429679300
H   3.7748787271 -0.3171791371  0.5990289387
H   4.5930495876  2.8227614009 -0.8855275918
17
Image 27  Energy = -421.95609875
C  -1.9863484497  0.4294647878  0.2459753353
O  -2.1119052146  1.6230678267  0.4120176534
C  -0.7571665468 -0.2978534709 -0.1351927338
C   0.5095157697  0.5302453839 -0.2628567807
C   1.7819140727 -0.3245642369 -0.1460172094
O   1.7093319211 -1.4937302880 -0.6224400875
C   2.8825802240  0.2975306576  0.4394051084
O   4.7104982851  2.4707204476  0.0343206403
H  -2.8777314558 -0.2107024359  0.3926285381
H  -0.5979705921 -1.0900035061  0.6018704517
H  -0.9819925503 -0.8416724606 -1.0569236556
H   0.5036257558  1.3177328672  0.4852562760
H   0.5410016375  1.0076722706 -1.2410762289
H   2.6954243086  1.1278709176  1.1025569893
H   4.0531482392  1.7165324184  0.0202763225
H   3.7939232101 -0.2770875971  0.5572563487
H   4.6821509891  2.8847764041 -0.8270571584
17
Image 28  Energy = -421.93890461
C  -1.9754708649  0.4141744478  0.2595061593
O  -2.1214644778  1.6030576732  0.4479466742
C  -0.7383784391 -0.2848753737 -0.1434306024
C   0.5145017774  0.5594543134 -0.2784112143
C   1.7812619671 -0.3097792317 -0.1683661853
O   1.7079644249 -1.4491303972 -0.6878872607
C   2.8638315671  0.2856400745  0.4829416369
O   4.7041660980  2.4679919995  0.0109246917
H  -2.8535098705 -0.2457389276  0.4029755211
H  -0.5616191603 -1.0793427070  0.5887130145
H  -0.9624684031 -0.8269923190 -1.0656340976
H   0.5119671802  1.3464577537  0.4707696125
H   0.5405656099  1.0375762362 -1.2559976359
H   2.6673703618  1.1293177972  1.1269233364
H   4.0816674881  1.7046243793  0.0528924126
H   3.7616606490 -0.3012139229  0.6354784172
H   4.6279535406  2.8187775506 -0.8793443667
17
Image 29  Energy = -421.93925624
C  -1.9647367960  0.3989557903  0.2737163490
O  -2.1300534234  1.5812886215  0.4851719809
C  -0.7210011359 -0.2708835782 -0.1514368091
C   0.5206080982  0.5882728821 -0.2944588118
C   1.7821595676 -0.2885162265 -0.1875115958
O   1.7100489992 -1.4062599839 -0.7536110313
C   2.8428649535  0.2723978200  0.5246601227
O   4.6987305650  2.4683700977 -0.0181226361
H  -2.8281063625 -0.2807578701  0.4143662401
H  -0.5246343078 -1.0683942759  0.5735615711
H  -0.9439255119 -0.8112549719 -1.0747488883
H   0.5195047807  1.3754143838  0.4552794040
H   0.5402174832  1.0667613410 -1.2718887853
H   2.6398837421  1.1292483421  1.1501099657
H   4.1069099182  1.6892239447  0.0876085947
H   3.7272226882 -0.3241254889  0.7144797138
H   4.5743060081  2.7502579218 -0.9271749207
17
Image 30  Energy = -421.93863207
C  -1.9475623139  0.3900561394  0.3175982861
O  -2.1051517579  1.5657844577  0.5671952983
C  -0.7254984375 -0.2671983630 -0.1835506146
C   0.5205540319  0.5864140680 -0.3304688275
C   1.7811749213 -0.2890514198 -0.1847753903
O   1.7202185100 -1.4226830479 -0.7201209664
C   2.8278443811  0.2892186192  0.5330032011
O   4.6965252942  2.4758353845 -0.0037539582
H  -2.8032906091 -0.2944482794  0.4802766974
H  -0.5101226107 -1.0991997740  0.4936266281
H  -0.9890325161 -0.7603922950 -1.1227794415
H   0.5100679267  1.3906404843  0.4010536815
H   0.5533366515  1.0428251372 -1.3173280323
H   2.6069847194  1.1586282336  1.1344248352
H   4.1126279260  1.6905818983  0.1037882160
H   3.7018840183 -0.3102794640  0.7576343679
H   4.5994393953  2.7232678919 -0.9258242648
17
Image 31  Energy = -421.93795327
C  -1.9328486888  0.3858686294  0.3523573865
O  -2.0839661377  1.5555277168  0.6321313062
C  -0.7328397142 -0.2665758259 -0.2128642159
C   0.5212806558  0.5753285159 -0.3595197995
C   1.7871015420 -0.2879171861 -0.1826320930
O   1.7539722266 -1.4311042667 -0.6997927959
C   2.8156520310  0.3076251156  0.5453748034
O   4.7000417375  2.4819598408  0.0030640177
H  -2.7815740412 -0.3008492143  0.5365733063
H  -0.5093099069 -1.1259828146  0.4244879464
H  -1.0374372559 -0.7115553786 -1.1642542187
H   0.4969996410  1.3885274529  0.3597986452
H   0.5639688012  1.0174482749 -1.3510848197
H   2.5809837078  1.1871643854  1.1278301434
H   4.1187706796  1.6967050032  0.1272753254
H   3.6755537991 -0.3050443644  0.7881761709
H   4.6136502195  2.7028733459 -0.9269213612
17
Image 32  Energy = -421.94453836
C  -1.9060380297  0.3555546355  0.3974220750
O  -2.0577976001  1.5179457468  0.7058202003
C  -0.7318190407 -0.2586488107 -0.2547259394
C   0.5205770389  0.5951562512 -0.4015364272
C   1.7864735991 -0.2626050782 -0.1919616941
O   1.7631797683 -1.4131039720 -0.7043170412
C   2.7989484934  0.3256333333  0.5550296148
O   4.7012332534  2.4736642064  0.0217365794
H  -2.7348232225 -0.3457051853  0.6204743429
H  -0.4803661484 -1.1561434860  0.3135141969
H  -1.0783706724 -0.6479903180 -1.2158585994
H   0.4879767123  1.4248037015  0.2997261131
H   0.5780285779  1.0154969014 -1.4022198426
H   2.5409135030  1.1915973577  1.1423763617
H   4.1201259456  1.6960689853  0.1842479213
H   3.6464103495 -0.2855261355  0.8448285159
H   4.5953473621  2.6438018659 -0.9145563405
17
Image 33  Energy = -421.93501624
C  -1.8676659855  0.3329388015  0.4419713487
O  -2.0146316392  1.4834191039  0.7838709478
C  -0.7224162755 -0.2510529810 -0.2926765353
C   0.5249366150  0.6117319045 -0.4452226554
C   1.7930323144 -0.2334042177 -0.2014598707
O   1.8116608598 -1.3712350186 -0.7573764805
C   2.7509209209  0.3283655015  0.6143053660
O   4.7020726990  2.4405837777  0.0227566111
H  -2.6765990361 -0.3840863755  0.6910969161
H  -0.4487682334 -1.1772471838  0.2152405515
H  -1.1186720059 -0.5868989000 -1.2549274242
H   0.4775348861  1.4575179937  0.2355938572
H   0.5849065192  1.0076155796 -1.4559505653
H   2.4923310604  1.2141516182  1.1747848365
H   4.0957557978  1.6870836418  0.2201985002
H   3.5975469078 -0.2784756780  0.9219403196
H   4.5680549253  2.5889921550 -0.9141453157
17
Image 34  Energy = -421.93450809
C  -1.8449206589  0.3123250921  0.4713289775
O  -2.0000766825  1.4579644201  0.8239783862
C  -0.7210681498 -0.2446185842 -0.3151107084
C   0.5245917741  0.6223969999 -0.4748555236
C   1.7931780899 -0.2139382108 -0.2039781586
O   1.8449259868 -1.3223105025 -0.8151046414
C   2.7062393969  0.3171272221  0.6797116877
O   4.7517921335  2.4136889904 -0.0061605393
H  -2.6300491779 -0.4259053802  0.7391416488
H  -0.4353605306 -1.1905442829  0.1470330744
H  -1.1555395264 -0.5391530510 -1.2754005443
H   0.4688530771  1.4847127642  0.1838416769
H   0.5885613608  0.9908616656 -1.4959138851
H   2.4390637156  1.1922445087  1.2580972895
H   4.0956525689  1.7125628164  0.2104198811
H   3.5394562287 -0.3005542442  1.0040530262
H   4.5847008257  2.6031404066 -0.9310817787
17
Image 35  Energy = -421.93313460
C  -1.8456437308  0.3060135191  0.4765002730
O  -1.9997917553  1.4505838481  0.8320876210
C  -0.7286583289 -0.2464407841 -0.3241378138
C   0.5206023039  0.6179610209 -0.4810152924
C   1.7884746617 -0.2175889469 -0.2015042248
O   1.8603846735 -1.3060792516 -0.8462845511
C   2.6707437026  0.2911238244  0.7236617898
O   4.8221151086  2.4168549890 -0.0497634461
H  -2.6261564270 -0.4342992392  0.7527712207
H  -0.4467524908 -1.1993681146  0.1258178767
H  -1.1727524084 -0.5274562844 -1.2847571109
H   0.4637972708  1.4826638321  0.1740711294
H   0.5885403294  0.9829678627 -1.5034994915
H   2.3863003284  1.1407605055  1.3314481211
H   4.1337590614  1.7625217890  0.1828764496
H   3.5138486154 -0.3117941089  1.0478082947
H   4.6211899039  2.6615751065 -0.9560811608
17
Image 36  Energy = -421.93208477
C  -1.8298775979  0.2922201053  0.4923477189
O  -1.9822787583  1.4330170219  0.8600286806
C  -0.7286338812 -0.2446282051 -0.3412260423
C   0.5205167015  0.6219917389 -0.4958385060
C   1.7891565961 -0.2061755079 -0.2019440043
O   1.9050207385 -1.2647231289 -0.8896206130
C   2.6202894454  0.2755444673  0.7817159674
O   4.8652029932  2.4000042829 -0.0850557474
H  -2.6011584131 -0.4540811254  0.7782383392
H  -0.4435717718 -1.2113795970  0.0763891958
H  -1.1935004851 -0.4944849701 -1.3009683927
H   0.4580338334  1.4925759425  0.1506695121
H   0.5914096632  0.9785426707 -1.5215914975
H   2.2953023237  1.0869100358  1.4208612886
H   4.1591362363  1.7770987848  0.1605972494
H   3.4924270722 -0.2933344286  1.0887224056
H   4.6325252000  2.6809030740 -0.9733255897
17
Image 37  Energy = -421.93144292
C  -1.8085234305  0.2807533725  0.5125815051
O  -1.9536846692  1.4168337472  0.8967452899
C  -0.7284340515 -0.2419081953 -0.3597898214
C   0.5236063864  0.6236740317 -0.5137030234
C   1.7986417576 -0.1865174572 -0.2018855737
O   1.9677594138 -1.2132433790 -0.9252200534
C   2.5834895101  0.2778765012  0.8284335060
O   4.8649258859  2.3941338196 -0.0941530991
H  -2.5728092235 -0.4693264801  0.8076383893
H  -0.4481866119 -1.2263221062  0.0180177556
H  -1.2193252032 -0.4492161817 -1.3171515677
H   0.4522983343  1.5060399093  0.1150302714
H   0.5991687101  0.9610212184 -1.5458546313
H   2.2022714962  1.0253467419  1.5133660766
H   4.1718397784  1.7498484765  0.1301123889
H   3.4826786550 -0.2578530340  1.1168877965
H   4.6342829752  2.6788590222 -0.9810552525
17
Image 38  Energy = -421.93147897
C  -1.7727831062  0.2553901658  0.5362137343
O  -1.9339931892  1.3851057808  0.9321872779
C  -0.7163818191 -0.2301161279 -0.3845423090
C   0.5292437878  0.6450969067 -0.5374392477
C   1.8063829780 -0.1530206227 -0.2120893147
O   2.0263641671 -1.1427527883 -0.9726831572
C   2.5445998752  0.2759869980  0.8673169395
O   4.8471070670  2.3847523502 -0.0985599001
H  -2.5049895336 -0.5179818963  0.8511682335
H  -0.4232705458 -1.2291903887 -0.0595969443
H  -1.2380583209 -0.3930324431 -1.3341078883
H   0.4448401152  1.5344115734  0.0806052007
H   0.6084074828  0.9674238185 -1.5737145774
H   2.1373832922  1.0046913680  1.5560487029
H   4.1815784054  1.7270764070  0.1673298499
H   3.4361399622 -0.2642270737  1.1704888892
H   4.5774291693  2.6203859385 -0.9886257346
17
Image 39  Energy = -421.93142802
C  -1.7361445294  0.2291933261  0.5592073799
O  -1.9136114363  1.3521852218  0.9672270412
C  -0.7050017617 -0.2185131083 -0.4091384768
C   0.5346812378  0.6660951602 -0.5608413855
C   1.8144894054 -0.1199353097 -0.2213416886
O   2.0859332985 -1.0684882519 -1.0173164122
C   2.5039296935  0.2727525825  0.9041786171
O   4.8276695293  2.3748197004 -0.1042393735
H  -2.4349514493 -0.5663447100  0.8938107914
H  -0.3994274422 -1.2298715273 -0.1382898993
H  -1.2564590191 -0.3364424684 -1.3486712750
H   0.4371853978  1.5623013452  0.0462011367
H   0.6177478191  0.9735276849 -1.6012376671
H   2.0719821745  0.9830057648  1.5971945618
H   4.1925773422  1.7052377510  0.2037541189
H   3.3885292906 -0.2703582442  1.2234954634
H   4.5208704977  2.5608349777 -0.9939932759
17
Image 40  Energy = -421.93153307
C  -1.7008382719  0.2018270522  0.5828348686
O  -1.8912980211  1.3185945798  1.0011921521
C  -0.6941258179 -0.2073121511 -0.4335698356
C   0.5398480213  0.6861693396 -0.5838842099
C   1.8228396324 -0.0870297629 -0.2296306554
O   2.1463166682 -0.9909087291 -1.0588307313
C   2.4613403640  0.2679748098  0.9390571218
O   4.8075771528  2.3643481746 -0.1106121423
H  -2.3623365075 -0.6129717787  0.9343919342
H  -0.3772652399 -1.2283617760 -0.2166715217
H  -1.2743536003 -0.2803999869 -1.3604328458
H   0.4293421180  1.5893531870  0.0116544660
H   0.6269410285  0.9787977032 -1.6285849378
H   2.0056879844  0.9597436518  1.6368200712
H   4.2044637562  1.6846769408  0.2368117812
H   3.3398287851 -0.2764605656  1.2759582786
H   4.4660321244  2.5019592110 -0.9965043412
17
Image 41  Energy = -421.93103312
C  -1.6472815806  0.1823749761  0.6132031773
O  -1.8258719664  1.2894179278  1.0606817130
C  -0.6851130753 -0.1995637109 -0.4563796093
C   0.5432164249  0.6984979358 -0.6196621817
C   1.8264963043 -0.0550669500 -0.2353941555
O   2.2239037378 -0.9109850290 -1.0835098014
C   2.3936929578  0.2584398910  0.9819869015
O   4.7917479067  2.3519390231 -0.1203858121
H  -2.2888564641 -0.6434611137  0.9739908110
H  -0.3654896595 -1.2274675245 -0.2790543076
H  -1.2991232896 -0.2414335619 -1.3633865601
H   0.4178609472  1.6145784684 -0.0465016968
H   0.6351774063  0.9655101852 -1.6703790137
H   1.9202419542  0.9425937576  1.6742505667
H   4.2009050164  1.6673070098  0.2373778903
H   3.2590385415 -0.2974914994  1.3412481542
H   4.4494549676  2.4748103723 -1.0080865229
17
Image 42  Energy = -421.93003173
C  -1.5939894012  0.1677547225  0.6394765717
O  -1.7376503430  1.2574205773  1.1368433158
C  -0.6804051420 -0.1957990831 -0.4747602126
C   0.5440069673  0.7041242322 -0.6546427797
C   1.8302307297 -0.0256471014 -0.2373779206
O   2.3110063376 -0.8192261749 -1.1029438102
C   2.3138676925  0.2394343819  1.0267272565
O   4.7931224213  2.3371177608 -0.1296784785
H  -2.2444216707 -0.6590144562  0.9992375517
H  -0.3607483821 -1.2292036964 -0.3270063242
H  -1.3207335229 -0.2160565063 -1.3644502796
H   0.4057220491  1.6340623142 -0.1065116200
H   0.6416044686  0.9427226805 -1.7110960906
H   1.8096491359  0.9063353362  1.7130502740
H   4.1985488851  1.6467554932  0.2105290693
H   3.1835099197 -0.3021096871  1.3991474081
H   4.4566798740  2.4813292191 -1.0165443654
17
Image 43  Energy = -421.92901181
C  -1.5613643723  0.1563224371  0.6600917608
O  -1.6773316284  1.2362058848  1.1858471797
C  -0.6778283933 -0.1941954916 -0.4833603767
C   0.5424743092  0.7069449790 -0.6785778935
C   1.8357498786  0.0034045403 -0.2361864288
O   2.3964979204 -0.7174671000 -1.1196446896
C   2.2432247168  0.2119275740  1.0646604248
O   4.8167908328  2.3333289855 -0.1424847093
H  -2.2157630357 -0.6686715742  1.0162422199
H  -0.3568505419 -1.2310334125 -0.3586528338
H  -1.3381403471 -0.2004492490 -1.3589370298
H   0.3925065228  1.6496470333 -0.1548103241
H   0.6448333363  0.9181172110 -1.7402988433
H   1.6796913504  0.8214598216  1.7580924248
H   4.2190441720  1.6300759904  0.1654757777
H   3.1238966423 -0.3055542640  1.4451834448
H   4.4825686489  2.5199368462 -1.0226408772
17
Image 44  Energy = -421.92756702
C  -1.5504930251  0.1553791138  0.6695739150
O  -1.6702939488  1.2370610886  1.1917774179
C  -0.6728591871 -0.1942017056 -0.4794692719
C   0.5426646968  0.7102538333 -0.6881198351
C   1.8472165180  0.0343281765 -0.2326499195
O   2.4812560448 -0.6034061858 -1.1325238491
C   2.1916914660  0.1791594164  1.0935779761
O   4.8356977380  2.3258221607 -0.1543541277
H  -2.1975700055 -0.6719283476  1.0329652064
H  -0.3496424925 -1.2310110636 -0.3585482265
H  -1.3400360981 -0.2022910040 -1.3506594630
H   0.3823963182  1.6610346724 -0.1816377582
H   0.6453797133  0.9024997467 -1.7531756281
H   1.5669023262  0.7134979461  1.7972853453
H   4.2405922203  1.5983957053  0.0938835078
H   3.0846878731 -0.3137644077  1.4767277774
H   4.5124099249  2.5691711663 -1.0246538062
17
Image 45  Energy = -421.92663190
C  -1.5482324661  0.1590152938  0.6735085314
O  -1.6754009383  1.2448254745  1.1864389554
C  -0.6669705009 -0.1958201612 -0.4717023384
C   0.5438561272  0.7125103157 -0.6927135978
C   1.8629185257  0.0691110570 -0.2236972272
O   2.5728192883 -0.4717064298 -1.1341324779
C   2.1512638172  0.1429837129  1.1183632211
O   4.8381053496  2.3033566697 -0.1671485717
H  -2.1903155047 -0.6694895833  1.0427779373
H  -0.3426356690 -1.2310424243 -0.3427604238
H  -1.3343551327 -0.2123258154 -1.3433208561
H   0.3732769224  1.6686115817 -0.1999687635
H   0.6455262971  0.8909371797 -1.7599386592
H   1.4882602613  0.6240307252  1.8276789930
H   4.2440163790  1.5554338154  0.0113099458
H   3.0541267570 -0.3248576178  1.5011609658
H   4.5337404739  2.6044264294 -1.0258566533
17
Image 46  Energy = -421.92657350
C  -1.5468060195  0.1640264028  0.6762006678
O  -1.6767143074  1.2523800424  1.1823920864
C  -0.6581149031 -0.1982866029 -0.4616296731
C   0.5465071830  0.7158466369 -0.6966050508
C   1.8815374317  0.1107678812 -0.2174746800
O   2.6640343705 -0.3185117205 -1.1296456525
C   2.1147387184  0.1063814181  1.1362850401
O   4.8283721778  2.2685675225 -0.1821747252
H  -2.1901002395 -0.6635580078  1.0463844973
H  -0.3299776913 -1.2301403853 -0.3194476002
H  -1.3239743636 -0.2276717784 -1.3346894718
H   0.3620875341  1.6770648106 -0.2188166907
H   0.6453772681  0.8801739955 -1.7662349301
H   1.4259796627  0.5441053559  1.8469987894
H   4.2371761884  1.5076914591 -0.0566318286
H   3.0297314854 -0.3358264183  1.5227755340
H   4.5401453038  2.6169895329 -1.0276865845
17
Image 47  Energy = -421.92755240
C  -1.5432375575  0.1676307089  0.6794428384
O  -1.6729382289  1.2575382570  1.1826596393
C  -0.6469563387 -0.2001629624 -0.4519130943
C   0.5502319713  0.7206904708 -0.7020974267
C   1.9008674248  0.1599685544 -0.2081346292
O   2.7481397365 -0.1554081345 -1.1124894313
C   2.0870303807  0.0781155819  1.1484887046
O   4.8056601846  2.2235326220 -0.1913821814
H  -2.1907526388 -0.6583930023  1.0467840532
H  -0.3123862842 -1.2284683863 -0.2994059769
H  -1.3123136897 -0.2415099111 -1.3253435328
H   0.3503288992  1.6879384596 -0.2428277853
H   0.6465363937  0.8681646443 -1.7745137428
H   1.3694339343  0.4609795325  1.8608420095
H   4.2166830476  1.4505611838 -0.1200098317
H   3.0153668234 -0.3317613204  1.5371451690
H   4.5383058723  2.6105839497 -1.0272448428
17
Image 48  Energy = -421.92898193
C  -1.5400057852  0.1719291369  0.6858541269
O  -1.6647319054  1.2622287210  1.1891973067
C  -0.6382308616 -0.2021870758 -0.4404637397
C   0.5493110017  0.7228471035 -0.7123390028
C   1.9111317024  0.2099183263 -0.1974196398
O   2.8150303568  0.0172063103 -1.0846830971
C   2.0575536533  0.0442188285  1.1540713447
O   4.8071042632  2.1842521296 -0.1976852537
H  -2.1949572916 -0.6512960049  1.0480048302
H  -0.2964596483 -1.2265455861 -0.2771816580
H  -1.3054925557 -0.2571437637 -1.3120872540
H   0.3354170094  1.7009919632 -0.2834311105
H   0.6470741849  0.8410036771 -1.7884689784
H   1.3006838819  0.3417015768  1.8644965291
H   4.2126126225  1.4087375400 -0.1807711124
H   3.0024417507 -0.3218479884  1.5442935919
H   4.5515176895  2.6239854681 -1.0113865299
17
Image 49  Energy = -421.93143899
C  -1.5330974055  0.1754869163  0.6946538574
O  -1.6479279418  1.2637341372  1.2038100501
C  -0.6309185648 -0.2024727290 -0.4308819506
C   0.5506506118  0.7209181039 -0.7240229957
C   1.9216006025  0.2578262145 -0.1828439859
O   2.8755377402  0.1891959674 -1.0393160516
C   2.0250443571  0.0103541608  1.1571895868
O   4.8141736257  2.1486289108 -0.2079340498
H  -2.1968857233 -0.6445641538  1.0501168479
H  -0.2886891087 -1.2251074519 -0.2592068139
H  -1.3021410740 -0.2656069980 -1.2992281577
H   0.3264813846  1.7118583202 -0.3305802403
H   0.6533613302  0.8062853693 -1.8032940977
H   1.2306817878  0.2192713832  1.8544355427
H   4.2091570212  1.3785339478 -0.2444961978
H   2.9829834729 -0.3112885303  1.5551059776
H   4.5599880218  2.6369467802 -0.9935071205
17
Image 50  Energy = -421.93397030
C  -1.5138192796  0.1772573465  0.7093730243
O  -1.6144271587  1.2614312878  1.2287481471
C  -0.6254483698 -0.2004022083 -0.4264723992
C   0.5507305130  0.7184031810 -0.7418767451
C   1.9184755486  0.3005660309 -0.1630303794
O   2.9085426483  0.3423705054 -0.9802192017
C   1.9799631143 -0.0291018241  1.1603003061
O   4.8451086900  2.1300731371 -0.2272765668
H  -2.1820160988 -0.6407523870  1.0627201798
H  -0.2866815238 -1.2242076871 -0.2536383189
H  -1.3061724893 -0.2633589886 -1.2871035381
H   0.3200631783  1.7244302735 -0.3929792401
H   0.6673057363  0.7614081256 -1.8230010484
H   1.1456368160  0.0774688285  1.8317796335
H   4.2192827751  1.3716552414 -0.3003756726
H   2.9434938449 -0.3078895920  1.5771651738
H   4.5799621633  2.6706490531 -0.9741131084
17
Image 51  Energy = -421.93557170
C  -1.4758913077  0.1761040015  0.7326977445
O  -1.5729312251  1.2601657968  1.2530866762
C  -0.6273962860 -0.1926852679 -0.4356349091
C   0.5475659088  0.7165252999 -0.7674143470
C   1.8984553748  0.3274098156 -0.1393502631
O   2.9183657660  0.4512075765 -0.9104436542
C   1.9136576594 -0.0758292172  1.1654445246
O   4.9041481640  2.1433731179 -0.2544593496
H  -2.1132369545 -0.6523299020  1.1129452699
H  -0.2944339617 -1.2217975518 -0.2802495132
H  -1.3299290713 -0.2381046655 -1.2787685336
H   0.3145425939  1.7390976995 -0.4706987968
H   0.6886322322  0.7109238241 -1.8472483966
H   1.0435509469 -0.0719673244  1.7967145716
H   4.2540488667  1.4012193604 -0.3287107215
H   2.8713553927 -0.3261687530  1.6119664085
H   4.6094966886  2.7228564209 -0.9598771268
17
Image 52  Energy = -421.92366528
C  -1.4407916086  0.1752312116  0.7617026589
O  -1.5472357849  1.2615139779  1.2626930015
C  -0.6387988306 -0.1874490679 -0.4520300843
C   0.5437292628  0.7079508729 -0.7940680000
C   1.8839083894  0.3410980708 -0.1264634350
O   2.9189373358  0.5331491778 -0.8480529333
C   1.8601462111 -0.1285037328  1.1626878793
O   4.9572555580  2.1758998379 -0.2601935369
H  -2.0237744780 -0.6723115713  1.1920163147
H  -0.3187896961 -1.2252343115 -0.3302914389
H  -1.3663350510 -0.1978986472 -1.2750479399
H   0.3079496825  1.7424138272 -0.5396342336
H   0.7061114150  0.6652183452 -1.8708469642
H   0.9620525791 -0.1854218999  1.7555617900
H   4.2784071330  1.4567637706 -0.3262984614
H   2.8052339579 -0.3653118542  1.6390357670
H   4.6619918695  2.7728916657 -0.9507711311
17
Image 53  Energy = -421.92438712
C  -1.4270636929  0.1676962470  0.7633112845
O  -1.5717106917  1.2576271767  1.2468910138
C  -0.6454962069 -0.1732990852 -0.4716880764
C   0.5518535255  0.7120843928 -0.7850865952
C   1.8716558826  0.3347953625 -0.0873759863
O   2.9253083337  0.5748903277 -0.7645054928
C   1.8121829862 -0.1980154572  1.1764647696
O   4.9963649572  2.2340278039 -0.3036211941
H  -1.9540568531 -0.6981605956  1.2297892890
H  -0.3431944013 -1.2197110363 -0.3880536038
H  -1.3767836711 -0.1364092850 -1.2903710565
H   0.3203092951  1.7493325316 -0.5367904439
H   0.7399926385  0.6687132825 -1.8580343569
H   0.8967712688 -0.3158138387  1.7285691643
H   4.3082088008  1.5246713316 -0.3347405574
H   2.7439647293 -0.4319337462  1.6790055493
H   4.7016926803  2.8195039744 -1.0037639091
17
Image 54  Energy = -421.92489689
C  -1.4140272444  0.1597870170  0.7679933001
O  -1.5998556662  1.2488884865  1.2385360915
C  -0.6549993442 -0.1572001386 -0.4887078353
C   0.5567654205  0.7158635855 -0.7790428703
C   1.8598698821  0.3331933074 -0.0574354493
O   2.9265717944  0.6237165979 -0.6915641151
C   1.7783384603 -0.2560757293  1.1791098173
O   5.0247325869  2.2767599448 -0.3238002145
H  -1.8848255595 -0.7230017526  1.2637665072
H  -0.3721351993 -1.2111973529 -0.4452722614
H  -1.3914135303 -0.0703834635 -1.2987130082
H   0.3299464817  1.7559640762 -0.5369765164
H   0.7661146216  0.6703724652 -1.8483839394
H   0.8526662698 -0.4577191196  1.6845656707
H   4.3246609754  1.5809482509 -0.3268641060
H   2.7019786817 -0.4635371094  1.7077286596
H   4.7456113520  2.8436204956 -1.0449394758
17
Image 55  Energy = -421.92514481
C  -1.4017577184  0.1580945948  0.7775466686
O  -1.6374286591  1.2455419624  1.2286793346
C  -0.6681684254 -0.1418265261 -0.4994319380
C   0.5566752692  0.7160980645 -0.7798960491
C   1.8488314828  0.3355782772 -0.0408169642
O   2.9209190332  0.6771202904 -0.6382588324
C   1.7590851697 -0.3012714561  1.1705701080
O   5.0485807243  2.3042262683 -0.3231044782
H  -1.8088438140 -0.7367304837  1.3067887551
H  -0.4039668461 -1.2012230432 -0.4897535939
H  -1.4118543603 -0.0111342578 -1.2961684154
H   0.3352897382  1.7605420426 -0.5501319502
H   0.7796923633  0.6613922203 -1.8464908897
H   0.8346339481 -0.5976098947  1.6270139949
H   4.3363372315  1.6227138975 -0.3056038075
H   2.6751394002 -0.4725489918  1.7247772144
H   4.7868358769  2.8510364734 -1.0657196069
17
Image 56  Energy = -421.92537117
C  -1.3853392990  0.1676397480  0.7913570760
O  -1.6937753837  1.2524348158  1.2033985513
C  -0.6833803405 -0.1283495897 -0.5053739633
C   0.5542740352  0.7108886068 -0.7892918189
C   1.8391053238  0.3367849399 -0.0366378276
O   2.9119649744  0.7180104460 -0.6068242590
C   1.7480291366 -0.3314632973  1.1577006396
O   5.0642571000  2.3160305549 -0.3122567241
H  -1.7001756941 -0.7287325380  1.3754896634
H  -0.4370859642 -1.1916936414 -0.5196205544
H  -1.4357171347  0.0391083527 -1.2854591354
H   0.3399545950  1.7610375981 -0.5774588094
H   0.7838871033  0.6398836529 -1.8538825979
H   0.8354226492 -0.7147123113  1.5707837334
H   4.3457241391  1.6428839161 -0.2784657731
H   2.6567038277 -0.4672377821  1.7336725589
H   4.8061509452  2.8474862639 -1.0671305146
17
Image 57  Energy = -421.92557142
C  -1.3564420534  0.1805071741  0.8088323199
O  -1.7289044098  1.2580961794  1.1861373025
C  -0.6978400100 -0.1160706480 -0.5115977780
C   0.5518323340  0.7028433726 -0.8059788445
C   1.8259687997  0.3388860439 -0.0325586359
O   2.9011282982  0.7583014725 -0.5678078964
C   1.7250093368 -0.3569165369  1.1454783741
O   5.0795652132  2.3252933847 -0.3061629573
H  -1.5733161112 -0.7045426264  1.4496184799
H  -0.4691649395 -1.1827582407 -0.5468931615
H  -1.4615611069  0.0848549584 -1.2708678451
H   0.3446881065  1.7593556747 -0.6175703723
H   0.7890095678  0.6090088505 -1.8673645727
H   0.8311179213 -0.8297009196  1.5034343893
H   4.3572681454  1.6590665916 -0.2488380336
H   2.6194553060 -0.4578909248  1.7503533384
H   4.8121852333  2.8416662267 -1.0682138356
17
Image 58  Energy = -421.92566099
C  -1.3159064686  0.1941331632  0.8285501191
O  -1.7188304834  1.2665504026  1.1890822139
C  -0.7077145141 -0.1061971797 -0.5158354555
C   0.5503087020  0.6940000453 -0.8270544405
C   1.8088684528  0.3444709195 -0.0248494422
O   2.8868764897  0.8055525396 -0.5137276891
C   1.6875667519 -0.3790455936  1.1342618972
O   5.0962337385  2.3333598152 -0.3105108032
H  -1.4610855720 -0.6761025696  1.5076583463
H  -0.4945114691 -1.1754924963 -0.5654872127
H  -1.4852268106  0.1197533540 -1.2528784162
H   0.3491610466  1.7564375632 -0.6662275504
H   0.7974998098  0.5724954660 -1.8833939368
H   0.8204835531 -0.9443099398  1.4161318917
H   4.3706480337  1.6756327427 -0.2208231353
H   2.5563648897 -0.4475958745  1.7795350917
H   4.8092634511  2.8363573734 -1.0744314900
17
Image 59  Energy = -421.92178508
C  -1.2743167949  0.1987121605  0.8453623321
O  -1.6658696596  1.2781326676  1.2041676386
C  -0.7088884475 -0.1012792191 -0.5200012594
C   0.5517588568  0.6898968763 -0.8448930265
C   1.7928440319  0.3542298619 -0.0125772026
O   2.8783026175  0.8471444247 -0.4547095536
C   1.6459303918 -0.3885236214  1.1285317906
O   5.1050445244  2.3337481035 -0.3212563349
H  -1.3932777142 -0.6644476572  1.5288025643
H  -0.5037515808 -1.1716727966 -0.5786092828
H  -1.5029736492  0.1386486775 -1.2339157569
H   0.3513330890  1.7562315018 -0.7079755068
H   0.8092625273  0.5455128966 -1.8963092004
H   0.8061240147 -1.0193454952  1.3476787633
H   4.3726525525  1.6868303302 -0.2084873563
H   2.4893708487 -0.4417986484  1.8085798827
H   4.7964540070  2.8279797876 -1.0843884410
17
Image 60  Energy = -421.92140335
C  -1.2312025764  0.2034389813  0.8580698484
O  -1.6047897135  1.2860917821  1.2259946034
C  -0.7084437825 -0.0972067677 -0.5249398750
C   0.5525234307  0.6872870614 -0.8639074421
C   1.7744296575  0.3635212518 -0.0027345566
O   2.8652303651  0.8755752694 -0.4008273271
C   1.6007366935 -0.3914076608  1.1289765054
O   5.1109247950  2.3346493570 -0.3337268807
H  -1.3359514213 -0.6570478053  1.5452273549
H  -0.5085313580 -1.1677889390 -0.5911996718
H  -1.5182082471  0.1532185383 -1.2162803213
H   0.3531106219  1.7560684862 -0.7469230752
H   0.8215076396  0.5243480257 -1.9096553465
H   0.7950322948 -1.0836055594  1.2839913272
H   4.3775247521  1.6945930154 -0.1943350814
H   2.4228132771 -0.4332875496  1.8357579518
H   4.7832932210  2.8215525313 -1.0934878823
17
Image 61  Energy = -421.92034565
C  -1.1826530499  0.2012484558  0.8710535561
O  -1.5360289185  1.2881877185  1.2501118736
C  -0.7022469868 -0.0948284597 -0.5299096066
C   0.5544758739  0.6887995768 -0.8838771942
C   1.7565757426  0.3719837623  0.0027004272
O   2.8587939437  0.8806220740 -0.3592570421
C   1.5462589241 -0.3755278835  1.1365959373
O   5.1080371187  2.3320809423 -0.3425727259
H  -1.2902332707 -0.6616531469  1.5527347956
H  -0.5039039308 -1.1646421312 -0.6052575277
H  -1.5305620962  0.1625941622 -1.1949460753
H   0.3550075812  1.7586287442 -0.7777314459
H   0.8333515165  0.5155102300 -1.9252534953
H   0.7859735564 -1.1291920641  1.2311990971
H   4.3754810335  1.6949954638 -0.1872379303
H   2.3520226448 -0.4132818431  1.8620695507
H   4.7696500954  2.8144744087 -1.1004221725
17
Image 62  Energy = -421.91874173
C  -1.1256237922  0.1947830950  0.8874794558
O  -1.4648545284  1.2868748566  1.2729010265
C  -0.6916734574 -0.0939335673 -0.5343609801
C   0.5569506352  0.6916607630 -0.9053909231
C   1.7378142327  0.3803380504  0.0045153416
O   2.8535320351  0.8725260073 -0.3240517044
C   1.4800131078 -0.3469565612  1.1489179006
O   5.1017228517  2.3276857254 -0.3485037204
H  -1.2583765715 -0.6735220432  1.5568013483
H  -0.4957104557 -1.1628536079 -0.6211498287
H  -1.5409172184  0.1710317652 -1.1686519211
H   0.3571149181  1.7619140459 -0.8035355362
H   0.8447890883  0.5134642729 -1.9435975456
H   0.7851010494 -1.1674029839  1.1846759339
H   4.3703527180  1.6922908439 -0.1820627715
H   2.2818405062 -0.3852289086  1.8815533797
H   4.7579247091  2.8073282852 -1.1055393622
17
Image 63  Energy = -421.91716388
C  -1.0650793533  0.1866106919  0.9047435481
O  -1.3996192901  1.2843028862  1.2919585081
C  -0.6784198931 -0.0940298842 -0.5371551738
C   0.5591257746  0.6958050708 -0.9252610397
C   1.7206643200  0.3861191712  0.0014550159
O   2.8474115520  0.8558551695 -0.2991122050
C   1.4150650247 -0.3216819667  1.1589402917
O   5.0935674662  2.3228306366 -0.3516047860
H  -1.2444827864 -0.6874645799  1.5565849323
H  -0.4845502408 -1.1618021865 -0.6385861108
H  -1.5472266061  0.1780626203 -1.1415404926
H   0.3567940043  1.7655223963 -0.8208386871
H   0.8537762026  0.5183831563 -1.9615299021
H   0.7943347770 -1.1978850124  1.1521692700
H   4.3644409400  1.6872528372 -0.1784783715
H   2.2163269664 -0.3476854165  1.8971681616
H   4.7478710857  2.7998043942 -1.1089128134
17
Image 64  Energy = -421.91538996
C  -0.9886335710  0.1792482749  0.9249852583
O  -1.3358797534  1.2825501909  1.3069736919
C  -0.6615475582 -0.0944650778 -0.5384613825
C   0.5606792155  0.7030106790 -0.9480280216
C   1.6987066118  0.3877988845 -0.0044389722
O   2.8396987297  0.8272727853 -0.2728372657
C   1.3449218361 -0.3033220432  1.1627091135
O   5.0834592830  2.3172874085 -0.3535348420
H  -1.2302504559 -0.6991400767  1.5538161389
H  -0.4686462026 -1.1605486220 -0.6610374803
H  -1.5510473678  0.1862993783 -1.1075942144
H   0.3514109202  1.7699308359 -0.8312539097
H   0.8610823805  0.5315064519 -1.9821689269
H   0.8159560136 -1.2361123613  1.1254151102
H   4.3590749766  1.6800040149 -0.1744056137
H   2.1348193537 -0.2913767674  1.9127134105
H   4.7361955073  2.7900560627 -1.1128519257
17
Image 65  Energy = -421.91407644
C  -0.8766989293  0.1692851925  0.9486006522
O  -1.2612667825  1.2823385167  1.3158879273
C  -0.6422565852 -0.0991005311 -0.5414176279
C   0.5576814835  0.7156958464 -0.9715897500
C   1.6757096629  0.3894385213 -0.0145294812
O   2.8344004997  0.7793410226 -0.2457997647
C   1.2664738981 -0.2903774870  1.1612211955
O   5.0648245417  2.3065855789 -0.3511528977
H  -1.1957460213 -0.7123681856  1.5398796634
H  -0.4504505906 -1.1614697309 -0.6913948472
H  -1.5544670113  0.1947831303 -1.0635833053
H   0.3348142815  1.7773337485 -0.8311222310
H   0.8665132570  0.5572105161 -2.0039400215
H   0.8425647998 -1.2751368697  1.0994348248
H   4.3464937108  1.6659131721 -0.1708707631
H   2.0223625750 -0.2021999440  1.9354760402
H   4.7190471699  2.7727276301 -1.1150994189
17
Image 66  Energy = -421.91210479
C  -0.8243260646  0.1580635832  0.9521053763
O  -1.2087989171  1.2835272029  1.3247683541
C  -0.6358791362 -0.0991080598 -0.5480162809
C   0.5534845194  0.7290240194 -0.9794614134
C   1.6631892557  0.3888540785 -0.0174014304
O   2.8330841663  0.7221661164 -0.2466081189
C   1.2241192105 -0.2698102800  1.1727365678
O   5.0408956938  2.2933029615 -0.3438901967
H  -1.1693228999 -0.7327218100  1.5179929603
H  -0.4449428229 -1.1585056300 -0.7191377464
H  -1.5566952233  0.2024343849 -1.0487108138
H   0.3214951327  1.7869035079 -0.8216505590
H   0.8721531446  0.5866533588 -2.0109145220
H   0.8990804563 -1.2956826427  1.0941129140
H   4.3314906547  1.6444256640 -0.1683541800
H   1.9569622463 -0.1180817303  1.9565203219
H   4.6940104221  2.7485552365 -1.1140908422
17
Image 67  Energy = -421.91263096
C  -0.7450528638  0.1493782022  0.9739151549
O  -1.1598570261  1.2908729433  1.3361486291
C  -0.6326697661 -0.1010670120 -0.5485722484
C   0.5503490740  0.7300419585 -0.9901973413
C   1.6502020500  0.3977610561 -0.0190289532
O   2.8265039781  0.6896817413 -0.2352547396
C   1.1498205269 -0.2402935966  1.1789748402
O   5.0312895220  2.2852388517 -0.3400657112
H  -1.1503798863 -0.7466258043  1.5049704043
H  -0.4491775153 -1.1612957581 -0.7349610180
H  -1.5580148707  0.2056784181 -1.0359369843
H   0.3150783530  1.7874542761 -0.8250203945
H   0.8758874327  0.5891777049 -2.0192347027
H   0.9545352414 -1.3052272754  1.0679539184
H   4.3188420424  1.6400402109 -0.1734974656
H   1.8815263821 -0.0856471827  1.9708670901
H   4.6911172628  2.7448312994 -1.1110601076
17
Image 68  Energy = -421.91676157
C  -0.6710152302  0.1340977775  0.9878059175
O  -1.0995819989  1.2903473862  1.3497735632
C  -0.6286974630 -0.1029675490 -0.5501066022
C   0.5494280909  0.7334123553 -1.0015275640
C   1.6437277812  0.4055952715 -0.0242107160
O   2.8276904121  0.6613173144 -0.2210941643
C   1.0912998036 -0.2225291890  1.1767171383
O   5.0148538611  2.2728980866 -0.3355471102
H  -1.1288425806 -0.7583169861  1.4911804315
H  -0.4553169682 -1.1624280399 -0.7590819238
H  -1.5624672924  0.2134779434 -1.0135676893
H   0.3064246985  1.7893123550 -0.8303301515
H   0.8777681632  0.5945390700 -2.0303779163
H   1.0102274168 -1.3064989323  1.0491017735
H   4.2985423183  1.6286910272 -0.1797997123
H   1.7902660527 -0.0394747034  1.9988261373
H   4.6856928050  2.7385269316 -1.1077610999
17
Image 69  Energy = -421.92327567
C  -0.5981296758  0.1105302492  0.9965550230
O  -1.0253232080  1.2866778419  1.3672833025
C  -0.6256969357 -0.1022456608 -0.5542498988
C   0.5504433485  0.7393196057 -1.0144365900
C   1.6417172417  0.4101873572 -0.0332708713
O   2.8315481498  0.6351258889 -0.2084398165
C   1.0436720246 -0.2204797987  1.1655774250
O   4.9984960988  2.2599055931 -0.3314936766
H  -1.0968359091 -0.7729546388  1.4811264105
H  -0.4638843428 -1.1600679513 -0.7881009115
H  -1.5709925270  0.2262378661 -0.9842828831
H   0.2986652642  1.7923457077 -0.8371827730
H   0.8775089585  0.6030999692 -2.0445037026
H   1.0670160484 -1.3114076197  1.0427216444
H   4.2784637048  1.6161075409 -0.1870029831
H   1.6629337725  0.0258245012  2.0344433283
H   4.6803978685  2.7317936259 -1.1047427491
17
Image 70  Energy = -421.92794435
C  -0.5542199011  0.0821713560  0.9927689590
O  -0.9571394862  1.2713016284  1.3840954091
C  -0.6238570784 -0.0977936223 -0.5626983144
C   0.5528249552  0.7490118868 -1.0219043365
C   1.6446068486  0.4105862309 -0.0385328721
O   2.8386996652  0.6032971323 -0.2121208762
C   1.0254830677 -0.2212862423  1.1601089807
O   4.9747184026  2.2389167137 -0.3267631873
H  -1.0693665734 -0.7977550307  1.4651944452
H  -0.4786284328 -1.1502427312 -0.8349604914
H  -1.5788465751  0.2520825661 -0.9532877818
H   0.2958968502  1.7988866269 -0.8382766718
H   0.8777532886  0.6201299606 -2.0544962273
H   1.1488445943 -1.3117258843  1.0707768641
H   4.2521073397  1.5913387857 -0.2003627264
H   1.5303725498  0.1114211322  2.0708306264
H   4.6707504572  2.7196595079 -1.1003714278
17
Image 71  Energy = -421.92929516
C  -0.5381026755  0.0568056976  0.9842548826
O  -0.9365008745  1.2429058681  1.3991984812
C  -0.6219320431 -0.0885644707 -0.5735064030
C   0.5585212137  0.7613244736 -1.0215532666
C   1.6510474850  0.4014191581 -0.0429939314
O   2.8482789303  0.5523787709 -0.2325814148
C   1.0222832834 -0.2146103552  1.1632081702
O   4.9514615684  2.2215424859 -0.3220880325
H  -1.0526404192 -0.8312838641  1.4419815909
H  -0.4913592761 -1.1339560331 -0.8806908232
H  -1.5796787548  0.2831777597 -0.9372406095
H   0.3050309695  1.8088730187 -0.8227518283
H   0.8806982711  0.6469201231 -2.0568075146
H   1.2203240621 -1.2980185454  1.1309651868
H   4.2375284878  1.5597772210 -0.2157975624
H   1.4378578412  0.1971228065  2.0847772214
H   4.6571819964  2.7041857181 -1.0983738555
17
Image 72  Energy = -421.92946886
C  -0.5369377536  0.0350525472  0.9755979570
O  -0.9544080829  1.2066790550  1.4150308603
C  -0.6199158242 -0.0755078023 -0.5849145719
C   0.5671082869  0.7739300442 -1.0167168341
C   1.6586446286  0.3833315732 -0.0482000361
O   2.8578747833  0.4880279079 -0.2563098617
C   1.0216179731 -0.2036787132  1.1700694045
O   4.9316168340  2.2094738088 -0.3195118993
H  -1.0411547816 -0.8699703366  1.4116583504
H  -0.5012488651 -1.1136239468 -0.9199774308
H  -1.5753975006  0.3156746858 -0.9348418639
H   0.3251340123  1.8189731939 -0.7920429717
H   0.8851251506  0.6804274370 -2.0551878446
H   1.2716970399 -1.2759514684  1.2072913615
H   4.2339152439  1.5290772085 -0.2311571121
H   1.3832639824  0.2795985412  2.0795383916
H   4.6430650357  2.6884859155 -1.1003259964
17
Image 73  Energy = -421.92936366
C  -0.5498770061 -0.0013888432  0.9706718906
O  -1.0054455547  1.1326012041  1.4661436160
C  -0.6184329559 -0.0408296887 -0.5946118247
C   0.5834054127  0.8028087063 -0.9943039510
C   1.6641439957  0.3738410474 -0.0296559793
O   2.8657586875  0.4532973190 -0.2355938640
C   1.0115159185 -0.2129526118  1.1807663864
O   4.9378352177  2.1961163617 -0.3653359353
H  -1.0367243828 -0.9402259925  1.3530919955
H  -0.5169107822 -1.0654273099 -0.9723757788
H  -1.5658887041  0.3807718777 -0.9308272486
H   0.3631152708  1.8482504870 -0.7518242275
H   0.9061409170  0.7260343590 -2.0327449147
H   1.2922069714 -1.2753916389  1.2497712952
H   4.2444754826  1.5148991728 -0.2627723023
H   1.3393147625  0.2982315387  2.0878473203
H   4.6353670130  2.6793635501 -1.1382462523
17
Image 74  Energy = -421.92933297
C  -0.5628129241 -0.0343852119  0.9696400334
O  -1.0303026810  1.0729345312  1.5117343447
C  -0.6174014720 -0.0084321517 -0.5965572300
C   0.5959437356  0.8332395502 -0.9626876042
C   1.6616003216  0.3890926766  0.0124532010
O   2.8655108842  0.4946735670 -0.1642103866
C   0.9957460871 -0.2475942181  1.1894862648
O   4.9718699325  2.1804565533 -0.4531748372
H  -1.0485197756 -0.9920409017  1.3039097711
H  -0.5296936068 -1.0181905417 -1.0146329037
H  -1.5570140859  0.4395700378 -0.9198916922
H   0.3830279585  1.8800418154 -0.7219884557
H   0.9355725226  0.7598346403 -1.9962643001
H   1.2816557528 -1.3105056571  1.2161460999
H   4.2624995118  1.5261054525 -0.2985320425
H   1.3077331321  0.2228650101  2.1236143701
H   4.6345847439  2.6823347629 -1.1990450031
17
Image 75  Energy = -421.93217145
C  -0.5772679352 -0.0598739225  0.9681097147
O  -1.0352242327  1.0335438498  1.5404296792
C  -0.6138485365  0.0145887651 -0.5951458195
C   0.6070956177  0.8590668693 -0.9271323260
C   1.6561904331  0.4155844238  0.0627846341
O   2.8602211376  0.5706460850 -0.0667060939
C   0.9792596939 -0.2862331644  1.2010951645
O   5.0123400998  2.1446582200 -0.5735646506
H  -1.0721970191 -1.0239538227  1.2660770427
H  -0.5314646643 -0.9814528566 -1.0455064974
H  -1.5463586931  0.4817241535 -0.9127143222
H   0.3903996773  1.9060491893 -0.6929280339
H   0.9664990999  0.7873711566 -1.9545179372
H   1.2632632169 -1.3471216587  1.1686028251
H   4.2841194592  1.5328438661 -0.3456038248
H   1.2829401271  0.1304065455  2.1659824155
H   4.6240326428  2.6921525223 -1.2592622124
17
Image 76  Energy = -421.93199808
C  -0.5887229617 -0.0778228256  0.9703771197
O  -1.0518225776  1.0029519981  1.5620793526
C  -0.6109036816  0.0294616516 -0.5911796141
C   0.6164372199  0.8731656657 -0.8995811287
C   1.6500521886  0.4437269134  0.1139817775
O   2.8474609187  0.6565199025  0.0328410725
C   0.9645052113 -0.3086319582  1.2139860518
O   5.0490149482  2.0853386618 -0.7077526362
H  -1.0865833471 -1.0482987235  1.2413494718
H  -0.5359169144 -0.9568488974 -1.0632133222
H  -1.5373684164  0.5116623516 -0.9035001952
H   0.3962407422  1.9226547616 -0.6833433308
H   0.9981266780  0.7921916613 -1.9183821361
H   1.2480184030 -1.3672799815  1.1344878823
H   4.3031925040  1.5316603277 -0.4044647482
H   1.2605006270  0.0643673262  2.1984258020
H   4.6277681845  2.7151809332 -1.2961111428
17
Image 77  Energy = -421.93089269
C  -0.6083456457 -0.1045098735  0.9743701127
O  -1.0960540049  0.9484791450  1.5952154585
C  -0.6182064948  0.0488283866 -0.5842227519
C   0.6279984789  0.8690779500 -0.8781488628
C   1.6438316206  0.4586595343  0.1629759201
O   2.8330991773  0.7193847949  0.1196428494
C   0.9440334040 -0.3235018972  1.2354877776
O   5.0923648214  2.0608686409 -0.8213018584
H  -1.0966459486 -1.0908127420  1.2045448153
H  -0.5759293010 -0.9240037053 -1.0857608708
H  -1.5315261362  0.5665468451 -0.8780195310
H   0.4236647343  1.9273926689 -0.6977715269
H   1.0335904241  0.7561930527 -1.8851770933
H   1.2357661153 -1.3783169948  1.1399979865
H   4.3356844127  1.5380751355 -0.5056715893
H   1.2209544602  0.0305646700  2.2320062439
H   4.6857197905  2.7670744783 -1.3281671065
17
Image 78  Energy = -421.92805323
C  -0.6324124021 -0.1270773837  0.9794097358
O  -1.1500413568  0.8950159213  1.6261431705
C  -0.6341519513  0.0649100934 -0.5772153621
C   0.6334786509  0.8518135713 -0.8700164329
C   1.6384534713  0.4489264549  0.1866916891
O   2.8268751309  0.7139705023  0.1450330355
C   0.9214658625 -0.3287792835  1.2562309897
O   5.1410322030  2.1244514749 -0.8160992208
H  -1.1072459285 -1.1288987324  1.1717707626
H  -0.6278739401 -0.8972998593 -1.0989231603
H  -1.5341275782  0.6154906879 -0.8529923413
H   0.4575012243  1.9195218884 -0.7258926029
H   1.0534724810  0.7010580721 -1.8666128168
H   1.2201214935 -1.3825058352  1.1764682274
H   4.3892472526  1.5452595865 -0.6257865397
H   1.1815210796  0.0317741095  2.2548788655
H   4.7726842846  2.8223688696 -1.3630881509
17
Image 79  Energy = -421.92407753
C  -0.6541672259 -0.1416506375  0.9852681903
O  -1.1917673974  0.8584998057  1.6483371072
C  -0.6471157733  0.0749685617 -0.5721534493
C   0.6334198941  0.8413272361 -0.8631660455
C   1.6265695602  0.4423909445  0.2073590513
O   2.8142666575  0.7043453669  0.1723346836
C   0.9010294722 -0.3328640712  1.2731439207
O   5.1660966381  2.1966684211 -0.7807903214
H  -1.1222444704 -1.1521587068  1.1490391288
H  -0.6593550932 -0.8815995971 -1.1033310349
H  -1.5384474320  0.6422170064 -0.8431705118
H   0.4766442645  1.9150536164 -0.7503881815
H   1.0651712727  0.6610111841 -1.8501833099
H   1.2076737803 -1.3846628576  1.1998873244
H   4.4681050664  1.5323750347 -0.7524757271
H   1.1622681061  0.0310428133  2.2706642433
H   4.8418525846  2.8630359201 -1.3903750905
17
Image 80  Energy = -421.91921238
C  -0.6730674376 -0.1523571647  0.9910439311
O  -1.2265126171  0.8274177488  1.6685848134
C  -0.6572401869  0.0832687868 -0.5684611877
C   0.6325058137  0.8344923191 -0.8560305658
C   1.6146483711  0.4427874810  0.2268871476
O   2.8000503460  0.7082118992  0.2036793625
C   0.8884268610 -0.3343107835  1.2877723458
O   5.1392770299  2.2500116522 -0.7327895489
H  -1.1393543974 -1.1681208133  1.1268887787
H  -0.6828447838 -0.8693211754 -1.1061099278
H  -1.5396500456  0.6622450747 -0.8450380674
H   0.4887244836  1.9121748646 -0.7703022356
H   1.0741186551  0.6275941705 -1.8335454575
H   1.2046729989 -1.3834312979  1.2158659896
H   4.5540694981  1.5035042756 -0.8879717575
H   1.1668641033  0.0313681113  2.2810614628
H   4.9053113202  2.8944648972 -1.4015350428
17
Image 81  Energy = -421.91329567
C  -0.6908086751 -0.1599250972  0.9961667464
O  -1.2535819237  0.8000851762  1.6890040380
C  -0.6657141698  0.0901791094 -0.5668442364
C   0.6315032533  0.8288909333 -0.8485549668
C   1.6061944870  0.4484218694  0.2428566080
O   2.7887343447  0.7274574155  0.2295243258
C   0.8860842902 -0.3330719330  1.3009119630
O   5.0650793728  2.2745223304 -0.6936175933
H  -1.1633680426 -1.1769176233  1.1046499258
H  -0.7025060528 -0.8587255906 -1.1104332476
H  -1.5370100107  0.6781188725 -0.8621200124
H   0.4949783105  1.9088639724 -0.7837875892
H   1.0807246699  0.5993960996 -1.8170502294
H   1.2125539813 -1.3791170878  1.2291641789
H   4.6439559868  1.4700456981 -1.0030758907
H   1.1968192242  0.0342264835  2.2865737803
H   4.9563609195  2.9175493204 -1.3933678320
17
Image 82  Energy = -421.90680223
C  -0.7128895331 -0.1667094786  0.9982859282
O  -1.2740061678  0.7779663697  1.7057110070
C  -0.6748713015  0.0948219939 -0.5683686240
C   0.6291511629  0.8238189546 -0.8386420396
C   1.5997547146  0.4543955510  0.2575498702
O   2.7801358462  0.7496073673  0.2462465334
C   0.8924585960 -0.3311208930  1.3165178057
O   4.9835864796  2.2797791388 -0.6824577726
H  -1.2024726782 -1.1804607380  1.0854545423
H  -0.7191142039 -0.8499788298 -1.1190953600
H  -1.5325178559  0.6907794853 -0.8928326050
H   0.4978336685  1.9050175665 -0.7894448956
H   1.0820268281  0.5770907307 -1.7997532766
H   1.2320842419 -1.3712340954  1.2427889807
H   4.7275597799  1.4442047417 -1.0767954840
H   1.2461916642  0.0349335046  2.2915253982
H   4.9950887440  2.9370886672 -1.3766899981
17
Image 83  Energy = -421.89923803
C  -0.7419429657 -0.1737660848  0.9929949909
O  -1.2792393231  0.7608424842  1.7191984699
C  -0.6866047056  0.0967874614 -0.5746495396
C   0.6250161077  0.8191984851 -0.8256403565
C   1.5959942677  0.4596226023  0.2705514868
O   2.7777277268  0.7657617977  0.2508111706
C   0.9057134202 -0.3250206197  1.3328057116
O   4.9320935119  2.2755704516 -0.6953429086
H  -1.2531054792 -1.1831022005  1.0693949866
H  -0.7329795052 -0.8442724207 -1.1331135527
H  -1.5291766893  0.7009523349 -0.9335986240
H   0.4968214659  1.9003129704 -0.7850878138
H   1.0789550711  0.5594353372 -1.7801210887
H   1.2582635402 -1.3585184620  1.2587027195
H   4.7752520122  1.4225755427 -1.1043067179
H   1.3099186346  0.0353694330  2.2959300770
H   5.0172929934  2.9582508847 -1.3585290949
17
Image 84  Energy = -421.88982817
C  -0.7720040040 -0.1821425368  0.9779948434
O  -1.2655715192  0.7433913641  1.7338703888
C  -0.7001382666  0.0981597654 -0.5838398222
C   0.6215304948  0.8148458108 -0.8138303251
C   1.6012225524  0.4670536417  0.2821826608
O   2.7818451209  0.7790189890  0.2527287376
C   0.9119050717 -0.3132144283  1.3465526791
O   4.9020377498  2.2660889381 -0.7223155380
H  -1.2934224828 -1.1903228926  1.0605361758
H  -0.7436548437 -0.8412509300 -1.1463891693
H  -1.5298933727  0.7101175370 -0.9701820037
H   0.4944672000  1.8951432021 -0.7796595988
H   1.0765011656  0.5459711968 -1.7624664641
H   1.2708516436 -1.3435233833  1.2703299452
H   4.8031640082  1.3952202274 -1.1104117720
H   1.3644789975  0.0382040034  2.3023756549
H   5.0266804763  2.9872394373 -1.3374764638
17
Image 85  Energy = -421.87167151
C  -0.8051069053 -0.1946351434  0.9480715570
O  -1.2331024655  0.7210824485  1.7490534702
C  -0.7184674689  0.1002230750 -0.5968019847
C   0.6176993784  0.8089323763 -0.7997523517
C   1.6173750714  0.4780211345  0.2918707903
O   2.7990263573  0.7931972522  0.2536191385
C   0.8933951936 -0.2944676512  1.3572234784
O   4.8764595321  2.2589526042 -0.7686390542
H  -1.3318765622 -1.2019062532  1.0585758888
H  -0.7524373518 -0.8401711752 -1.1576611525
H  -1.5353279606  0.7203469281 -1.0040812903
H   0.4917394903  1.8890322622 -0.7751784598
H   1.0717059884  0.5347014003 -1.7455607385
H   1.2772177845 -1.3291404557  1.2800293533
H   4.8253334233  1.3531272591 -1.1022089599
H   1.4198784596  0.0435632679  2.3208352724
H   5.0364880043  3.0291406464 -1.3093949610
17
Image 86  Energy = -421.83365096
C  -0.8288973091 -0.2061239776  0.9093906441
O  -1.1947253173  0.7001895283  1.7617699302
C  -0.7369783172  0.1046044503 -0.6100938214
C   0.6119016259  0.7997670765 -0.7815227379
C   1.6544729099  0.4927673212  0.2887989414
O   2.8169984943  0.8054529297  0.2522833511
C   0.8272597470 -0.2700028991  1.3575374160
O   4.8670742889  2.2595872679 -0.8106416593
H  -1.3564765888 -1.2119908372  1.0642458533
H  -0.7568245026 -0.8408680195 -1.1617487056
H  -1.5405793007  0.7272698860 -1.0253457109
H   0.4893822599  1.8849486736 -0.7727139019
H   1.0676170932  0.5281009191 -1.7342770162
H   1.2862903780 -1.3315092874  1.2853900632
H   4.8342418912  1.3085533124 -1.0890957158
H   1.4694352482  0.0515243452  2.3514342478
H   5.0398073837  3.0677293402 -1.2854111912
