17
Image 0  Energy = -421.93853970
C  -1.9738935794  0.4962489924  0.0162250114
O  -2.0984833347  1.6986563754  0.0184897728
C  -0.7059345040 -0.2627119232 -0.0224387638
C   0.5727884820  0.5451026111 -0.0461145158
C   1.7804743619 -0.4106645675 -0.1017221947
O   1.5731584738 -1.5355356936 -0.6532622975
C   2.9764244264  0.0659951330  0.4348072944
O   4.2893318729  2.7133284664  0.0311332219
H  -2.8899739444 -0.1332440526  0.0622332977
H  -0.6837191458 -0.9274057543  0.8471929195
H  -0.7024454341 -0.9586032598 -0.8666304089
H   0.6190072748  1.2210174619  0.8050375587
H   0.5695913158  1.1948494163 -0.9227280909
H   3.0000105245  0.8683685395  1.1712075024
H   3.8687669294  1.8182420495 -0.0712965351
H   3.8983610699 -0.4548184107  0.1850247515
H   4.4565382068  2.9311751244 -0.8871573186
17
Image 1  Energy = -421.92334726
C  -1.9693628755  0.4967930890  0.0185122240
O  -2.0996001644  1.6995134784  0.0209156491
C  -0.6973589717 -0.2623555121 -0.0175430546
C   0.5790522856  0.5481901187 -0.0364119260
C   1.7957776457 -0.3932329073 -0.1167536930
O   1.5964960779 -1.4882905604 -0.6883074796
C   2.9940099608  0.0863074288  0.4173182846
O   4.1798961085  2.7332008130 -0.0187639989
H  -2.8874021294 -0.1297151037  0.0567684210
H  -0.6931557990 -0.9344425117  0.8485023123
H  -0.6963880692 -0.9498181371 -0.8664574467
H   0.6366992346  1.2011278367  0.8302705448
H   0.5892771617  1.1911899094 -0.9176123337
H   2.9716533301  0.8348246542  1.1925855974
H   3.7999622171  1.8290742776 -0.0509668819
H   3.9047131773 -0.4701323046  0.2227331327
H   4.5457327140  2.8777669401 -0.8947879633
17
Image 2  Energy = -421.94184409
C  -1.9757028681  0.4981352671  0.0260699004
O  -2.0974244889  1.7007971238  0.0269153170
C  -0.7108340085 -0.2747801389 -0.0036067571
C   0.5728653529  0.5254247858 -0.0422355372
C   1.8019455761 -0.3963269155 -0.1428044912
O   1.6360487039 -1.4926717298 -0.7371540705
C   2.9851000818  0.1148741515  0.3925904896
O   4.1867540891  2.7678845271 -0.0241184044
H  -2.8978492178 -0.1206349624  0.0603841162
H  -0.7185516992 -0.9328876338  0.8718343163
H  -0.7286633901 -0.9676888912 -0.8472289745
H   0.6418707931  1.1788266124  0.8250181219
H   0.5651920495  1.1611845310 -0.9286033203
H   2.9187190813  0.8477671644  1.1849963490
H   3.8069529682  1.8595165869 -0.0626959545
H   3.9017638760 -0.4516482530  0.2516520485
H   4.6618138230  2.8522297956 -0.8510118682
17
Image 3  Energy = -421.94152784
C  -1.9817686952  0.5012704640  0.0303373421
O  -2.0893435881  1.7052403142  0.0391995234
C  -0.7250044721 -0.2870883415 -0.0014396389
C   0.5642465853  0.5054517240 -0.0479444125
C   1.8018306332 -0.4064281504 -0.1555817392
O   1.6373903383 -1.5149149918 -0.7250081894
C   2.9914003956  0.1326851011  0.3519613516
O   4.1876685309  2.8184243125 -0.0269767841
H  -2.9114807705 -0.1078987889  0.0588447220
H  -0.7383639485 -0.9406131060  0.8775569486
H  -0.7526892014 -0.9821872690 -0.8427577232
H   0.6399666130  1.1564245447  0.8198817801
H   0.5509570780  1.1468640426 -0.9297784929
H   2.9162694084  0.8487937453  1.1616349579
H   3.8201192791  1.9049391209 -0.0633723060
H   3.8900283007 -0.4731473090  0.2550949287
H   4.7487727600  2.8621874225 -0.8016515173
17
Image 4  Energy = -421.94234072
C  -1.9641036836  0.5086786024  0.0274192905
O  -2.0780810101  1.7115261295  0.0582757101
C  -0.7027351824 -0.2710790437 -0.0081944470
C   0.5864524059  0.5249010088 -0.0340428160
C   1.8089380884 -0.3936552826 -0.1631377883
O   1.6386235795 -1.4829217382 -0.7675156407
C   3.0037737367  0.1048065483  0.3693848995
O   4.0829809606  2.8323143430 -0.0718297095
H  -2.8897446253 -0.1063648121  0.0371536777
H  -0.7177695168 -0.9374034399  0.8603561467
H  -0.7155117482 -0.9550323133 -0.8598667552
H   0.6609818228  1.1521786684  0.8485680661
H   0.5737484321  1.1869913412 -0.8982158286
H   2.9426922954  0.7968001938  1.2009637935
H   3.7287870574  1.9108598743 -0.0595161754
H   3.8927616521 -0.5173398914  0.2661787556
H   4.6982068212  2.8047441250 -0.8059810192
17
Image 5  Energy = -421.92463704
C  -1.9626436886  0.5006259698  0.0269169246
O  -2.0880287389  1.7026528061  0.0725196325
C  -0.6928343969 -0.2662373547 -0.0144335770
C   0.5850024170  0.5421854024 -0.0367689060
C   1.8094775187 -0.3831882753 -0.1678719923
O   1.6294657046 -1.4529157343 -0.7891170190
C   2.9975826002  0.1081834175  0.3955097012
O   4.1672452945  2.7878266470 -0.0564370421
H  -2.8839663436 -0.1232062030  0.0272807869
H  -0.7034709650 -0.9369089930  0.8536595023
H  -0.6936787664 -0.9484087865 -0.8673409981
H   0.6612463800  1.1682666649  0.8495514921
H   0.5735504423  1.2109860724 -0.8981325678
H   2.9164931967  0.8005616084  1.2248376841
H   3.7960586854  1.8778142772 -0.0052424793
H   3.8781586368 -0.5257183061  0.3160004579
H   4.5603433356  2.8074832408 -0.9309314846
17
Image 6  Energy = -421.92485669
C  -1.9603599264  0.4930665531  0.0287818949
O  -2.0934966187  1.6940308542  0.0859838433
C  -0.6861827274 -0.2634623869 -0.0164674346
C   0.5835156694  0.5568659797 -0.0403563619
C   1.8141118396 -0.3586973184 -0.1730587533
O   1.6481848431 -1.4101747469 -0.8286261009
C   2.9878320578  0.1140996094  0.4319073005
O   4.2482579722  2.7351836293 -0.0711130280
H  -2.8784434864 -0.1350748944  0.0208543544
H  -0.6906360303 -0.9355363708  0.8515118017
H  -0.6798833141 -0.9450549263 -0.8706423223
H   0.6556371588  1.1839147371  0.8453320331
H   0.5657172199  1.2243829289 -0.9022816603
H   2.8893282554  0.8123945419  1.2541783813
H   3.8559320356  1.8378804243  0.0269485454
H   3.8685789198 -0.5205987587  0.3698814872
H   4.4219078917  2.7867806088 -1.0128336707
17
Image 7  Energy = -421.92492809
C  -1.9756319683  0.4832461220  0.0331122981
O  -2.1050689259  1.6847937175  0.0766073314
C  -0.7011438002 -0.2764505932 -0.0106583556
C   0.5645745507  0.5502702322 -0.0644767535
C   1.8074754501 -0.3486140610 -0.1862168491
O   1.6620174222 -1.3965371719 -0.8517266677
C   2.9659575435  0.1347194785  0.4374401500
O   4.3894862808  2.6816111529 -0.0421579470
H  -2.8946643417 -0.1429127620  0.0403018011
H  -0.6990325137 -0.9257394360  0.8742976849
H  -0.7059967968 -0.9767039691 -0.8488250642
H   0.6386524673  1.1971483653  0.8056730421
H   0.5364786297  1.1978999924 -0.9409450501
H   2.8471005062  0.8578476729  1.2355043338
H   3.9371093352  1.8119888468  0.0399822735
H   3.8603297431 -0.4793551050  0.3929864031
H   4.4223576275  2.8167816104 -0.9909000481
17
Image 8  Energy = -421.92464408
C  -1.9896660503  0.4791254384  0.0352043157
O  -2.1145185450  1.6815774228  0.0588284279
C  -0.7161615184 -0.2870717128 -0.0033126490
C   0.5514035977  0.5391944735 -0.0827979870
C   1.8039835600 -0.3494929091 -0.1973686922
O   1.6684787648 -1.4082516101 -0.8488951310
C   2.9589957668  0.1626775849  0.4136987136
O   4.4514742345  2.6531214306  0.0039728884
H  -2.9104186098 -0.1460837059  0.0610966194
H  -0.7123452255 -0.9168798653  0.8964896857
H  -0.7352796387 -1.0041052811 -0.8279072548
H   0.6265655888  1.2042787492  0.7743709728
H   0.5128567764  1.1692390269 -0.9724456952
H   2.8296632024  0.8886948879  1.2095545209
H   3.9579142250  1.8010490679  0.0296951117
H   3.8576967890 -0.4468356122  0.3825736881
H   4.5093579069  2.8497532460 -0.9327609850
17
Image 9  Energy = -421.92483344
C  -1.9935136255  0.4674038295  0.0432460394
O  -2.1300312718  1.6684847286  0.0714126725
C  -0.7146377005 -0.2851486488 -0.0024805793
C   0.5453658911  0.5486160441 -0.0861422280
C   1.7961016129 -0.3420177248 -0.1882732055
O   1.6643993929 -1.3981085105 -0.8437451260
C   2.9411833656  0.1641626845  0.4392876740
O   4.5448884895  2.5880610355 -0.0269288986
H  -2.9090831060 -0.1634344048  0.0676672355
H  -0.7006573885 -0.9199990451  0.8927453789
H  -0.7309610334 -0.9984926434 -0.8290528995
H   0.6155980784  1.2229820123  0.7638480975
H   0.5083406286  1.1651989525 -0.9847959009
H   2.8125773372  0.9332204380  1.1914798840
H   4.0140298304  1.7620382080  0.0219494173
H   3.8551118740 -0.4195738270  0.4040344514
H   4.4312867509  2.8766088888 -0.9342519655
17
Image 10  Energy = -421.94258064
C  -2.0059210100  0.4618927452  0.0571210612
O  -2.1422293265  1.6626705470  0.0801932156
C  -0.7282512536 -0.2912796328 -0.0053440656
C   0.5324618580  0.5421219766 -0.1000118742
C   1.7886528872 -0.3397872359 -0.1789059073
O   1.6723632924 -1.4229924297 -0.8075286997
C   2.9290986250  0.1870571441  0.4287732260
O   4.6336015073  2.5375193650 -0.0236525215
H  -2.9186380174 -0.1713038447  0.0985647276
H  -0.6990403461 -0.9304663558  0.8854083764
H  -0.7583806537 -0.9994009528 -0.8359780832
H   0.5931210319  1.2303483269  0.7397167059
H   0.4951659576  1.1429175771 -1.0097445230
H   2.7970593310  0.9834808771  1.1511142968
H   4.0586332094  1.7385009910 -0.0005069808
H   3.8494386220 -0.3867908837  0.4005640876
H   4.4528646382  2.9255085855 -0.8797822056
17
Image 11  Energy = -421.94228962
C  -2.0140806588  0.4550897611  0.0674938779
O  -2.1524665746  1.6555067705  0.0874007397
C  -0.7367211048 -0.2963961395 -0.0093933339
C   0.5225750630  0.5381611325 -0.1107790731
C   1.7840933534 -0.3372390526 -0.1765670651
O   1.6730180707 -1.4351493488 -0.7789558190
C   2.9248182067  0.2083617990  0.4149726736
O   4.6858563649  2.5113822789 -0.0201948089
H  -2.9252508437 -0.1776683219  0.1230782875
H  -0.6989671200 -0.9394673130  0.8775874197
H  -0.7778814428 -1.0003647475 -0.8424083514
H   0.5798684790  1.2349656573  0.7214775047
H   0.4850256976  1.1293376189 -1.0261820303
H   2.7881100034  1.0154982312  1.1233822298
H   4.0887523008  1.7281123532 -0.0071644849
H   3.8448176299 -0.3663034332  0.4035475958
H   4.4784297810  2.9461704496 -0.8472955716
17
Image 12  Energy = -421.94246149
C  -2.0106457891  0.4507645264  0.0892756840
O  -2.1526000359  1.6510272727  0.1228113558
C  -0.7317602249 -0.2957175054 -0.0265453495
C   0.5254051603  0.5469699230 -0.1301271824
C   1.7856508118 -0.3290524300 -0.1812883280
O   1.6719556641 -1.4223051545 -0.7901397443
C   2.9170993485  0.2144535283  0.4354367164
O   4.6839601798  2.5044473865 -0.0235135988
H  -2.9162678979 -0.1910061840  0.1643911950
H  -0.6726965777 -0.9578509593  0.8462736607
H  -0.7878024827 -0.9824815834 -0.8748942534
H   0.5742175447  1.2504444101  0.6967648996
H   0.4889152608  1.1313156091 -1.0508609945
H   2.7677641944  1.0301184079  1.1360100554
H   4.0878832192  1.7201296597  0.0030354222
H   3.8349567906 -0.3651897417  0.4484345971
H   4.4839669037  2.9139324620 -0.8650643138
17
Image 13  Energy = -421.92453357
C  -2.0061335011  0.4404150685  0.1241735073
O  -2.1577486856  1.6384608134  0.1834384954
C  -0.7245084879 -0.2909836488 -0.0515821585
C   0.5223559707  0.5619961687 -0.1624945873
C   1.7865305129 -0.3164144196 -0.1881443013
O   1.6835476769 -1.4008368563 -0.8003293199
C   2.9007797050  0.2258446639  0.4649843297
O   4.6930809060  2.4843527388 -0.0318745658
H  -2.9021130323 -0.2136129543  0.2211174913
H  -0.6329469746 -0.9803110072  0.7988415823
H  -0.8059888944 -0.9538880392 -0.9165593452
H   0.5646239156  1.2787381270  0.6542218477
H   0.4932427545  1.1296528559 -1.0930885262
H   2.7360812152  1.0511390495  1.1477179813
H   4.0940674170  1.7059391323  0.0184309536
H   3.8125637369 -0.3588622363  0.5183191207
H   4.4925659224  2.8683720555 -0.8871730801
17
Image 14  Energy = -421.94021615
C  -1.9914712837  0.4247002902  0.1717019947
O  -2.1553000126  1.6223452145  0.2769100309
C  -0.7223560429 -0.2853874279 -0.0833690510
C   0.5198446012  0.5691266582 -0.2063405475
C   1.7806989288 -0.3041234677 -0.1818851810
O   1.6871811082 -1.4089428406 -0.7755399066
C   2.8763931807  0.2414655253  0.4851416766
O   4.6996300333  2.4750457077 -0.0235720835
H  -2.8763953922 -0.2308583607  0.2850756806
H  -0.5930801782 -1.0077638998  0.7317574368
H  -0.8486500948 -0.9107890339 -0.9700706517
H   0.5466042118  1.3079367928  0.5879784089
H   0.5042271305  1.1067567797 -1.1522853136
H   2.7078640785  1.0787774993  1.1480833586
H   4.0958569015  1.6994218205  0.0385170316
H   3.7877288429 -0.3417351668  0.5642465302
H   4.5312240785  2.8340241930 -0.8963493841
17
Image 15  Energy = -421.93948744
C  -1.9845185919  0.4182676648  0.2231328692
O  -2.1422968671  1.6107760110  0.3791480954
C  -0.7311083676 -0.2837254312 -0.1186357519
C   0.5167588322  0.5648680874 -0.2500683565
C   1.7773423219 -0.3090761788 -0.1706035622
O   1.6903826073 -1.4374063980 -0.7185791467
C   2.8648574751  0.2626010613  0.4884305116
O   4.7060481042  2.4731561594 -0.0001547092
H  -2.8643921967 -0.2411471375  0.3529420305
H  -0.5700427381 -1.0473346832  0.6509301539
H  -0.9119809059 -0.8637449323 -1.0272511809
H   0.5303253986  1.3310321795  0.5184504775
H   0.5271190025  1.0679098668 -1.2150083478
H   2.6836988171  1.1127106395  1.1307976620
H   4.0898782171  1.7055297921  0.0429679300
H   3.7748787271 -0.3171791371  0.5990289387
H   4.5930495876  2.8227614009 -0.8855275918
17
Image 16  Energy = -421.95609875
C  -1.9863484497  0.4294647878  0.2459753353
O  -2.1119052146  1.6230678267  0.4120176534
C  -0.7571665468 -0.2978534709 -0.1351927338
C   0.5095157697  0.5302453839 -0.2628567807
C   1.7819140727 -0.3245642369 -0.1460172094
O   1.7093319211 -1.4937302880 -0.6224400875
C   2.8825802240  0.2975306576  0.4394051084
O   4.7104982851  2.4707204476  0.0343206403
H  -2.8777314558 -0.2107024359  0.3926285381
H  -0.5979705921 -1.0900035061  0.6018704517
H  -0.9819925503 -0.8416724606 -1.0569236556
H   0.5036257558  1.3177328672  0.4852562760
H   0.5410016375  1.0076722706 -1.2410762289
H   2.6954243086  1.1278709176  1.1025569893
H   4.0531482392  1.7165324184  0.0202763225
H   3.7939232101 -0.2770875971  0.5572563487
H   4.6821509891  2.8847764041 -0.8270571584
