17
Image 0  Energy = -421.90167821
C  -2.0159480369  0.4997403675  0.0313205788
O  -2.0502140887  1.7102695618 -0.0102604010
C  -0.7873118883 -0.3581664443  0.0057118882
C   0.5095112396  0.4332564007 -0.0822616723
C   1.8041850765 -0.3620309990 -0.1250350575
O   1.8004733684 -1.5929066624 -0.1095502414
C   3.0280735201  0.4658236106 -0.0358132343
O   4.5754063212  2.5702321967  0.2607583914
H  -2.9836398378 -0.0342679996  0.0934686378
H  -0.8277949192 -0.9856546773  0.9027029666
H  -0.8972789595 -1.0492323448 -0.8353176792
H   0.5469371075  1.1101132293  0.7735355104
H   0.5046891994  1.0588215500 -0.9750446982
H   2.8718572079  1.0172266192  0.8984570033
H   3.7909610891  1.4241952909 -0.3067744524
H   3.8610076070 -0.2255951682 -0.0571765109
H   4.8190859099  3.1881753828 -0.4287210685
17
Image 1  Energy = -421.89304701
C  -1.9869808162  0.4925015840  0.0180304843
O  -2.0714547802  1.6973790877 -0.0034006352
C  -0.7232994157 -0.3007332636 -0.0148058509
C   0.5422666837  0.5371866469 -0.0649833612
C   1.8062521270 -0.3191135572 -0.1211487131
O   1.6906422080 -1.5135380052 -0.3954003005
C   3.0736430643  0.3273729884  0.2046363567
O   4.3843884248  2.6018947863  0.0507170054
H  -2.9208439475 -0.1073144570  0.0709765066
H  -0.7330907688 -0.9496210902  0.8699360681
H  -0.7809165069 -0.9936627046 -0.8587868614
H   0.5794969451  1.2154023821  0.7855410009
H   0.5293733105  1.1626037828 -0.9596480234
H   3.0088680429  0.7623706676  1.1889011072
H   3.6302959140  1.5044794996 -0.2026469366
H   3.8925768898 -0.3756421759  0.1492898440
H   4.6287837116  3.1284329852 -0.7172081688
17
Image 2  Energy = -421.94959836
C  -2.0147810921  0.4922549561  0.0325049020
O  -2.0797134527  1.7054942679 -0.0073273685
C  -0.7940392064 -0.3372781107  0.0076224628
C   0.5005634970  0.4378749594 -0.0673908324
C   1.7536469300 -0.4507767983 -0.0887178952
O   1.6087779289 -1.6823824250 -0.3272699889
C   2.9345937128  0.2614482505  0.1425839024
O   4.6518168732  2.5632535969  0.1901439599
H  -2.9598814457 -0.0777823833  0.0939982456
H  -0.8082564110 -0.9766599265  0.8947768552
H  -0.8680210852 -1.0356561463 -0.8285551524
H   0.5589623973  1.1339995372  0.7680786347
H   0.4896088952  1.0410661426 -0.9757398184
H   2.8700135042  1.0731306811  0.8552877219
H   4.0738152726  1.8311717963 -0.1137608239
H   3.8840349937 -0.2362432655 -0.0016777798
H   4.7488585417  3.1270846153 -0.5745569863
17
Image 3  Energy = -421.93853970
C  -1.9738935794  0.4962489924  0.0162250114
O  -2.0984833347  1.6986563754  0.0184897728
C  -0.7059345040 -0.2627119232 -0.0224387638
C   0.5727884820  0.5451026111 -0.0461145158
C   1.7804743619 -0.4106645675 -0.1017221947
O   1.5731584738 -1.5355356936 -0.6532622975
C   2.9764244264  0.0659951330  0.4348072944
O   4.2893318729  2.7133284664  0.0311332219
H  -2.8899739444 -0.1332440526  0.0622332977
H  -0.6837191458 -0.9274057543  0.8471929195
H  -0.7024454341 -0.9586032598 -0.8666304089
H   0.6190072748  1.2210174619  0.8050375587
H   0.5695913158  1.1948494163 -0.9227280909
H   3.0000105245  0.8683685395  1.1712075024
H   3.8687669294  1.8182420495 -0.0712965351
H   3.8983610699 -0.4548184107  0.1850247515
H   4.4565382068  2.9311751244 -0.8871573186
17
Image 4  Energy = -421.93360892
C  -1.9828576939  0.5028397578  0.0213025307
O  -2.1015294220  1.7065564730  0.0145576046
C  -0.7142386666 -0.2712463220 -0.0085163114
C   0.5737668325  0.5275631551 -0.0375650143
C   1.8014350964 -0.3942176302 -0.1187987414
O   1.6208758965 -1.5510428065 -0.5817052295
C   3.0141603123  0.1615977911  0.2946649733
O   4.1792731885  2.7228903091  0.0233568671
H  -2.9046626443 -0.1181563672  0.0587879473
H  -0.7206277404 -0.9417755357  0.8586211166
H  -0.7416399819 -0.9527739081 -0.8623801557
H   0.6293907361  1.1933276628  0.8204248119
H   0.5791445460  1.1545208578 -0.9283743973
H   2.9767936090  0.8401344250  1.1378362988
H   3.7928580361  1.8154712505 -0.0923071925
H   3.9026298224 -0.4605576849  0.1878032637
H   4.6452287088  2.9348665922 -0.7877097094
17
Image 5  Energy = -421.92813243
C  -1.8156545656  0.3124725935  0.5206540870
O  -1.9085134851  1.4472986113  0.9167309563
C  -0.7540362573 -0.2516053895 -0.3528658095
C   0.5235051462  0.5801257837 -0.5165605552
C   1.7959372968 -0.2294513036 -0.1686180265
O   1.9863836024 -1.2483801280 -0.9084117124
C   2.5551482710  0.2479262906  0.8701709970
O   4.7911735270  2.4732274727 -0.0459654196
H  -2.6132981452 -0.4044152253  0.8034727140
H  -0.5047251054 -1.2460825044  0.0225159799
H  -1.2544909279 -0.4384606552 -1.3100964211
H   0.4535341010  1.4919862347  0.0726242779
H   0.6181261235  0.8690691574 -1.5645693684
H   2.1235531070  0.9097564581  1.6120588485
H   4.2351474326  1.6846352413 -0.0788093821
H   3.5419620434 -0.1447341324  1.0667483768
H   4.7762476564  2.8166312836 -0.9390794309
