17
Image 0  Energy = -421.95609875
C  -1.9863484497  0.4294647878  0.2459753353
O  -2.1119052146  1.6230678267  0.4120176534
C  -0.7571665468 -0.2978534709 -0.1351927338
C   0.5095157697  0.5302453839 -0.2628567807
C   1.7819140727 -0.3245642369 -0.1460172094
O   1.7093319211 -1.4937302880 -0.6224400875
C   2.8825802240  0.2975306576  0.4394051084
O   4.7104982851  2.4707204476  0.0343206403
H  -2.8777314558 -0.2107024359  0.3926285381
H  -0.5979705921 -1.0900035061  0.6018704517
H  -0.9819925503 -0.8416724606 -1.0569236556
H   0.5036257558  1.3177328672  0.4852562760
H   0.5410016375  1.0076722706 -1.2410762289
H   2.6954243086  1.1278709176  1.1025569893
H   4.0531482392  1.7165324184  0.0202763225
H   3.7939232101 -0.2770875971  0.5572563487
H   4.6821509891  2.8847764041 -0.8270571584
17
Image 1  Energy = -421.93890461
C  -1.9754708649  0.4141744478  0.2595061593
O  -2.1214644778  1.6030576732  0.4479466742
C  -0.7383784391 -0.2848753737 -0.1434306024
C   0.5145017774  0.5594543134 -0.2784112143
C   1.7812619671 -0.3097792317 -0.1683661853
O   1.7079644249 -1.4491303972 -0.6878872607
C   2.8638315671  0.2856400745  0.4829416369
O   4.7041660980  2.4679919995  0.0109246917
H  -2.8535098705 -0.2457389276  0.4029755211
H  -0.5616191603 -1.0793427070  0.5887130145
H  -0.9624684031 -0.8269923190 -1.0656340976
H   0.5119671802  1.3464577537  0.4707696125
H   0.5405656099  1.0375762362 -1.2559976359
H   2.6673703618  1.1293177972  1.1269233364
H   4.0816674881  1.7046243793  0.0528924126
H   3.7616606490 -0.3012139229  0.6354784172
H   4.6279535406  2.8187775506 -0.8793443667
17
Image 2  Energy = -421.93925624
C  -1.9647367960  0.3989557903  0.2737163490
O  -2.1300534234  1.5812886215  0.4851719809
C  -0.7210011359 -0.2708835782 -0.1514368091
C   0.5206080982  0.5882728821 -0.2944588118
C   1.7821595676 -0.2885162265 -0.1875115958
O   1.7100489992 -1.4062599839 -0.7536110313
C   2.8428649535  0.2723978200  0.5246601227
O   4.6987305650  2.4683700977 -0.0181226361
H  -2.8281063625 -0.2807578701  0.4143662401
H  -0.5246343078 -1.0683942759  0.5735615711
H  -0.9439255119 -0.8112549719 -1.0747488883
H   0.5195047807  1.3754143838  0.4552794040
H   0.5402174832  1.0667613410 -1.2718887853
H   2.6398837421  1.1292483421  1.1501099657
H   4.1069099182  1.6892239447  0.0876085947
H   3.7272226882 -0.3241254889  0.7144797138
H   4.5743060081  2.7502579218 -0.9271749207
17
Image 3  Energy = -421.93863207
C  -1.9475623139  0.3900561394  0.3175982861
O  -2.1051517579  1.5657844577  0.5671952983
C  -0.7254984375 -0.2671983630 -0.1835506146
C   0.5205540319  0.5864140680 -0.3304688275
C   1.7811749213 -0.2890514198 -0.1847753903
O   1.7202185100 -1.4226830479 -0.7201209664
C   2.8278443811  0.2892186192  0.5330032011
O   4.6965252942  2.4758353845 -0.0037539582
H  -2.8032906091 -0.2944482794  0.4802766974
H  -0.5101226107 -1.0991997740  0.4936266281
H  -0.9890325161 -0.7603922950 -1.1227794415
H   0.5100679267  1.3906404843  0.4010536815
H   0.5533366515  1.0428251372 -1.3173280323
H   2.6069847194  1.1586282336  1.1344248352
H   4.1126279260  1.6905818983  0.1037882160
H   3.7018840183 -0.3102794640  0.7576343679
H   4.5994393953  2.7232678919 -0.9258242648
17
Image 4  Energy = -421.93795327
C  -1.9328486888  0.3858686294  0.3523573865
O  -2.0839661377  1.5555277168  0.6321313062
C  -0.7328397142 -0.2665758259 -0.2128642159
C   0.5212806558  0.5753285159 -0.3595197995
C   1.7871015420 -0.2879171861 -0.1826320930
O   1.7539722266 -1.4311042667 -0.6997927959
C   2.8156520310  0.3076251156  0.5453748034
O   4.7000417375  2.4819598408  0.0030640177
H  -2.7815740412 -0.3008492143  0.5365733063
H  -0.5093099069 -1.1259828146  0.4244879464
H  -1.0374372559 -0.7115553786 -1.1642542187
H   0.4969996410  1.3885274529  0.3597986452
H   0.5639688012  1.0174482749 -1.3510848197
H   2.5809837078  1.1871643854  1.1278301434
H   4.1187706796  1.6967050032  0.1272753254
H   3.6755537991 -0.3050443644  0.7881761709
H   4.6136502195  2.7028733459 -0.9269213612
17
Image 5  Energy = -421.94453836
C  -1.9060380297  0.3555546355  0.3974220750
O  -2.0577976001  1.5179457468  0.7058202003
C  -0.7318190407 -0.2586488107 -0.2547259394
C   0.5205770389  0.5951562512 -0.4015364272
C   1.7864735991 -0.2626050782 -0.1919616941
O   1.7631797683 -1.4131039720 -0.7043170412
C   2.7989484934  0.3256333333  0.5550296148
O   4.7012332534  2.4736642064  0.0217365794
H  -2.7348232225 -0.3457051853  0.6204743429
H  -0.4803661484 -1.1561434860  0.3135141969
H  -1.0783706724 -0.6479903180 -1.2158585994
H   0.4879767123  1.4248037015  0.2997261131
H   0.5780285779  1.0154969014 -1.4022198426
H   2.5409135030  1.1915973577  1.1423763617
H   4.1201259456  1.6960689853  0.1842479213
H   3.6464103495 -0.2855261355  0.8448285159
H   4.5953473621  2.6438018659 -0.9145563405
17
Image 6  Energy = -421.93501624
C  -1.8676659855  0.3329388015  0.4419713487
O  -2.0146316392  1.4834191039  0.7838709478
C  -0.7224162755 -0.2510529810 -0.2926765353
C   0.5249366150  0.6117319045 -0.4452226554
C   1.7930323144 -0.2334042177 -0.2014598707
O   1.8116608598 -1.3712350186 -0.7573764805
C   2.7509209209  0.3283655015  0.6143053660
O   4.7020726990  2.4405837777  0.0227566111
H  -2.6765990361 -0.3840863755  0.6910969161
H  -0.4487682334 -1.1772471838  0.2152405515
H  -1.1186720059 -0.5868989000 -1.2549274242
H   0.4775348861  1.4575179937  0.2355938572
H   0.5849065192  1.0076155796 -1.4559505653
H   2.4923310604  1.2141516182  1.1747848365
H   4.0957557978  1.6870836418  0.2201985002
H   3.5975469078 -0.2784756780  0.9219403196
H   4.5680549253  2.5889921550 -0.9141453157
17
Image 7  Energy = -421.93450809
C  -1.8449206589  0.3123250921  0.4713289775
O  -2.0000766825  1.4579644201  0.8239783862
C  -0.7210681498 -0.2446185842 -0.3151107084
C   0.5245917741  0.6223969999 -0.4748555236
C   1.7931780899 -0.2139382108 -0.2039781586
O   1.8449259868 -1.3223105025 -0.8151046414
C   2.7062393969  0.3171272221  0.6797116877
O   4.7517921335  2.4136889904 -0.0061605393
H  -2.6300491779 -0.4259053802  0.7391416488
H  -0.4353605306 -1.1905442829  0.1470330744
H  -1.1555395264 -0.5391530510 -1.2754005443
H   0.4688530771  1.4847127642  0.1838416769
H   0.5885613608  0.9908616656 -1.4959138851
H   2.4390637156  1.1922445087  1.2580972895
H   4.0956525689  1.7125628164  0.2104198811
H   3.5394562287 -0.3005542442  1.0040530262
H   4.5847008257  2.6031404066 -0.9310817787
17
Image 8  Energy = -421.93313460
C  -1.8456437308  0.3060135191  0.4765002730
O  -1.9997917553  1.4505838481  0.8320876210
C  -0.7286583289 -0.2464407841 -0.3241378138
C   0.5206023039  0.6179610209 -0.4810152924
C   1.7884746617 -0.2175889469 -0.2015042248
O   1.8603846735 -1.3060792516 -0.8462845511
C   2.6707437026  0.2911238244  0.7236617898
O   4.8221151086  2.4168549890 -0.0497634461
H  -2.6261564270 -0.4342992392  0.7527712207
H  -0.4467524908 -1.1993681146  0.1258178767
H  -1.1727524084 -0.5274562844 -1.2847571109
H   0.4637972708  1.4826638321  0.1740711294
H   0.5885403294  0.9829678627 -1.5034994915
H   2.3863003284  1.1407605055  1.3314481211
H   4.1337590614  1.7625217890  0.1828764496
H   3.5138486154 -0.3117941089  1.0478082947
H   4.6211899039  2.6615751065 -0.9560811608
17
Image 9  Energy = -421.93208477
C  -1.8298775979  0.2922201053  0.4923477189
O  -1.9822787583  1.4330170219  0.8600286806
C  -0.7286338812 -0.2446282051 -0.3412260423
C   0.5205167015  0.6219917389 -0.4958385060
C   1.7891565961 -0.2061755079 -0.2019440043
O   1.9050207385 -1.2647231289 -0.8896206130
C   2.6202894454  0.2755444673  0.7817159674
O   4.8652029932  2.4000042829 -0.0850557474
H  -2.6011584131 -0.4540811254  0.7782383392
H  -0.4435717718 -1.2113795970  0.0763891958
H  -1.1935004851 -0.4944849701 -1.3009683927
H   0.4580338334  1.4925759425  0.1506695121
H   0.5914096632  0.9785426707 -1.5215914975
H   2.2953023237  1.0869100358  1.4208612886
H   4.1591362363  1.7770987848  0.1605972494
H   3.4924270722 -0.2933344286  1.0887224056
H   4.6325252000  2.6809030740 -0.9733255897
17
Image 10  Energy = -421.93144292
C  -1.8085234305  0.2807533725  0.5125815051
O  -1.9536846692  1.4168337472  0.8967452899
C  -0.7284340515 -0.2419081953 -0.3597898214
C   0.5236063864  0.6236740317 -0.5137030234
C   1.7986417576 -0.1865174572 -0.2018855737
O   1.9677594138 -1.2132433790 -0.9252200534
C   2.5834895101  0.2778765012  0.8284335060
O   4.8649258859  2.3941338196 -0.0941530991
H  -2.5728092235 -0.4693264801  0.8076383893
H  -0.4481866119 -1.2263221062  0.0180177556
H  -1.2193252032 -0.4492161817 -1.3171515677
H   0.4522983343  1.5060399093  0.1150302714
H   0.5991687101  0.9610212184 -1.5458546313
H   2.2022714962  1.0253467419  1.5133660766
H   4.1718397784  1.7498484765  0.1301123889
H   3.4826786550 -0.2578530340  1.1168877965
H   4.6342829752  2.6788590222 -0.9810552525
17
Image 11  Energy = -421.93147897
C  -1.7727831062  0.2553901658  0.5362137343
O  -1.9339931892  1.3851057808  0.9321872779
C  -0.7163818191 -0.2301161279 -0.3845423090
C   0.5292437878  0.6450969067 -0.5374392477
C   1.8063829780 -0.1530206227 -0.2120893147
O   2.0263641671 -1.1427527883 -0.9726831572
C   2.5445998752  0.2759869980  0.8673169395
O   4.8471070670  2.3847523502 -0.0985599001
H  -2.5049895336 -0.5179818963  0.8511682335
H  -0.4232705458 -1.2291903887 -0.0595969443
H  -1.2380583209 -0.3930324431 -1.3341078883
H   0.4448401152  1.5344115734  0.0806052007
H   0.6084074828  0.9674238185 -1.5737145774
H   2.1373832922  1.0046913680  1.5560487029
H   4.1815784054  1.7270764070  0.1673298499
H   3.4361399622 -0.2642270737  1.1704888892
H   4.5774291693  2.6203859385 -0.9886257346
17
Image 12  Energy = -421.93142802
C  -1.7361445294  0.2291933261  0.5592073799
O  -1.9136114363  1.3521852218  0.9672270412
C  -0.7050017617 -0.2185131083 -0.4091384768
C   0.5346812378  0.6660951602 -0.5608413855
C   1.8144894054 -0.1199353097 -0.2213416886
O   2.0859332985 -1.0684882519 -1.0173164122
C   2.5039296935  0.2727525825  0.9041786171
O   4.8276695293  2.3748197004 -0.1042393735
H  -2.4349514493 -0.5663447100  0.8938107914
H  -0.3994274422 -1.2298715273 -0.1382898993
H  -1.2564590191 -0.3364424684 -1.3486712750
H   0.4371853978  1.5623013452  0.0462011367
H   0.6177478191  0.9735276849 -1.6012376671
H   2.0719821745  0.9830057648  1.5971945618
H   4.1925773422  1.7052377510  0.2037541189
H   3.3885292906 -0.2703582442  1.2234954634
H   4.5208704977  2.5608349777 -0.9939932759
17
Image 13  Energy = -421.93153307
C  -1.7008382719  0.2018270522  0.5828348686
O  -1.8912980211  1.3185945798  1.0011921521
C  -0.6941258179 -0.2073121511 -0.4335698356
C   0.5398480213  0.6861693396 -0.5838842099
C   1.8228396324 -0.0870297629 -0.2296306554
O   2.1463166682 -0.9909087291 -1.0588307313
C   2.4613403640  0.2679748098  0.9390571218
O   4.8075771528  2.3643481746 -0.1106121423
H  -2.3623365075 -0.6129717787  0.9343919342
H  -0.3772652399 -1.2283617760 -0.2166715217
H  -1.2743536003 -0.2803999869 -1.3604328458
H   0.4293421180  1.5893531870  0.0116544660
H   0.6269410285  0.9787977032 -1.6285849378
H   2.0056879844  0.9597436518  1.6368200712
H   4.2044637562  1.6846769408  0.2368117812
H   3.3398287851 -0.2764605656  1.2759582786
H   4.4660321244  2.5019592110 -0.9965043412
