17
Image 0  Energy = -421.93913500
C  -1.3751106217  0.1912272021  0.7999605932
O  -1.7722095259  1.2691560312  1.1609983301
C  -0.6855855139 -0.1048094664 -0.4979688687
C   0.5701595169  0.7210689181 -0.7531491698
C   1.8317591878  0.3171784729  0.0102150097
O   2.9214214918  0.6943911872 -0.5319207928
C   1.7126970844 -0.3766045279  1.1835164897
O   5.1233065591  2.2513097440 -0.5556320773
H  -1.5741863787 -0.6862422291  1.4545797038
H  -0.4375324656 -1.1680310095 -0.5145127941
H  -1.4331318627  0.0849829475 -1.2782723743
H   0.3675184953  1.7727036562 -0.5428769704
H   0.8103788857  0.6596113070 -1.8145868817
H   0.7928039878 -0.7552504347  1.5827063964
H   4.4108588093  1.5811296747 -0.4707397780
H   2.6170372701 -0.5594192671  1.7524260007
H   4.6698146643  2.9775976419 -0.9847422304
17
Image 1  Energy = -421.93541651
C  -1.3595245226  0.2026957839  0.8098695018
O  -1.7804024345  1.2806904873  1.1515671177
C  -0.6907002458 -0.0999026490 -0.4968145276
C   0.5699769342  0.7145241984 -0.7602536132
C   1.8228674335  0.3212464071  0.0249999628
O   2.9238734472  0.7446665263 -0.4839834503
C   1.6952075449 -0.3994814279  1.1747576444
O   5.1351776631  2.2533830433 -0.5727333586
H  -1.5227842608 -0.6597119736  1.4886101829
H  -0.4530749312 -1.1649425887 -0.5180642520
H  -1.4409155672  0.1014412355 -1.2700240492
H   0.3716025147  1.7705275244 -0.5667945465
H   0.8210865222  0.6358834532 -1.8185714123
H   0.7849415805 -0.8459226124  1.5255273661
H   4.4134665621  1.5952369528 -0.4675352484
H   2.5836395177 -0.5616634699  1.7747224793
H   4.6755615026  2.9813290415 -0.9952789678
17
Image 2  Energy = -421.92240257
C  -1.3482435864  0.2180219536  0.8224157601
O  -1.7927235404  1.2883473310  1.1429085931
C  -0.6960715672 -0.0955566503 -0.4979074973
C   0.5727607388  0.7080134652 -0.7686074109
C   1.8230598172  0.3281892039  0.0359999001
O   2.9163645322  0.7861415253 -0.4333408139
C   1.6784550969 -0.4232452849  1.1699368478
O   5.1499494683  2.2568054924 -0.5913491430
H  -1.4709845927 -0.6325754992  1.5287699686
H  -0.4673807647 -1.1631486282 -0.5238722524
H  -1.4512645185  0.1195634051 -1.2621539494
H   0.3743712856  1.7681369047 -0.5920776320
H   0.8311009744  0.6147285440 -1.8242985585
H   0.7802468379 -0.9359525965  1.4609957623
H   4.4192688813  1.6101806385 -0.4620968374
H   2.5498557561 -0.5623800895  1.7993293438
H   4.6812347238  2.9847301300 -1.0046510008
17
Image 3  Energy = -421.92287413
C  -1.3264997722  0.2265095219  0.8341721233
O  -1.7735020095  1.3012789780  1.1424079202
C  -0.6993250033 -0.0915718596 -0.4994861825
C   0.5738870132  0.7033396619 -0.7771818581
C   1.8106282210  0.3388745876  0.0533760524
O   2.9024112189  0.8406449443 -0.3726481183
C   1.6575508281 -0.4434720999  1.1650532956
O   5.1548660848  2.2510514454 -0.6119962132
H  -1.4189540973 -0.6136777047  1.5501186002
H  -0.4776227226 -1.1601990722 -0.5297777812
H  -1.4615549614  0.1344320208 -1.2532707367
H   0.3771023261  1.7673170372 -0.6238917099
H   0.8442588559  0.5890581022 -1.8282071080
H   0.7750861446 -1.0097134125  1.4020926762
H   4.4154085294  1.6206530535 -0.4544890516
H   2.5118367408 -0.5677526705  1.8196643931
H   4.6844221661  2.9832273745 -1.0159352611
17
Image 4  Energy = -421.92311553
C  -1.3031092644  0.2369471259  0.8423851649
O  -1.7526792935  1.3116822201  1.1474566774
C  -0.7017956777 -0.0877450939 -0.5021326719
C   0.5757522493  0.6982285022 -0.7864188685
C   1.7975692208  0.3503205296  0.0707873867
O   2.8843431818  0.8967061414 -0.3070230123
C   1.6363727941 -0.4638235445  1.1590989375
O   5.1575116635  2.2432343312 -0.6336105477
H  -1.3687672834 -0.5934944499  1.5710844095
H  -0.4879907124 -1.1577866745 -0.5351911277
H  -1.4700296537  0.1486131892 -1.2459451441
H   0.3801075837  1.7652417003 -0.6557329390
H   0.8586000883  0.5635342291 -1.8320259311
H   0.7732960540 -1.0784911019  1.3426234472
H   4.4104637341  1.6301610974 -0.4463468273
H   2.4734327413 -0.5742150544  1.8382480336
H   4.6869223237  2.9808864516 -1.0272558523
17
Image 5  Energy = -421.92308672
C  -1.2684174769  0.2422358095  0.8528617084
O  -1.6996396398  1.3213461849  1.1686291395
C  -0.7038499875 -0.0845894103 -0.5076712585
C   0.5766741032  0.6931656099 -0.8015576844
C   1.7806312719  0.3632322428  0.0852744888
O   2.8624457298  0.9475854916 -0.2429045027
C   1.6073433088 -0.4743702950  1.1551013250
O   5.1572735139  2.2316730050 -0.6509612481
H  -1.3181402434 -0.5854340385  1.5841956512
H  -0.4992357647 -1.1558405794 -0.5495080889
H  -1.4831209300  0.1651775338 -1.2347081063
H   0.3810232511  1.7624842258 -0.6940701428
H   0.8724493486  0.5373970617 -1.8408094390
H   0.7696009337 -1.1365239366  1.2843652690
H   4.4046736771  1.6348428797 -0.4360600472
H   2.4234106986 -0.5674097099  1.8619442164
H   4.6868779063  2.9750273598 -1.0341201878
17
Image 6  Energy = -421.92291142
C  -1.2282410209  0.2452463957  0.8646117287
O  -1.6345372732  1.3299062478  1.1945104198
C  -0.7042637126 -0.0810611401 -0.5131168883
C   0.5784254298  0.6891467002 -0.8187498620
C   1.7627226175  0.3775161753  0.0988408099
O   2.8390616500  0.9961305501 -0.1768017190
C   1.5742716748 -0.4814009247  1.1507790079
O   5.1533417840  2.2175167318 -0.6676869428
H  -1.2667055264 -0.5827211013  1.5943046662
H  -0.5094515130 -1.1532155161 -0.5665364660
H  -1.4968542937  0.1830754008 -1.2196166885
H   0.3822601511  1.7602587372 -0.7355534578
H   0.8872695184  0.5113812151 -1.8508440160
H   0.7677902606 -1.1902173290  1.2228685849
H   4.3957864375  1.6380485293 -0.4249214275
H   2.3635786362 -0.5570971046  1.8890662422
H   4.6855446622  2.9674858352 -1.0411527397
17
Image 7  Energy = -421.92202458
C  -1.1787737792  0.2370410468  0.8787180505
O  -1.5364975856  1.3308479683  1.2353526176
C  -0.6987685405 -0.0778570663 -0.5191006682
C   0.5804837679  0.6903744886 -0.8400193716
C   1.7445953292  0.3920247440  0.1050881627
O   2.8243085673  1.0176492468 -0.1316781251
C   1.5290762936 -0.4668244349  1.1551992481
O   5.1436032540  2.2029031892 -0.6757487865
H  -1.2421306733 -0.6041387937  1.5896249515
H  -0.5101518673 -1.1495835186 -0.5907540047
H  -1.5117741511  0.1990063316 -1.1961747443
H   0.3831064334  1.7624245812 -0.7755351259
H   0.9008133646  0.4961033911 -1.8658781840
H   0.7652762475 -1.2256412759  1.1722580793
H   4.3828083651  1.6352177653 -0.4151767867
H   2.2944626143 -0.5259636261  1.9203849466
H   4.6795619714  2.9564155484 -1.0465589052
17
Image 8  Energy = -421.92017888
C  -1.1129410209  0.2228055364  0.8990158639
O  -1.4263118717  1.3253470629  1.2777818411
C  -0.6867770139 -0.0758830254 -0.5240272710
C   0.5831391692  0.6930019012 -0.8660170604
C   1.7226252931  0.4073381112  0.1066224950
O   2.8121594370  1.0205475308 -0.0942187322
C   1.4596320265 -0.4323820903  1.1685004771
O   5.1331849831  2.1904776109 -0.6797465030
H  -1.2323152766 -0.6342190125  1.5821900547
H  -0.5068647870 -1.1468041560 -0.6171411421
H  -1.5253239260  0.2149481453 -1.1621969666
H   0.3845656763  1.7653897034 -0.8143626449
H   0.9147115716  0.4858343712 -1.8859458098
H   0.7688303391 -1.2579231518  1.1210089825
H   4.3716441826  1.6301338487 -0.4057210331
H   2.2176683459 -0.4843257106  1.9450276492
H   4.6723724514  2.9457130536 -1.0507690546
17
Image 9  Energy = -421.91782700
C  -1.0243439934  0.2035190434  0.9281240617
O  -1.3221996794  1.3138363483  1.3173469692
C  -0.6666528974 -0.0758570509 -0.5251457375
C   0.5858558776  0.6978334653 -0.8961567039
C   1.6977687496  0.4158874830  0.0965876570
O   2.8044848083  0.9900816297 -0.0762930544
C   1.3642114009 -0.3842691858  1.1853695069
O   5.1250369867  2.1853449333 -0.6753184651
H  -1.2418538089 -0.6679693440  1.5712034277
H  -0.4947261654 -1.1454514731 -0.6436810663
H  -1.5333238417  0.2276897655 -1.1182951774
H   0.3830792044  1.7689838794 -0.8417478274
H   0.9242243817  0.4878269034 -1.9120953242
H   0.7884674963 -1.2865312298  1.0800473692
H   4.3675379876  1.6222692046 -0.3983383159
H   2.1290822760 -0.4203746937  1.9601403838
H   4.6633509621  2.9371803332 -1.0517465653
17
Image 10  Energy = -421.91656461
C  -0.9466983239  0.1935305764  0.9501498488
O  -1.2646872781  1.3097026019  1.3306861459
C  -0.6514094367 -0.0787839968 -0.5242438585
C   0.5861056552  0.7021429024 -0.9172827365
C   1.6814259190  0.4176305521  0.0834878218
O   2.7974282866  0.9672570817 -0.0598888668
C   1.3046562320 -0.3698105850  1.1808788566
O   5.1177006120  2.1807028939 -0.6699959581
H  -1.2317442608 -0.6784951798  1.5680823100
H  -0.4820128093 -1.1464326626 -0.6614504349
H  -1.5373149258  0.2335272086 -1.0831426700
H   0.3748912363  1.7708460619 -0.8505367804
H   0.9259118726  0.4969350935 -1.9321065051
H   0.8028894247 -1.3109365879  1.0576560432
H   4.3632929930  1.6171906635 -0.3911789651
H   2.0523757367 -0.3653546555  1.9706612685
H   4.6571887374  2.9303478037 -1.0517745714
17
Image 11  Energy = -421.91607579
C  -0.8748258163  0.1845737153  0.9648584891
O  -1.2021393126  1.3110907909  1.3374896543
C  -0.6413576326 -0.0831762522 -0.5263120755
C   0.5828490044  0.7085347692 -0.9325445454
C   1.6703056922  0.4204628398  0.0728984070
O   2.7948316982  0.9466258331 -0.0489602269
C   1.2635038770 -0.3594403340  1.1759488138
O   5.1016054091  2.1691087239 -0.6575795765
H  -1.2128298226 -0.6861363745  1.5594538743
H  -0.4718073823 -1.1479465123 -0.6813295386
H  -1.5427697725  0.2364032993 -1.0550408157
H   0.3621947966  1.7744847033 -0.8527231009
H   0.9252072070  0.5122916740 -1.9472290741
H   0.8184825751 -1.3271836843  1.0384235433
H   4.3473111840  1.6055683748 -0.3797997010
H   1.9872050920 -0.3091799962  1.9823317986
H   4.6422330232  2.9139180414 -1.0498851346
17
Image 12  Energy = -421.91434625
C  -0.8047643340  0.1773336414  0.9695430912
O  -1.1116170249  1.3247953040  1.3378216838
C  -0.6304304980 -0.0894640183 -0.5328368596
C   0.5760191948  0.7230953345 -0.9467188806
C   1.6577017002  0.4272611789  0.0612870206
O   2.7938390351  0.9129820177 -0.0525551998
C   1.2293933620 -0.3388764465  1.1761120405
O   5.0600765032  2.1386638711 -0.6244581156
H  -1.1788878617 -0.6924299382  1.5470712779
H  -0.4556445844 -1.1499256847 -0.7125073351
H  -1.5472953581  0.2326287177 -1.0312212301
H   0.3388511087  1.7839738692 -0.8420553437
H   0.9255859473  0.5523169595 -1.9633457473
H   0.8644830352 -1.3390684907  1.0188148239
H   4.3029882718  1.5730039330 -0.3553168864
H   1.9304965689 -0.2345450541  1.9928803858
H   4.5992048532  2.8682541120 -1.0425142029
17
Image 13  Energy = -421.91541906
C  -0.6976718803  0.1586613930  1.0007658733
O  -1.0491594654  1.3303705662  1.3513072618
C  -0.6244774205 -0.0945343792 -0.5301395414
C   0.5744493173  0.7209364028 -0.9613803031
C   1.6434934967  0.4424275209  0.0600091446
O   2.7914974182  0.8770110489 -0.0406982306
C   1.1274812040 -0.2943593535  1.1894851961
O   5.0472884858  2.1294918401 -0.6256462402
H  -1.1615035937 -0.7100442196  1.5314106007
H  -0.4644004117 -1.1556583555 -0.7330766138
H  -1.5461707072  0.2386024056 -1.0104830123
H   0.3327608915  1.7818986526 -0.8512004905
H   0.9337609534  0.5493132611 -1.9738374128
H   0.9257521010 -1.3437909458  0.9821930987
H   4.2808661385  1.5747437583 -0.3605813933
H   1.8366494911 -0.2048623539  2.0117507824
H   4.5993838166  2.8697921383 -1.0398783518
17
Image 14  Energy = -421.92096544
C  -0.6100021993  0.1344508832  1.0185049161
O  -0.9796534683  1.3266546076  1.3669946558
C  -0.6197612830 -0.0969918249 -0.5297128258
C   0.5749945319  0.7234434367 -0.9763111652
C   1.6367027529  0.4518300423  0.0519026146
O   2.7956591653  0.8440569218 -0.0279305046
C   1.0589460040 -0.2778741855  1.1842217829
O   5.0351222742  2.1225319478 -0.6269610122
H  -1.1352926098 -0.7205582347  1.5211586678
H  -0.4736012912 -1.1574274053 -0.7549940701
H  -1.5509634424  0.2471242079 -0.9809132591
H   0.3233700200  1.7823317004 -0.8613320305
H   0.9375762410  0.5507113981 -1.9876350023
H   0.9804663834 -1.3453212277  0.9582574294
H   4.2630686278  1.5731203120 -0.3655586953
H   1.7152575396 -0.1592870361  2.0482976165
H   4.5981109391  2.8712039847 -1.0379885390
17
Image 15  Energy = -421.92632263
C  -0.5587268173  0.1072757173  1.0188579643
O  -0.9107387812  1.3152674702  1.3859545264
C  -0.6171570119 -0.0941407395 -0.5348740574
C   0.5743818273  0.7345790778 -0.9871418016
C   1.6370081892  0.4503483955  0.0389480274
O   2.8116283202  0.7824003041 -0.0413075879
C   1.0206488374 -0.2707223177  1.1768904758
O   5.0207990010  2.1183247838 -0.6192900812
H  -1.1084884887 -0.7391437740  1.5085791780
H  -0.4801613717 -1.1511534577 -0.7866395989
H  -1.5589084583  0.2596197840 -0.9532230272
H   0.3160435209  1.7902831077 -0.8602075067
H   0.9337300689  0.5680475675 -2.0018760562
H   1.0540057044 -1.3477440480  0.9699745295
H   4.2494299865  1.5603031074 -0.3709291159
H   1.5790719463 -0.0798183053  2.0918085174
H   4.5874339142  2.8662729499 -1.0355237612
17
Image 16  Energy = -421.92880587
C  -0.5365106479  0.0793519964  1.0097602735
O  -0.8805432876  1.2895901229  1.4015817690
C  -0.6143738220 -0.0864390674 -0.5455247857
C   0.5755394076  0.7513341364 -0.9897208462
C   1.6435465469  0.4354724223  0.0266614342
O   2.8312951995  0.6973719339 -0.0820795753
C   1.0109688327 -0.2604938731  1.1780878458
O   4.9998997677  2.1117235785 -0.6077457517
H  -1.0922828194 -0.7708966410  1.4841089811
H  -0.4878135160 -1.1361615754 -0.8342723005
H  -1.5625869065  0.2834247973 -0.9324501618
H   0.3170602103  1.8038410091 -0.8395983790
H   0.9292336484  0.6030839256 -2.0091671639
H   1.1403817528 -1.3428863024  1.0332599463
H   4.2345796170  1.5358668254 -0.3808798849
H   1.4754670881  0.0210610988  2.1203717462
H   4.5661389661  2.8547548465 -1.0323923636
17
Image 17  Energy = -421.92948881
C  -0.5311805119  0.0605678459  1.0027231790
O  -0.8875617630  1.2622647994  1.4142791941
C  -0.6111627298 -0.0778791426 -0.5541564131
C   0.5787235072  0.7657940623 -0.9873146139
C   1.6491274007  0.4238847545  0.0188206190
O   2.8441896306  0.6337334555 -0.1154791644
C   1.0105346726 -0.2476705622  1.1839906025
O   4.9852578261  2.0988030340 -0.6024140045
H  -1.0807021792 -0.8029828896  1.4605227766
H  -0.4901915613 -1.1211736244 -0.8687688976
H  -1.5609639183  0.3042383597 -0.9247475925
H   0.3235150542  1.8164034921 -0.8183147889
H   0.9287095389  0.6335123156 -2.0098944883
H   1.1937599661 -1.3282537709  1.0923472527
H   4.2239494092  1.5106865309 -0.3926262386
H   1.4224585541  0.0968918901  2.1292746598
H   4.5515371424  2.8411785884 -1.0282412768
17
Image 18  Energy = -421.92972509
C  -0.5295215352  0.0423423729  0.9956902501
O  -0.9064479927  1.2312563464  1.4278462498
C  -0.6077341477 -0.0676981301 -0.5630146099
C   0.5830449481  0.7810254971 -0.9835930021
C   1.6549659132  0.4118258790  0.0113598174
O   2.8547338406  0.5706769060 -0.1481492563
C   1.0119024901 -0.2327869278  1.1905329983
O   4.9708206868  2.0820103214 -0.5978185901
H  -1.0672620236 -0.8383976973  1.4350977511
H  -0.4914465738 -1.1039200462 -0.9022439762
H  -1.5578831853  0.3259311916 -0.9204706279
H   0.3330907828  1.8295213728 -0.7940222034
H   0.9290623228  0.6654394236 -2.0092208985
H   1.2427390783 -1.3073103553  1.1568150721
H   4.2135697465  1.4822971388 -0.4059256962
H   1.3788515871  0.1729105421  2.1303266018
H   4.5375137469  2.8248758212 -1.0232089025
17
Image 19  Energy = -421.92967500
C  -0.5374507197  0.0197645600  0.9836079873
O  -0.9655356889  1.1787271390  1.4469670869
C  -0.5974209944 -0.0467428427 -0.5786122738
C   0.5950922349  0.8133400033 -0.9698794916
C   1.6648704034  0.3937498866  0.0055806263
O   2.8686003840  0.4807148053 -0.1806161465
C   1.0105440761 -0.2107495367  1.1999630126
O   4.9526494777  2.0486696762 -0.5995690877
H  -1.0485032864 -0.8935673202  1.3882014481
H  -0.4762671383 -1.0727416819 -0.9453755894
H  -1.5458681556  0.3542490021 -0.9322192299
H   0.3548061965  1.8542187336 -0.7298766924
H   0.9330719779  0.7394693722 -2.0015665617
H   1.2838142452 -1.2741156190  1.2417715352
H   4.2049552173  1.4319814184 -0.4242184031
H   1.3392234906  0.2652280465  2.1212797049
H   4.5134181578  2.7878041134 -1.0254375625
17
Image 20  Energy = -421.92965448
C  -0.5531555226 -0.0205315961  0.9785502089
O  -1.0213434235  1.0937229180  1.5056932835
C  -0.5942614281 -0.0066856898 -0.5863758622
C   0.6106577685  0.8509086573 -0.9413536732
C   1.6661325672  0.4034800935  0.0377099979
O   2.8722091018  0.4961129364 -0.1281654901
C   0.9973645014 -0.2321641866  1.2071803434
O   4.9624915346  2.0303443769 -0.6489394829
H  -1.0447950223 -0.9703171162  1.3196147599
H  -0.4852814527 -1.0161807977 -0.9984738700
H  -1.5353369870  0.4217862436 -0.9268427546
H   0.3866509461  1.8934615146 -0.6957313790
H   0.9575050415  0.7872950093 -1.9710339176
H   1.2850278269 -1.2918460877  1.2355892865
H   4.2073369456  1.4335381717 -0.4399001975
H   1.3056642259  0.2307773767  2.1422559353
H   4.5331328069  2.7662980071 -1.0897775750
17
Image 21  Energy = -421.93094965
C  -0.5858241494 -0.0381917572  0.9757373038
O  -1.0698226910  1.0589542133  1.5133462841
C  -0.6055040335 -0.0047658894 -0.5842088801
C   0.6078460917  0.8461893238 -0.9181622420
C   1.6644012142  0.3647201318  0.0376585194
O   2.8675486434  0.4263064525 -0.1411661935
C   0.9808694763 -0.2446219723  1.2163394625
O   5.0269816029  2.0827831152 -0.6699477182
H  -1.0722338435 -0.9944447506  1.2950132962
H  -0.4984515095 -1.0115945325 -0.9978307514
H  -1.5392055319  0.4330848169 -0.9348336259
H   0.3948245697  1.8786985221 -0.6233263591
H   0.9483141287  0.8162217627 -1.9511600557
H   1.2356626558 -1.2990166364  1.2857672140
H   4.2737840380  1.4851151596 -0.5222655651
H   1.2703316176  0.2312225608  2.1437008060
H   4.6504776555  2.8393395773 -1.1246614947
