17
Image 0  Energy = -421.93902428
C  -1.9861659072  0.4340323264  0.1929015862
O  -2.1246026693  1.6185463402  0.4160936408
C  -0.7356709393 -0.2768451603 -0.1443601836
C   0.5359624468  0.5504321295 -0.1741341333
C   1.7959698715 -0.3265878460 -0.0274002107
O   1.6866284299 -1.5156728117 -0.4120840353
C   2.9232498411  0.3193330781  0.4913945026
O   4.6665085899  2.2397954971 -0.6908383650
H  -2.8873086911 -0.2097087612  0.2447884339
H  -0.6195285268 -1.0939656551  0.5738952667
H  -0.9023603165 -0.7883893883 -1.0963741927
H   0.5096760448  1.3069483511  0.6046715807
H   0.6185376437  1.0716806977 -1.1258164689
H   2.7720262551  1.2217447037  1.0701779842
H   4.0438968581  1.5511554097 -0.3809196846
H   3.8106677483 -0.2768710906  0.6761366478
H   4.4425110500  3.0443718093 -0.2181324448
17
Image 1  Energy = -421.93918463
C  -1.9788339798  0.4255018366  0.2127710153
O  -2.1243919492  1.6072798889  0.4418505961
C  -0.7302831038 -0.2718929173 -0.1568105752
C   0.5365823295  0.5623676783 -0.1968326250
C   1.7928606029 -0.3164936500 -0.0417219233
O   1.6954095767 -1.4898936008 -0.4787709577
C   2.8991528758  0.3047492563  0.5408144306
O   4.6847629489  2.2323824284 -0.6855256947
H  -2.8704134356 -0.2291718818  0.2850296883
H  -0.5950619084 -1.0976027068  0.5483990426
H  -0.9105864211 -0.7733285484 -1.1119039682
H   0.5062349684  1.3257436252  0.5755398797
H   0.6178740912  1.0743873800 -1.1535602351
H   2.7505729358  1.2200734410  1.0995155877
H   4.0583395133  1.5418400726 -0.3603262539
H   3.7897056319 -0.2857604772  0.7189336332
H   4.4280729256  3.0398175856 -0.2374017878
17
Image 2  Energy = -421.93899303
C  -1.9708177012  0.4163064122  0.2334373026
O  -2.1235731818  1.5955805876  0.4689646920
C  -0.7251301649 -0.2668956589 -0.1698994590
C   0.5371460450  0.5741874069 -0.2199737966
C   1.7912096372 -0.3056806961 -0.0564796532
O   1.7071672857 -1.4609105162 -0.5444535561
C   2.8739734215  0.2908519876  0.5874184288
O   4.6978294985  2.2207750481 -0.6763308744
H  -2.8528305825 -0.2486593464  0.3270500498
H  -0.5708088212 -1.1014761330  0.5209582028
H  -0.9200990498 -0.7569123126 -1.1280462076
H   0.5031381113  1.3450704292  0.5446756537
H   0.6178218339  1.0761910515 -1.1821707232
H   2.7259332204  1.2154619656  1.1316005102
H   4.0753847632  1.5345331737 -0.3418545293
H   3.7681731294 -0.2941750654  0.7635017956
H   4.4154805878  3.0357513559 -0.2583979051
17
Image 3  Energy = -421.93803888
C  -1.9509091232  0.4013404793  0.2750221005
O  -2.1111867668  1.5766133216  0.5244953915
C  -0.7169708976 -0.2593117220 -0.1973568100
C   0.5399928285  0.5897059484 -0.2652563300
C   1.7955371681 -0.2841594975 -0.0846867967
O   1.7458302542 -1.4135210199 -0.6337083199
C   2.8368253873  0.2904178345  0.6393767955
O   4.7155678092  2.1919814693 -0.6609701684
H  -2.8161662675 -0.2773831054  0.4094673167
H  -0.5333641412 -1.1157232813  0.4575678213
H  -0.9496177645 -0.7168171474 -1.1631524303
H   0.5001777263  1.3766004031  0.4821863826
H   0.6209164680  1.0706501251 -1.2376638054
H   2.6491911844  1.1834188048  1.2232546806
H   4.0869406884  1.5206592686 -0.3107897506
H   3.7296794242 -0.2883780487  0.8395779973
H   4.4075542393  3.0239057845 -0.2973645500
17
Image 4  Energy = -421.93686992
C  -1.9283996814  0.3867948565  0.3150477852
O  -2.0962811666  1.5582301589  0.5756049232
C  -0.7093605565 -0.2514575069 -0.2228987995
C   0.5429189599  0.6048746301 -0.3079253802
C   1.7999411573 -0.2629373787 -0.1095984401
O   1.7883103524 -1.3633913491 -0.7171205692
C   2.7941809388  0.2848656475  0.6938388359
O   4.7377577409  2.1709669495 -0.6471694571
H  -2.7748994049 -0.3065539056  0.4888719739
H  -0.4992096475 -1.1283629250  0.3945732011
H  -0.9801844169 -0.6763219481 -1.1938985132
H   0.4974489843  1.4078098061  0.4214622354
H   0.6225387198  1.0655589632 -1.2898526645
H   2.5604326394  1.1411455945  1.3145068566
H   4.1046906182  1.5083863492 -0.2923522947
H   3.6911092404 -0.2813325899  0.9107902510
H   4.3990037631  3.0117244427 -0.3338802862
17
Image 5  Energy = -421.92568377
C  -1.9105721690  0.3755308128  0.3502208797
O  -2.0851606425  1.5425727876  0.6139167576
C  -0.7040988460 -0.2442448934 -0.2451002631
C   0.5451878474  0.6186507765 -0.3420985836
C   1.8027629542 -0.2456376953 -0.1245067222
O   1.8291934828 -1.3190055628 -0.7894897331
C   2.7388255498  0.2607252786  0.7543963713
O   4.7773643243  2.1727124401 -0.6443080853
H  -2.7380436795 -0.3331942129  0.5608204653
H  -0.4732154343 -1.1392090260  0.3379989048
H  -1.0074606015 -0.6404767257 -1.2191105162
H   0.4885237554  1.4381613950  0.3674201595
H   0.6227408456  1.0600703343 -1.3342207639
H   2.4698599276  1.0806587037  1.4116868844
H   4.1414355819  1.5109258034 -0.3041133470
H   3.6516917894 -0.2809992372  0.9782564380
H   4.4009638205  3.0127586560 -0.3717690645
17
Image 6  Energy = -421.93221670
C  -1.8864237297  0.3643555216  0.3866328653
O  -2.0683441240  1.5299369003  0.6518893937
C  -0.7009497384 -0.2365372016 -0.2678276725
C   0.5471615814  0.6313597302 -0.3797520617
C   1.8058513394 -0.2227797113 -0.1401557968
O   1.8811772021 -1.2643055369 -0.8603344470
C   2.6828484037  0.2354353052  0.8156758033
O   4.8057101880  2.1711047547 -0.6394348333
H  -2.6914168845 -0.3562439166  0.6402188119
H  -0.4518235529 -1.1495962113  0.2769781966
H  -1.0416054554 -0.5998279634 -1.2423728743
H   0.4884572627  1.4674947385  0.3087684223
H   0.6223341705  1.0489436118 -1.3824087186
H   2.3771876441  1.0149385947  1.5038330900
H   4.1690465310  1.5133966207 -0.3123526537
H   3.6027922084 -0.2906327211  1.0514837157
H   4.4079957709  3.0129573172 -0.4108419922
17
Image 7  Energy = -421.93121689
C  -1.8584296932  0.3516153604  0.4242067213
O  -2.0478409778  1.5152331844  0.6920569303
C  -0.6966508629 -0.2296731131 -0.2910919116
C   0.5486965603  0.6441840050 -0.4174262725
C   1.8144988861 -0.1934845260 -0.1582888222
O   1.9585041448 -1.1854499148 -0.9369861241
C   2.6288896409  0.2140631275  0.8732496378
O   4.8210705200  2.1588875274 -0.6187401562
H  -2.6382951696 -0.3807345528  0.7192841490
H  -0.4322013481 -1.1625135693  0.2099579499
H  -1.0776035384 -0.5540546361 -1.2645800041
H   0.4862286983  1.4968737959  0.2493292595
H   0.6197429227  1.0368213062 -1.4300645396
H   2.2946080968  0.9612609728  1.5814777446
H   4.1786530762  1.5017436747 -0.3055098804
H   3.5484915305 -0.3085195312  1.1203559543
H   4.4016361746  3.0037469336 -0.4472307886
17
Image 8  Energy = -421.93047083
C  -1.8445869681  0.3449272183  0.4428197202
O  -2.0391117988  1.5070899242  0.7129295003
C  -0.6953663028 -0.2258466027 -0.3034106350
C   0.5497589075  0.6497273463 -0.4356980687
C   1.8191181097 -0.1791590816 -0.1657051850
O   2.0046469702 -1.1400682905 -0.9747811677
C   2.5961526151  0.1961647560  0.9061584783
O   4.8333003306  2.1592434730 -0.6122210142
H  -2.6102043451 -0.3928738052  0.7594024411
H  -0.4262979420 -1.1686856427  0.1757070882
H  -1.0945016048 -0.5302418884 -1.2759624713
H   0.4843638450  1.5108207996  0.2195682246
H   0.6211022503  1.0298047034 -1.4529170257
H   2.2464160597  0.9266928282  1.6227499263
H   4.1851191973  1.5038520597 -0.3084021965
H   3.5148972846 -0.3260615198  1.1580169701
H   4.4051919862  3.0046134975 -0.4682546402
17
Image 9  Energy = -421.92937493
C  -1.8264259448  0.3404722524  0.4587379511
O  -2.0318812897  1.4975415259  0.7339148780
C  -0.6950309560 -0.2219752657 -0.3149155536
C   0.5510572602  0.6550081717 -0.4534518729
C   1.8245524975 -0.1657989821 -0.1725348983
O   2.0506389391 -1.0926630274 -1.0094388811
C   2.5626761281  0.1771728452  0.9373389765
O   4.8451557179  2.1601522468 -0.6059426546
H  -2.5845253893 -0.4053520303  0.7998619331
H  -0.4208541803 -1.1745669004  0.1420065259
H  -1.1108410663 -0.5068600320 -1.2868403497
H   0.4827724421  1.5242826988  0.1904342859
H   0.6225239190  1.0226874497 -1.4748908126
H   2.1985162154  0.8917488770  1.6620118912
H   4.1915586769  1.5059791080 -0.3116830899
H   3.4809496070 -0.3431976712  1.1946087906
H   4.4091560952  3.0053681624 -0.4892171859
17
Image 10  Energy = -421.92832266
C  -1.8113606768  0.3340162995  0.4757355765
O  -2.0226983013  1.4897859986  0.7513779692
C  -0.6934448993 -0.2181719208 -0.3252965040
C   0.5524540266  0.6601491160 -0.4689877918
C   1.8303946623 -0.1498793199 -0.1773296324
O   2.1045616976 -1.0381187471 -1.0421319888
C   2.5264246434  0.1578140764  0.9691506532
O   4.8581195321  2.1616622942 -0.6052540056
H  -2.5544352198 -0.4184351087  0.8350705523
H  -0.4155316656 -1.1799222190  0.1096512199
H  -1.1285050077 -0.4825400402 -1.2945629585
H   0.4803561215  1.5373582466  0.1636348242
H   0.6242004806  1.0159872833 -1.4942913964
H   2.1386851781  0.8465422970  1.7055873630
H   4.2005014438  1.5065604368 -0.3216558682
H   3.4458080102 -0.3585166895  1.2302070212
H   4.4144687351  3.0057077990 -0.5109052671
17
Image 11  Energy = -421.92730251
C  -1.7961821998  0.3273097765  0.4926837958
O  -2.0134257540  1.4819147482  0.7686282424
C  -0.6919981920 -0.2143814215 -0.3354808976
C   0.5540859717  0.6649868744 -0.4842263936
C   1.8365823725 -0.1339351538 -0.1813703128
O   2.1589852389 -0.9808529858 -1.0717256807
C   2.4894482188  0.1376219361  0.9991720671
O   4.8709497178  2.1632452011 -0.6046827973
H  -2.5237357208 -0.4313137772  0.8698243258
H  -0.4103694775 -1.1848236280  0.0772088572
H  -1.1460989853 -0.4581197548 -1.3015746001
H   0.4781340781  1.5500902303  0.1369952953
H   0.6260218416  1.0090855258 -1.5133229101
H   2.0778265735  0.7997950103  1.7472162733
H   4.2098183295  1.5071664560 -0.3322622328
H   3.4101568117 -0.3735776610  1.2654917627
H   4.4198000399  3.0057883034 -0.5325750164
17
Image 12  Energy = -421.92653087
C  -1.7828073828  0.3196885287  0.5107725138
O  -2.0034674685  1.4758180666  0.7825552298
C  -0.6889641413 -0.2107539065 -0.3435945512
C   0.5556597874  0.6705936247 -0.4979989560
C   1.8440476418 -0.1138297370 -0.1848991982
O   2.2188437343 -0.9163584081 -1.0975719716
C   2.4547947256  0.1208507232  1.0254284915
O   4.8815098863  2.1622068013 -0.6023653219
H  -2.4909011537 -0.4433883785  0.9008896423
H  -0.4028440593 -1.1888534546  0.0470548124
H  -1.1626177892 -0.4347173927 -1.3050344371
H   0.4745769407  1.5632629901  0.1118900788
H   0.6276176365  1.0026694903 -1.5309672353
H   2.0092051381  0.7464652166  1.7845822407
H   4.2196897206  1.4999652012 -0.3491528153
H   3.3780045538 -0.3833115068  1.2968239111
H   4.4176510072  2.9996917889 -0.5484125232
17
Image 13  Energy = -421.92574999
C  -1.7663854712  0.3134674861  0.5272024977
O  -1.9944188797  1.4686614143  0.7969603097
C  -0.6863771119 -0.2071249457 -0.3511623805
C   0.5574859048  0.6759321171 -0.5118615339
C   1.8522038977 -0.0939819330 -0.1879762856
O   2.2781767541 -0.8489564070 -1.1197088398
C   2.4191983766  0.1033618763  1.0498667973
O   4.8916743592  2.1613241228 -0.5996137933
H  -2.4587966343 -0.4558002539  0.9328664038
H  -0.3955088673 -1.1924994690  0.0168083793
H  -1.1787928853 -0.4112452095 -1.3081322749
H   0.4712663921  1.5761151754  0.0866828228
H   0.6293599501  0.9959369744 -1.5483728793
H   1.9401576567  0.6911551593  1.8192125698
H   4.2300174417  1.4929729422 -0.3665493545
H   3.3450817485 -0.3925184998  1.3280154366
H   4.4156561751  2.9931989528 -0.5642377845
17
Image 14  Energy = -421.92501949
C  -1.7487536417  0.3079204385  0.5440080474
O  -1.9872966512  1.4617767783  0.8103737841
C  -0.6826053591 -0.2028733058 -0.3573035901
C   0.5593394056  0.6818390994 -0.5267780241
C   1.8603356125 -0.0724254673 -0.1916571721
O   2.3400285284 -0.7758619676 -1.1381708239
C   2.3825256440  0.0845715508  1.0708666481
O   4.9014495305  2.1600076376 -0.5908043955
H  -2.4229871909 -0.4679198678  0.9663400124
H  -0.3878884680 -1.1943502371 -0.0099586631
H  -1.1923478260 -0.3887853161 -1.3094603377
H   0.4680711349  1.5894846526  0.0600300111
H   0.6306918667  0.9885389200 -1.5670474565
H   1.8640430854  0.6245803669  1.8491016291
H   4.2376254551  1.4864329974 -0.3850062562
H   3.3129459437 -0.3994851940  1.3554183153
H   4.4148217840  2.9865482687 -0.5799517049
17
Image 15  Energy = -421.92452267
C  -1.7307409674  0.3023087770  0.5606142271
O  -1.9801535105  1.4545821227  0.8238398382
C  -0.6787204150 -0.1986313830 -0.3631805196
C   0.5614345214  0.6873229603 -0.5418595450
C   1.8688850065 -0.0511527115 -0.1948071757
O   2.4013046925 -0.6996199532 -1.1525175654
C   2.3446989380  0.0651327361  1.0901034712
O   4.9104870927  2.1587049699 -0.5818671489
H  -2.3865715989 -0.4797506634  0.9996021071
H  -0.3805592362 -1.1957960899 -0.0367010306
H  -1.2056620411 -0.3661789497 -1.3102175702
H   0.4650396561  1.6023180473  0.0333218156
H   0.6321731832  0.9808208993 -1.5855498656
H   1.7887247470  0.5561918062  1.8757668393
H   4.2452753053  1.4799249590 -0.4033750787
H   3.2798204625 -0.4059343951  1.3827098044
H   4.4145631407  2.9797565824 -0.5958827685
17
Image 16  Energy = -421.92419530
C  -1.7123920328  0.2971851475  0.5768558749
O  -1.9712744496  1.4478949381  0.8378922646
C  -0.6746718086 -0.1953855254 -0.3676765525
C   0.5628409418  0.6912391977 -0.5570437033
C   1.8774835011 -0.0284746113 -0.1973118579
O   2.4707928239 -0.6077578305 -1.1635697040
C   2.3041135674  0.0367289032  1.1073212890
O   4.9151166713  2.1532868170 -0.5721787879
H  -2.3509221465 -0.4900696295  1.0311450916
H  -0.3749260194 -1.1976153727 -0.0599345698
H  -1.2177361181 -0.3452330187 -1.3092691178
H   0.4609082056  1.6135234041  0.0057805151
H   0.6329113355  0.9705220871 -1.6041603848
H   1.7178318649  0.4903643108  1.8918020986
H   4.2434038994  1.4755405104 -0.4118573894
H   3.2468596924 -0.4152601603  1.4068984454
H   4.4196593685  2.9735104104 -0.6146935194
17
Image 17  Energy = -421.92410637
C  -1.6937887848  0.2919954572  0.5928838462
O  -1.9622832570  1.4409792342  0.8520075977
C  -0.6706251694 -0.1921733324 -0.3721276095
C   0.5648033894  0.6945673035 -0.5722764012
C   1.8867155555 -0.0062745657 -0.1992300268
O   2.5376947492 -0.5132543826 -1.1694280807
C   2.2632710036  0.0073599137  1.1215384825
O   4.9192508686  2.1484536280 -0.5624161290
H  -2.3149566309 -0.5001843274  1.0624740446
H  -0.3695876762 -1.1992072585 -0.0831714046
H  -1.2295339819 -0.3241145631 -1.3078108879
H   0.4569466660  1.6241314995 -0.0218417212
H   0.6339978574  0.9598555666 -1.6225614357
H   1.6479627466  0.4235320566  1.9046396109
H   4.2418439767  1.4709884411 -0.4198663539
H   3.2129034842 -0.4240535504  1.4308634950
H   4.4253845426  2.9673985130 -0.6336771585
17
Image 18  Energy = -421.92422960
C  -1.6766258288  0.2873187136  0.6076576932
O  -1.9505685074  1.4343774002  0.8692731277
C  -0.6671300605 -0.1895226637 -0.3757572999
C   0.5659474235  0.6974283106 -0.5856198185
C   1.8934588735  0.0169170794 -0.1970161299
O   2.6017829059 -0.4158053079 -1.1626473541
C   2.2211533832 -0.0244049686  1.1355226040
O   4.9263650376  2.1481909875 -0.5584335383
H  -2.2842043131 -0.5093930553  1.0870164521
H  -0.3655413428 -1.2007454274 -0.1030839499
H  -1.2391060987 -0.3056453860 -1.3059525096
H   0.4511087715  1.6343771590 -0.0487919914
H   0.6364668029  0.9475257690 -1.6392819584
H   1.5763518946  0.3517071851  1.9125375112
H   4.2483615255  1.4657702855 -0.4360182903
H   3.1792898059 -0.4331012798  1.4533867471
H   4.4328889178  2.9650050071 -0.6527913190
17
Image 19  Energy = -421.92472328
C  -1.6596249861  0.2826232923  0.6221919322
O  -1.9386758341  1.4277893447  0.8865866583
C  -0.6638539518 -0.1869653220 -0.3794526853
C   0.5674830592  0.6999307110 -0.5990180033
C   1.9010116359  0.0397842801 -0.1936331064
O   2.6623462054 -0.3173252282 -1.1507047838
C   2.1799814123 -0.0568642366  1.1465110459
O   4.9338176875  2.1487469342 -0.5544135403
H  -2.2532841965 -0.5185540765  1.1113222127
H  -0.3615827573 -1.2020678624 -0.1229973788
H  -1.2483979369 -0.2871541370 -1.3038021868
H   0.4454181150  1.6441650214 -0.0758150938
H   0.6393577672  0.9349570640 -1.6557046663
H   1.5058175916  0.2791597559  1.9176950427
H   4.2551451220  1.4603826417 -0.4524714524
H   3.1442653548 -0.4416160180  1.4755561960
H   4.4407744474  2.9630078076 -0.6718499474
17
Image 20  Energy = -421.92545183
C  -1.6436716515  0.2779467210  0.6357563392
O  -1.9245295824  1.4208240661  0.9076631285
C  -0.6618502419 -0.1836575250 -0.3841055948
C   0.5676038972  0.7028991779 -0.6117607537
C   1.9037267594  0.0622266264 -0.1852248568
O   2.7112429361 -0.2274768934 -1.1280331966
C   2.1405963891 -0.0875310053  1.1574997279
O   4.9468175560  2.1569447378 -0.5496071373
H  -2.2235269273 -0.5286284479  1.1324472252
H  -0.3580733443 -1.2018778965 -0.1425470224
H  -1.2575774765 -0.2697915421 -1.3025850345
H   0.4387112289  1.6558157120 -0.1057788917
H   0.6448832265  0.9192648158 -1.6719759834
H   1.4358073925  0.2009445519  1.9190039244
H   4.2699977047  1.4576871892 -0.4806162925
H   3.1087847109 -0.4517367344  1.4980720553
H   4.4510561333  2.9661463197 -0.6882071746
17
Image 21  Energy = -421.92640624
C  -1.6278111996  0.2732200977  0.6489299261
O  -1.9100999989  1.4137092565  0.9287557069
C  -0.6595344540 -0.1802131287 -0.3886693520
C   0.5682004243  0.7055256985 -0.6243974212
C   1.9062601044  0.0845697448 -0.1759844834
O   2.7554923547 -0.1382301534 -1.1011401992
C   2.1016778758 -0.1176847299  1.1661983465
O   4.9597626538  2.1656849276 -0.5446812212
H  -2.1936736906 -0.5387451438  1.1533525875
H  -0.3547314078 -1.2014289144 -0.1620919554
H  -1.2665611568 -0.2523894854 -1.3010446838
H   0.4321684647  1.6669811208 -0.1359358775
H   0.6509144749  0.9032577940 -1.6878093173
H   1.3679007220  0.1220286093  1.9169581535
H   4.2863045692  1.4564112631 -0.5085867582
H   3.0721612703 -0.4617546963  1.5205873728
H   4.4615677908  2.9690577904 -0.7044403775
17
Image 22  Energy = -421.92746750
C  -1.6093800667  0.2674929627  0.6635867311
O  -1.8952820514  1.4050934102  0.9510964862
C  -0.6573249214 -0.1756166871 -0.3936375093
C   0.5681581185  0.7087232757 -0.6381896777
C   1.9059690190  0.1059243008 -0.1664001288
O   2.7905806173 -0.0580348229 -1.0725419806
C   2.0631299433 -0.1437074012  1.1714815155
O   4.9743573523  2.1774853554 -0.5400870365
H  -2.1563537714 -0.5509044938  1.1788367961
H  -0.3519874419 -1.2001299670 -0.1837347336
H  -1.2771726272 -0.2320715694 -1.2985257707
H   0.4264949743  1.6795957072 -0.1697938773
H   0.6583046998  0.8848403904 -1.7048271845
H   1.3003138148  0.0433132085  1.9038958960
H   4.3068583483  1.4612236933 -0.5218304809
H   3.0314646075 -0.4759855388  1.5438142732
H   4.4718683853  2.9727581603 -0.7231431122
17
Image 23  Energy = -421.92852450
C  -1.5908812685  0.2617167910  0.6779519101
O  -1.8806191179  1.3962145486  0.9730695542
C  -0.6549813791 -0.1708534485 -0.3985177597
C   0.5684676959  0.7115645885 -0.6515658695
C   1.9057637174  0.1271655997 -0.1567215031
O   2.8227838792  0.0221158694 -1.0403747705
C   2.0256175922 -0.1693227985  1.1748774795
O   4.9882429220  2.1886936274 -0.5356526866
H  -2.1188176754 -0.5627906187  1.2039561976
H  -0.3495812043 -1.1986329924 -0.2053296733
H  -1.2875106083 -0.2117561812 -1.2956229113
H   0.4210167009  1.6916933315 -0.2036815424
H   0.6659834411  0.8663583683 -1.7212171905
H   1.2351814231 -0.0349118535  1.8882827709
H   4.3275388407  1.4669206172 -0.5344014895
H   2.9898292062 -0.4899353702  1.5666696649
H   4.4819648117  2.9757599306 -0.7417217123
17
Image 24  Energy = -421.92957054
C  -1.5725336704  0.2577838645  0.6902398732
O  -1.8721441313  1.3890404328  0.9863355346
C  -0.6517390362 -0.1666075164 -0.4038230968
C   0.5705609176  0.7128875600 -0.6624713714
C   1.9083595938  0.1512445055 -0.1471774009
O   2.8574548459  0.1089225668 -1.0012788231
C   1.9977921682 -0.1911464571  1.1760191339
O   4.9895034139  2.1858723470 -0.5326436318
H  -2.0755503244 -0.5723382613  1.2316318403
H  -0.3503078665 -1.1978784269 -0.2238339989
H  -1.2949811589 -0.1930157732 -1.2939593242
H   0.4175326441  1.7009192370 -0.2332783265
H   0.6756320255  0.8493667936 -1.7341298212
H   1.1798070608 -0.0971174945  1.8691364305
H   4.3286755380  1.4640885068 -0.5451498431
H   2.9563187333 -0.5016051949  1.5826507980
H   4.4856182708  2.9695830634 -0.7582678542
17
Image 25  Energy = -421.93165187
C  -1.5540386507  0.2536581139  0.7022014181
O  -1.8639620774  1.3817802705  0.9993050084
C  -0.6489992030 -0.1624567247 -0.4092948214
C   0.5732824104  0.7140471844 -0.6730061975
C   1.9109577242  0.1748742168 -0.1352815249
O   2.8894801466  0.1948075473 -0.9600706823
C   1.9683287629 -0.2116284340  1.1763133919
O   4.9908692089  2.1836715391 -0.5296125835
H  -2.0317254123 -0.5813057159  1.2589781730
H  -0.3515164960 -1.1970552278 -0.2422381022
H  -1.3021010543 -0.1743991910 -1.2922428288
H   0.4142759036  1.7097110815 -0.2627015600
H   0.6857696174  0.8323453675 -1.7463435810
H   1.1280196755 -0.1588804665  1.8468163028
H   4.3286262268  1.4598911625 -0.5558156499
H   2.9229496076 -0.5131175644  1.5976259664
H   4.4897825003  2.9640566479 -0.7746325763
17
Image 26  Energy = -421.93369898
C  -1.5347939701  0.2495757989  0.7132879709
O  -1.8559011988  1.3744651053  1.0101941935
C  -0.6472191576 -0.1582335117 -0.4160623195
C   0.5748721421  0.7156153472 -0.6819407502
C   1.9086589938  0.1973119384 -0.1201009349
O   2.9083804871  0.2704732035 -0.9178936026
C   1.9415335789 -0.2325811045  1.1782910187
O   4.9927613469  2.1830589521 -0.5255991327
H  -1.9870425846 -0.5896220012  1.2850473007
H  -0.3545883041 -1.1967162308 -0.2633895857
H  -1.3090570795 -0.1531366626 -1.2918631448
H   0.4103154061  1.7190726553 -0.2926239000
H   0.6986119252  0.8135217941 -1.7567351254
H   1.0822365551 -0.2244605534  1.8246613538
H   4.3250793935  1.4623622110 -0.5659742016
H   2.8935523266 -0.5244475551  1.6115975866
H   4.5025993844  2.9637404834 -0.7908965942
17
Image 27  Energy = -421.93546508
C  -1.5153020309  0.2454129196  0.7242103092
O  -1.8478594236  1.3669069915  1.0209219157
C  -0.6456472368 -0.1540343249 -0.4228842517
C   0.5766341564  0.7172268498 -0.6907617653
C   1.9050078737  0.2196473112 -0.1040024840
O   2.9217581361  0.3434326891 -0.8739471968
C   1.9150389677 -0.2533442195  1.1795517458
O   4.9954758650  2.1836477766 -0.5215236297
H  -1.9421002231 -0.5976201323  1.3106829698
H  -0.3579244991 -1.1962316127 -0.2848530303
H  -1.3158431194 -0.1315810933 -1.2913562664
H   0.4064261062  1.7279928624 -0.3228172894
H   0.7119334675  0.7944827435 -1.7665877292
H   1.0389153577 -0.2904528509  1.8006683619
H   4.3232317523  1.4664467950 -0.5755560694
H   2.8638253412 -0.5356858409  1.6254542766
H   4.5164288214  2.9637529481 -0.8071997830
17
Image 28  Energy = -421.93671102
C  -1.4942139525  0.2397988280  0.7371354932
O  -1.8402814079  1.3564644127  1.0362001764
C  -0.6484650574 -0.1478268367 -0.4324333524
C   0.5757676459  0.7184957416 -0.7006629838
C   1.8958104254  0.2365199609 -0.0882590894
O   2.9281188225  0.4041044334 -0.8286091147
C   1.8845409978 -0.2770190918  1.1797169936
O   5.0097238776  2.1949040159 -0.5180950295
H  -1.8883185540 -0.6083100977  1.3399374428
H  -0.3656340473 -1.1941543928 -0.3148967419
H  -1.3294530267 -0.1025653906 -1.2909456893
H   0.4005911306  1.7373810135 -0.3568638121
H   0.7261498316  0.7726100072 -1.7764820955
H   0.9938826187 -0.3675903318  1.7715992669
H   4.3318042302  1.4825240248 -0.5673874298
H   2.8297643732 -0.5453103780  1.6411055400
H   4.5402114847  2.9699739001 -0.8310594830
17
Image 29  Energy = -421.93771914
C  -1.4732844732  0.2339083135  0.7496759857
O  -1.8327437192  1.3454550065  1.0515431378
C  -0.6516626030 -0.1416396835 -0.4416462084
C   0.5750694086  0.7196100742 -0.7103657865
C   1.8861516457  0.2527132248 -0.0721569597
O   2.9322032715  0.4630437486 -0.7817978216
C   1.8543072206 -0.3000516649  1.1788332430
O   5.0242058550  2.2066772305 -0.5149374975
H  -1.8349140070 -0.6182265522  1.3678740523
H  -0.3737505581 -1.1916500207 -0.3446937190
H  -1.3428619529 -0.0737037017 -1.2900039930
H   0.3949266957  1.7460208831 -0.3906458706
H   0.7403921434  0.7509909013 -1.7855893995
H   0.9520592124 -0.4434853506  1.7406997843
H   4.3404819557  1.4991407690 -0.5584715619
H   2.7951578785 -0.5546096234  1.6564714385
H   4.5642612759  2.9758065496 -0.8547883601
17
Image 30  Energy = -421.93838573
C  -1.4548206024  0.2282707118  0.7607165400
O  -1.8263057773  1.3341114700  1.0680444725
C  -0.6565024199 -0.1354518795 -0.4505451714
C   0.5739159577  0.7197235194 -0.7189415104
C   1.8768374688  0.2654362413 -0.0579599675
O   2.9341300798  0.5125424522 -0.7380561636
C   1.8276720012 -0.3198751551  1.1773576828
O   5.0408239527  2.2175738323 -0.5160240466
H  -1.7853458460 -0.6278348478  1.3902275556
H  -0.3840186619 -1.1885492361 -0.3723690324
H  -1.3577743057 -0.0466063960 -1.2883957545
H   0.3896763818  1.7521538716 -0.4201895466
H   0.7534788439  0.7316769487 -1.7927004339
H   0.9166258568 -0.5074891031  1.7097409249
H   4.3509780318  1.5154875942 -0.5445131325
H   2.7636898265 -0.5612103862  1.6713204664
H   4.5869384795  2.9800402621 -0.8777124950
17
Image 31  Energy = -421.93874250
C  -1.4362601014  0.2222655307  0.7715108682
O  -1.8197102814  1.3222875274  1.0847808862
C  -0.6618221936 -0.1291857477 -0.4592873445
C   0.5727915116  0.7198984866 -0.7276942529
C   1.8673053071  0.2775870887 -0.0423893636
O   2.9348780740  0.5622622916 -0.6931025766
C   1.8021050972 -0.3393592601  1.1754379356
O   5.0575889070  2.2284718232 -0.5172530185
H  -1.7350763111 -0.6369364091  1.4119637766
H  -0.3946537278 -1.1850814041 -0.4002106485
H  -1.3726042781 -0.0193716968 -1.2863167018
H   0.3845093310  1.7578966238 -0.4500315588
H   0.7668270684  0.7122545966 -1.7993051254
H   0.8825541783 -0.5715005552  1.6771017840
H   4.3613282700  1.5323828116 -0.5302621248
H   2.7304551154 -0.5676142402  1.6857637606
H   4.6097832636  2.9837421173 -0.9007058774
17
Image 32  Energy = -421.93925700
C  -1.4066302880  0.2130711089  0.7870419117
O  -1.8078489760  1.3025340401  1.1134313834
C  -0.6730153389 -0.1176468588 -0.4752288648
C   0.5706345231  0.7191579022 -0.7409284106
C   1.8488502977  0.2976257818 -0.0150008746
O   2.9301062724  0.6419911250 -0.6099416740
C   1.7581198228 -0.3699261401  1.1744954810
O   5.0905335896  2.2452736639 -0.5319281549
H  -1.6507231442 -0.6508276266  1.4425562344
H  -0.4160914842 -1.1775173910 -0.4489951143
H  -1.3993777484  0.0273912522 -1.2824883488
H   0.3763610291  1.7653787298 -0.4984404746
H   0.7901517826  0.6800515027 -1.8078030416
H   0.8340789384 -0.6774471242  1.6243485463
H   4.3828794463  1.5625603150 -0.5018082838
H   2.6754694058 -0.5800159878  1.7126709194
H   4.6465013941  2.9883456736 -0.9419810185
17
Image 33  Energy = -421.93913500
C  -1.3751106217  0.1912272021  0.7999605932
O  -1.7722095259  1.2691560312  1.1609983301
C  -0.6855855139 -0.1048094664 -0.4979688687
C   0.5701595169  0.7210689181 -0.7531491698
C   1.8317591878  0.3171784729  0.0102150097
O   2.9214214918  0.6943911872 -0.5319207928
C   1.7126970844 -0.3766045279  1.1835164897
O   5.1233065591  2.2513097440 -0.5556320773
H  -1.5741863787 -0.6862422291  1.4545797038
H  -0.4375324656 -1.1680310095 -0.5145127941
H  -1.4331318627  0.0849829475 -1.2782723743
H   0.3675184953  1.7727036562 -0.5428769704
H   0.8103788857  0.6596113070 -1.8145868817
H   0.7928039878 -0.7552504347  1.5827063964
H   4.4108588093  1.5811296747 -0.4707397780
H   2.6170372701 -0.5594192671  1.7524260007
H   4.6698146643  2.9775976419 -0.9847422304
