17
Image 0  Energy = -421.87934275
C  -1.9837513749  0.4987433910  0.0353638228
O  -2.0325970758  1.7009548464  0.0779166482
C  -0.7362008073 -0.3303058193 -0.0336946889
C   0.5325309867  0.4850952838 -0.0386837882
C   1.7905349775 -0.3602297797  0.0026980432
O   1.7193906993 -1.5768595741 -0.0129094321
C   3.0298929510  0.4260763813  0.0593553749
O   4.6263649169  2.4194167739 -0.1393264103
H  -2.9285039419 -0.0830096970  0.0499918621
H  -0.7582969030 -1.0195767082  0.8147618847
H  -0.8068718098 -0.9628927839 -0.9229240212
H   0.5469088955  1.1671966934  0.8119662523
H   0.5807986730  1.1096952628 -0.9321549175
H   3.0364763891  1.0851567533  0.9265056266
H   3.1512016971  1.1369018817 -0.7659486320
H   3.9326838058 -0.1629235427  0.0986895260
H   4.8494359985  3.3365570556 -0.0316057565
17
Image 1  Energy = -421.89046657
C  -1.9858402595  0.5049825393  0.0298191814
O  -2.0713109601  1.7038631930  0.0802788948
C  -0.7201654328 -0.2891072527 -0.0522314348
C   0.5537367501  0.5369956632 -0.0518186190
C   1.8079775354 -0.3397924727 -0.0237677760
O   1.6575686879 -1.5477268915 -0.1667805479
C   3.1064747621  0.3273117199  0.2136046684
O   4.2609933778  2.6759706541 -0.6848866243
H  -2.9181805274 -0.1012370585  0.0460153961
H  -0.7337820699 -0.9946457340  0.7846193432
H  -0.7807140724 -0.9222074630 -0.9410802389
H   0.5685806817  1.2031427477  0.8106568684
H   0.6013294556  1.1778865653 -0.9344409062
H   3.0319849811  0.8399529670  1.1745377219
H   3.4946577352  1.2796418378 -0.4622361700
H   3.8999013253 -0.4138257735  0.2629504435
H   4.7767878793  3.2287963191 -0.0852393741
17
Image 2  Energy = -421.92410635
C  -1.6937887848  0.2919954572  0.5928838462
O  -1.9622832570  1.4409792342  0.8520075977
C  -0.6706251694 -0.1921733324 -0.3721276095
C   0.5648033894  0.6945673035 -0.5722764012
C   1.8867155555 -0.0062745657 -0.1992300268
O   2.5376947492 -0.5132543826 -1.1694280807
C   2.2632710036  0.0073599137  1.1215384825
O   4.9192508686  2.1484536280 -0.5624161290
H  -2.3149566309 -0.5001843274  1.0624740446
H  -0.3695876762 -1.1992072585 -0.0831714046
H  -1.2295339819 -0.3241145631 -1.3078108879
H   0.4569466660  1.6241314995 -0.0218417212
H   0.6339978574  0.9598555666 -1.6225614357
H   1.6479627466  0.4235320566  1.9046396109
H   4.2418439767  1.4709884411 -0.4198663539
H   3.2129034842 -0.4240535504  1.4308634950
H   4.4253845426  2.9673985130 -0.6336771585
17
Image 3  Energy = -421.91434625
C  -0.8047643340  0.1773336414  0.9695430912
O  -1.1116170249  1.3247953040  1.3378216838
C  -0.6304304980 -0.0894640183 -0.5328368596
C   0.5760191948  0.7230953345 -0.9467188806
C   1.6577017002  0.4272611789  0.0612870206
O   2.7938390351  0.9129820177 -0.0525551998
C   1.2293933620 -0.3388764465  1.1761120405
O   5.0600765032  2.1386638711 -0.6244581156
H  -1.1788878617 -0.6924299382  1.5470712779
H  -0.4556445844 -1.1499256847 -0.7125073351
H  -1.5472953581  0.2326287177 -1.0312212301
H   0.3388511087  1.7839738692 -0.8420553437
H   0.9255859473  0.5523169595 -1.9633457473
H   0.8644830352 -1.3390684907  1.0188148239
H   4.3029882718  1.5730039330 -0.3553168864
H   1.9304965689 -0.2345450541  1.9928803858
H   4.5992048532  2.8682541120 -1.0425142029
