17
Image 0  Energy = -421.88742813
C  -1.9676677489  0.4906970293  0.0748720370
O  -2.0046284116  1.6963139890  0.1582562106
C  -0.7395885694 -0.3396341113 -0.0641495128
C   0.5329562613  0.4704182302 -0.0750112977
C   1.8033579073 -0.3484949449  0.0031624327
O   1.7995333277 -1.5704207863 -0.0054673287
C   3.0001730202  0.4841744934  0.0852327359
O   4.6357157536  2.3088953368 -0.0657833785
H  -2.9128877725 -0.0790666291  0.1043774530
H  -0.7454494214 -1.0561266327  0.7628020727
H  -0.8473502318 -0.9345236868 -0.9754925516
H   0.5420709577  1.1709768884  0.7625368796
H   0.5984741809  1.0758228298 -0.9821754098
H   2.9301586842  1.1613025163  0.9398940307
H   3.1227423354  1.1743795220 -0.7916272138
H   3.9241637689 -0.0591922912  0.1824697563
H   4.8782279590  3.2244811469 -0.1138985575
17
Image 1  Energy = -421.87934274
C  -1.9837513749  0.4987433910  0.0353638228
O  -2.0325970758  1.7009548464  0.0779166482
C  -0.7362008073 -0.3303058193 -0.0336946889
C   0.5325309867  0.4850952838 -0.0386837882
C   1.7905349775 -0.3602297797  0.0026980432
O   1.7193906993 -1.5768595741 -0.0129094321
C   3.0298929510  0.4260763813  0.0593553749
O   4.6263649169  2.4194167739 -0.1393264103
H  -2.9285039419 -0.0830096970  0.0499918621
H  -0.7582969030 -1.0195767082  0.8147618847
H  -0.8068718098 -0.9628927839 -0.9229240212
H   0.5469088955  1.1671966934  0.8119662523
H   0.5807986730  1.1096952628 -0.9321549175
H   3.0364763891  1.0851567533  0.9265056266
H   3.1512016971  1.1369018817 -0.7659486320
H   3.9326838058 -0.1629235427  0.0986895260
H   4.8494359985  3.3365570556 -0.0316057565
17
Image 2  Energy = -421.90708809
C  -2.0101300376  0.4806503935  0.0713897698
O  -2.0780790317  1.6783847305  0.1546258017
C  -0.7503146749 -0.3191366863 -0.0726263048
C   0.5171457356  0.4981578568 -0.0756603195
C   1.7745654163 -0.3510961193  0.0067169313
O   1.7039193275 -1.5732739775 -0.0487154235
C   3.0295453617  0.4033031497  0.1370258719
O   4.6937376506  2.4924361112 -0.1994251677
H  -2.9422898607 -0.1236473054  0.1068668094
H  -0.7245111812 -1.0400021936  0.7459928778
H  -0.8389027291 -0.9247570988 -0.9766564879
H   0.5033304005  1.2043028052  0.7538998042
H   0.5835958961  1.0982415037 -0.9840668152
H   3.0091080343  1.0738492046  0.9904927052
H   3.2288160294  1.0987287664 -0.6841380490
H   3.8984318313 -0.2329548405  0.2261363350
H   4.9520356011  3.4068199217 -0.1518611494
17
Image 3  Energy = -421.90758476
C  -2.0061664196  0.4785324574  0.0798621247
O  -2.0706514523  1.6755423239  0.1736730997
C  -0.7483261172 -0.3173434281 -0.0837294230
C   0.5180348777  0.5044022274 -0.0860735605
C   1.7700615796 -0.3515713437  0.0052233898
O   1.6831465940 -1.5740788715 -0.0655234664
C   3.0306854318  0.3899120306  0.1627466232
O   4.6568467828  2.5239023821 -0.2504131030
H  -2.9377147254 -0.1257009324  0.1205619499
H  -0.7088185627 -1.0480347056  0.7260684024
H  -0.8406080213 -0.9178242969 -0.9910698175
H   0.5003319540  1.2145793897  0.7404382111
H   0.5840704049  1.1041013297 -0.9949618460
H   2.9998787149  1.0600023869  1.0161500179
H   3.2556217137  1.0919602827 -0.6486173480
H   3.8921652787 -0.2541267465  0.2638244950
H   4.9714474940  3.4157542563 -0.1681640210
17
Image 4  Energy = -421.90882247
C  -2.0062732455  0.4914842809  0.0612607510
O  -2.0811920875  1.6896979161  0.1379994739
C  -0.7434551487 -0.3073697600 -0.0704836629
C   0.5317426432  0.5019823538 -0.0690931202
C   1.7780259635 -0.3622964052  0.0004626438
O   1.6772646630 -1.5835681400 -0.0971474063
C   3.0494333799  0.3632668627  0.1680622683
O   4.5762632760  2.5889113647 -0.3318628297
H  -2.9375367025 -0.1152853874  0.0957000688
H  -0.7287039234 -1.0233020869  0.7542338935
H  -0.8265128178 -0.9198727232 -0.9714035836
H   0.5266954567  1.2038615083  0.7646378392
H   0.5980176933  1.1125027453 -0.9695564057
H   3.0349458372  1.0103921353  1.0422389427
H   3.2772006780  1.0906299747 -0.6308721512
H   3.8897673754 -0.3154351455  0.2384971534
H   4.9343210321  3.4444064803 -0.1226771757
17
Image 5  Energy = -421.90916292
C  -2.0045954200  0.5038379683  0.0273067742
O  -2.0821625085  1.7021072255  0.0718032132
C  -0.7367089373 -0.2948478309 -0.0459264676
C   0.5420737698  0.5085364813 -0.0430915039
C   1.7799624624 -0.3770330075  0.0083555901
O   1.6608638766 -1.5956961371 -0.0892156389
C   3.0703793216  0.3278821651  0.1454792483
O   4.4965000116  2.6848621956 -0.3958311006
H  -2.9367337974 -0.1044153778  0.0475971873
H  -0.7381126486 -0.9818299421  0.8020882583
H  -0.7849635919 -0.9409620099 -0.9240968902
H   0.5523582134  1.1965390146  0.8032999435
H   0.5959043197  1.1457265856 -0.9282960899
H   3.0948984906  0.9359766885  1.0517376732
H   3.2618534415  1.0663596766 -0.6473904736
H   3.8879045977 -0.3827035210  0.1553069611
H   4.8905779958  3.4756582748 -0.0391276822
17
Image 6  Energy = -421.88853652
C  -1.9923082395  0.5029989900  0.0410851958
O  -2.0740433846  1.7084237617  0.0960901965
C  -0.7406305453 -0.2927795497 -0.0509205623
C   0.5466944313  0.5018534109 -0.0489134867
C   1.7935525983 -0.3668425848 -0.0056368049
O   1.6957383001 -1.5908563144 -0.1359232742
C   3.0450355018  0.3127149441  0.2098834996
O   4.3940987450  2.5615497299 -0.4131527266
H  -2.9210492603 -0.0981567747  0.0626509977
H  -0.7574547227 -1.0000389920  0.7843256335
H  -0.8250854829 -0.9135673360 -0.9483122759
H   0.5675279347  1.1861086782  0.7978212495
H   0.6162733071  1.1158071253 -0.9474256046
H   3.0392516216  0.9840494249  1.0670834440
H   3.4020798871  1.2337309733 -0.6308470852
H   3.9151003699 -0.3260984037  0.2302395836
H   4.8452188102  3.3511049461 -0.1080464668
17
Image 7  Energy = -421.91251760
C  -1.9868172609  0.5100070506  0.0301670955
O  -2.0700287611  1.7102552931  0.0825136198
C  -0.7215994305 -0.2820867385 -0.0549493941
C   0.5569748934  0.5283339621 -0.0513529608
C   1.8007072331 -0.3569467527 -0.0087736791
O   1.6721340940 -1.5716434008 -0.1742994520
C   3.0882978229  0.3243949812  0.2181805143
O   4.2980232403  2.6783907335 -0.5830830766
H  -2.9146776405 -0.1010789313  0.0481159773
H  -0.7332500418 -0.9829778373  0.7833300860
H  -0.7840716774 -0.9143304874 -0.9421059223
H   0.5765615692  1.2020974411  0.8053055522
H   0.6166707331  1.1670435469 -0.9363038872
H   3.0462047936  0.8757071597  1.1600557456
H   3.3786366308  1.1358192247 -0.5113908091
H   3.9113856888 -0.3836646572  0.2439163095
H   4.8148478588  3.3306813137 -0.1093243487
17
Image 8  Energy = -421.89046654
C  -1.9858402595  0.5049825393  0.0298191814
O  -2.0713109601  1.7038631930  0.0802788948
C  -0.7201654328 -0.2891072527 -0.0522314348
C   0.5537367501  0.5369956632 -0.0518186190
C   1.8079775354 -0.3397924727 -0.0237677760
O   1.6575686879 -1.5477268915 -0.1667805479
C   3.1064747621  0.3273117199  0.2136046684
O   4.2609933778  2.6759706541 -0.6848866243
H  -2.9181805274 -0.1012370585  0.0460153961
H  -0.7337820699 -0.9946457340  0.7846193432
H  -0.7807140724 -0.9222074630 -0.9410802389
H   0.5685806817  1.2031427477  0.8106568684
H   0.6013294556  1.1778865653 -0.9344409062
H   3.0319849811  0.8399529670  1.1745377219
H   3.4946577352  1.2796418378 -0.4622361700
H   3.8999013253 -0.4138257735  0.2629504435
H   4.7767878793  3.2287963191 -0.0852393741
17
Image 9  Energy = -421.89821070
C  -1.9844314382  0.5003211259  0.0312539472
O  -2.0741600209  1.7039369529  0.0838769766
C  -0.7192144086 -0.2879475933 -0.0512949039
C   0.5569967523  0.5375545921 -0.0460892148
C   1.8176917390 -0.3315939541 -0.0248007703
O   1.6667573167 -1.5459596118 -0.1781502601
C   3.1063158831  0.3355909032  0.2137280216
O   4.2131959548  2.6146732864 -0.7348620502
H  -2.9174764692 -0.1040247662  0.0470893613
H  -0.7294290561 -0.9991619006  0.7819939432
H  -0.7775760808 -0.9197865432 -0.9428039177
H   0.5573994905  1.2074054724  0.8127571317
H   0.5945214871  1.1740537361 -0.9307824318
H   3.0249516320  0.8816846724  1.1476037806
H   3.6057840168  1.4276778288 -0.4020500456
H   3.8899296608 -0.4187629045  0.2583261349
H   4.7187433222  3.0943401881 -0.0657946119
17
Image 10  Energy = -421.90688902
C  -1.9828657377  0.4997382727  0.0356102893
O  -2.0837513451  1.7028715701  0.0946211602
C  -0.7160993293 -0.2801771866 -0.0544684608
C   0.5624274231  0.5392237598 -0.0412988200
C   1.8207318430 -0.3442927519 -0.0150270698
O   1.6653583258 -1.5599931512 -0.2159549391
C   3.0938329859  0.3227329533  0.2469738928
O   4.1665363275  2.5428757846 -0.7508956326
H  -2.9139106050 -0.1096799262  0.0526328990
H  -0.7198582311 -1.0003437140  0.7725142616
H  -0.7752082550 -0.9085783095 -0.9502299074
H   0.5522525055  1.2140399478  0.8124648507
H   0.6014092272  1.1696146980 -0.9313386321
H   3.0105268942  0.9344607912  1.1399803567
H   3.7031581525  1.5638008932 -0.3942240247
H   3.8919993587 -0.4229983680  0.2692490481
H   4.6734595145  3.0067063121 -0.0706075863
17
Image 11  Energy = -421.91615753
C  -1.9843300123  0.4999549344  0.0399244778
O  -2.0964689313  1.7020286749  0.1049890486
C  -0.7168635598 -0.2728525564 -0.0600792954
C   0.5661927611  0.5342145045 -0.0357497215
C   1.8050021323 -0.3830132836  0.0105729024
O   1.6253045353 -1.5873249164 -0.2738226452
C   3.0372959948  0.2363315353  0.3285511576
O   4.1805916305  2.5471730853 -0.7947752300
H  -2.9097225589 -0.1172833519  0.0615350568
H  -0.7070358126 -0.9988001493  0.7601890866
H  -0.7688211194 -0.8964570468 -0.9580653499
H   0.5597630187  1.2206094297  0.8081598842
H   0.6247003921  1.1538673863 -0.9316751228
H   3.0115943930  0.9796996850  1.1208542718
H   3.7922053977  1.7102878483 -0.4077955861
H   3.8813140594 -0.4514860477  0.3108351875
H   4.6492748119  2.9930534935 -0.0836470152
17
Image 12  Energy = -421.91826558
C  -1.9923701069  0.4921336788  0.0428887332
O  -2.1118397500  1.6937220830  0.1069129817
C  -0.7233074806 -0.2755110103 -0.0482028400
C   0.5577765726  0.5300298269 -0.0254074078
C   1.7923725344 -0.3969151135  0.0117783457
O   1.6028928754 -1.5749921536 -0.3747244531
C   2.9927192991  0.1934625839  0.4324863671
O   4.3011763486  2.5417077622 -0.8311036870
H  -2.9141372538 -0.1302322306  0.0568601481
H  -0.7081470911 -1.0015028565  0.7726773440
H  -0.7599773456 -0.9014520684 -0.9443763794
H   0.5663063332  1.2152627048  0.8188721037
H   0.6134132043  1.1467309557 -0.9222652637
H   2.9872874124  1.0718027439  1.0722901134
H   3.8403640667  1.7267959866 -0.5225373262
H   3.8891802980 -0.4179076225  0.3785187414
H   4.6162870212  2.9568700157 -0.0246693397
17
Image 13  Energy = -421.92442644
C  -1.9898211261  0.4830638931  0.0788085559
O  -2.1266228787  1.6785060101  0.1859754613
C  -0.7189399355 -0.2678967520 -0.0673759393
C   0.5626283907  0.5357662077 -0.0486811607
C   1.7908619931 -0.3941949026  0.0086926317
O   1.6153491136 -1.5482940266 -0.4433552018
C   2.9596193272  0.1756739552  0.5306491895
O   4.3387521315  2.5168479987 -0.8568229541
H  -2.9060694041 -0.1502248174  0.0906152091
H  -0.6797392182 -1.0277273702  0.7222390120
H  -0.7724523634 -0.8600042100 -0.9855986266
H   0.5777393223  1.2270722004  0.7895582996
H   0.6327452408  1.1322331685 -0.9572680077
H   2.9250675084  1.1317914445  1.0371480764
H   3.8813329722  1.6963532603 -0.5809474230
H   3.8729026148 -0.4075506501  0.5337278445
H   4.5866451901  2.9485820288 -0.0373650181
17
Image 14  Energy = -421.92472627
C  -1.9826931157  0.4734233073  0.1065493005
O  -2.1289195421  1.6639311363  0.2533117868
C  -0.7072431281 -0.2592312836 -0.0958488111
C   0.5697721837  0.5533705414 -0.0798273848
C   1.7978772969 -0.3763108654  0.0000170143
O   1.6367077339 -1.5277044481 -0.4564738539
C   2.9527847101  0.1955805653  0.5512728146
O   4.3261491275  2.4572372418 -0.8785544275
H  -2.8903177874 -0.1709871571  0.1268749011
H  -0.6467877734 -1.0393398494  0.6701777227
H  -0.7800425274 -0.8248275596 -1.0278879504
H   0.5735548037  1.2561307030  0.7494347969
H   0.6445124581  1.1392040340 -0.9950631104
H   2.8862223437  1.1307643561  1.0943419040
H   3.8802976976  1.6531102115 -0.5384432174
H   3.8533279791 -0.4068385861  0.6132488948
H   4.5647966218  2.9524795181 -0.0931301914
17
Image 15  Energy = -421.92472316
C  -1.9936722545  0.4680394058  0.1069094420
O  -2.1367988529  1.6602203279  0.2437663143
C  -0.7193183454 -0.2682026085 -0.0876272889
C   0.5535068595  0.5514028411 -0.0833476383
C   1.7933962446 -0.3638753073 -0.0130446440
O   1.6421719492 -1.5181906359 -0.4699280531
C   2.9454977712  0.2183228879  0.5303840257
O   4.4544788136  2.3998620064 -0.8415434101
H  -2.9024737835 -0.1742467165  0.1315937284
H  -0.6596673448 -1.0378160408  0.6901712839
H  -0.7917992827 -0.8459868299 -1.0126870782
H   0.5552774184  1.2563972573  0.7442815363
H   0.6148190304  1.1386499638 -0.9988578831
H   2.8709493220  1.1585846648  1.0634303199
H   3.9656759200  1.6156928453 -0.5105931678
H   3.8498969688 -0.3767006684  0.5933601671
H   4.5080613731  2.9878441228 -0.0862686699
17
Image 16  Energy = -421.92467324
C  -2.0072863891  0.4578263899  0.1197215020
O  -2.1502209128  1.6488354401  0.2663591533
C  -0.7309673936 -0.2746657274 -0.0900288574
C   0.5407033584  0.5508914330 -0.0992930061
C   1.7886355058 -0.3550476492 -0.0217722417
O   1.6428932787 -1.5213537644 -0.4463806070
C   2.9441989411  0.2495388941  0.4933800072
O   4.5885182396  2.3522906963 -0.7829987752
H  -2.9183619929 -0.1818260967  0.1485682171
H  -0.6582883372 -1.0426740814  0.6883075206
H  -0.8117021709 -0.8567077611 -1.0117944528
H   0.5373176926  1.2663767595  0.7196751443
H   0.6047524138  1.1284306142 -1.0209772167
H   2.8532069002  1.1851046873  1.0340738128
H   4.0427389261  1.5909252755 -0.4857684170
H   3.8375889173 -0.3542841890  0.6050927250
H   4.4462731742  3.0263391364 -0.1161643667
17
Image 17  Energy = -421.92436025
C  -2.0049994226  0.4411203811  0.1599891742
O  -2.1486672025  1.6252641160  0.3506215521
C  -0.7332942122 -0.2762054200 -0.1169052741
C   0.5335896358  0.5582854347 -0.1410703202
C   1.7855696990 -0.3380856131 -0.0265481157
O   1.6557072661 -1.5073470975 -0.4545643980
C   2.9208014084  0.2704967954  0.5224997832
O   4.6706158422  2.2989384768 -0.7292509212
H  -2.9104770850 -0.2055188167  0.1980909689
H  -0.6260814207 -1.0653781561  0.6354423911
H  -0.8498976728 -0.8331542584 -1.0507590614
H   0.5182126398  1.2941718771  0.6592086518
H   0.6045844877  1.1101296367 -1.0780680034
H   2.8177054131  1.2279925146  1.0220301768
H   4.0936526029  1.5576784811 -0.4410936375
H   3.8154794507 -0.3234310736  0.6646684689
H   4.4074968993  3.0350428886 -0.1742911889
17
Image 18  Energy = -421.93902429
C  -1.9861659072  0.4340323264  0.1929015862
O  -2.1246026693  1.6185463402  0.4160936408
C  -0.7356709393 -0.2768451603 -0.1443601836
C   0.5359624468  0.5504321295 -0.1741341333
C   1.7959698715 -0.3265878460 -0.0274002107
O   1.6866284299 -1.5156728117 -0.4120840353
C   2.9232498411  0.3193330781  0.4913945026
O   4.6665085899  2.2397954971 -0.6908383650
H  -2.8873086911 -0.2097087612  0.2447884339
H  -0.6195285268 -1.0939656551  0.5738952667
H  -0.9023603165 -0.7883893883 -1.0963741927
H   0.5096760448  1.3069483511  0.6046715807
H   0.6185376437  1.0716806977 -1.1258164689
H   2.7720262551  1.2217447037  1.0701779842
H   4.0438968581  1.5511554097 -0.3809196846
H   3.8106677483 -0.2768710906  0.6761366478
H   4.4425110500  3.0443718093 -0.2181324448
17
Image 19  Energy = -421.93918463
C  -1.9788339798  0.4255018366  0.2127710153
O  -2.1243919492  1.6072798889  0.4418505961
C  -0.7302831038 -0.2718929173 -0.1568105752
C   0.5365823295  0.5623676783 -0.1968326250
C   1.7928606029 -0.3164936500 -0.0417219233
O   1.6954095767 -1.4898936008 -0.4787709577
C   2.8991528758  0.3047492563  0.5408144306
O   4.6847629489  2.2323824284 -0.6855256947
H  -2.8704134356 -0.2291718818  0.2850296883
H  -0.5950619084 -1.0976027068  0.5483990426
H  -0.9105864211 -0.7733285484 -1.1119039682
H   0.5062349684  1.3257436252  0.5755398797
H   0.6178740912  1.0743873800 -1.1535602351
H   2.7505729358  1.2200734410  1.0995155877
H   4.0583395133  1.5418400726 -0.3603262539
H   3.7897056319 -0.2857604772  0.7189336332
H   4.4280729256  3.0398175856 -0.2374017878
17
Image 20  Energy = -421.93899303
C  -1.9708177012  0.4163064122  0.2334373026
O  -2.1235731818  1.5955805876  0.4689646920
C  -0.7251301649 -0.2668956589 -0.1698994590
C   0.5371460450  0.5741874069 -0.2199737966
C   1.7912096372 -0.3056806961 -0.0564796532
O   1.7071672857 -1.4609105162 -0.5444535561
C   2.8739734215  0.2908519876  0.5874184288
O   4.6978294985  2.2207750481 -0.6763308744
H  -2.8528305825 -0.2486593464  0.3270500498
H  -0.5708088212 -1.1014761330  0.5209582028
H  -0.9200990498 -0.7569123126 -1.1280462076
H   0.5031381113  1.3450704292  0.5446756537
H   0.6178218339  1.0761910515 -1.1821707232
H   2.7259332204  1.2154619656  1.1316005102
H   4.0753847632  1.5345331737 -0.3418545293
H   3.7681731294 -0.2941750654  0.7635017956
H   4.4154805878  3.0357513559 -0.2583979051
17
Image 21  Energy = -421.93803888
C  -1.9509091232  0.4013404793  0.2750221005
O  -2.1111867668  1.5766133216  0.5244953915
C  -0.7169708976 -0.2593117220 -0.1973568100
C   0.5399928285  0.5897059484 -0.2652563300
C   1.7955371681 -0.2841594975 -0.0846867967
O   1.7458302542 -1.4135210199 -0.6337083199
C   2.8368253873  0.2904178345  0.6393767955
O   4.7155678092  2.1919814693 -0.6609701684
H  -2.8161662675 -0.2773831054  0.4094673167
H  -0.5333641412 -1.1157232813  0.4575678213
H  -0.9496177645 -0.7168171474 -1.1631524303
H   0.5001777263  1.3766004031  0.4821863826
H   0.6209164680  1.0706501251 -1.2376638054
H   2.6491911844  1.1834188048  1.2232546806
H   4.0869406884  1.5206592686 -0.3107897506
H   3.7296794242 -0.2883780487  0.8395779973
H   4.4075542393  3.0239057845 -0.2973645500
17
Image 22  Energy = -421.93686992
C  -1.9283996814  0.3867948565  0.3150477852
O  -2.0962811666  1.5582301589  0.5756049232
C  -0.7093605565 -0.2514575069 -0.2228987995
C   0.5429189599  0.6048746301 -0.3079253802
C   1.7999411573 -0.2629373787 -0.1095984401
O   1.7883103524 -1.3633913491 -0.7171205692
C   2.7941809388  0.2848656475  0.6938388359
O   4.7377577409  2.1709669495 -0.6471694571
H  -2.7748994049 -0.3065539056  0.4888719739
H  -0.4992096475 -1.1283629250  0.3945732011
H  -0.9801844169 -0.6763219481 -1.1938985132
H   0.4974489843  1.4078098061  0.4214622354
H   0.6225387198  1.0655589632 -1.2898526645
H   2.5604326394  1.1411455945  1.3145068566
H   4.1046906182  1.5083863492 -0.2923522947
H   3.6911092404 -0.2813325899  0.9107902510
H   4.3990037631  3.0117244427 -0.3338802862
17
Image 23  Energy = -421.92568377
C  -1.9105721690  0.3755308128  0.3502208797
O  -2.0851606425  1.5425727876  0.6139167576
C  -0.7040988460 -0.2442448934 -0.2451002631
C   0.5451878474  0.6186507765 -0.3420985836
C   1.8027629542 -0.2456376953 -0.1245067222
O   1.8291934828 -1.3190055628 -0.7894897331
C   2.7388255498  0.2607252786  0.7543963713
O   4.7773643243  2.1727124401 -0.6443080853
H  -2.7380436795 -0.3331942129  0.5608204653
H  -0.4732154343 -1.1392090260  0.3379989048
H  -1.0074606015 -0.6404767257 -1.2191105162
H   0.4885237554  1.4381613950  0.3674201595
H   0.6227408456  1.0600703343 -1.3342207639
H   2.4698599276  1.0806587037  1.4116868844
H   4.1414355819  1.5109258034 -0.3041133470
H   3.6516917894 -0.2809992372  0.9782564380
H   4.4009638205  3.0127586560 -0.3717690645
17
Image 24  Energy = -421.93221670
C  -1.8864237297  0.3643555216  0.3866328653
O  -2.0683441240  1.5299369003  0.6518893937
C  -0.7009497384 -0.2365372016 -0.2678276725
C   0.5471615814  0.6313597302 -0.3797520617
C   1.8058513394 -0.2227797113 -0.1401557968
O   1.8811772021 -1.2643055369 -0.8603344470
C   2.6828484037  0.2354353052  0.8156758033
O   4.8057101880  2.1711047547 -0.6394348333
H  -2.6914168845 -0.3562439166  0.6402188119
H  -0.4518235529 -1.1495962113  0.2769781966
H  -1.0416054554 -0.5998279634 -1.2423728743
H   0.4884572627  1.4674947385  0.3087684223
H   0.6223341705  1.0489436118 -1.3824087186
H   2.3771876441  1.0149385947  1.5038330900
H   4.1690465310  1.5133966207 -0.3123526537
H   3.6027922084 -0.2906327211  1.0514837157
H   4.4079957709  3.0129573172 -0.4108419922
17
Image 25  Energy = -421.93121689
C  -1.8584296932  0.3516153604  0.4242067213
O  -2.0478409778  1.5152331844  0.6920569303
C  -0.6966508629 -0.2296731131 -0.2910919116
C   0.5486965603  0.6441840050 -0.4174262725
C   1.8144988861 -0.1934845260 -0.1582888222
O   1.9585041448 -1.1854499148 -0.9369861241
C   2.6288896409  0.2140631275  0.8732496378
O   4.8210705200  2.1588875274 -0.6187401562
H  -2.6382951696 -0.3807345528  0.7192841490
H  -0.4322013481 -1.1625135693  0.2099579499
H  -1.0776035384 -0.5540546361 -1.2645800041
H   0.4862286983  1.4968737959  0.2493292595
H   0.6197429227  1.0368213062 -1.4300645396
H   2.2946080968  0.9612609728  1.5814777446
H   4.1786530762  1.5017436747 -0.3055098804
H   3.5484915305 -0.3085195312  1.1203559543
H   4.4016361746  3.0037469336 -0.4472307886
17
Image 26  Energy = -421.93047083
C  -1.8445869681  0.3449272183  0.4428197202
O  -2.0391117988  1.5070899242  0.7129295003
C  -0.6953663028 -0.2258466027 -0.3034106350
C   0.5497589075  0.6497273463 -0.4356980687
C   1.8191181097 -0.1791590816 -0.1657051850
O   2.0046469702 -1.1400682905 -0.9747811677
C   2.5961526151  0.1961647560  0.9061584783
O   4.8333003306  2.1592434730 -0.6122210142
H  -2.6102043451 -0.3928738052  0.7594024411
H  -0.4262979420 -1.1686856427  0.1757070882
H  -1.0945016048 -0.5302418884 -1.2759624713
H   0.4843638450  1.5108207996  0.2195682246
H   0.6211022503  1.0298047034 -1.4529170257
H   2.2464160597  0.9266928282  1.6227499263
H   4.1851191973  1.5038520597 -0.3084021965
H   3.5148972846 -0.3260615198  1.1580169701
H   4.4051919862  3.0046134975 -0.4682546402
17
Image 27  Energy = -421.92937493
C  -1.8264259448  0.3404722524  0.4587379511
O  -2.0318812897  1.4975415259  0.7339148780
C  -0.6950309560 -0.2219752657 -0.3149155536
C   0.5510572602  0.6550081717 -0.4534518729
C   1.8245524975 -0.1657989821 -0.1725348983
O   2.0506389391 -1.0926630274 -1.0094388811
C   2.5626761281  0.1771728452  0.9373389765
O   4.8451557179  2.1601522468 -0.6059426546
H  -2.5845253893 -0.4053520303  0.7998619331
H  -0.4208541803 -1.1745669004  0.1420065259
H  -1.1108410663 -0.5068600320 -1.2868403497
H   0.4827724421  1.5242826988  0.1904342859
H   0.6225239190  1.0226874497 -1.4748908126
H   2.1985162154  0.8917488770  1.6620118912
H   4.1915586769  1.5059791080 -0.3116830899
H   3.4809496070 -0.3431976712  1.1946087906
H   4.4091560952  3.0053681624 -0.4892171859
17
Image 28  Energy = -421.92832266
C  -1.8113606768  0.3340162995  0.4757355765
O  -2.0226983013  1.4897859986  0.7513779692
C  -0.6934448993 -0.2181719208 -0.3252965040
C   0.5524540266  0.6601491160 -0.4689877918
C   1.8303946623 -0.1498793199 -0.1773296324
O   2.1045616976 -1.0381187471 -1.0421319888
C   2.5264246434  0.1578140764  0.9691506532
O   4.8581195321  2.1616622942 -0.6052540056
H  -2.5544352198 -0.4184351087  0.8350705523
H  -0.4155316656 -1.1799222190  0.1096512199
H  -1.1285050077 -0.4825400402 -1.2945629585
H   0.4803561215  1.5373582466  0.1636348242
H   0.6242004806  1.0159872833 -1.4942913964
H   2.1386851781  0.8465422970  1.7055873630
H   4.2005014438  1.5065604368 -0.3216558682
H   3.4458080102 -0.3585166895  1.2302070212
H   4.4144687351  3.0057077990 -0.5109052671
17
Image 29  Energy = -421.92730251
C  -1.7961821998  0.3273097765  0.4926837958
O  -2.0134257540  1.4819147482  0.7686282424
C  -0.6919981920 -0.2143814215 -0.3354808976
C   0.5540859717  0.6649868744 -0.4842263936
C   1.8365823725 -0.1339351538 -0.1813703128
O   2.1589852389 -0.9808529858 -1.0717256807
C   2.4894482188  0.1376219361  0.9991720671
O   4.8709497178  2.1632452011 -0.6046827973
H  -2.5237357208 -0.4313137772  0.8698243258
H  -0.4103694775 -1.1848236280  0.0772088572
H  -1.1460989853 -0.4581197548 -1.3015746001
H   0.4781340781  1.5500902303  0.1369952953
H   0.6260218416  1.0090855258 -1.5133229101
H   2.0778265735  0.7997950103  1.7472162733
H   4.2098183295  1.5071664560 -0.3322622328
H   3.4101568117 -0.3735776610  1.2654917627
H   4.4198000399  3.0057883034 -0.5325750164
17
Image 30  Energy = -421.92653087
C  -1.7828073828  0.3196885287  0.5107725138
O  -2.0034674685  1.4758180666  0.7825552298
C  -0.6889641413 -0.2107539065 -0.3435945512
C   0.5556597874  0.6705936247 -0.4979989560
C   1.8440476418 -0.1138297370 -0.1848991982
O   2.2188437343 -0.9163584081 -1.0975719716
C   2.4547947256  0.1208507232  1.0254284915
O   4.8815098863  2.1622068013 -0.6023653219
H  -2.4909011537 -0.4433883785  0.9008896423
H  -0.4028440593 -1.1888534546  0.0470548124
H  -1.1626177892 -0.4347173927 -1.3050344371
H   0.4745769407  1.5632629901  0.1118900788
H   0.6276176365  1.0026694903 -1.5309672353
H   2.0092051381  0.7464652166  1.7845822407
H   4.2196897206  1.4999652012 -0.3491528153
H   3.3780045538 -0.3833115068  1.2968239111
H   4.4176510072  2.9996917889 -0.5484125232
17
Image 31  Energy = -421.92574999
C  -1.7663854712  0.3134674861  0.5272024977
O  -1.9944188797  1.4686614143  0.7969603097
C  -0.6863771119 -0.2071249457 -0.3511623805
C   0.5574859048  0.6759321171 -0.5118615339
C   1.8522038977 -0.0939819330 -0.1879762856
O   2.2781767541 -0.8489564070 -1.1197088398
C   2.4191983766  0.1033618763  1.0498667973
O   4.8916743592  2.1613241228 -0.5996137933
H  -2.4587966343 -0.4558002539  0.9328664038
H  -0.3955088673 -1.1924994690  0.0168083793
H  -1.1787928853 -0.4112452095 -1.3081322749
H   0.4712663921  1.5761151754  0.0866828228
H   0.6293599501  0.9959369744 -1.5483728793
H   1.9401576567  0.6911551593  1.8192125698
H   4.2300174417  1.4929729422 -0.3665493545
H   3.3450817485 -0.3925184998  1.3280154366
H   4.4156561751  2.9931989528 -0.5642377845
17
Image 32  Energy = -421.92501949
C  -1.7487536417  0.3079204385  0.5440080474
O  -1.9872966512  1.4617767783  0.8103737841
C  -0.6826053591 -0.2028733058 -0.3573035901
C   0.5593394056  0.6818390994 -0.5267780241
C   1.8603356125 -0.0724254673 -0.1916571721
O   2.3400285284 -0.7758619676 -1.1381708239
C   2.3825256440  0.0845715508  1.0708666481
O   4.9014495305  2.1600076376 -0.5908043955
H  -2.4229871909 -0.4679198678  0.9663400124
H  -0.3878884680 -1.1943502371 -0.0099586631
H  -1.1923478260 -0.3887853161 -1.3094603377
H   0.4680711349  1.5894846526  0.0600300111
H   0.6306918667  0.9885389200 -1.5670474565
H   1.8640430854  0.6245803669  1.8491016291
H   4.2376254551  1.4864329974 -0.3850062562
H   3.3129459437 -0.3994851940  1.3554183153
H   4.4148217840  2.9865482687 -0.5799517049
17
Image 33  Energy = -421.92452267
C  -1.7307409674  0.3023087770  0.5606142271
O  -1.9801535105  1.4545821227  0.8238398382
C  -0.6787204150 -0.1986313830 -0.3631805196
C   0.5614345214  0.6873229603 -0.5418595450
C   1.8688850065 -0.0511527115 -0.1948071757
O   2.4013046925 -0.6996199532 -1.1525175654
C   2.3446989380  0.0651327361  1.0901034712
O   4.9104870927  2.1587049699 -0.5818671489
H  -2.3865715989 -0.4797506634  0.9996021071
H  -0.3805592362 -1.1957960899 -0.0367010306
H  -1.2056620411 -0.3661789497 -1.3102175702
H   0.4650396561  1.6023180473  0.0333218156
H   0.6321731832  0.9808208993 -1.5855498656
H   1.7887247470  0.5561918062  1.8757668393
H   4.2452753053  1.4799249590 -0.4033750787
H   3.2798204625 -0.4059343951  1.3827098044
H   4.4145631407  2.9797565824 -0.5958827685
17
Image 34  Energy = -421.92419530
C  -1.7123920328  0.2971851475  0.5768558749
O  -1.9712744496  1.4478949381  0.8378922646
C  -0.6746718086 -0.1953855254 -0.3676765525
C   0.5628409418  0.6912391977 -0.5570437033
C   1.8774835011 -0.0284746113 -0.1973118579
O   2.4707928239 -0.6077578305 -1.1635697040
C   2.3041135674  0.0367289032  1.1073212890
O   4.9151166713  2.1532868170 -0.5721787879
H  -2.3509221465 -0.4900696295  1.0311450916
H  -0.3749260194 -1.1976153727 -0.0599345698
H  -1.2177361181 -0.3452330187 -1.3092691178
H   0.4609082056  1.6135234041  0.0057805151
H   0.6329113355  0.9705220871 -1.6041603848
H   1.7178318649  0.4903643108  1.8918020986
H   4.2434038994  1.4755405104 -0.4118573894
H   3.2468596924 -0.4152601603  1.4068984454
H   4.4196593685  2.9735104104 -0.6146935194
17
Image 35  Energy = -421.92410637
C  -1.6937887848  0.2919954572  0.5928838462
O  -1.9622832570  1.4409792342  0.8520075977
C  -0.6706251694 -0.1921733324 -0.3721276095
C   0.5648033894  0.6945673035 -0.5722764012
C   1.8867155555 -0.0062745657 -0.1992300268
O   2.5376947492 -0.5132543826 -1.1694280807
C   2.2632710036  0.0073599137  1.1215384825
O   4.9192508686  2.1484536280 -0.5624161290
H  -2.3149566309 -0.5001843274  1.0624740446
H  -0.3695876762 -1.1992072585 -0.0831714046
H  -1.2295339819 -0.3241145631 -1.3078108879
H   0.4569466660  1.6241314995 -0.0218417212
H   0.6339978574  0.9598555666 -1.6225614357
H   1.6479627466  0.4235320566  1.9046396109
H   4.2418439767  1.4709884411 -0.4198663539
H   3.2129034842 -0.4240535504  1.4308634950
H   4.4253845426  2.9673985130 -0.6336771585
17
Image 36  Energy = -421.92422960
C  -1.6766258288  0.2873187136  0.6076576932
O  -1.9505685074  1.4343774002  0.8692731277
C  -0.6671300605 -0.1895226637 -0.3757572999
C   0.5659474235  0.6974283106 -0.5856198185
C   1.8934588735  0.0169170794 -0.1970161299
O   2.6017829059 -0.4158053079 -1.1626473541
C   2.2211533832 -0.0244049686  1.1355226040
O   4.9263650376  2.1481909875 -0.5584335383
H  -2.2842043131 -0.5093930553  1.0870164521
H  -0.3655413428 -1.2007454274 -0.1030839499
H  -1.2391060987 -0.3056453860 -1.3059525096
H   0.4511087715  1.6343771590 -0.0487919914
H   0.6364668029  0.9475257690 -1.6392819584
H   1.5763518946  0.3517071851  1.9125375112
H   4.2483615255  1.4657702855 -0.4360182903
H   3.1792898059 -0.4331012798  1.4533867471
H   4.4328889178  2.9650050071 -0.6527913190
17
Image 37  Energy = -421.92472328
C  -1.6596249861  0.2826232923  0.6221919322
O  -1.9386758341  1.4277893447  0.8865866583
C  -0.6638539518 -0.1869653220 -0.3794526853
C   0.5674830592  0.6999307110 -0.5990180033
C   1.9010116359  0.0397842801 -0.1936331064
O   2.6623462054 -0.3173252282 -1.1507047838
C   2.1799814123 -0.0568642366  1.1465110459
O   4.9338176875  2.1487469342 -0.5544135403
H  -2.2532841965 -0.5185540765  1.1113222127
H  -0.3615827573 -1.2020678624 -0.1229973788
H  -1.2483979369 -0.2871541370 -1.3038021868
H   0.4454181150  1.6441650214 -0.0758150938
H   0.6393577672  0.9349570640 -1.6557046663
H   1.5058175916  0.2791597559  1.9176950427
H   4.2551451220  1.4603826417 -0.4524714524
H   3.1442653548 -0.4416160180  1.4755561960
H   4.4407744474  2.9630078076 -0.6718499474
17
Image 38  Energy = -421.92545183
C  -1.6436716515  0.2779467210  0.6357563392
O  -1.9245295824  1.4208240661  0.9076631285
C  -0.6618502419 -0.1836575250 -0.3841055948
C   0.5676038972  0.7028991779 -0.6117607537
C   1.9037267594  0.0622266264 -0.1852248568
O   2.7112429361 -0.2274768934 -1.1280331966
C   2.1405963891 -0.0875310053  1.1574997279
O   4.9468175560  2.1569447378 -0.5496071373
H  -2.2235269273 -0.5286284479  1.1324472252
H  -0.3580733443 -1.2018778965 -0.1425470224
H  -1.2575774765 -0.2697915421 -1.3025850345
H   0.4387112289  1.6558157120 -0.1057788917
H   0.6448832265  0.9192648158 -1.6719759834
H   1.4358073925  0.2009445519  1.9190039244
H   4.2699977047  1.4576871892 -0.4806162925
H   3.1087847109 -0.4517367344  1.4980720553
H   4.4510561333  2.9661463197 -0.6882071746
17
Image 39  Energy = -421.92640624
C  -1.6278111996  0.2732200977  0.6489299261
O  -1.9100999989  1.4137092565  0.9287557069
C  -0.6595344540 -0.1802131287 -0.3886693520
C   0.5682004243  0.7055256985 -0.6243974212
C   1.9062601044  0.0845697448 -0.1759844834
O   2.7554923547 -0.1382301534 -1.1011401992
C   2.1016778758 -0.1176847299  1.1661983465
O   4.9597626538  2.1656849276 -0.5446812212
H  -2.1936736906 -0.5387451438  1.1533525875
H  -0.3547314078 -1.2014289144 -0.1620919554
H  -1.2665611568 -0.2523894854 -1.3010446838
H   0.4321684647  1.6669811208 -0.1359358775
H   0.6509144749  0.9032577940 -1.6878093173
H   1.3679007220  0.1220286093  1.9169581535
H   4.2863045692  1.4564112631 -0.5085867582
H   3.0721612703 -0.4617546963  1.5205873728
H   4.4615677908  2.9690577904 -0.7044403775
17
Image 40  Energy = -421.92746750
C  -1.6093800667  0.2674929627  0.6635867311
O  -1.8952820514  1.4050934102  0.9510964862
C  -0.6573249214 -0.1756166871 -0.3936375093
C   0.5681581185  0.7087232757 -0.6381896777
C   1.9059690190  0.1059243008 -0.1664001288
O   2.7905806173 -0.0580348229 -1.0725419806
C   2.0631299433 -0.1437074012  1.1714815155
O   4.9743573523  2.1774853554 -0.5400870365
H  -2.1563537714 -0.5509044938  1.1788367961
H  -0.3519874419 -1.2001299670 -0.1837347336
H  -1.2771726272 -0.2320715694 -1.2985257707
H   0.4264949743  1.6795957072 -0.1697938773
H   0.6583046998  0.8848403904 -1.7048271845
H   1.3003138148  0.0433132085  1.9038958960
H   4.3068583483  1.4612236933 -0.5218304809
H   3.0314646075 -0.4759855388  1.5438142732
H   4.4718683853  2.9727581603 -0.7231431122
17
Image 41  Energy = -421.92852450
C  -1.5908812685  0.2617167910  0.6779519101
O  -1.8806191179  1.3962145486  0.9730695542
C  -0.6549813791 -0.1708534485 -0.3985177597
C   0.5684676959  0.7115645885 -0.6515658695
C   1.9057637174  0.1271655997 -0.1567215031
O   2.8227838792  0.0221158694 -1.0403747705
C   2.0256175922 -0.1693227985  1.1748774795
O   4.9882429220  2.1886936274 -0.5356526866
H  -2.1188176754 -0.5627906187  1.2039561976
H  -0.3495812043 -1.1986329924 -0.2053296733
H  -1.2875106083 -0.2117561812 -1.2956229113
H   0.4210167009  1.6916933315 -0.2036815424
H   0.6659834411  0.8663583683 -1.7212171905
H   1.2351814231 -0.0349118535  1.8882827709
H   4.3275388407  1.4669206172 -0.5344014895
H   2.9898292062 -0.4899353702  1.5666696649
H   4.4819648117  2.9757599306 -0.7417217123
17
Image 42  Energy = -421.92957054
C  -1.5725336704  0.2577838645  0.6902398732
O  -1.8721441313  1.3890404328  0.9863355346
C  -0.6517390362 -0.1666075164 -0.4038230968
C   0.5705609176  0.7128875600 -0.6624713714
C   1.9083595938  0.1512445055 -0.1471774009
O   2.8574548459  0.1089225668 -1.0012788231
C   1.9977921682 -0.1911464571  1.1760191339
O   4.9895034139  2.1858723470 -0.5326436318
H  -2.0755503244 -0.5723382613  1.2316318403
H  -0.3503078665 -1.1978784269 -0.2238339989
H  -1.2949811589 -0.1930157732 -1.2939593242
H   0.4175326441  1.7009192370 -0.2332783265
H   0.6756320255  0.8493667936 -1.7341298212
H   1.1798070608 -0.0971174945  1.8691364305
H   4.3286755380  1.4640885068 -0.5451498431
H   2.9563187333 -0.5016051949  1.5826507980
H   4.4856182708  2.9695830634 -0.7582678542
17
Image 43  Energy = -421.93165187
C  -1.5540386507  0.2536581139  0.7022014181
O  -1.8639620774  1.3817802705  0.9993050084
C  -0.6489992030 -0.1624567247 -0.4092948214
C   0.5732824104  0.7140471844 -0.6730061975
C   1.9109577242  0.1748742168 -0.1352815249
O   2.8894801466  0.1948075473 -0.9600706823
C   1.9683287629 -0.2116284340  1.1763133919
O   4.9908692089  2.1836715391 -0.5296125835
H  -2.0317254123 -0.5813057159  1.2589781730
H  -0.3515164960 -1.1970552278 -0.2422381022
H  -1.3021010543 -0.1743991910 -1.2922428288
H   0.4142759036  1.7097110815 -0.2627015600
H   0.6857696174  0.8323453675 -1.7463435810
H   1.1280196755 -0.1588804665  1.8468163028
H   4.3286262268  1.4598911625 -0.5558156499
H   2.9229496076 -0.5131175644  1.5976259664
H   4.4897825003  2.9640566479 -0.7746325763
17
Image 44  Energy = -421.93369898
C  -1.5347939701  0.2495757989  0.7132879709
O  -1.8559011988  1.3744651053  1.0101941935
C  -0.6472191576 -0.1582335117 -0.4160623195
C   0.5748721421  0.7156153472 -0.6819407502
C   1.9086589938  0.1973119384 -0.1201009349
O   2.9083804871  0.2704732035 -0.9178936026
C   1.9415335789 -0.2325811045  1.1782910187
O   4.9927613469  2.1830589521 -0.5255991327
H  -1.9870425846 -0.5896220012  1.2850473007
H  -0.3545883041 -1.1967162308 -0.2633895857
H  -1.3090570795 -0.1531366626 -1.2918631448
H   0.4103154061  1.7190726553 -0.2926239000
H   0.6986119252  0.8135217941 -1.7567351254
H   1.0822365551 -0.2244605534  1.8246613538
H   4.3250793935  1.4623622110 -0.5659742016
H   2.8935523266 -0.5244475551  1.6115975866
H   4.5025993844  2.9637404834 -0.7908965942
17
Image 45  Energy = -421.93546508
C  -1.5153020309  0.2454129196  0.7242103092
O  -1.8478594236  1.3669069915  1.0209219157
C  -0.6456472368 -0.1540343249 -0.4228842517
C   0.5766341564  0.7172268498 -0.6907617653
C   1.9050078737  0.2196473112 -0.1040024840
O   2.9217581361  0.3434326891 -0.8739471968
C   1.9150389677 -0.2533442195  1.1795517458
O   4.9954758650  2.1836477766 -0.5215236297
H  -1.9421002231 -0.5976201323  1.3106829698
H  -0.3579244991 -1.1962316127 -0.2848530303
H  -1.3158431194 -0.1315810933 -1.2913562664
H   0.4064261062  1.7279928624 -0.3228172894
H   0.7119334675  0.7944827435 -1.7665877292
H   1.0389153577 -0.2904528509  1.8006683619
H   4.3232317523  1.4664467950 -0.5755560694
H   2.8638253412 -0.5356858409  1.6254542766
H   4.5164288214  2.9637529481 -0.8071997830
17
Image 46  Energy = -421.93671102
C  -1.4942139525  0.2397988280  0.7371354932
O  -1.8402814079  1.3564644127  1.0362001764
C  -0.6484650574 -0.1478268367 -0.4324333524
C   0.5757676459  0.7184957416 -0.7006629838
C   1.8958104254  0.2365199609 -0.0882590894
O   2.9281188225  0.4041044334 -0.8286091147
C   1.8845409978 -0.2770190918  1.1797169936
O   5.0097238776  2.1949040159 -0.5180950295
H  -1.8883185540 -0.6083100977  1.3399374428
H  -0.3656340473 -1.1941543928 -0.3148967419
H  -1.3294530267 -0.1025653906 -1.2909456893
H   0.4005911306  1.7373810135 -0.3568638121
H   0.7261498316  0.7726100072 -1.7764820955
H   0.9938826187 -0.3675903318  1.7715992669
H   4.3318042302  1.4825240248 -0.5673874298
H   2.8297643732 -0.5453103780  1.6411055400
H   4.5402114847  2.9699739001 -0.8310594830
17
Image 47  Energy = -421.93771914
C  -1.4732844732  0.2339083135  0.7496759857
O  -1.8327437192  1.3454550065  1.0515431378
C  -0.6516626030 -0.1416396835 -0.4416462084
C   0.5750694086  0.7196100742 -0.7103657865
C   1.8861516457  0.2527132248 -0.0721569597
O   2.9322032715  0.4630437486 -0.7817978216
C   1.8543072206 -0.3000516649  1.1788332430
O   5.0242058550  2.2066772305 -0.5149374975
H  -1.8349140070 -0.6182265522  1.3678740523
H  -0.3737505581 -1.1916500207 -0.3446937190
H  -1.3428619529 -0.0737037017 -1.2900039930
H   0.3949266957  1.7460208831 -0.3906458706
H   0.7403921434  0.7509909013 -1.7855893995
H   0.9520592124 -0.4434853506  1.7406997843
H   4.3404819557  1.4991407690 -0.5584715619
H   2.7951578785 -0.5546096234  1.6564714385
H   4.5642612759  2.9758065496 -0.8547883601
17
Image 48  Energy = -421.93838573
C  -1.4548206024  0.2282707118  0.7607165400
O  -1.8263057773  1.3341114700  1.0680444725
C  -0.6565024199 -0.1354518795 -0.4505451714
C   0.5739159577  0.7197235194 -0.7189415104
C   1.8768374688  0.2654362413 -0.0579599675
O   2.9341300798  0.5125424522 -0.7380561636
C   1.8276720012 -0.3198751551  1.1773576828
O   5.0408239527  2.2175738323 -0.5160240466
H  -1.7853458460 -0.6278348478  1.3902275556
H  -0.3840186619 -1.1885492361 -0.3723690324
H  -1.3577743057 -0.0466063960 -1.2883957545
H   0.3896763818  1.7521538716 -0.4201895466
H   0.7534788439  0.7316769487 -1.7927004339
H   0.9166258568 -0.5074891031  1.7097409249
H   4.3509780318  1.5154875942 -0.5445131325
H   2.7636898265 -0.5612103862  1.6713204664
H   4.5869384795  2.9800402621 -0.8777124950
17
Image 49  Energy = -421.93874250
C  -1.4362601014  0.2222655307  0.7715108682
O  -1.8197102814  1.3222875274  1.0847808862
C  -0.6618221936 -0.1291857477 -0.4592873445
C   0.5727915116  0.7198984866 -0.7276942529
C   1.8673053071  0.2775870887 -0.0423893636
O   2.9348780740  0.5622622916 -0.6931025766
C   1.8021050972 -0.3393592601  1.1754379356
O   5.0575889070  2.2284718232 -0.5172530185
H  -1.7350763111 -0.6369364091  1.4119637766
H  -0.3946537278 -1.1850814041 -0.4002106485
H  -1.3726042781 -0.0193716968 -1.2863167018
H   0.3845093310  1.7578966238 -0.4500315588
H   0.7668270684  0.7122545966 -1.7993051254
H   0.8825541783 -0.5715005552  1.6771017840
H   4.3613282700  1.5323828116 -0.5302621248
H   2.7304551154 -0.5676142402  1.6857637606
H   4.6097832636  2.9837421173 -0.9007058774
17
Image 50  Energy = -421.93925700
C  -1.4066302880  0.2130711089  0.7870419117
O  -1.8078489760  1.3025340401  1.1134313834
C  -0.6730153389 -0.1176468588 -0.4752288648
C   0.5706345231  0.7191579022 -0.7409284106
C   1.8488502977  0.2976257818 -0.0150008746
O   2.9301062724  0.6419911250 -0.6099416740
C   1.7581198228 -0.3699261401  1.1744954810
O   5.0905335896  2.2452736639 -0.5319281549
H  -1.6507231442 -0.6508276266  1.4425562344
H  -0.4160914842 -1.1775173910 -0.4489951143
H  -1.3993777484  0.0273912522 -1.2824883488
H   0.3763610291  1.7653787298 -0.4984404746
H   0.7901517826  0.6800515027 -1.8078030416
H   0.8340789384 -0.6774471242  1.6243485463
H   4.3828794463  1.5625603150 -0.5018082838
H   2.6754694058 -0.5800159878  1.7126709194
H   4.6465013941  2.9883456736 -0.9419810185
17
Image 51  Energy = -421.93913500
C  -1.3751106217  0.1912272021  0.7999605932
O  -1.7722095259  1.2691560312  1.1609983301
C  -0.6855855139 -0.1048094664 -0.4979688687
C   0.5701595169  0.7210689181 -0.7531491698
C   1.8317591878  0.3171784729  0.0102150097
O   2.9214214918  0.6943911872 -0.5319207928
C   1.7126970844 -0.3766045279  1.1835164897
O   5.1233065591  2.2513097440 -0.5556320773
H  -1.5741863787 -0.6862422291  1.4545797038
H  -0.4375324656 -1.1680310095 -0.5145127941
H  -1.4331318627  0.0849829475 -1.2782723743
H   0.3675184953  1.7727036562 -0.5428769704
H   0.8103788857  0.6596113070 -1.8145868817
H   0.7928039878 -0.7552504347  1.5827063964
H   4.4108588093  1.5811296747 -0.4707397780
H   2.6170372701 -0.5594192671  1.7524260007
H   4.6698146643  2.9775976419 -0.9847422304
17
Image 52  Energy = -421.93541651
C  -1.3595245226  0.2026957839  0.8098695018
O  -1.7804024345  1.2806904873  1.1515671177
C  -0.6907002458 -0.0999026490 -0.4968145276
C   0.5699769342  0.7145241984 -0.7602536132
C   1.8228674335  0.3212464071  0.0249999628
O   2.9238734472  0.7446665263 -0.4839834503
C   1.6952075449 -0.3994814279  1.1747576444
O   5.1351776631  2.2533830433 -0.5727333586
H  -1.5227842608 -0.6597119736  1.4886101829
H  -0.4530749312 -1.1649425887 -0.5180642520
H  -1.4409155672  0.1014412355 -1.2700240492
H   0.3716025147  1.7705275244 -0.5667945465
H   0.8210865222  0.6358834532 -1.8185714123
H   0.7849415805 -0.8459226124  1.5255273661
H   4.4134665621  1.5952369528 -0.4675352484
H   2.5836395177 -0.5616634699  1.7747224793
H   4.6755615026  2.9813290415 -0.9952789678
17
Image 53  Energy = -421.92240257
C  -1.3482435864  0.2180219536  0.8224157601
O  -1.7927235404  1.2883473310  1.1429085931
C  -0.6960715672 -0.0955566503 -0.4979074973
C   0.5727607388  0.7080134652 -0.7686074109
C   1.8230598172  0.3281892039  0.0359999001
O   2.9163645322  0.7861415253 -0.4333408139
C   1.6784550969 -0.4232452849  1.1699368478
O   5.1499494683  2.2568054924 -0.5913491430
H  -1.4709845927 -0.6325754992  1.5287699686
H  -0.4673807647 -1.1631486282 -0.5238722524
H  -1.4512645185  0.1195634051 -1.2621539494
H   0.3743712856  1.7681369047 -0.5920776320
H   0.8311009744  0.6147285440 -1.8242985585
H   0.7802468379 -0.9359525965  1.4609957623
H   4.4192688813  1.6101806385 -0.4620968374
H   2.5498557561 -0.5623800895  1.7993293438
H   4.6812347238  2.9847301300 -1.0046510008
17
Image 54  Energy = -421.92287413
C  -1.3264997722  0.2265095219  0.8341721233
O  -1.7735020095  1.3012789780  1.1424079202
C  -0.6993250033 -0.0915718596 -0.4994861825
C   0.5738870132  0.7033396619 -0.7771818581
C   1.8106282210  0.3388745876  0.0533760524
O   2.9024112189  0.8406449443 -0.3726481183
C   1.6575508281 -0.4434720999  1.1650532956
O   5.1548660848  2.2510514454 -0.6119962132
H  -1.4189540973 -0.6136777047  1.5501186002
H  -0.4776227226 -1.1601990722 -0.5297777812
H  -1.4615549614  0.1344320208 -1.2532707367
H   0.3771023261  1.7673170372 -0.6238917099
H   0.8442588559  0.5890581022 -1.8282071080
H   0.7750861446 -1.0097134125  1.4020926762
H   4.4154085294  1.6206530535 -0.4544890516
H   2.5118367408 -0.5677526705  1.8196643931
H   4.6844221661  2.9832273745 -1.0159352611
17
Image 55  Energy = -421.92311553
C  -1.3031092644  0.2369471259  0.8423851649
O  -1.7526792935  1.3116822201  1.1474566774
C  -0.7017956777 -0.0877450939 -0.5021326719
C   0.5757522493  0.6982285022 -0.7864188685
C   1.7975692208  0.3503205296  0.0707873867
O   2.8843431818  0.8967061414 -0.3070230123
C   1.6363727941 -0.4638235445  1.1590989375
O   5.1575116635  2.2432343312 -0.6336105477
H  -1.3687672834 -0.5934944499  1.5710844095
H  -0.4879907124 -1.1577866745 -0.5351911277
H  -1.4700296537  0.1486131892 -1.2459451441
H   0.3801075837  1.7652417003 -0.6557329390
H   0.8586000883  0.5635342291 -1.8320259311
H   0.7732960540 -1.0784911019  1.3426234472
H   4.4104637341  1.6301610974 -0.4463468273
H   2.4734327413 -0.5742150544  1.8382480336
H   4.6869223237  2.9808864516 -1.0272558523
17
Image 56  Energy = -421.92308672
C  -1.2684174769  0.2422358095  0.8528617084
O  -1.6996396398  1.3213461849  1.1686291395
C  -0.7038499875 -0.0845894103 -0.5076712585
C   0.5766741032  0.6931656099 -0.8015576844
C   1.7806312719  0.3632322428  0.0852744888
O   2.8624457298  0.9475854916 -0.2429045027
C   1.6073433088 -0.4743702950  1.1551013250
O   5.1572735139  2.2316730050 -0.6509612481
H  -1.3181402434 -0.5854340385  1.5841956512
H  -0.4992357647 -1.1558405794 -0.5495080889
H  -1.4831209300  0.1651775338 -1.2347081063
H   0.3810232511  1.7624842258 -0.6940701428
H   0.8724493486  0.5373970617 -1.8408094390
H   0.7696009337 -1.1365239366  1.2843652690
H   4.4046736771  1.6348428797 -0.4360600472
H   2.4234106986 -0.5674097099  1.8619442164
H   4.6868779063  2.9750273598 -1.0341201878
17
Image 57  Energy = -421.92291142
C  -1.2282410209  0.2452463957  0.8646117287
O  -1.6345372732  1.3299062478  1.1945104198
C  -0.7042637126 -0.0810611401 -0.5131168883
C   0.5784254298  0.6891467002 -0.8187498620
C   1.7627226175  0.3775161753  0.0988408099
O   2.8390616500  0.9961305501 -0.1768017190
C   1.5742716748 -0.4814009247  1.1507790079
O   5.1533417840  2.2175167318 -0.6676869428
H  -1.2667055264 -0.5827211013  1.5943046662
H  -0.5094515130 -1.1532155161 -0.5665364660
H  -1.4968542937  0.1830754008 -1.2196166885
H   0.3822601511  1.7602587372 -0.7355534578
H   0.8872695184  0.5113812151 -1.8508440160
H   0.7677902606 -1.1902173290  1.2228685849
H   4.3957864375  1.6380485293 -0.4249214275
H   2.3635786362 -0.5570971046  1.8890662422
H   4.6855446622  2.9674858352 -1.0411527397
17
Image 58  Energy = -421.92202458
C  -1.1787737792  0.2370410468  0.8787180505
O  -1.5364975856  1.3308479683  1.2353526176
C  -0.6987685405 -0.0778570663 -0.5191006682
C   0.5804837679  0.6903744886 -0.8400193716
C   1.7445953292  0.3920247440  0.1050881627
O   2.8243085673  1.0176492468 -0.1316781251
C   1.5290762936 -0.4668244349  1.1551992481
O   5.1436032540  2.2029031892 -0.6757487865
H  -1.2421306733 -0.6041387937  1.5896249515
H  -0.5101518673 -1.1495835186 -0.5907540047
H  -1.5117741511  0.1990063316 -1.1961747443
H   0.3831064334  1.7624245812 -0.7755351259
H   0.9008133646  0.4961033911 -1.8658781840
H   0.7652762475 -1.2256412759  1.1722580793
H   4.3828083651  1.6352177653 -0.4151767867
H   2.2944626143 -0.5259636261  1.9203849466
H   4.6795619714  2.9564155484 -1.0465589052
17
Image 59  Energy = -421.92017888
C  -1.1129410209  0.2228055364  0.8990158639
O  -1.4263118717  1.3253470629  1.2777818411
C  -0.6867770139 -0.0758830254 -0.5240272710
C   0.5831391692  0.6930019012 -0.8660170604
C   1.7226252931  0.4073381112  0.1066224950
O   2.8121594370  1.0205475308 -0.0942187322
C   1.4596320265 -0.4323820903  1.1685004771
O   5.1331849831  2.1904776109 -0.6797465030
H  -1.2323152766 -0.6342190125  1.5821900547
H  -0.5068647870 -1.1468041560 -0.6171411421
H  -1.5253239260  0.2149481453 -1.1621969666
H   0.3845656763  1.7653897034 -0.8143626449
H   0.9147115716  0.4858343712 -1.8859458098
H   0.7688303391 -1.2579231518  1.1210089825
H   4.3716441826  1.6301338487 -0.4057210331
H   2.2176683459 -0.4843257106  1.9450276492
H   4.6723724514  2.9457130536 -1.0507690546
17
Image 60  Energy = -421.91782700
C  -1.0243439934  0.2035190434  0.9281240617
O  -1.3221996794  1.3138363483  1.3173469692
C  -0.6666528974 -0.0758570509 -0.5251457375
C   0.5858558776  0.6978334653 -0.8961567039
C   1.6977687496  0.4158874830  0.0965876570
O   2.8044848083  0.9900816297 -0.0762930544
C   1.3642114009 -0.3842691858  1.1853695069
O   5.1250369867  2.1853449333 -0.6753184651
H  -1.2418538089 -0.6679693440  1.5712034277
H  -0.4947261654 -1.1454514731 -0.6436810663
H  -1.5333238417  0.2276897655 -1.1182951774
H   0.3830792044  1.7689838794 -0.8417478274
H   0.9242243817  0.4878269034 -1.9120953242
H   0.7884674963 -1.2865312298  1.0800473692
H   4.3675379876  1.6222692046 -0.3983383159
H   2.1290822760 -0.4203746937  1.9601403838
H   4.6633509621  2.9371803332 -1.0517465653
17
Image 61  Energy = -421.91656461
C  -0.9466983239  0.1935305764  0.9501498488
O  -1.2646872781  1.3097026019  1.3306861459
C  -0.6514094367 -0.0787839968 -0.5242438585
C   0.5861056552  0.7021429024 -0.9172827365
C   1.6814259190  0.4176305521  0.0834878218
O   2.7974282866  0.9672570817 -0.0598888668
C   1.3046562320 -0.3698105850  1.1808788566
O   5.1177006120  2.1807028939 -0.6699959581
H  -1.2317442608 -0.6784951798  1.5680823100
H  -0.4820128093 -1.1464326626 -0.6614504349
H  -1.5373149258  0.2335272086 -1.0831426700
H   0.3748912363  1.7708460619 -0.8505367804
H   0.9259118726  0.4969350935 -1.9321065051
H   0.8028894247 -1.3109365879  1.0576560432
H   4.3632929930  1.6171906635 -0.3911789651
H   2.0523757367 -0.3653546555  1.9706612685
H   4.6571887374  2.9303478037 -1.0517745714
17
Image 62  Energy = -421.91607579
C  -0.8748258163  0.1845737153  0.9648584891
O  -1.2021393126  1.3110907909  1.3374896543
C  -0.6413576326 -0.0831762522 -0.5263120755
C   0.5828490044  0.7085347692 -0.9325445454
C   1.6703056922  0.4204628398  0.0728984070
O   2.7948316982  0.9466258331 -0.0489602269
C   1.2635038770 -0.3594403340  1.1759488138
O   5.1016054091  2.1691087239 -0.6575795765
H  -1.2128298226 -0.6861363745  1.5594538743
H  -0.4718073823 -1.1479465123 -0.6813295386
H  -1.5427697725  0.2364032993 -1.0550408157
H   0.3621947966  1.7744847033 -0.8527231009
H   0.9252072070  0.5122916740 -1.9472290741
H   0.8184825751 -1.3271836843  1.0384235433
H   4.3473111840  1.6055683748 -0.3797997010
H   1.9872050920 -0.3091799962  1.9823317986
H   4.6422330232  2.9139180414 -1.0498851346
17
Image 63  Energy = -421.91434625
C  -0.8047643340  0.1773336414  0.9695430912
O  -1.1116170249  1.3247953040  1.3378216838
C  -0.6304304980 -0.0894640183 -0.5328368596
C   0.5760191948  0.7230953345 -0.9467188806
C   1.6577017002  0.4272611789  0.0612870206
O   2.7938390351  0.9129820177 -0.0525551998
C   1.2293933620 -0.3388764465  1.1761120405
O   5.0600765032  2.1386638711 -0.6244581156
H  -1.1788878617 -0.6924299382  1.5470712779
H  -0.4556445844 -1.1499256847 -0.7125073351
H  -1.5472953581  0.2326287177 -1.0312212301
H   0.3388511087  1.7839738692 -0.8420553437
H   0.9255859473  0.5523169595 -1.9633457473
H   0.8644830352 -1.3390684907  1.0188148239
H   4.3029882718  1.5730039330 -0.3553168864
H   1.9304965689 -0.2345450541  1.9928803858
H   4.5992048532  2.8682541120 -1.0425142029
17
Image 64  Energy = -421.91541906
C  -0.6976718803  0.1586613930  1.0007658733
O  -1.0491594654  1.3303705662  1.3513072618
C  -0.6244774205 -0.0945343792 -0.5301395414
C   0.5744493173  0.7209364028 -0.9613803031
C   1.6434934967  0.4424275209  0.0600091446
O   2.7914974182  0.8770110489 -0.0406982306
C   1.1274812040 -0.2943593535  1.1894851961
O   5.0472884858  2.1294918401 -0.6256462402
H  -1.1615035937 -0.7100442196  1.5314106007
H  -0.4644004117 -1.1556583555 -0.7330766138
H  -1.5461707072  0.2386024056 -1.0104830123
H   0.3327608915  1.7818986526 -0.8512004905
H   0.9337609534  0.5493132611 -1.9738374128
H   0.9257521010 -1.3437909458  0.9821930987
H   4.2808661385  1.5747437583 -0.3605813933
H   1.8366494911 -0.2048623539  2.0117507824
H   4.5993838166  2.8697921383 -1.0398783518
17
Image 65  Energy = -421.92096544
C  -0.6100021993  0.1344508832  1.0185049161
O  -0.9796534683  1.3266546076  1.3669946558
C  -0.6197612830 -0.0969918249 -0.5297128258
C   0.5749945319  0.7234434367 -0.9763111652
C   1.6367027529  0.4518300423  0.0519026146
O   2.7956591653  0.8440569218 -0.0279305046
C   1.0589460040 -0.2778741855  1.1842217829
O   5.0351222742  2.1225319478 -0.6269610122
H  -1.1352926098 -0.7205582347  1.5211586678
H  -0.4736012912 -1.1574274053 -0.7549940701
H  -1.5509634424  0.2471242079 -0.9809132591
H   0.3233700200  1.7823317004 -0.8613320305
H   0.9375762410  0.5507113981 -1.9876350023
H   0.9804663834 -1.3453212277  0.9582574294
H   4.2630686278  1.5731203120 -0.3655586953
H   1.7152575396 -0.1592870361  2.0482976165
H   4.5981109391  2.8712039847 -1.0379885390
17
Image 66  Energy = -421.92632263
C  -0.5587268173  0.1072757173  1.0188579643
O  -0.9107387812  1.3152674702  1.3859545264
C  -0.6171570119 -0.0941407395 -0.5348740574
C   0.5743818273  0.7345790778 -0.9871418016
C   1.6370081892  0.4503483955  0.0389480274
O   2.8116283202  0.7824003041 -0.0413075879
C   1.0206488374 -0.2707223177  1.1768904758
O   5.0207990010  2.1183247838 -0.6192900812
H  -1.1084884887 -0.7391437740  1.5085791780
H  -0.4801613717 -1.1511534577 -0.7866395989
H  -1.5589084583  0.2596197840 -0.9532230272
H   0.3160435209  1.7902831077 -0.8602075067
H   0.9337300689  0.5680475675 -2.0018760562
H   1.0540057044 -1.3477440480  0.9699745295
H   4.2494299865  1.5603031074 -0.3709291159
H   1.5790719463 -0.0798183053  2.0918085174
H   4.5874339142  2.8662729499 -1.0355237612
17
Image 67  Energy = -421.92880587
C  -0.5365106479  0.0793519964  1.0097602735
O  -0.8805432876  1.2895901229  1.4015817690
C  -0.6143738220 -0.0864390674 -0.5455247857
C   0.5755394076  0.7513341364 -0.9897208462
C   1.6435465469  0.4354724223  0.0266614342
O   2.8312951995  0.6973719339 -0.0820795753
C   1.0109688327 -0.2604938731  1.1780878458
O   4.9998997677  2.1117235785 -0.6077457517
H  -1.0922828194 -0.7708966410  1.4841089811
H  -0.4878135160 -1.1361615754 -0.8342723005
H  -1.5625869065  0.2834247973 -0.9324501618
H   0.3170602103  1.8038410091 -0.8395983790
H   0.9292336484  0.6030839256 -2.0091671639
H   1.1403817528 -1.3428863024  1.0332599463
H   4.2345796170  1.5358668254 -0.3808798849
H   1.4754670881  0.0210610988  2.1203717462
H   4.5661389661  2.8547548465 -1.0323923636
17
Image 68  Energy = -421.92948881
C  -0.5311805119  0.0605678459  1.0027231790
O  -0.8875617630  1.2622647994  1.4142791941
C  -0.6111627298 -0.0778791426 -0.5541564131
C   0.5787235072  0.7657940623 -0.9873146139
C   1.6491274007  0.4238847545  0.0188206190
O   2.8441896306  0.6337334555 -0.1154791644
C   1.0105346726 -0.2476705622  1.1839906025
O   4.9852578261  2.0988030340 -0.6024140045
H  -1.0807021792 -0.8029828896  1.4605227766
H  -0.4901915613 -1.1211736244 -0.8687688976
H  -1.5609639183  0.3042383597 -0.9247475925
H   0.3235150542  1.8164034921 -0.8183147889
H   0.9287095389  0.6335123156 -2.0098944883
H   1.1937599661 -1.3282537709  1.0923472527
H   4.2239494092  1.5106865309 -0.3926262386
H   1.4224585541  0.0968918901  2.1292746598
H   4.5515371424  2.8411785884 -1.0282412768
17
Image 69  Energy = -421.92972509
C  -0.5295215352  0.0423423729  0.9956902501
O  -0.9064479927  1.2312563464  1.4278462498
C  -0.6077341477 -0.0676981301 -0.5630146099
C   0.5830449481  0.7810254971 -0.9835930021
C   1.6549659132  0.4118258790  0.0113598174
O   2.8547338406  0.5706769060 -0.1481492563
C   1.0119024901 -0.2327869278  1.1905329983
O   4.9708206868  2.0820103214 -0.5978185901
H  -1.0672620236 -0.8383976973  1.4350977511
H  -0.4914465738 -1.1039200462 -0.9022439762
H  -1.5578831853  0.3259311916 -0.9204706279
H   0.3330907828  1.8295213728 -0.7940222034
H   0.9290623228  0.6654394236 -2.0092208985
H   1.2427390783 -1.3073103553  1.1568150721
H   4.2135697465  1.4822971388 -0.4059256962
H   1.3788515871  0.1729105421  2.1303266018
H   4.5375137469  2.8248758212 -1.0232089025
17
Image 70  Energy = -421.92967500
C  -0.5374507197  0.0197645600  0.9836079873
O  -0.9655356889  1.1787271390  1.4469670869
C  -0.5974209944 -0.0467428427 -0.5786122738
C   0.5950922349  0.8133400033 -0.9698794916
C   1.6648704034  0.3937498866  0.0055806263
O   2.8686003840  0.4807148053 -0.1806161465
C   1.0105440761 -0.2107495367  1.1999630126
O   4.9526494777  2.0486696762 -0.5995690877
H  -1.0485032864 -0.8935673202  1.3882014481
H  -0.4762671383 -1.0727416819 -0.9453755894
H  -1.5458681556  0.3542490021 -0.9322192299
H   0.3548061965  1.8542187336 -0.7298766924
H   0.9330719779  0.7394693722 -2.0015665617
H   1.2838142452 -1.2741156190  1.2417715352
H   4.2049552173  1.4319814184 -0.4242184031
H   1.3392234906  0.2652280465  2.1212797049
H   4.5134181578  2.7878041134 -1.0254375625
17
Image 71  Energy = -421.92965448
C  -0.5531555226 -0.0205315961  0.9785502089
O  -1.0213434235  1.0937229180  1.5056932835
C  -0.5942614281 -0.0066856898 -0.5863758622
C   0.6106577685  0.8509086573 -0.9413536732
C   1.6661325672  0.4034800935  0.0377099979
O   2.8722091018  0.4961129364 -0.1281654901
C   0.9973645014 -0.2321641866  1.2071803434
O   4.9624915346  2.0303443769 -0.6489394829
H  -1.0447950223 -0.9703171162  1.3196147599
H  -0.4852814527 -1.0161807977 -0.9984738700
H  -1.5353369870  0.4217862436 -0.9268427546
H   0.3866509461  1.8934615146 -0.6957313790
H   0.9575050415  0.7872950093 -1.9710339176
H   1.2850278269 -1.2918460877  1.2355892865
H   4.2073369456  1.4335381717 -0.4399001975
H   1.3056642259  0.2307773767  2.1422559353
H   4.5331328069  2.7662980071 -1.0897775750
17
Image 72  Energy = -421.93094965
C  -0.5858241494 -0.0381917572  0.9757373038
O  -1.0698226910  1.0589542133  1.5133462841
C  -0.6055040335 -0.0047658894 -0.5842088801
C   0.6078460917  0.8461893238 -0.9181622420
C   1.6644012142  0.3647201318  0.0376585194
O   2.8675486434  0.4263064525 -0.1411661935
C   0.9808694763 -0.2446219723  1.2163394625
O   5.0269816029  2.0827831152 -0.6699477182
H  -1.0722338435 -0.9944447506  1.2950132962
H  -0.4984515095 -1.0115945325 -0.9978307514
H  -1.5392055319  0.4330848169 -0.9348336259
H   0.3948245697  1.8786985221 -0.6233263591
H   0.9483141287  0.8162217627 -1.9511600557
H   1.2356626558 -1.2990166364  1.2857672140
H   4.2737840380  1.4851151596 -0.5222655651
H   1.2703316176  0.2312225608  2.1437008060
H   4.6504776555  2.8393395773 -1.1246614947
