17
Image 0  Energy = -421.89796227
C  -1.7889769558  0.3253365443  0.4767379458
O  -1.8816309921  1.4488273332  0.9074913009
C  -0.6985640426 -0.2394096456 -0.3566318412
C   0.5764451143  0.5922405046 -0.4458049400
C   1.8563352440 -0.1708283428 -0.1017594500
O   2.1060723108 -1.2684583823 -0.6426439308
C   2.6668692714  0.5527297068  0.8029338000
O   4.7134225802  2.0048846404 -0.4255284512
H  -2.6105302214 -0.3941791368  0.6716059697
H  -0.5361798439 -1.2432437998  0.0423367323
H  -1.1489598986 -0.3956171622 -1.3415503816
H   0.4950763380  1.4798574666  0.1730487455
H   0.7116049137  0.9674929826 -1.4582486101
H   2.0805091228  0.6964151541  1.7179088304
H   3.7067942891  1.4807350218 -0.4151188327
H   3.6108941098  0.0751391022  1.0172548449
H   4.6908181346  2.9580785642 -0.6220321441
17
Image 1  Energy = -421.88853652
C  -1.9923082395  0.5029989900  0.0410851958
O  -2.0740433846  1.7084237617  0.0960901965
C  -0.7406305453 -0.2927795497 -0.0509205623
C   0.5466944313  0.5018534109 -0.0489134867
C   1.7935525983 -0.3668425848 -0.0056368049
O   1.6957383001 -1.5908563144 -0.1359232742
C   3.0450355018  0.3127149441  0.2098834996
O   4.3940987450  2.5615497299 -0.4131527266
H  -2.9210492603 -0.0981567747  0.0626509977
H  -0.7574547227 -1.0000389920  0.7843256335
H  -0.8250854829 -0.9135673360 -0.9483122759
H   0.5675279347  1.1861086782  0.7978212495
H   0.6162733071  1.1158071253 -0.9474256046
H   3.0392516216  0.9840494249  1.0670834440
H   3.4020798871  1.2337309733 -0.6308470852
H   3.9151003699 -0.3260984037  0.2302395836
H   4.8452188102  3.3511049461 -0.1080464668
17
Image 2  Energy = -421.93777513
C  -1.9511624848  0.4018487289  0.2704431217
O  -2.0884690748  1.5694350183  0.5587967084
C  -0.7250707662 -0.2701215991 -0.2055754672
C   0.5403183063  0.5709162749 -0.2525152975
C   1.7986160640 -0.2984803465 -0.0540372457
O   1.7382666319 -1.4520818960 -0.5524891446
C   2.8478850144  0.3185345735  0.6233679667
O   4.7046258226  2.1781783769 -0.6685768018
H  -2.8319457376 -0.2620797110  0.3692408242
H  -0.5525064959 -1.1390024402  0.4353104072
H  -0.9586515804 -0.7096527776 -1.1798161393
H   0.4919778741  1.3577564125  0.4952549289
H   0.6348729993  1.0511515318 -1.2246118230
H   2.6502857581  1.2114248692  1.2083789077
H   4.0380610753  1.5462718601 -0.3080009707
H   3.7627142503 -0.2340091704  0.7952577671
H   4.4501804590  3.0299099644 -0.3104280091
