16
Image 0  Energy = -234.5257870777
C  -5.9273955544  3.1371626076  0.1543358396
C  -6.9981038975  2.3715708962 -0.0267087165
C  -7.0434961844  0.8999481233  0.0127365045
C  -6.0032955380  0.0768985314  0.0901378693
H  -6.0052901745  4.2145843615  0.1027892732
H  -4.9486414007  2.7229209287  0.3646560024
H  -7.9495704394  2.8532610463 -0.2201461930
H  -8.0380455165  0.4715852553 -0.0327001439
H  -4.9824753364  0.4367261504  0.1345610021
H  -6.1487085780 -0.9944889948  0.1109841159
C  -1.9589452872  2.0752479586 -0.1382558301
C  -1.9269686432  0.7538713078 -0.0890589396
H  -1.3029925241  2.6802117681  0.4726157661
H  -2.6388214192  2.6005435263 -0.7953119974
H  -1.2442122369  0.2274886232  0.5636242983
H  -2.5791072455  0.1489179578 -0.7042688471
