16
DA reactive: C1...C6=3.000A C4...C5=3.000A (target 3.0A)
C     -5.92739555      3.13716261      0.15433584
C     -6.99810390      2.37157090     -0.02670872
C     -7.04349618      0.89994812      0.01273650
C     -6.00329554      0.07689853      0.09013787
H     -6.00529017      4.21458436      0.10278927
H     -4.94864140      2.72292093      0.36465600
H     -7.94957044      2.85326105     -0.22014619
H     -8.03804552      0.47158526     -0.03270014
H     -4.98247534      0.43672615      0.13456100
H     -6.14870858     -0.99448899      0.11098412
C     -6.42665037      0.89757758      2.94453606
C     -6.39386288      2.21955904      2.97226848
H     -6.94946716      0.36081402      2.16481378
H     -5.92725475      0.30343621      3.69785528
H     -6.88840103      2.81461630      2.21690808
H     -5.86612519      2.75618430      3.74896842
