16
DA reactive: C1...C6=2.200A C4...C5=2.200A (target 2.2A)
C     -5.92739555      3.13716261      0.15433584
C     -6.99810390      2.37157090     -0.02670872
C     -7.04349618      0.89994812      0.01273650
C     -6.00329554      0.07689853      0.09013787
H     -6.00529017      4.21458436      0.10278927
H     -4.94864140      2.72292093      0.36465600
H     -7.94957044      2.85326105     -0.22014619
H     -8.03804552      0.47158526     -0.03270014
H     -4.98247534      0.43672615      0.13456100
H     -6.14870858     -0.99448899      0.11098412
C     -6.29488794      0.91192989      2.10459286
C     -6.26210045      2.23391136      2.13232528
H     -6.81770474      0.37516634      1.32487059
H     -5.79549232      0.31778853      2.85791209
H     -6.75663860      2.82896862      1.37696489
H     -5.73436276      2.77053662      2.90902522
