16
DA reactive: C1...C6=2.500A C4...C5=2.500A (target 2.5A)
C     -5.92739555      3.13716261      0.15433584
C     -6.99810390      2.37157090     -0.02670872
C     -7.04349618      0.89994812      0.01273650
C     -6.00329554      0.07689853      0.09013787
H     -6.00529017      4.21458436      0.10278927
H     -4.94864140      2.72292093      0.36465600
H     -7.94957044      2.85326105     -0.22014619
H     -8.03804552      0.47158526     -0.03270014
H     -4.98247534      0.43672615      0.13456100
H     -6.14870858     -0.99448899      0.11098412
C     -6.34494298      0.90647761      2.42367767
C     -6.31215549      2.22845908      2.45141009
H     -6.86775978      0.36971406      1.64395539
H     -5.84554736      0.31233625      3.17699689
H     -6.80669364      2.82351634      1.69604970
H     -5.78441780      2.76508434      3.22811003
