16
Image 0  Energy = -234.5248589464
C  -5.9242100000  3.1311600000  0.1548000000
C  -6.9994200000  2.3579600000 -0.0297200000
C  -7.0444600000  0.9142100000  0.0158500000
C  -5.9994200000  0.0821400000  0.0896500000
H  -6.0099000000  4.2122200000  0.1042400000
H  -4.9402500000  2.7267100000  0.3611100000
H  -7.9566000000  2.8418900000 -0.2201900000
H  -8.0438800000  0.4835700000 -0.0327900000
H  -4.9753800000  0.4325700000  0.1376000000
H  -6.1524600000 -0.9924500000  0.1073000000
C  -1.9578600000  2.0816800000 -0.1387900000
C  -1.9258100000  0.7472800000 -0.0893600000
H  -1.2962100000  2.6813500000  0.4782200000
H  -2.6460200000  2.6006700000 -0.7988900000
H  -1.2374100000  0.2271100000  0.5690500000
H  -2.5867800000  0.1483800000 -0.7080900000
16
Image 1  Energy = -234.5247749499
C  -5.9240111630  3.1311805525  0.1548459627
C  -6.9995569224  2.3573809524 -0.0297580377
C  -7.0445806824  0.9148151995  0.0158586184
C  -5.9991993139  0.0820882003  0.0896526771
H  -6.0099154389  4.2122938974  0.1042436802
H  -4.9402272176  2.7267302560  0.3610915129
H  -7.9566849153  2.8418837385 -0.2202001949
H  -8.0439639783  0.4835800444 -0.0327956141
H  -4.9753667466  0.4325497128  0.1376137152
H  -6.1524768550 -0.9925232048  0.1072876939
C  -1.9578620962  2.0820605851 -0.1388056611
C  -1.9257968363  0.7468976457 -0.0893505355
H  -1.2961631160  2.6813560872  0.4782631260
H  -2.6460706855  2.6006694348 -0.7989249635
H  -1.2373622269  0.2271099829  0.5690931752
H  -2.5868318059  0.1483769150 -0.7081251548
16
Image 2  Energy = -234.5256360650
C  -5.9268740106  3.1325607476  0.1540336472
C  -6.9975481980  2.3690901781 -0.0287956280
C  -7.0429558463  0.9025819611  0.0152866904
C  -6.0025602279  0.0812728898  0.0897942827
H  -6.0093567001  4.2101808884  0.1041176112
H  -4.9417672091  2.7261952077  0.3615363420
H  -7.9544523939  2.8426671818 -0.2199926797
H  -8.0417967240  0.4826867466 -0.0326351812
H  -4.9766731039  0.4331259311  0.1371251003
H  -6.1518899739 -0.9903593763  0.1077112914
C  -1.9579251300  2.0756196253 -0.1385045675
C  -1.9260921846  0.7533914239 -0.0894478201
H  -1.2980649591  2.6806584635  0.4765191460
H  -2.6440357568  2.6002399523 -0.7974309136
H  -1.2393085886  0.2275635917  0.5673205858
H  -2.5847689804  0.1489746322 -0.7066479032
16
Image 3  Energy = -234.5256776942
C  -5.9266261808  3.1335312722  0.1540046291
C  -6.9974513025  2.3701482916 -0.0284242195
C  -7.0429015578  0.9014689715  0.0149113653
C  -6.0023748681  0.0803078403  0.0899295878
H  -6.0090280525  4.2100619093  0.1040240674
H  -4.9427877536  2.7259713766  0.3617116640
H  -7.9539928230  2.8436073917 -0.2200214984
H  -8.0414358104  0.4817049046 -0.0326009329
H  -4.9776117891  0.4333905069  0.1368725908
H  -6.1516034957 -0.9901771740  0.1079624230
C  -1.9580217003  2.0755121586 -0.1384650570
C  -1.9261774613  0.7535178421 -0.0893985857
H  -1.2989729238  2.6802476083  0.4757014100
H  -2.6430701612  2.5999592960 -0.7967453434
H  -1.2402338215  0.2278592564  0.5664924487
H  -2.5837802838  0.1493385929 -0.7059645449
16
Image 4  Energy = -234.5257458187
C  -5.9265105111  3.1356719902  0.1539536216
C  -6.9967145913  2.3709741521 -0.0269956913
C  -7.0419715768  0.9004446055  0.0135690856
C  -6.0024655633  0.0782855985  0.0902519795
H  -6.0074952116  4.2117040092  0.1035358408
H  -4.9462600530  2.7248068441  0.3626964164
H  -7.9525221115  2.8481275428 -0.2202110103
H  -8.0405018866  0.4769943675 -0.0325580338
H  -4.9806859920  0.4347050918  0.1358394238
H  -6.1503946254 -0.9916393686  0.1091620619
C  -1.9584113313  2.0742819656 -0.1382850869
C  -1.9265714921  0.7548083484 -0.0892504608
H  -1.3017984938  2.6793944697  0.4732467425
H  -2.6400608215  2.5995253651 -0.7949366183
H  -1.2430852889  0.2283675022  0.5640656072
H  -2.5806204334  0.1499975640 -0.7040938743
16
Image 5  Energy = -234.5257650901
C  -5.9275233469  3.1368073844  0.1541333925
C  -6.9978462526  2.3722953222 -0.0266832887
C  -7.0434226426  0.8992667540  0.0128043589
C  -6.0032948113  0.0771696279  0.0901965896
H  -6.0057725745  4.2140896495  0.1029473486
H  -4.9481249403  2.7232727429  0.3642162287
H  -7.9498100241  2.8520547883 -0.2200848462
H  -8.0381462831  0.4728285462 -0.0326279561
H  -4.9821137159  0.4363288123  0.1348334394
H  -6.1490886993 -0.9939667463  0.1105801439
C  -1.9588709204  2.0761441606 -0.1382863490
C  -1.9268605527  0.7529740964 -0.0890328049
H  -1.3030350788  2.6797771009  0.4724375708
H  -2.6387572413  2.6001100378 -0.7949028206
H  -1.2442890891  0.2278915012  0.5633798416
H  -2.5791138038  0.1494062691 -0.7039208449
16
Image 6  Energy = -234.5257870777
C  -5.9273955544  3.1371626076  0.1543358396
C  -6.9981038975  2.3715708962 -0.0267087165
C  -7.0434961844  0.8999481233  0.0127365045
C  -6.0032955380  0.0768985314  0.0901378693
H  -6.0052901745  4.2145843615  0.1027892732
H  -4.9486414007  2.7229209287  0.3646560024
H  -7.9495704394  2.8532610463 -0.2201461930
H  -8.0380455165  0.4715852553 -0.0327001439
H  -4.9824753364  0.4367261504  0.1345610021
H  -6.1487085780 -0.9944889948  0.1109841159
C  -1.9589452872  2.0752479586 -0.1382558301
C  -1.9269686432  0.7538713078 -0.0890589396
H  -1.3029925241  2.6802117681  0.4726157661
H  -2.6388214192  2.6005435263 -0.7953119974
H  -1.2442122369  0.2274886232  0.5636242983
H  -2.5791072455  0.1489179578 -0.7042688471
