245
Frame 1  Energy = -11030.5489641763 Hartree
Cu      1.46683484      2.85654177      4.99580357     -0.000072    -0.000177    -0.000218
Cu     -1.55789178      4.62144915      7.51261932     -0.000069    -0.000054    -0.000138
Cu      4.50994110      1.16306334     10.02847882     -0.000056     0.000102    -0.000001
Cu      1.40819674      2.85743284     12.56028724     -0.000230    -0.000123     0.000132
Cu     -1.51683310      4.71305043     15.00701359      0.000106     0.000204    -0.000001
Cu     -0.01820583      0.25667234      5.13025441      0.000073     0.000084     0.000135
Cu      3.00412510      2.03499558      7.58832484     -0.000041     0.000035     0.000055
Cu     -0.01542815      3.78430011      9.99832732      0.000030     0.000062    -0.000094
Cu     -0.01349012      0.31938212     12.48909010     -0.000035     0.000191    -0.000052
Cu      3.02125049      2.04363022     14.96683570     -0.000022     0.000127    -0.000117
Cu      3.01094685      0.23783614      5.10388678     -0.000018     0.000046     0.000026
Cu     -0.02366335      1.97830817      7.49712837     -0.000009    -0.000114    -0.000156
Cu      3.04692164      3.83898531     10.00749467      0.000097     0.000167    -0.000068
Cu      3.02377839      0.30464399     12.44103124      0.000079     0.000163    -0.000179
Cu     -0.03773305      2.07083105     14.96889070     -0.000019     0.000243    -0.000115
Cu     -1.46046549      2.90968920      5.11784328      0.000213     0.000092     0.000067
Cu      1.40783694      4.60406784      7.59029914     -0.000202    -0.000094     0.000088
Cu      1.57088992      1.18238688     10.06260453      0.000183     0.000099     0.000033
Cu     -1.55783605      2.89117340     12.57457573     -0.000025     0.000011     0.000213
Cu      1.48778864      4.62991405     15.03707982     -0.000056    -0.000045     0.000084
Cu      7.54592039      2.86208747      5.07195824     -0.000033    -0.000144    -0.000038
Cu      4.54508090      4.55167572      7.54177155      0.000062    -0.000158    -0.000028
Cu     10.56061713      1.17534104     10.03908459     -0.000062     0.000135     0.000041
Cu      7.55717234      2.87523112     12.50047680     -0.000009    -0.000074    -0.000008
Cu      4.48274695      4.58072377     14.99180637     -0.000107    -0.000083    -0.000009
Cu      6.06677736      0.37169712      5.06438736      0.000085     0.000361    -0.000055
Cu      9.03436153      1.95204504      7.56551880     -0.000110    -0.000151    -0.000010
Cu      6.03613495      3.84975619      9.95999161     -0.000021     0.000211    -0.000200
Cu      6.07304939      0.26153865     12.52108319      0.000044     0.000073     0.000018
Cu      9.09118642      2.02164395     14.99375493     -0.000048     0.000012    -0.000023
Cu      9.05003045      0.36556501      5.06234571     -0.000112     0.000353    -0.000061
Cu      6.07455374      1.97137976      7.60238127      0.000002    -0.000058     0.000075
Cu      9.05965909      3.81013952     10.01327755     -0.000021     0.000129    -0.000059
Cu      9.13987184      0.33934164     12.54960568      0.000184     0.000262     0.000073
Cu      6.11711026      2.02736952     14.93967643      0.000204     0.000080    -0.000193
Cu      4.53992980      2.77851435      5.05843588      0.000021    -0.000307    -0.000074
Cu      7.53528523      4.56661462      7.59570720     -0.000070    -0.000158     0.000121
Cu      7.55220030      1.16023295     10.03133777     -0.000013     0.000044    -0.000017
Cu      4.54376227      2.85829090     12.56974700      0.000041    -0.000121     0.000052
Cu      7.50500752      4.70526299     14.95656548     -0.000147     0.000211    -0.000114
Cu     13.62672275      2.85293640      5.05459655      0.000021    -0.000152    -0.000069
Cu     10.64296071      4.70052132      7.53299343      0.000126     0.000156    -0.000093
Cu     16.59920518      1.18464220     10.04205364     -0.000251     0.000197    -0.000013
Cu     13.59766539      2.94582589     12.53396673     -0.000050     0.000104     0.000061
Cu     10.57049294      4.73867819     15.01808479     -0.000033     0.000326     0.000065
Cu     12.17932845      0.26223317      5.14537659      0.000226     0.000066     0.000133
Cu     15.13129766      1.94874886      7.61205955      0.000029    -0.000141     0.000124
Cu     12.09146836      3.58919645     10.01636205     -0.000017    -0.000409    -0.000051
Cu     12.07271644      0.29263160     12.40747977     -0.000144     0.000124    -0.000266
Cu     15.07408905      2.02022252     15.02141080     -0.000291     0.000058     0.000007
Cu     15.17032690      0.27942802      5.08127431     -0.000021     0.000119    -0.000001
Cu     12.11343482      1.92253693      7.56076108      0.000041    -0.000255     0.000010
Cu     15.09277392      3.76745881     10.07302804     -0.000105    -0.000074     0.000076
Cu     15.16479603      0.27762827     12.50542871      0.000090     0.000072    -0.000023
Cu     12.14143369      1.94930610     14.93000214      0.000190    -0.000121    -0.000169
Cu     10.56924316      2.85748150      5.09031129     -0.000078    -0.000092    -0.000014
Cu     13.62445155      4.65753417      7.55636377      0.000005     0.000076    -0.000022
Cu     13.64192320      1.12354689     10.01944016      0.000081    -0.000032    -0.000025
Cu     10.58521540      2.91157466     12.48560920     -0.000022     0.000020    -0.000061
Cu     13.57437504      4.59593011     15.00896886     -0.000153    -0.000163     0.000012
Cu     -1.55344588      8.07815778      5.09353866     -0.000050    -0.000202     0.000021
Cu     -4.56459404      9.89497460      7.56566347     -0.000023    -0.000006    -0.000014
Cu      1.46798772      6.29784460     10.05225444     -0.000069    -0.000190     0.000050
Cu     -1.60061393      8.15845820     12.52241257     -0.000174     0.000038     0.000022
Cu     -4.56828741      9.99802535     14.96635008      0.000017     0.000278    -0.000089
Cu     -2.97077238      5.59944058      5.14528931      0.000322     0.000263     0.000189
Cu     -0.09726806      7.30196788      7.55869715     -0.000197     0.000089    -0.000013
Cu     -3.04462098      9.03189252     10.09780775     -0.000028     0.000017     0.000153
Cu     -3.00433210      5.42901573     12.55976038      0.000124    -0.000214     0.000131
Cu     -0.04582672      7.17751240     14.96627666     -0.000127    -0.000253    -0.000080
Cu     -0.11845173      5.53144772      5.05426585     -0.000295     0.000055    -0.000075
Cu     -3.01452096      7.25251537      7.58251156      0.000079    -0.000034     0.000036
Cu      0.01004192      9.00470994     10.08284686      0.000049    -0.000011     0.000096
Cu     -0.00382460      5.52470364     12.53511684      0.000046     0.000001     0.000058
Cu     -2.91888560      7.36533847     14.96155077      0.000373     0.000234    -0.000095
Cu     -4.65306035      8.15204788      5.04451646     -0.000166     0.000058    -0.000095
Cu     -1.53752342      9.87004042      7.58826658     -0.000010    -0.000038     0.000033
Cu     -1.47143914      6.38766606     10.09863209      0.000151    -0.000016     0.000112
Cu     -4.59537923      8.14072239     12.48690711     -0.000086    -0.000009    -0.000105
Cu     -1.50827751      9.86212732     14.99424644      0.000070    -0.000067    -0.000015
Cu      4.55852343      8.05402724      5.12654639      0.000067    -0.000255     0.000119
Cu      1.50142936      9.85123492      7.60982506      0.000009    -0.000065     0.000104
Cu      7.55579020      6.35317490     10.00528959     -0.000006    -0.000073    -0.000064
Cu      4.51933084      8.09600284     12.51651954     -0.000017    -0.000087     0.000046
Cu      1.49112402      9.94080382     14.98323195     -0.000007     0.000233    -0.000022
Cu      3.02772797      5.55445515      5.02686172      0.000051     0.000120    -0.000123
Cu      6.08548045      7.25413170      7.55016798      0.000069    -0.000050    -0.000034
Cu      2.96122787      8.96907105     10.01573345     -0.000114    -0.000108    -0.000071
Cu      2.98642988      5.51633177     12.51323985     -0.000065     0.000005     0.000003
Cu      6.11988638      7.22552385     14.90406995      0.000244    -0.000093    -0.000272
Cu      6.01986660      5.54755372      5.05737484     -0.000083     0.000110    -0.000051
Cu      3.01695494      7.25191805      7.60972628      0.000011    -0.000021     0.000094
Cu      6.05448578      9.03721395     10.08062169      0.000029     0.000078     0.000108
Cu      6.06069461      5.48229439     12.48945713      0.000048    -0.000071    -0.000047
Cu      2.94188660      7.21223320     14.95863526     -0.000153    -0.000146    -0.000115
Cu      1.46835946      8.15639031      5.05720795     -0.000060     0.000044    -0.000068
Cu      4.63016874      9.90692196      7.54670659      0.000239     0.000051    -0.000022
Cu      4.43647157      6.36934987     10.05261106     -0.000222    -0.000067     0.000057
Cu      1.52856033      8.11070036     12.56253061      0.000078    -0.000064     0.000111
Cu      4.50656322      9.94038522     15.01687284     -0.000038     0.000123     0.000020
Cu     10.57401579      8.10012890      5.07024734     -0.000067    -0.000158    -0.000023
Cu      7.51112714      9.91910992      7.55328713     -0.000129     0.000159    -0.000012
Cu     13.62591518      6.39899246     10.06474372     -0.000041     0.000030     0.000066
Cu     10.64256828      8.18771461     12.47293989      0.000141     0.000075    -0.000097
Cu      7.50112995      9.91202729     15.00425709     -0.000145     0.000017    -0.000012
Cu      9.00880380      5.56013261      5.06060189     -0.000128     0.000146    -0.000040
Cu     12.14692435      7.25944381      7.56001450      0.000063    -0.000030    -0.000017
Cu      9.12533472      9.03993495     10.02478499      0.000123     0.000071    -0.000012
Cu      9.06384589      5.44284343     12.56720309     -0.000003    -0.000153     0.000109
Cu     12.09469292      7.23731527     14.98986838     -0.000149    -0.000128    -0.000052
Cu     12.02127857      5.57423601      5.09597447     -0.000230     0.000158     0.000056
Cu      9.15852953      7.23749009      7.61244017      0.000185    -0.000041     0.000087
Cu     12.12867365      9.04673625     10.07836231     -0.000024     0.000056     0.000089
Cu     12.12990144      5.53290220     12.53745627     -0.000007     0.000106     0.000023
Cu      9.07959299      7.24692417     14.96818876     -0.000002    -0.000043    -0.000081
Cu      7.63269343      8.17539350      5.12328468      0.000188     0.000082     0.000119
Cu     10.60389271      9.90206558      7.56270256      0.000048     0.000042    -0.000070
Cu     10.62338494      6.35689736      9.98069486      0.000087    -0.000062    -0.000106
Cu      7.58161584      8.18920549     12.59070536      0.000043     0.000150     0.000258
Cu     10.55038226      9.95203714     15.03139725     -0.000145     0.000110     0.000033
Cu     -4.61674591     13.30698080      5.14551432     -0.000137    -0.000237     0.000148
Cu     -7.62472322     15.11677032      7.62175905     -0.000033    -0.000066     0.000171
Cu     -1.50367053     11.67332338     10.06215489      0.000071     0.000066     0.000053
Cu     -4.59474184     13.37910524     12.57991220     -0.000089    -0.000044     0.000168
Cu     -7.60495087     15.17855940     14.95779719     -0.000020     0.000088    -0.000104
Cu     -6.04446468     10.81187124      5.10934243      0.000201     0.000165     0.000117
Cu     -3.07011379     12.52079791      7.55293247     -0.000088     0.000028    -0.000015
Cu     -6.10245159     14.30518402      9.99185872     -0.000071     0.000087    -0.000112
Cu     -6.07877552     10.71980964     12.52054388     -0.000003    -0.000111     0.000024
Cu     -3.11989632     12.56808384     14.94554652     -0.000229     0.000114    -0.000151
Cu     -3.08544228     10.78962380      4.97631278     -0.000170     0.000093    -0.000261
Cu     -6.11102210     12.54371018      7.57357029     -0.000031     0.000054     0.000043
Cu     -3.04322754     14.16946456      9.97777863      0.000006    -0.000234    -0.000168
Cu     -3.11250139     10.69497241     12.53417809     -0.000129    -0.000189     0.000074
Cu     -6.07166559     12.54526177     14.98790568      0.000060     0.000085    -0.000035
Cu     -7.63254774     13.38338192      5.20954596     -0.000036    -0.000024     0.000285
Cu     -4.54703599     15.13262374      7.57704956      0.000056    -0.000034    -0.000008
Cu     -4.57399889     11.58985377     10.04058717     -0.000025    -0.000108     0.000008
Cu     -7.56822088     13.41004101     12.46916461      0.000074     0.000055    -0.000060
Cu     -4.65431315     15.11855418     15.00834205     -0.000207    -0.000089     0.000049
Cu      1.42214231     13.43710702      5.05355972     -0.000182     0.000033    -0.000104
Cu     -1.52076212     15.10465306      7.63849735      0.000035    -0.000085     0.000178
Cu      4.60119936     11.73332775     10.06982214      0.000191     0.000239     0.000099
Cu      1.48107067     13.33984554     12.54034713     -0.000023    -0.000106     0.000089
Cu     -1.52729707     15.10691504     15.02368930      0.000020    -0.000057     0.000031
Cu     -0.03238565     10.78558332      5.02030757      0.000015     0.000076    -0.000160
Cu      2.97609789     12.50336066      7.56764792     -0.000104    -0.000011    -0.000017
Cu     -0.01653737     14.19570550     10.06076595      0.000043    -0.000129     0.000037
Cu     -0.00713261     10.79132306     12.47788082      0.000058     0.000085    -0.000090
Cu      2.97716923     12.50912517     15.00115508     -0.000134    -0.000047    -0.000008
Cu      3.11416551     10.79494197      5.06185633      0.000224     0.000080    -0.000032
Cu     -0.00168811     12.53413582      7.61903462      0.000067     0.000061     0.000110
Cu      3.04141995     14.25020007     10.06731111      0.000080    -0.000042     0.000065
Cu      3.03227287     10.75697820     12.48604057      0.000041    -0.000003    -0.000061
Cu      0.01169827     12.45194766     14.96511435      0.000128    -0.000175    -0.000092
Cu     -1.52403152     13.27258967      5.07416948      0.000037    -0.000294    -0.000039
Cu      1.47615538     15.13800474      7.49535342     -0.000052    -0.000007    -0.000074
Cu      1.53070595     11.60939806     10.05484998      0.000084    -0.000065    -0.000017
Cu     -1.54238129     13.49223431     12.54004388     -0.000023     0.000260     0.000061
Cu      1.51225022     15.14050724     14.96736382      0.000028    -0.000041    -0.000014
Cu      7.58152568     13.37799420      5.10813172      0.000038    -0.000033     0.000056
Cu      4.59220732     15.14647520      7.56153051      0.000161    -0.000016    -0.000010
Cu     10.56243279     11.65039516     10.08000310     -0.000133     0.000034     0.000113
Cu      7.55080371     13.38124188     12.45370372     -0.000011    -0.000031    -0.000127
Cu      4.50676166     15.11070265     15.05200491     -0.000026    -0.000071     0.000113
Cu      6.04789500     10.80137105      5.11250559      0.000051     0.000118     0.000096
Cu      9.06236303     12.56348142      7.55622502     -0.000092     0.000118    -0.000030
Cu      6.04117370     14.25203770      9.92153894     -0.000006    -0.000074    -0.000258
Cu      6.11136820     10.71579291     12.54194846      0.000183    -0.000106     0.000076
Cu      9.05002881     12.47527978     14.98990033     -0.000149    -0.000075    -0.000044
Cu      9.07260656     10.85980988      5.14129877     -0.000053     0.000233     0.000148
Cu      6.04835267     12.54951234      7.60699137      0.000049     0.000090     0.000092
Cu      9.05542361     14.23218942     10.02885173     -0.000078    -0.000104    -0.000000
Cu      9.09142763     10.75238875     12.48649661      0.000021    -0.000002    -0.000057
Cu      6.10385388     12.50443122     15.01746344      0.000199    -0.000012     0.000049
Cu      4.55793938     13.32416592      5.08522895      0.000082    -0.000191    -0.000004
Cu      7.59992283     15.16864488      7.57227813      0.000102     0.000058     0.000046
Cu      7.52934997     11.62479526     10.04628962     -0.000067     0.000003     0.000062
Cu      4.51727433     13.36328216     12.44075876     -0.000012    -0.000075    -0.000254
Cu      7.55931385     15.12667703     14.92731865     -0.000027    -0.000175    -0.000208
O       1.54519207      4.60349551      5.72140189      0.000067     0.000051     0.000029
O       1.48069851      1.15370840      8.26893396     -0.000060     0.000266     0.000164
O      -1.40847660      2.88421660     10.77222605      0.000520     0.000080     0.000306
O       1.52683443      4.62623454     12.98385953      0.000169     0.000083    -0.000484
O      -1.55156963      2.82983942      6.93520791      0.000092    -0.000027    -0.000108
O       1.55844470      4.68488949      9.45872072      0.000066    -0.000072    -0.000139
O       1.51118970      1.02168838     11.84998460      0.000153    -0.000152    -0.000002
O       7.49610433      4.69426436      5.70635092     -0.000169     0.000081     0.000016
O       7.45434476      1.15339279      8.24675793      0.000052     0.000109     0.000254
O       4.47407461      2.87405714     10.75446717     -0.000056     0.000144     0.000156
O       7.53787489      4.60731869     12.98992572     -0.000053    -0.000272    -0.000303
O       4.49028640      2.93706872      6.99917637     -0.000049    -0.000069     0.000171
O       7.54360513      1.01738081     11.89902247      0.000013    -0.000219     0.000127
O       4.65323107      2.86694743     14.29897779      0.000304    -0.000211     0.000106
O      13.49443121      4.58202084      5.74578876     -0.000514    -0.000187     0.000002
O      13.70527928      1.20053597      8.26424381     -0.000047     0.000139     0.000397
O      10.60830690      2.93212633     10.72322597     -0.000079     0.000174     0.000039
O      13.49264988      4.61235744     13.05689451     -0.000106    -0.000098    -0.000026
O      10.64589521      2.84945050      6.97980375      0.000037     0.000123     0.000290
O      13.60852014      4.72525453      9.40945203     -0.000057     0.000068    -0.000025
O      13.70853685      1.10888076     11.91626952      0.000152    -0.000048    -0.000087
O      10.48106710      2.84623672     14.37077898     -0.000094    -0.000021    -0.000166
O      -1.50583546      9.95569848      5.68928436     -0.000039    -0.000007     0.000072
O      -1.49724725      6.37057231      8.33285728      0.000033    -0.000007     0.000230
O      -4.56569622      8.20287954     10.60583620      0.000447     0.000422     0.000097
O      -1.45459933      9.99555189     13.11308813      0.000040     0.000113    -0.000128
O      -4.46804878      8.20785790      6.88859031      0.000390     0.000257    -0.000268
O      -1.53652546      9.90742168      9.43525150      0.000102     0.000028     0.000082
O      -1.49418961      6.31647732     11.86493642      0.000186     0.000174     0.000070
O      -4.51687873      8.14415336     14.35227492      0.000274     0.000211    -0.000089
O       4.58520216      9.82608646      5.74696197      0.000120    -0.000147     0.000094
O       4.49840186      6.29660844      8.27363613     -0.000109    -0.000041     0.000189
O       1.51150289      8.02875903     10.62024484      0.000033    -0.000193     0.000039
O       4.47309076      9.82141085     13.07411032     -0.000214    -0.000211    -0.000172
O       1.46372697      8.10673283      6.97273439     -0.000076    -0.000044     0.000255
O       4.43737606      9.82452945      9.44734868     -0.000137    -0.000141    -0.000079
O       4.51065829      6.37643180     11.96452773     -0.000226    -0.000013     0.000041
O       1.42081386      8.26697735     14.38838942     -0.000027     0.000045    -0.000098
O      10.47487366      9.80740038      5.66111454     -0.000366    -0.000232     0.000142
O      10.66172683      6.48598961      8.21297329      0.000191     0.000091     0.000073
O       7.50423075      8.17706063     10.67910248     -0.000015    -0.000005    -0.000211
O      10.68812458      9.85936146     13.10287301      0.000198     0.000051     0.000002
O       7.44454685      8.27229161      7.04319188     -0.000035     0.000165     0.000219
O      10.66112260     10.00026857      9.36160598      0.000243     0.000020    -0.000090
O      10.60440193      6.38546299     11.86716168      0.000070     0.000049    -0.000151
O      -4.48958546     15.02333635      5.73632513      0.000233    -0.000553     0.000328
O      -4.61725566     11.55649877      8.23357943     -0.000066    -0.000099     0.000013
O      -7.46973843     13.48341653     10.75969755      0.000592     0.000272    -0.000022
O      -4.49957551     15.04677416     13.26791708      0.000323    -0.000360     0.000390
O      -7.55986504     13.39459059      7.00365469      0.000007     0.000010    -0.000010
O      -4.51055858     11.54367954     11.89860217      0.000180    -0.000031    -0.000041
O      -7.55500595     13.45502172     14.35080494      0.000218     0.000071    -0.000036
O       1.46622488     14.96902692      5.80521699     -0.000088    -0.000436     0.000213
O       1.43924281     11.63376349      8.19421854     -0.000087    -0.000114     0.000118
O      -1.41170577     13.36315088     10.70662439      0.000197    -0.000054     0.000192
O       1.53606684     15.02345489     13.26848390      0.000047    -0.000500     0.000252
O      -1.49333112     13.29316281      6.98072547      0.000052    -0.000298     0.000160
O       1.43435076     15.08941285      9.39211414     -0.000044    -0.000327    -0.000209
O       1.48443904     11.54614683     11.81812440     -0.000026    -0.000237    -0.000079
O      -1.47793575     13.37047038     14.38938986      0.000201    -0.000111     0.000146
O       7.62122403     14.99184156      5.83227055      0.000029    -0.000677     0.000389
O       7.49864521     11.56060165      8.23669934     -0.000213    -0.000240    -0.000137
O       4.49571894     13.26375942      6.92108983     -0.000030    -0.000281     0.000038
O       7.60976125     15.07936705      9.42543877     -0.000010    -0.000199    -0.000158
O       4.43202491     13.40538153     14.33879861     -0.000246    -0.000007     0.000115
245
Frame 2  Energy = -11030.0864891250 Hartree
Cu      1.43660601      2.74298239      4.91161408     -0.000072    -0.000371    -0.000185
Cu     -1.59058597      4.59553570      7.45450138     -0.000084    -0.000059    -0.000136
Cu      4.48108323      1.21873541     10.03901972     -0.000082     0.000166     0.000053
Cu      1.30624162      2.78338224     12.62402626     -0.000262    -0.000221     0.000179
Cu     -1.44907467      4.80548643     14.98938816      0.000215     0.000240    -0.000085
Cu      0.04158045      0.33178454      5.19856121      0.000219     0.000281     0.000191
Cu      2.97777042      2.03951303      7.61284816     -0.000078    -0.000010     0.000063
Cu      0.02062533      3.81910070      9.95879416      0.000157     0.000111    -0.000105
Cu     -0.05004407      0.41545287     12.47267909     -0.000136     0.000273    -0.000031
Cu      2.99604057      2.11799125     14.89682935     -0.000102     0.000226    -0.000215
Cu      2.99555586      0.30084592      5.11075151     -0.000063     0.000261     0.000008
Cu     -0.02528676      1.91901682      7.43910027     -0.000003    -0.000165    -0.000123
Cu      3.09134233      3.90001129      9.98347762      0.000106     0.000133    -0.000054
Cu      3.09452044      0.38471038     12.37483430      0.000274     0.000217    -0.000138
Cu     -0.03462006      2.21034389     14.89496249      0.000033     0.000427    -0.000242
Cu     -1.36239683      2.95790614      5.13039190      0.000257     0.000135    -0.000022
Cu      1.33288774      4.55744750      7.62569270     -0.000159    -0.000135     0.000043
Cu      1.64289143      1.21614737     10.07208836      0.000159     0.000065     0.000014
Cu     -1.55647286      2.89688150     12.69737950      0.000030     0.000019     0.000377
Cu      1.45167851      4.60044182     15.05451089     -0.000116    -0.000098    -0.000007
Cu      7.53422366      2.77018555      5.05761994     -0.000021    -0.000291    -0.000032
Cu      4.58011032      4.52278671      7.55213093      0.000106    -0.000019     0.000069
Cu     10.54046547      1.24301237     10.07309647     -0.000038     0.000179     0.000119
Cu      7.55228883      2.80490588     12.50381315     -0.000014    -0.000286     0.000021
Cu      4.43645424      4.56078202     14.98267043     -0.000118    -0.000021    -0.000037
Cu      6.11359509      0.55695231      5.04346880      0.000141     0.000527    -0.000047
Cu      8.99415329      1.89104313      7.55412674     -0.000056    -0.000125    -0.000055
Cu      6.02579826      3.93958181      9.87219126     -0.000027     0.000229    -0.000228
Cu      6.06878572      0.31199561     12.53544116     -0.000063     0.000170     0.000048
Cu      9.03659263      2.01962779     14.97257204     -0.000192    -0.000006    -0.000095
Cu      8.98238458      0.55342090      5.04012231     -0.000213     0.000551    -0.000044
Cu      6.04481985      1.96317934      7.62589198     -0.000109    -0.000001     0.000051
Cu      9.05485723      3.87316340      9.99021651     -0.000015     0.000187    -0.000060
Cu      9.23411720      0.47085497     12.57640577      0.000280     0.000365     0.000060
Cu      6.23107718      2.06690976     14.84205529      0.000373     0.000097    -0.000268
Cu      4.54556890      2.62763587      5.03355736      0.000006    -0.000425    -0.000042
Cu      7.49678771      4.50485360      7.66190018     -0.000121    -0.000142     0.000196
Cu      7.54994462      1.17041713     10.05282511      0.000006     0.000004     0.000147
Cu      4.56235134      2.78714021     12.57075495      0.000051    -0.000219    -0.000010
Cu      7.43927159      4.81281418     14.89547102     -0.000169     0.000304    -0.000182
Cu     13.64076579      2.76252550      5.03225656      0.000045    -0.000280    -0.000038
Cu     10.70002219      4.76674473      7.49064237      0.000152     0.000159    -0.000110
Cu     16.44384966      1.29902495     10.02936839     -0.000495     0.000354    -0.000048
Cu     13.58501723      2.94716198     12.55668147     -0.000010    -0.000093     0.000048
Cu     10.56543532      4.90126941     15.04145009      0.000007     0.000455     0.000043
Cu     12.29814287      0.31424639      5.19724491      0.000353     0.000183     0.000118
Cu     15.16303890      1.89323919      7.66785086      0.000105    -0.000138     0.000155
Cu     12.10761319      3.43519929      9.99166775      0.000089    -0.000332    -0.000071
Cu     11.99062763      0.36424176     12.29427513     -0.000248     0.000221    -0.000282
Cu     14.89842641      2.06050649     14.99728714     -0.000548     0.000132    -0.000120
Cu     15.12116281      0.35895567      5.08818740     -0.000219     0.000266     0.000035
Cu     12.13254451      1.80839676      7.57241524      0.000016    -0.000273     0.000033
Cu     15.05368613      3.70031216     10.10182676     -0.000079    -0.000250     0.000061
Cu     15.21648884      0.31594766     12.49772363      0.000151     0.000115    -0.000018
Cu     12.26493105      1.91496028     14.85439037      0.000400    -0.000044    -0.000194
Cu     10.52798604      2.80751296      5.08835696     -0.000118    -0.000151     0.000021
Cu     13.62495059      4.69829454      7.54124762     -0.000010     0.000115    -0.000064
Cu     13.69157339      1.11037586     10.05843404      0.000156    -0.000032     0.000213
Cu     10.57227666      2.90277573     12.46967788     -0.000042    -0.000061    -0.000042
Cu     13.49970576      4.49972560     15.00247673     -0.000202    -0.000300    -0.000035
Cu     -1.57565069      7.97419937      5.10786095     -0.000053    -0.000295     0.000051
Cu     -4.58447771      9.88401002      7.55300390     -0.000069    -0.000036    -0.000045
Cu      1.44023735      6.23315335     10.08409937     -0.000063    -0.000148     0.000095
Cu     -1.67656875      8.17325612     12.53379426     -0.000188     0.000050     0.000037
Cu     -4.55380648     10.11852171     14.91708964      0.000050     0.000311    -0.000147
Cu     -2.79152822      5.72485819      5.23962132      0.000524     0.000331     0.000258
Cu     -0.18096949      7.33872181      7.55561337     -0.000205     0.000093    -0.000004
Cu     -3.02194819      9.05756635     10.14951019      0.000224     0.000153     0.000066
Cu     -2.93900424      5.33931947     12.62101398      0.000202    -0.000213     0.000163
Cu     -0.12085569      7.05820709     14.92444452     -0.000231    -0.000316    -0.000124
Cu     -0.26000062      5.55823364      5.02865858     -0.000382     0.000078    -0.000048
Cu     -2.98654952      7.23850716      7.59339746      0.000056    -0.000028     0.000013
Cu      0.02292278      9.00424801     10.11912128      0.000018     0.000006     0.000080
Cu      0.01888304      5.51530032     12.56173705      0.000052    -0.000034     0.000070
Cu     -2.74744136      7.45354944     14.91301706      0.000450     0.000189    -0.000139
Cu     -4.70742342      8.18715784      5.00579575     -0.000102     0.000112    -0.000099
Cu     -1.54444211      9.85547971      7.59483109     -0.000023    -0.000037     0.000010
Cu     -1.40964128      6.37421479     10.13587747      0.000148    -0.000046     0.000072
Cu     -4.63093226      8.13472166     12.44548903     -0.000079    -0.000015    -0.000052
Cu     -1.47670009      9.83347982     14.97394908      0.000083    -0.000072    -0.000087
Cu      4.58302072      7.92451406      5.18668231      0.000049    -0.000372     0.000170
Cu      1.50198543      9.83410914      7.65705564     -0.000008    -0.000017     0.000133
Cu      7.55633518      6.31846273      9.97974913      0.000012    -0.000110    -0.000073
Cu      4.50990966      8.06173738     12.55029018     -0.000036    -0.000093     0.000110
Cu      1.49025290     10.07413828     14.96821358      0.000005     0.000390    -0.000058
Cu      3.05360887      5.61477565      4.98774810      0.000075     0.000177    -0.000065
Cu      6.09572990      7.22231574      7.53773783     -0.000010    -0.000096    -0.000031
Cu      2.91508071      8.92077093      9.97807935     -0.000105    -0.000122    -0.000116
Cu      2.97369596      5.52900012     12.51231584      0.000011     0.000067    -0.000009
Cu      6.25001796      7.18403962     14.76358396      0.000381    -0.000106    -0.000406
Cu      5.97303139      5.60737956      5.04692995     -0.000142     0.000181     0.000002
Cu      3.01847008      7.24745181      7.64316317     -0.000007     0.000003     0.000069
Cu      6.06130377      9.08251275     10.12587552      0.000009     0.000141     0.000110
Cu      6.07391655      5.45662013     12.47665859      0.000010    -0.000053    -0.000012
Cu      2.87932036      7.13785590     14.89523343     -0.000148    -0.000222    -0.000191
Cu      1.44570873      8.17155907      5.04213258     -0.000051     0.000026     0.000005
Cu      4.72458746      9.92639846      7.54952834      0.000214     0.000037     0.000026
Cu      4.33977844      6.32945785     10.09517893     -0.000254    -0.000126     0.000142
Cu      1.56333989      8.08394444     12.59713330      0.000093    -0.000069     0.000042
Cu      4.49522235      9.99842419     15.00190108     -0.000018     0.000169    -0.000098
Cu     10.53433307      8.00643487      5.06922411     -0.000127    -0.000285     0.000023
Cu      7.44976711      9.99539793      7.54686058     -0.000164     0.000145    -0.000045
Cu     13.59180709      6.41335807     10.09642156     -0.000125     0.000026     0.000082
Cu     10.70907018      8.20144604     12.43510649      0.000183     0.000011    -0.000080
Cu      7.43682650      9.90806097     14.97720340     -0.000169    -0.000030    -0.000124
Cu      8.96961386      5.63595946      5.05691455     -0.000061     0.000223     0.000024
Cu     12.16835378      7.24149345      7.54569047      0.000047    -0.000052    -0.000056
Cu      9.18294034      9.07308960     10.02654699      0.000160     0.000087     0.000015
Cu      9.08123082      5.38655479     12.60382281      0.000087    -0.000121     0.000069
Cu     11.98875883      7.15490189     14.94834592     -0.000356    -0.000263    -0.000147
Cu     11.91432108      5.64389302      5.13307348     -0.000295     0.000184     0.000118
Cu      9.22525837      7.23530827      7.63499440      0.000142     0.000032     0.000023
Cu     12.09656711      9.05929076     10.11774922     -0.000110    -0.000002     0.000110
Cu     12.10541653      5.59906083     12.53512064     -0.000078     0.000193    -0.000021
Cu      9.07342976      7.22023900     14.92387688     -0.000027    -0.000092    -0.000134
Cu      7.71959452      8.20345254      5.18610333      0.000239     0.000048     0.000178
Cu     10.63246858      9.92166139      7.51374483      0.000094     0.000051    -0.000125
Cu     10.66429344      6.33572456      9.96429314      0.000113    -0.000041     0.000026
Cu      7.59279826      8.26566088     12.72479448      0.000011     0.000224     0.000387
Cu     10.47565731      9.98228202     15.01433651     -0.000211     0.000038    -0.000113
Cu     -4.68053834     13.17088973      5.20515937     -0.000169    -0.000439     0.000133
Cu     -7.62749616     15.08558147      7.70640377      0.000017    -0.000076     0.000242
Cu     -1.47645641     11.68840478     10.08425981      0.000061     0.000007     0.000056
Cu     -4.63814380     13.33190605     12.64718624     -0.000120    -0.000191     0.000151
Cu     -7.61792705     15.21084939     14.90505405     -0.000045     0.000063    -0.000151
Cu     -5.91610074     10.89966752      5.18110465      0.000413     0.000255     0.000223
Cu     -3.12668040     12.53459757      7.55421629     -0.000183     0.000040     0.000019
Cu     -6.09434034     14.36579321      9.91815048      0.000150     0.000234    -0.000272
Cu     -6.07658443     10.67578849     12.53426469      0.000024    -0.000096     0.000040
Cu     -3.24044760     12.61380607     14.86461549     -0.000352     0.000113    -0.000238
Cu     -3.18850257     10.83763553      4.87651099     -0.000324     0.000134    -0.000219
Cu     -6.10343568     12.55441163      7.60221105      0.000050     0.000009     0.000089
Cu     -3.04024711     14.06890398      9.90008026      0.000010    -0.000251    -0.000208
Cu     -3.15010931     10.60570201     12.57713049     -0.000079    -0.000225     0.000120
Cu     -6.02195368     12.57727710     14.96446371      0.000196     0.000058    -0.000073
Cu     -7.63256491     13.36778274      5.29581530      0.000031    -0.000052     0.000109
Cu     -4.52054487     15.11139910      7.58461214      0.000070    -0.000062     0.000095
Cu     -4.58520926     11.54797837     10.04539126     -0.000029    -0.000093     0.000001
Cu     -7.53816358     13.43562951     12.47424643      0.000075     0.000070     0.000050
Cu     -4.73913692     15.06735348     15.06145081     -0.000205    -0.000157     0.000210
Cu      1.34240795     13.38320973      4.98336608     -0.000206    -0.000276    -0.000226
Cu     -1.50730218     15.05939586      7.70828875      0.000030    -0.000139     0.000157
Cu      4.68550391     11.84230684     10.12252867      0.000218     0.000297     0.000155
Cu      1.47556294     13.26985465     12.57857983     -0.000005    -0.000293     0.000071
Cu     -1.52143798     15.09179701     15.01819410      0.000003    -0.000017    -0.000055
Cu     -0.01625657     10.82616473      4.95883572      0.000050     0.000119    -0.000131
Cu      2.92203268     12.50262370      7.55195649     -0.000154     0.000009    -0.000057
Cu      0.01829768     14.15800523     10.06732458      0.000111    -0.000061    -0.000001
Cu      0.01920225     10.82754983     12.44420093      0.000044     0.000074    -0.000061
Cu      2.89375550     12.46907117     14.98647690     -0.000273    -0.000152    -0.000062
Cu      3.20305675     10.82981009      5.06120711      0.000210     0.000091     0.000025
Cu      0.04076512     12.55780636      7.65983944      0.000139     0.000049     0.000091
Cu      3.07613276     14.22921492     10.09166748      0.000093    -0.000063     0.000053
Cu      3.03850822     10.76142935     12.46310335     -0.000014     0.000023    -0.000048
Cu      0.09706861     12.36589354     14.91586848      0.000294    -0.000241    -0.000144
Cu     -1.50559734     13.14719773      5.06547605      0.000053    -0.000310     0.000005
Cu      1.45284211     15.13197154      7.53276536     -0.000059    -0.000030     0.000210
Cu      1.56177538     11.58192618     10.02804346      0.000063    -0.000072    -0.000088
Cu     -1.55298498     13.60118883     12.57686046     -0.000028     0.000265     0.000136
Cu      1.51766669     15.10814895     15.00499152     -0.000004    -0.000120     0.000161
Cu      7.59000593     13.31299775      5.11104287      0.000002    -0.000326    -0.000069
Cu      4.66242968     15.11770332      7.55545781      0.000180    -0.000124    -0.000019
Cu     10.48186322     11.66325891     10.13101005     -0.000255     0.000017     0.000126
Cu      7.55262319     13.36324423     12.41083016      0.000021    -0.000057    -0.000079
Cu      4.50891429     15.08122254     15.08483517      0.000040    -0.000072     0.000047
Cu      6.08500548     10.86317109      5.16858378      0.000129     0.000184     0.000171
Cu      8.99728529     12.61207520      7.53904890     -0.000221     0.000122    -0.000055
Cu      6.03061227     14.19924114      9.82939443     -0.000057    -0.000185    -0.000182
Cu      6.19085597     10.66705081     12.58207805      0.000199    -0.000138     0.000121
Cu      8.95357722     12.45092956     14.95645169     -0.000315    -0.000043    -0.000116
Cu      9.03161720     10.95611838      5.21234773     -0.000143     0.000229     0.000197
Cu      6.07989765     12.58419153      7.63961737      0.000085     0.000082     0.000060
Cu      9.01600485     14.17277189     10.04270051     -0.000119    -0.000183     0.000066
Cu      9.09834908     10.75886244     12.46950922      0.000011     0.000034    -0.000026
Cu      6.20482642     12.50657311     15.03219216      0.000287     0.000022     0.000023
Cu      4.59749498     13.22764273      5.08852422      0.000111    -0.000274     0.000024
Cu      7.64355009     15.18749266      7.62374600      0.000107     0.000040     0.000188
Cu      7.50454652     11.63901771     10.08204302     -0.000051     0.000064     0.000098
Cu      4.51397728     13.32556569     12.31531502     -0.000008    -0.000106    -0.000345
Cu      7.53567971     14.99633179     14.81851346     -0.000090    -0.000447    -0.000316
O       1.53876697      4.65700869      5.71787981     -0.000097     0.000166    -0.000050
O       1.45848294      1.34263431      8.28807242     -0.000041     0.000589    -0.000031
O      -1.14951301      2.91868222     10.91258332      0.000664     0.000039     0.000439
O       1.54632150      4.64651469     12.80463859     -0.000155    -0.000069    -0.000309
O      -1.47420337      2.86796492      6.89768235      0.000249     0.000183    -0.000033
O       1.53285005      4.58571485      9.33907727     -0.000144    -0.000260    -0.000239
O       1.55330215      1.05988154     11.87801060     -0.000009     0.000309     0.000101
O       7.43756646      4.69668697      5.73102568     -0.000102    -0.000060     0.000111
O       7.56825751      1.21982819      8.32250833      0.000266     0.000212     0.000016
O       4.48654200      3.00369925     10.74155681      0.000130     0.000434    -0.000212
O       7.52103550      4.48032870     12.91837393     -0.000022    -0.000193    -0.000015
O       4.50947351      2.78445314      7.04026381      0.000139    -0.000468     0.000045
O       7.61070471      1.01571698     11.94803765      0.000259     0.000196     0.000080
O       4.68774690      2.77486221     14.41202511     -0.000235    -0.000143     0.000248
O      13.22342136      4.48266068      5.73277578     -0.000740    -0.000305     0.000012
O      13.61361534      1.25116313      8.35101026     -0.000231     0.000108    -0.000074
O      10.50259816      2.99309259     10.67260926     -0.000351     0.000114    -0.000216
O      13.52663297      4.62745760     13.12589838      0.000161     0.000210     0.000286
O      10.61745248      2.93960438      7.12261517     -0.000140     0.000202     0.000323
O      13.57489156      4.66487994      9.39892863     -0.000093    -0.000293    -0.000012
O      13.72353106      1.12158323     11.84784673     -0.000068     0.000094    -0.000129
O      10.52610405      2.88930478     14.26944792      0.000194     0.000158    -0.000184
O      -1.55766070      9.89035762      5.73044800     -0.000154    -0.000258     0.000071
O      -1.52269618      6.36598497      8.32446011     -0.000158    -0.000052    -0.000211
O      -4.40966595      8.37494951     10.73737942     -0.000026     0.000255     0.000488
O      -1.49283881      9.97125791     13.05563325     -0.000134    -0.000196    -0.000128
O      -4.24226824      8.31231655      6.75231075      0.000688     0.000219    -0.000343
O      -1.46931487      9.90250706      9.49081916      0.000186    -0.000054     0.000163
O      -1.42694032      6.50332474     11.96925281      0.000139     0.000594     0.000340
O      -4.34125320      8.30031861     14.29629029      0.000562     0.000500    -0.000199
O       4.64343487      9.77356946      5.75845216      0.000180    -0.000091    -0.000027
O       4.45715461      6.32992106      8.31688559     -0.000071     0.000150     0.000016
O       1.51675685      7.97081902     10.69763575     -0.000003    -0.000091     0.000293
O       4.40458165      9.74828494     13.02240524     -0.000071    -0.000079    -0.000039
O       1.43975108      8.11433300      7.11094690     -0.000039     0.000064     0.000343
O       4.44110268      9.80534329      9.38030903      0.000130     0.000074    -0.000174
O       4.40742944      6.36272120     11.91961940     -0.000172    -0.000024    -0.000241
O       1.45562900      8.20843202     14.34796549      0.000144    -0.000215    -0.000001
O      10.28274921      9.70251156      5.79178709     -0.000588    -0.000306     0.000339
O      10.72982445      6.43619243      8.20983330      0.000088    -0.000287    -0.000114
O       7.56179832      8.13478801     10.55462885      0.000260    -0.000158    -0.000309
O      10.72400753      9.92818234     13.14204059     -0.000041     0.000203     0.000166
O       7.55225980      8.23549933      7.08905211      0.000489    -0.000260     0.000042
O      10.74320756      9.94082362      9.35696090      0.000076    -0.000187     0.000030
O      10.62623145      6.42229775     11.79023292     -0.000001     0.000110    -0.000200
O      -4.36553018     14.76921961      5.90448034      0.000391    -0.000606     0.000327
O      -4.62810600     11.58153366      8.19902423      0.000005     0.000163    -0.000118
O      -7.29887857     13.49749417     10.71717979      0.000074    -0.000321     0.000034
O      -4.27832441     14.90015518     13.37509268      0.000775    -0.000292     0.000157
O      -7.60831035     13.41355467      7.04351310     -0.000181     0.000027     0.000302
O      -4.50368578     11.62345354     11.87574481     -0.000113     0.000299    -0.000022
O      -7.46108587     13.47747001     14.32929320      0.000180     0.000104    -0.000055
O       1.42491552     14.90132162      5.82091929     -0.000119     0.000044    -0.000097
O       1.44264720     11.55772592      8.26679778      0.000099    -0.000205     0.000162
O      -1.42794477     13.36112273     10.79336431     -0.000234     0.000061     0.000147
O       1.53780949     14.81620500     13.26754836     -0.000028    -0.000266    -0.000043
O      -1.50933983     13.20762161      7.04062985     -0.000104    -0.000090     0.000108
O       1.48153030     14.88783596      9.28408775      0.000260    -0.000628    -0.000203
O       1.50746247     11.48747876     11.81923838      0.000158    -0.000015     0.000019
O      -1.41868402     13.31179256     14.47203557      0.000032    -0.000147     0.000223
O       7.58660951     14.75141807      5.98974215     -0.000198    -0.000354     0.000368
O       7.41551306     11.57758005      8.16993265     -0.000129     0.000426    -0.000026
O       4.50809147     13.21908445      6.96091465      0.000066     0.000085     0.000122
O       7.56400285     15.00627042      9.32663474     -0.000138    -0.000146    -0.000136
O       4.37686448     13.37698819     14.40945610      0.000016    -0.000125     0.000183
245
Frame 3  Energy = -11029.6809575683 Hartree
Cu      1.41080509      2.55792282      4.84437160     -0.000046    -0.000502    -0.000142
Cu     -1.62435932      4.58855563      7.40719258     -0.000077     0.000040    -0.000084
Cu      4.44428285      1.29707904     10.07326212     -0.000091     0.000203     0.000114
Cu      1.19209405      2.69709471     12.71139969     -0.000288    -0.000161     0.000249
Cu     -1.34637229      4.90441404     14.93635166      0.000270     0.000225    -0.000173
Cu      0.16292529      0.48333178      5.28275269      0.000362     0.000435     0.000207
Cu      2.95937477      2.03394783      7.63334179      0.000014    -0.000009     0.000026
Cu      0.09612536      3.86202598      9.92101241      0.000160     0.000065    -0.000047
Cu     -0.12201335      0.54430443     12.46006865     -0.000208     0.000350    -0.000037
Cu      2.92501580      2.21895477     14.79820902     -0.000265     0.000246    -0.000250
Cu      2.95223713      0.45127990      5.11198374     -0.000151     0.000453    -0.000001
Cu     -0.03438559      1.85049296      7.39400044     -0.000045    -0.000162    -0.000095
Cu      3.12230338      3.95187469      9.95667836      0.000037     0.000115    -0.000077
Cu      3.23841435      0.48743052     12.32263462      0.000404     0.000286    -0.000121
Cu     -0.01164528      2.41502147     14.77296061      0.000074     0.000550    -0.000333
Cu     -1.25290586      3.01588077      5.09853009      0.000266     0.000140    -0.000121
Cu      1.27400305      4.49113881      7.59789402     -0.000125    -0.000185    -0.000158
Cu      1.69728711      1.23939872     10.07315342      0.000100     0.000052     0.000000
Cu     -1.53604128      2.90982904     12.88077896      0.000060     0.000049     0.000500
Cu      1.39554364      4.55094014     15.02805894     -0.000149    -0.000137    -0.000120
Cu      7.53082304      2.63926915      5.04633288      0.000004    -0.000302    -0.000020
Cu      4.63147069      4.50959491      7.58916149      0.000140    -0.000054     0.000102
Cu     10.52550868      1.30862342     10.13207410     -0.000037     0.000120     0.000158
Cu      7.54725815      2.66853108     12.52707286     -0.000012    -0.000288     0.000114
Cu      4.38326831      4.56088404     14.96003570     -0.000144     0.000022    -0.000071
Cu      6.17953304      0.78907199      5.02330094      0.000170     0.000561    -0.000051
Cu      9.01174632      1.86447947      7.50999959      0.000125    -0.000007    -0.000150
Cu      6.01787139      4.04245277      9.77095747     -0.000000     0.000273    -0.000258
Cu      6.02728042      0.40552033     12.55399259     -0.000139     0.000279     0.000034
Cu      8.94443065      2.02323002     14.90734576     -0.000245     0.000026    -0.000219
Cu      8.87950626      0.80863178      5.02722256     -0.000269     0.000656    -0.000020
Cu      6.01285258      1.95776398      7.65219708     -0.000035    -0.000027     0.000077
Cu      9.03297412      3.97542658      9.95343485     -0.000097     0.000313    -0.000124
Cu      9.37540598      0.63194815     12.60007556      0.000397     0.000402     0.000052
Cu      6.41401420      2.11263790     14.71790276      0.000482     0.000130    -0.000329
Cu      4.54254270      2.43233377      5.02706623     -0.000026    -0.000503     0.000013
Cu      7.43510519      4.44774320      7.75392320     -0.000172    -0.000136     0.000242
Cu      7.56028576      1.16397274     10.13935637      0.000043    -0.000034     0.000231
Cu      4.58584054      2.68117891     12.57134192      0.000062    -0.000290     0.000009
Cu      7.36997770      4.94750348     14.80907758     -0.000158     0.000332    -0.000231
Cu     13.66092955      2.62878462      5.02386622      0.000048    -0.000349    -0.000004
Cu     10.76806624      4.80969090      7.43710230      0.000174     0.000008    -0.000160
Cu     16.20943174      1.46898755     10.00562900     -0.000599     0.000447    -0.000053
Cu     13.58834431      2.90008428     12.58175333      0.000022    -0.000094     0.000080
Cu     10.57304955      5.10254110     15.05145984      0.000018     0.000483     0.000002
Cu     12.46992995      0.41018553      5.24429464      0.000466     0.000273     0.000113
Cu     15.21150953      1.83324914      7.73934018      0.000133    -0.000145     0.000178
Cu     12.15017076      3.31538299      9.95770064      0.000101    -0.000246    -0.000092
Cu     11.87043883      0.47329710     12.17489884     -0.000328     0.000300    -0.000292
Cu     14.64425812      2.12143511     14.93162301     -0.000635     0.000156    -0.000185
Cu     14.99111415      0.49764053      5.10885121     -0.000396     0.000394     0.000060
Cu     12.09574304      1.71545713      7.57281676     -0.000192    -0.000173    -0.000031
Cu     15.03010192      3.56562517     10.12089418     -0.000039    -0.000383     0.000031
Cu     15.28158417      0.37564009     12.48730495      0.000155     0.000174    -0.000036
Cu     12.45067460      1.91157104     14.77132795      0.000448     0.000025    -0.000208
Cu     10.47569834      2.73533403      5.11765789     -0.000128    -0.000190     0.000124
Cu     13.60926098      4.74420177      7.50082544     -0.000071     0.000098    -0.000123
Cu     13.76154610      1.09743918     10.13632712      0.000167    -0.000032     0.000132
Cu     10.55092794      2.86578723     12.43409543     -0.000055    -0.000108    -0.000115
Cu     13.41039414      4.35494151     14.99171746     -0.000228    -0.000389    -0.000008
Cu     -1.59175393      7.84602722      5.13574012     -0.000017    -0.000301     0.000081
Cu     -4.61745253      9.87072365      7.52796765     -0.000082    -0.000031    -0.000079
Cu      1.41757427      6.16821222     10.12763786     -0.000045    -0.000149     0.000124
Cu     -1.75335572      8.22163778     12.55889020     -0.000177     0.000169     0.000075
Cu     -4.52937915     10.26050942     14.84941152      0.000064     0.000382    -0.000175
Cu     -2.56325427      5.86118417      5.35274356      0.000544     0.000311     0.000287
Cu     -0.26351684      7.38100943      7.55278167     -0.000192     0.000109    -0.000013
Cu     -2.89336467      9.13921351     10.16601049      0.000318     0.000202     0.000045
Cu     -2.83229672      5.25692173     12.69400905      0.000315    -0.000185     0.000190
Cu     -0.22829247      6.92756973     14.86390442     -0.000270    -0.000297    -0.000169
Cu     -0.41753115      5.59718840      5.01337580     -0.000345     0.000105    -0.000032
Cu     -2.97000242      7.23306162      7.59025921      0.000022     0.000003    -0.000027
Cu      0.03029767      9.00645122     10.15211290      0.000024     0.000001     0.000084
Cu      0.02255915      5.50990379     12.59293817     -0.000042     0.000015     0.000082
Cu     -2.55364972      7.52237000     14.84769446      0.000474     0.000144    -0.000174
Cu     -4.73936466      8.24331076      4.96229384     -0.000050     0.000160    -0.000101
Cu     -1.55644097      9.83624853      7.60333443     -0.000035    -0.000057     0.000031
Cu     -1.35091768      6.35244196     10.15711236      0.000134    -0.000059     0.000026
Cu     -4.66008208      8.12799060     12.48954002     -0.000060    -0.000016     0.000250
Cu     -1.43871564      9.80254699     14.92406317      0.000102    -0.000074    -0.000144
Cu      4.59725322      7.74901357      5.26412924      0.000017    -0.000467     0.000200
Cu      1.49398549      9.83476107      7.72339376     -0.000031     0.000005     0.000182
Cu      7.56983480      6.25056763      9.93712738      0.000060    -0.000221    -0.000134
Cu      4.48592757      8.01618717     12.60295586     -0.000080    -0.000110     0.000146
Cu      1.49723900     10.24951731     14.93519431      0.000028     0.000439    -0.000097
Cu      3.08740322      5.70286114      4.97399321      0.000078     0.000247    -0.000002
Cu      6.09112835      7.18124674      7.51973756     -0.000000    -0.000100    -0.000059
Cu      2.87903536      8.87310104      9.91799703     -0.000066    -0.000102    -0.000171
Cu      2.97403844      5.56095712     12.51403813     -0.000034     0.000070     0.000024
Cu      6.43058934      7.14092390     14.57588480      0.000475    -0.000098    -0.000487
Cu      5.90766514      5.69407522      5.06278297     -0.000165     0.000228     0.000078
Cu      3.00836241      7.25678746      7.66565017     -0.000043     0.000042     0.000036
Cu      6.07163349      9.14943926     10.17171465      0.000052     0.000178     0.000114
Cu      6.06967790      5.43904937     12.47994756     -0.000026    -0.000031     0.000024
Cu      2.82653442      7.01627450     14.80564156     -0.000096    -0.000380    -0.000235
Cu      1.42133634      8.17607931      5.06758316     -0.000072    -0.000007     0.000120
Cu      4.80366453      9.93259663      7.55660198      0.000166    -0.000010    -0.000003
Cu      4.22288594      6.26795846     10.14244545     -0.000310    -0.000164     0.000041
Cu      1.60505034      8.05194115     12.60199432      0.000105    -0.000086     0.000008
Cu      4.48946601     10.08716222     14.93598990     -0.000013     0.000268    -0.000215
Cu     10.46914322      7.87112811      5.09258814     -0.000183    -0.000361     0.000088
Cu      7.38513291     10.03807552      7.51675056     -0.000135     0.000088    -0.000087
Cu     13.52124471      6.41017358     10.12825850     -0.000217    -0.000048     0.000070
Cu     10.79383981      8.21178490     12.41196855      0.000223     0.000050    -0.000027
Cu      7.36023547      9.89241602     14.90117940     -0.000200    -0.000041    -0.000238
Cu      8.95974967      5.74447341      5.08076254      0.000017     0.000299     0.000088
Cu     12.18639681      7.21815392      7.51393427      0.000039    -0.000062    -0.000095
Cu      9.25543894      9.10568686     10.03509830      0.000176     0.000058     0.000026
Cu      9.13352124      5.34344001     12.62453018      0.000163    -0.000087     0.000033
Cu     11.80460384      7.03510657     14.87049099     -0.000510    -0.000291    -0.000224
Cu     11.77518994      5.72756726      5.18856369     -0.000372     0.000215     0.000145
Cu      9.27812111      7.26200154      7.63309504      0.000115     0.000091    -0.000027
Cu     12.05173667      9.03991046     10.17483932     -0.000105    -0.000090     0.000162
Cu     12.08616448      5.67985467     12.52914075     -0.000007     0.000188    -0.000004
Cu      9.05977171      7.17107584     14.85822810     -0.000038    -0.000140    -0.000179
Cu      7.83442212      8.21321703      5.26351454      0.000318     0.000001     0.000185
Cu     10.68522501      9.94297595      7.48631928      0.000150     0.000044    -0.000025
Cu     10.71824605      6.32191777      9.98200232      0.000147    -0.000027     0.000034
Cu      7.59345530      8.37597283     12.90419277     -0.000002     0.000306     0.000460
Cu     10.37818638      9.98719317     14.94903672     -0.000259    -0.000010    -0.000176
Cu     -4.74969762     12.95590070      5.25424508     -0.000151    -0.000555     0.000110
Cu     -7.61357855     15.06241359      7.82272957      0.000047    -0.000040     0.000316
Cu     -1.45322774     11.68178476     10.11034405      0.000051    -0.000032     0.000070
Cu     -4.68989944     13.24816014     12.70813182     -0.000121    -0.000161     0.000151
Cu     -7.64386649     15.23290434     14.83477480     -0.000084     0.000058    -0.000183
Cu     -5.71907664     11.01056083      5.28662953      0.000507     0.000255     0.000280
Cu     -3.21148440     12.55718708      7.56199533     -0.000208     0.000075     0.000006
Cu     -6.01948000     14.46785824      9.79624563      0.000167     0.000215    -0.000279
Cu     -6.05682384     10.64230118     12.55005004      0.000067    -0.000066     0.000031
Cu     -3.40602460     12.66279476     14.75490129     -0.000432     0.000122    -0.000280
Cu     -3.34365234     10.89525692      4.79594184     -0.000405     0.000135    -0.000175
Cu     -6.08689987     12.56134114      7.64313788      0.000017     0.000030     0.000109
Cu     -3.04241731     13.96647087      9.80492249     -0.000031    -0.000236    -0.000252
Cu     -3.19984267     10.52620121     12.62156517     -0.000168    -0.000150     0.000087
Cu     -5.90997926     12.58825865     14.92878240      0.000327    -0.000005    -0.000098
Cu     -7.61036870     13.34223158      5.31989915      0.000073    -0.000067     0.000047
Cu     -4.49212503     15.08388749      7.66541152      0.000068    -0.000080     0.000257
Cu     -4.59971725     11.51671547     10.03577996     -0.000045    -0.000058    -0.000040
Cu     -7.50446108     13.46625842     12.49557301      0.000091     0.000076     0.000038
Cu     -4.81970111     14.98994617     15.15480702     -0.000176    -0.000215     0.000209
Cu      1.25314864     13.24694871      4.89100002     -0.000224    -0.000349    -0.000199
Cu     -1.49623415     14.99178505      7.76583381      0.000022    -0.000180     0.000119
Cu      4.78306382     11.98199656     10.19392162      0.000257     0.000374     0.000180
Cu      1.47784421     13.10695709     12.60170779      0.000019    -0.000404     0.000074
Cu     -1.52909757     15.09199744     14.97917500     -0.000043     0.000014    -0.000132
Cu      0.00096754     10.88125854      4.91646423      0.000026     0.000142    -0.000072
Cu      2.85757018     12.51586279      7.51852895     -0.000142     0.000066    -0.000111
Cu      0.06031018     14.13828251     10.06772395      0.000075    -0.000041     0.000012
Cu      0.02043131     10.84595548     12.43069862     -0.000031     0.000015    -0.000009
Cu      2.76104574     12.38838169     14.94952117     -0.000344    -0.000224    -0.000118
Cu      3.28768700     10.87339309      5.08060375      0.000199     0.000124     0.000068
Cu      0.10428383     12.57574552      7.69148336      0.000152     0.000042     0.000055
Cu      3.13137126     14.19338036     10.11507313      0.000203    -0.000117     0.000073
Cu      3.03012687     10.77184091     12.45209682     -0.000007     0.000019     0.000005
Cu      0.24458280     12.26175441     14.84612192      0.000391    -0.000245    -0.000192
Cu     -1.47885488     13.02018838      5.07892683      0.000076    -0.000295     0.000059
Cu      1.42773822     15.11032555      7.60719776     -0.000060    -0.000076     0.000112
Cu      1.58237918     11.54688907     10.00430175      0.000036    -0.000098    -0.000022
Cu     -1.56739024     13.70939017     12.65517969     -0.000046     0.000256     0.000228
Cu      1.50835204     15.03988829     15.07611514     -0.000041    -0.000206     0.000180
Cu      7.58162931     13.13082235      5.06301873     -0.000046    -0.000508    -0.000135
Cu      4.74326989     15.05359570      7.54604614      0.000213    -0.000162    -0.000025
Cu     10.35229876     11.66017365     10.18050156     -0.000371    -0.000029     0.000114
Cu      7.56994260     13.33275394     12.38880353      0.000064    -0.000093    -0.000028
Cu      4.53809041     15.04869757     15.09159215      0.000093    -0.000090    -0.000014
Cu      6.15645240     10.95541295      5.24719140      0.000215     0.000261     0.000201
Cu      8.88582390     12.67173253      7.50852445     -0.000303     0.000179    -0.000097
Cu      5.98766391     14.09779655      9.77552183     -0.000148    -0.000302    -0.000075
Cu      6.27699268     10.59830458     12.64280516      0.000222    -0.000194     0.000173
Cu      8.79511595     12.44092336     14.89393212     -0.000437    -0.000007    -0.000186
Cu      8.95648422     11.04656591      5.30238950     -0.000217     0.000203     0.000234
Cu      6.09353880     12.63282170      7.64808433     -0.000030     0.000160    -0.000022
Cu      8.95755976     14.08041196     10.08599175     -0.000150    -0.000268     0.000150
Cu      9.09778154     10.78205686     12.46330383     -0.000019     0.000081    -0.000007
Cu      6.33597343     12.52130469     15.03522610      0.000333     0.000043    -0.000009
Cu      4.65045936     13.10267302      5.10506075      0.000146    -0.000320     0.000055
Cu      7.68874468     15.20665213      7.70029109      0.000109     0.000049     0.000171
Cu      7.48826840     11.67967316     10.12528235     -0.000026     0.000135     0.000118
Cu      4.50950425     13.27935125     12.16231314     -0.000014    -0.000109    -0.000383
Cu      7.48778906     14.76540152     14.66854219     -0.000134    -0.000651    -0.000405
O       1.47536767      4.71129676      5.67968237     -0.000201     0.000070    -0.000143
O       1.44078807      1.56922057      8.32478016     -0.000062     0.000456     0.000270
O      -0.86830766      2.91251634     11.14236355      0.000723    -0.000032     0.000634
O       1.47521981      4.57186610     12.74097259     -0.000053    -0.000233    -0.000014
O      -1.37101610      2.93548025      6.88987522      0.000223     0.000098    -0.000069
O       1.53914259      4.57738787      9.36569997      0.000279     0.000273     0.000201
O       1.55448703      1.16639940     11.90645375      0.000123     0.000027    -0.000014
O       7.40727298      4.66561020      5.80233974     -0.000058    -0.000089     0.000228
O       7.52595416      1.29657708      8.32968605     -0.000392     0.000147     0.000115
O       4.59499018      3.18419605     10.63000803      0.000376     0.000404    -0.000261
O       7.51995083      4.45661585     12.96365292      0.000015    -0.000025     0.000185
O       4.54255876      2.69551422      7.03860708     -0.000075     0.000097    -0.000068
O       7.68404200      1.06504782     11.95936855      0.000083    -0.000179    -0.000039
O       4.57522860      2.75866663     14.43156084     -0.000097     0.000068    -0.000172
O      12.92579721      4.33376889      5.78808020     -0.000685    -0.000391     0.000236
O      13.62602268      1.25906972      8.35332505      0.000232    -0.000087     0.000177
O      10.41347406      3.04016745     10.62307797     -0.000037     0.000141     0.000010
O      13.55973181      4.72045920     13.19107061     -0.000043     0.000167    -0.000056
O      10.55714955      2.93691812      7.20122716     -0.000139    -0.000230     0.000036
O      13.54565531      4.55826645      9.39877428     -0.000028    -0.000147    -0.000010
O      13.67608307      1.15642049     11.92920324     -0.000125     0.000023     0.000533
O      10.58151907      2.93636176     14.28211131      0.000069     0.000065     0.000197
O      -1.59383273      9.79537229      5.72136674      0.000010    -0.000144    -0.000115
O      -1.59924941      6.30295402      8.25324628     -0.000147    -0.000257    -0.000043
O      -4.46669976      8.50519331     10.77563976     -0.000018     0.000510    -0.000405
O      -1.50535991      9.89141535     13.02423160      0.000107    -0.000062    -0.000012
O      -3.93702342      8.40168068      6.63252257      0.000690     0.000253    -0.000246
O      -1.40065545      9.88455328      9.53335268      0.000154     0.000017    -0.000006
O      -1.37177957      6.61190246     12.04926741      0.000121    -0.000171    -0.000001
O      -4.06723518      8.51596818     14.18568206      0.000757     0.000501    -0.000284
O       4.73760897      9.74993404      5.75175547      0.000272    -0.000030     0.000032
O       4.44948996      6.37677408      8.31378621      0.000033     0.000051     0.000017
O       1.51257137      7.94205903     10.79597717     -0.000007    -0.000074     0.000092
O       4.42989880      9.77189457     13.05557822      0.000175     0.000145     0.000169
O       1.42598447      8.12400858      7.20561581     -0.000039    -0.000031     0.000083
O       4.50341519      9.87924973      9.36024772      0.000129     0.000249     0.000102
O       4.41924418      6.38252649     11.84232903      0.000213     0.000100     0.000037
O       1.48294561      8.15208020     14.38819094     -0.000071    -0.000013     0.000114
O       9.97562515      9.53442094      5.84296374     -0.000849    -0.000472    -0.000027
O      10.72709896      6.36136933      8.17196182     -0.000064     0.000082     0.000027
O       7.66977170      8.07184188     10.48184636      0.000206    -0.000101     0.000017
O      10.65491874      9.96339449     13.18931259     -0.000271    -0.000077    -0.000034
O       7.75197480      8.11471685      7.11952336      0.000333    -0.000294     0.000121
O      10.70618324      9.92426066      9.34462530     -0.000161     0.000144    -0.000106
O      10.59148799      6.46938435     11.74785913     -0.000143     0.000103     0.000063
O      -4.15682909     14.51310903      5.97793173      0.000599    -0.000660     0.000164
O      -4.62549077     11.61272864      8.18800494     -0.000020    -0.000085     0.000095
O      -7.23572770     13.33800078     10.71413514      0.000442    -0.000285    -0.000143
O      -3.88934114     14.77715351     13.49044111      0.000999    -0.000386     0.000474
O      -7.66659866     13.36542586      7.18002744     -0.000075    -0.000250     0.000215
O      -4.54574522     11.65044579     11.88805234     -0.000054    -0.000280     0.000039
O      -7.40067504     13.54749171     14.33276899      0.000174     0.000176     0.000096
O       1.35532791     14.86382643      5.78741398     -0.000233    -0.000360     0.000005
O       1.50135813     11.50752278      8.26029278      0.000153    -0.000006    -0.000190
O      -1.52826866     13.41735485     10.79220064     -0.000167     0.000186    -0.000118
O       1.51473538     14.80873475     13.31714368     -0.000089    -0.000030     0.000198
O      -1.53563942     13.19231602      7.07614322      0.000017    -0.000040     0.000088
O       1.60561161     14.58616384      9.29655622      0.000234    -0.000778     0.000181
O       1.57075256     11.52072733     11.80190091      0.000054     0.000076    -0.000116
O      -1.43264428     13.23562857     14.56669876     -0.000036    -0.000257     0.000239
O       7.45788156     14.59766590      6.06663829     -0.000417    -0.000537     0.000028
O       7.45548702     11.74740188      8.24023654      0.000294     0.000169     0.000302
O       4.52126030     13.30245521      7.00446908     -0.000048     0.000232     0.000068
O       7.53163760     14.96377683      9.44589439     -0.000039    -0.000025     0.000608
O       4.42737742     13.30113147     14.48756758      0.000185    -0.000252     0.000201
245
Frame 4  Energy = -11029.7638772216 Hartree
Cu      1.40474882      2.36335678      4.78941720      0.000025    -0.000375    -0.000136
Cu     -1.65195638      4.62212962      7.38667044     -0.000051     0.000096    -0.000017
Cu      4.41020416      1.37891755     10.13042705     -0.000067     0.000187     0.000156
Cu      1.08139996      2.65201357     12.81695563     -0.000207    -0.000083     0.000221
Cu     -1.23762703      4.97597301     14.84938093      0.000237     0.000096    -0.000237
Cu      0.32552345      0.66802055      5.36817843      0.000391     0.000415     0.000209
Cu      2.98443143      2.03291539      7.63471098      0.000082     0.000003    -0.000012
Cu      0.14749333      3.86475887      9.92530745      0.000112    -0.000044     0.000060
Cu     -0.21486586      0.70446831     12.43449019     -0.000227     0.000421    -0.000098
Cu      2.78130356      2.31881061     14.69194309     -0.000398     0.000243    -0.000268
Cu      2.87293662      0.65356251      5.11136004     -0.000218     0.000486    -0.000001
Cu     -0.05429877      1.78604213      7.36699306     -0.000043    -0.000145    -0.000024
Cu      3.13490377      3.98435753      9.92600752      0.000046     0.000026    -0.000061
Cu      3.41829372      0.61664669     12.27628897      0.000453     0.000320    -0.000098
Cu      0.02152130      2.65305772     14.64306999      0.000074     0.000581    -0.000246
Cu     -1.14465832      3.07260714      5.03592013      0.000258     0.000134    -0.000182
Cu      1.23187392      4.40804505      7.52349957     -0.000076    -0.000210    -0.000190
Cu      1.72428709      1.25902082     10.08864344      0.000032     0.000039     0.000093
Cu     -1.51876653      2.94144250     13.09747688      0.000004     0.000107     0.000525
Cu      1.33843581      4.49486205     14.95959590     -0.000112    -0.000120    -0.000199
Cu      7.53139780      2.56772526      5.04331976     -0.000020     0.000031     0.000009
Cu      4.69055791      4.48410088      7.63154368      0.000138    -0.000048     0.000102
Cu     10.50822198      1.33733197     10.19694269     -0.000052     0.000026     0.000145
Cu      7.54491309      2.58924514     12.59376566      0.000012    -0.000133     0.000169
Cu      4.31371584      4.58137318     14.92494809     -0.000197     0.000079    -0.000099
Cu      6.24443235      0.99069632      5.00155515      0.000128     0.000375    -0.000054
Cu      9.05683915      1.86815926      7.44922594      0.000046     0.000001    -0.000121
Cu      6.03670921      4.16639566      9.66332785      0.000094     0.000322    -0.000249
Cu      5.95003664      0.53484883     12.56108082     -0.000231     0.000331    -0.000003
Cu      8.84403917      2.04282328     14.79852163     -0.000223     0.000069    -0.000294
Cu      8.78352066      1.06008488      5.01994481     -0.000154     0.000503    -0.000022
Cu      5.98851962      1.95464117      7.67622764     -0.000115     0.000027     0.000023
Cu      8.98791250      4.12167652      9.89195089     -0.000100     0.000374    -0.000164
Cu      9.54332186      0.78858955     12.61728710      0.000379     0.000332     0.000033
Cu      6.61025296      2.17197589     14.58226782      0.000434     0.000153    -0.000304
Cu      4.51806951      2.23095163      5.04398468     -0.000099    -0.000444     0.000069
Cu      7.36245622      4.39228530      7.85470107     -0.000169    -0.000133     0.000231
Cu      7.58156578      1.14351365     10.21618870      0.000056    -0.000066     0.000131
Cu      4.61531568      2.55232030     12.56686385      0.000084    -0.000320    -0.000051
Cu      7.31386875      5.07562456     14.71333523     -0.000111     0.000276    -0.000216
Cu     13.67502279      2.50353934      5.02852366      0.000008    -0.000198     0.000026
Cu     10.84192182      4.77583551      7.36451785      0.000180    -0.000141    -0.000172
Cu     15.98515059      1.64689233      9.99731586     -0.000432     0.000371     0.000022
Cu     13.59963226      2.89192610     12.61961067      0.000028     0.000063     0.000086
Cu     10.56606294      5.26142307     15.04336687     -0.000076     0.000228    -0.000034
Cu     12.66100236      0.52609101      5.29348261      0.000412     0.000259     0.000131
Cu     15.27349232      1.77989890      7.80075575      0.000151    -0.000111     0.000106
Cu     12.18684723      3.23473433      9.91657964      0.000080    -0.000139    -0.000108
Cu     11.73143028      0.60460756     12.05784429     -0.000315     0.000321    -0.000267
Cu     14.43447876      2.18758290     14.85838964     -0.000266     0.000157    -0.000147
Cu     14.82277430      0.66597338      5.13274387     -0.000358     0.000385     0.000053
Cu     12.00532770      1.65705677      7.56072448     -0.000216    -0.000118    -0.000015
Cu     15.00851898      3.41103307     10.12840518     -0.000094    -0.000308     0.000005
Cu     15.34078893      0.45831190     12.46552153      0.000133     0.000221    -0.000069
Cu     12.57031439      1.92624408     14.68234264      0.000015     0.000020    -0.000225
Cu     10.43009841      2.65889005      5.18839275     -0.000081    -0.000169     0.000210
Cu     13.56648401      4.77232786      7.44892774     -0.000132     0.000031    -0.000121
Cu     13.81597885      1.08088751     10.19821017      0.000078    -0.000056     0.000204
Cu     10.53452429      2.82902682     12.40028144     -0.000013    -0.000045    -0.000027
Cu     13.31134122      4.19433533     14.98824268     -0.000254    -0.000356    -0.000024
Cu     -1.58163450      7.75848884      5.17081438      0.000081    -0.000070     0.000080
Cu     -4.64671137      9.85321751      7.48891089     -0.000055    -0.000062    -0.000107
Cu      1.40159423      6.14192660     10.19941518     -0.000037     0.000049     0.000233
Cu     -1.81411721      8.26637226     12.57585082     -0.000109     0.000033    -0.000007
Cu     -4.50246635     10.43330556     14.77768245      0.000066     0.000446    -0.000166
Cu     -2.38491731      5.96014755      5.48000980      0.000254     0.000138     0.000338
Cu     -0.33920198      7.42239967      7.54262265     -0.000173     0.000083    -0.000037
Cu     -2.77915089      9.21627988     10.19037410      0.000256     0.000182     0.000058
Cu     -2.68136399      5.18638792     12.77888129      0.000407    -0.000155     0.000222
Cu     -0.32444693      6.82972812     14.78713123     -0.000165    -0.000152    -0.000198
Cu     -0.50572553      5.63390052      4.99612183     -0.000028     0.000054    -0.000063
Cu     -2.96842732      7.23900514      7.57716058     -0.000014     0.000025    -0.000030
Cu      0.04542198      9.00466386     10.18776175      0.000046    -0.000002     0.000085
Cu     -0.00054275      5.51686848     12.62955065     -0.000044     0.000001     0.000092
Cu     -2.36753431      7.56988574     14.77524258      0.000410     0.000081    -0.000166
Cu     -4.74655160      8.32074313      4.92940777      0.000016     0.000218    -0.000054
Cu     -1.57307688      9.81072309      7.61630950     -0.000043    -0.000062     0.000022
Cu     -1.30031068      6.32392005     10.15563890      0.000108    -0.000080    -0.000035
Cu     -4.67893012      8.12727418     12.58730130     -0.000029     0.000020     0.000176
Cu     -1.38875327      9.77539765     14.86691881      0.000145    -0.000050    -0.000116
Cu      4.59229376      7.55482155      5.35184208     -0.000048    -0.000442     0.000226
Cu      1.47521160      9.82357310      7.79904989     -0.000062    -0.000065     0.000176
Cu      7.60766481      6.14701259      9.87494157      0.000121    -0.000256    -0.000155
Cu      4.44742071      7.99057241     12.67713220     -0.000101     0.000002     0.000223
Cu      1.51208754     10.41169141     14.88956902      0.000045     0.000296    -0.000122
Cu      3.11158586      5.81241320      4.98462699      0.000031     0.000271     0.000052
Cu      6.10063191      7.14094727      7.49016451      0.000045    -0.000096    -0.000079
Cu      2.86220973      8.84004247      9.84088879     -0.000017    -0.000053    -0.000197
Cu      2.94668105      5.58123259     12.53175735     -0.000081     0.000029     0.000054
Cu      6.62340017      7.10759566     14.37525648      0.000435    -0.000058    -0.000467
Cu      5.83980350      5.78620473      5.11043246     -0.000159     0.000202     0.000150
Cu      2.98552649      7.27794135      7.67052548     -0.000060     0.000051    -0.000016
Cu      6.10673816      9.22856577     10.22102249      0.000117     0.000206     0.000124
Cu      6.05637604      5.42881432     12.49175494     -0.000031    -0.000026     0.000026
Cu      2.79808021      6.82350858     14.70337303     -0.000055    -0.000534    -0.000258
Cu      1.38494347      8.16320598      5.14084751     -0.000106    -0.000059     0.000233
Cu      4.85907338      9.91878513      7.55305367      0.000096    -0.000053     0.000008
Cu      4.09276648      6.20358007     10.12877081     -0.000299    -0.000134    -0.000069
Cu      1.64725479      8.01503491     12.61543781      0.000095    -0.000089     0.000048
Cu      4.48407862     10.22263421     14.83673740     -0.000015     0.000390    -0.000239
Cu     10.39157840      7.71910457      5.13989183     -0.000176    -0.000351     0.000138
Cu      7.34751450     10.07356221      7.48291424     -0.000040     0.000074    -0.000071
Cu     13.41506593      6.37268242     10.15502091     -0.000291    -0.000127     0.000062
Cu     10.88780927      8.24275623     12.41350769      0.000224     0.000084     0.000029
Cu      7.27578744      9.87915556     14.79314747     -0.000201    -0.000010    -0.000254
Cu      8.98561580      5.87413312      5.12576498      0.000105     0.000309     0.000126
Cu     12.20172767      7.19115667      7.46863543      0.000040    -0.000066    -0.000125
Cu      9.31624558      9.11237810     10.04995918      0.000117    -0.000027     0.000044
Cu      9.20981406      5.31393854     12.63333480      0.000195    -0.000060     0.000014
Cu     11.59419957      6.93913674     14.76345386     -0.000476    -0.000123    -0.000300
Cu     11.61448689      5.80835437      5.25166575     -0.000393     0.000162     0.000155
Cu      9.32016282      7.30558397      7.61787503      0.000073     0.000121    -0.000043
Cu     12.00489300      8.99081244     10.24408851     -0.000124    -0.000139     0.000165
Cu     12.09720848      5.75067793     12.53126447      0.000049     0.000152     0.000009
Cu      9.04392430      7.11089049     14.78250931     -0.000036    -0.000144    -0.000181
Cu      7.97902584      8.20879367      5.33136008      0.000371    -0.000014     0.000138
Cu     10.73803517      9.94931746      7.46515761      0.000089    -0.000020    -0.000098
Cu     10.78162859      6.31478486      9.99588153      0.000150    -0.000004     0.000061
Cu      7.59848740      8.51218045     13.08000219      0.000042     0.000334     0.000353
Cu     10.26197917      9.97636614     14.88238950     -0.000301    -0.000040    -0.000152
Cu     -4.78337040     12.78078176      5.30113808      0.000024    -0.000174     0.000114
Cu     -7.59090686     15.03635999      7.95973057      0.000060    -0.000106     0.000336
Cu     -1.43542857     11.66798574     10.14117643      0.000034    -0.000030     0.000080
Cu     -4.73444187     13.21005990     12.75906904     -0.000098    -0.000036     0.000065
Cu     -7.68869612     15.26930101     14.75904860     -0.000130     0.000113    -0.000182
Cu     -5.54331059     11.06483474      5.41268694      0.000267    -0.000087     0.000340
Cu     -3.28964616     12.59691051      7.55125108     -0.000173     0.000113    -0.000065
Cu     -5.95891548     14.53248537      9.69628961      0.000149     0.000109    -0.000211
Cu     -6.03025064     10.61895275     12.55872745      0.000043    -0.000052     0.000015
Cu     -3.57086065     12.71240399     14.64620198     -0.000316     0.000110    -0.000226
Cu     -3.49466705     10.93688533      4.72641914     -0.000278     0.000047    -0.000172
Cu     -6.08963096     12.57536329      7.69687709     -0.000023     0.000027     0.000157
Cu     -3.07076424     13.87870953      9.69331691     -0.000104    -0.000185    -0.000282
Cu     -3.27755751     10.47965208     12.64853618     -0.000174    -0.000092     0.000051
Cu     -5.77239045     12.57001403     14.88758867      0.000308    -0.000091    -0.000091
Cu     -7.57554079     13.31341130      5.34938139      0.000093    -0.000073     0.000089
Cu     -4.46183469     15.03698416      7.76839234      0.000079    -0.000148     0.000225
Cu     -4.62496303     11.49581489     10.02862049     -0.000077    -0.000051     0.000029
Cu     -7.45912393     13.49659349     12.49134006      0.000137     0.000067    -0.000065
Cu     -4.88049013     14.89404735     15.22196061     -0.000117    -0.000240     0.000114
Cu      1.15883916     13.10304690      4.82475768     -0.000229    -0.000356    -0.000126
Cu     -1.48920828     14.91746140      7.80692285      0.000012    -0.000175     0.000082
Cu      4.89721549     12.13728324     10.26108134      0.000285     0.000340     0.000128
Cu      1.49058364     12.98700833     12.65523772      0.000041    -0.000173     0.000177
Cu     -1.55900025     15.09314712     14.91083322     -0.000102    -0.000025    -0.000191
Cu      0.00578133     10.94170505      4.89729800      0.000001     0.000143    -0.000024
Cu      2.81552881     12.56441942      7.45288972     -0.000058     0.000170    -0.000211
Cu      0.06750927     14.11942908     10.08175839     -0.000045    -0.000051     0.000057
Cu      0.00138640     10.84237496     12.43193678     -0.000044    -0.000024     0.000005
Cu      2.63275023     12.29972142     14.89115737     -0.000244    -0.000183    -0.000159
Cu      3.37027923     10.93193786      5.11789732      0.000207     0.000153     0.000113
Cu      0.15746334     12.59345768      7.70093798      0.000102     0.000042    -0.000011
Cu      3.25803968     14.13358118     10.15710845      0.000386    -0.000160     0.000116
Cu      3.04266749     10.77521012     12.47169974      0.000067    -0.000000     0.000088
Cu      0.39039812     12.18006700     14.76009866      0.000266    -0.000125    -0.000219
Cu     -1.44348352     12.91010839      5.11390846      0.000090    -0.000231     0.000111
Cu      1.40546781     15.06378211      7.62876838     -0.000047    -0.000156     0.000007
Cu      1.59009358     11.50332249      9.98973883     -0.000000    -0.000109    -0.000079
Cu     -1.59470005     13.81033685     12.75017084     -0.000089     0.000229     0.000220
Cu      1.48322169     14.94087781     15.15527465     -0.000079    -0.000272     0.000197
Cu      7.55074534     12.91387452      5.00690725     -0.000101    -0.000516    -0.000139
Cu      4.84025830     15.00585999      7.53663494      0.000257    -0.000056    -0.000020
Cu     10.17782641     11.64628959     10.22690764     -0.000466    -0.000027     0.000113
Cu      7.60584963     13.28475729     12.38642713      0.000111    -0.000139     0.000011
Cu      4.57865629     15.00049673     15.07241580      0.000098    -0.000153    -0.000080
Cu      6.25801500     11.07174216      5.32847483      0.000264     0.000283     0.000188
Cu      8.75928458     12.76799477      7.45392607     -0.000305     0.000284    -0.000168
Cu      5.92474426     13.96617963      9.76698975     -0.000125    -0.000299     0.000025
Cu      6.37410016     10.51047603     12.72032662      0.000237    -0.000220     0.000187
Cu      8.60978557     12.43641588     14.80259693     -0.000425    -0.000033    -0.000253
Cu      8.85568205     11.11537411      5.40354054     -0.000262     0.000114     0.000254
Cu      6.07634536     12.70208922      7.63037684     -0.000033     0.000156    -0.000053
Cu      8.90222269     13.94677608     10.16893275     -0.000121    -0.000373     0.000244
Cu      9.07648596     10.82651492     12.46169534     -0.000090     0.000134    -0.000005
Cu      6.46020684     12.53426678     15.02492407      0.000233     0.000004    -0.000033
Cu      4.71770293     12.97218145      5.13205053      0.000176    -0.000299     0.000073
Cu      7.72780981     15.22102461      7.76706460      0.000070     0.000016     0.000152
Cu      7.48385307     11.74879199     10.18393127      0.000005     0.000192     0.000167
Cu      4.50149046     13.24344635     12.01428833     -0.000029    -0.000055    -0.000305
Cu      7.43121261     14.47963321     14.48985137     -0.000134    -0.000692    -0.000453
O       1.36461862      4.70515469      5.58631054     -0.000333    -0.000107    -0.000318
O       1.41802757      1.72659869      8.44525920     -0.000016     0.000341     0.000169
O      -0.55968496      2.90116289     11.40831463      0.000710    -0.000030     0.000615
O       1.51155232      4.52892565     12.77527597      0.000174     0.000106     0.000145
O      -1.31386272      2.96319570      6.81891065      0.000035     0.000084    -0.000239
O       1.68421210      4.71107150      9.33064688      0.000226     0.000215    -0.000435
O       1.66919478      1.06311230     11.88457435      0.000354    -0.000412     0.000010
O       7.38532401      4.61112750      5.91367927     -0.000050    -0.000185     0.000309
O       7.44734847      1.34907187      8.42929628      0.000146     0.000120     0.000328
O       4.72226822      3.32066451     10.56076742      0.000173     0.000258    -0.000075
O       7.54387310      4.41757424     13.02340983      0.000111    -0.000156     0.000042
O       4.47151700      2.81874496      6.99295180     -0.000168     0.000372    -0.000135
O       7.71516880      0.85754718     11.97586619      0.000105    -0.000610     0.000237
O       4.62853528      2.82276606     14.32422145      0.000263     0.000208    -0.000211
O      12.66234067      4.19622477      5.88241085     -0.000577    -0.000232     0.000170
O      13.64571270      1.20050608      8.42343213     -0.000214    -0.000168     0.000061
O      10.42523880      3.15146211     10.62492269      0.000021     0.000409    -0.000087
O      13.49399176      4.73945285     13.09787280     -0.000236    -0.000087    -0.000326
O      10.52880189      2.79353148      7.15976162      0.000061    -0.000376    -0.000210
O      13.56863204      4.56412672      9.37424039      0.000151     0.000147    -0.000112
O      13.64150918      1.09884806     12.17869747     -0.000056    -0.000296     0.000564
O      10.59055379      2.94831806     14.36615160     -0.000007     0.000005     0.000158
O      -1.54436965      9.79310385      5.65228977      0.000217     0.000142    -0.000208
O      -1.62071565      6.20048128      8.30977805      0.000027    -0.000144     0.000290
O      -4.40066440      8.77059883     10.58315410      0.000239     0.000657    -0.000325
O      -1.41358944      9.98902881     13.02856039      0.000249     0.000443    -0.000027
O      -3.74432896      8.52738218      6.54311987      0.000207     0.000308    -0.000169
O      -1.31845113      9.93645776      9.47551674      0.000270     0.000210    -0.000231
O      -1.37472148      6.49713820     11.99516621     -0.000174    -0.000206    -0.000220
O      -3.73419472      8.70706720     14.10900717      0.000807     0.000430    -0.000099
O       4.85040292      9.74391741      5.78806677      0.000242    -0.000006     0.000107
O       4.46839627      6.36661227      8.33679498      0.000031    -0.000091     0.000060
O       1.52344631      7.89872855     10.75568917      0.000071    -0.000129    -0.000218
O       4.51290025      9.82048301     13.11385069      0.000175     0.000033     0.000031
O       1.39949257      8.10424448      7.19172549     -0.000095    -0.000038    -0.000110
O       4.52517950      9.98621788      9.43626900     -0.000024     0.000230     0.000205
O       4.51768543      6.39886423     11.94207987      0.000162    -0.000080     0.000293
O       1.41382826      8.18359492     14.40224638     -0.000198     0.000127    -0.000049
O       9.67105731      9.37926320      5.84716567     -0.000531    -0.000203     0.000077
O      10.72197912      6.44830842      8.22443060      0.000088     0.000153     0.000149
O       7.72750446      8.05601183     10.57924281      0.000102     0.000018     0.000427
O      10.52903018      9.86942289     13.08542418     -0.000308    -0.000312    -0.000390
O       7.71794097      8.01346246      7.19158354     -0.000532    -0.000188     0.000237
O      10.69897413     10.04091734      9.29410162      0.000147     0.000339    -0.000083
O      10.53585111      6.49248593     11.82571805     -0.000085     0.000008     0.000236
O      -3.90344537     14.20215294      6.12577783      0.000582    -0.000852     0.000572
O      -4.65093712     11.52079183      8.24272530     -0.000081    -0.000269     0.000073
O      -6.90525371     13.30230929     10.63918406      0.001075     0.000072    -0.000110
O      -3.53441191     14.56845465     13.77654270      0.000640    -0.000570     0.000863
O      -7.67334303     13.28320302      7.18489216      0.000022    -0.000047    -0.000141
O      -4.54437289     11.45516270     11.89455844      0.000036    -0.000443    -0.000014
O      -7.28124239     13.58407803     14.39652823      0.000400     0.000035     0.000173
O       1.22668341     14.58296777      5.86054638     -0.000394    -0.000937     0.000365
O       1.53793036     11.53938339      8.18466540     -0.000004     0.000089    -0.000109
O      -1.53482798     13.49075701     10.74721255      0.000110     0.000146    -0.000057
O       1.46753422     14.68045608     13.38642784     -0.000128    -0.000592     0.000150
O      -1.49089700     13.13381733      7.12707113      0.000180    -0.000271     0.000163
O       1.63545218     14.30089940      9.31509365      0.000019    -0.000567    -0.000098
O       1.53318051     11.45465954     11.73678881     -0.000188    -0.000407    -0.000111
O      -1.40484571     13.09309793     14.66814874      0.000214    -0.000420     0.000243
O       7.26594974     14.30457108      6.13518551     -0.000457    -0.000814     0.000413
O       7.52777523     11.70662985      8.33754663     -0.000041    -0.000284     0.000093
O       4.44289870     13.32390655      6.99917877     -0.000324    -0.000153    -0.000098
O       7.47958977     14.99824075      9.67222991     -0.000235     0.000150     0.000394
O       4.50173014     13.16656086     14.57546578      0.000149    -0.000385     0.000220
245
Frame 5  Energy = -11030.0251376277 Hartree
Cu      1.43777080      2.30644838      4.71280997      0.000130     0.000155    -0.000264
Cu     -1.66418395      4.65299612      7.39465190     -0.000007     0.000049     0.000063
Cu      4.39211781      1.44929981     10.19512832     -0.000018     0.000154     0.000146
Cu      1.05940737      2.61475565     12.86272589      0.000130    -0.000105    -0.000010
Cu     -1.16367086      4.96724254     14.75373349      0.000113    -0.000139    -0.000206
Cu      0.45075402      0.78383951      5.46402905      0.000180     0.000107     0.000266
Cu      3.01491484      2.03766921      7.62646406      0.000065     0.000024    -0.000028
Cu      0.20075605      3.83029367      9.96614089      0.000151    -0.000118     0.000131
Cu     -0.30252490      0.88221029     12.37304165     -0.000196     0.000418    -0.000200
Cu      2.61642223      2.42035983     14.57565836     -0.000380     0.000241    -0.000287
Cu      2.79197505      0.81831926      5.11341353     -0.000147     0.000266     0.000015
Cu     -0.07453926      1.74108544      7.37727244     -0.000068    -0.000058     0.000075
Cu      3.15210826      3.97235920      9.90261313      0.000008    -0.000073    -0.000068
Cu      3.59369700      0.72736409     12.24410513      0.000353     0.000173    -0.000058
Cu      0.03642994      2.87643830     14.61495190     -0.000013     0.000472     0.000142
Cu     -1.03615464      3.12701829      4.94706165      0.000269     0.000129    -0.000241
Cu      1.20951247      4.32166673      7.43478134     -0.000039    -0.000206    -0.000254
Cu      1.72543372      1.27216559     10.14630244     -0.000025     0.000029     0.000169
Cu     -1.55073749      2.99906563     13.29548624     -0.000173     0.000165     0.000414
Cu      1.31885203      4.46736485     14.87707709      0.000041     0.000013    -0.000183
Cu      7.49778425      2.71213693      5.05698859     -0.000141     0.000651     0.000059
Cu      4.73906050      4.48961478      7.67193934      0.000089     0.000083     0.000084
Cu     10.47705489      1.34343919     10.24084947     -0.000108     0.000022     0.000051
Cu      7.56948096      2.53916250     12.62701313      0.000119    -0.000110    -0.000055
Cu      4.21802363      4.62517902     14.87663585     -0.000268     0.000127    -0.000137
Cu      6.27728499      1.07468615      4.97616788      0.000042     0.000031    -0.000071
Cu      9.03643402      1.85640034      7.42288132     -0.000124    -0.000049    -0.000004
Cu      6.07995601      4.30054907      9.58447639      0.000087     0.000315    -0.000098
Cu      5.85285066      0.66106008     12.54966961     -0.000204     0.000249    -0.000053
Cu      8.78099495      2.07767981     14.67789146     -0.000048     0.000094    -0.000271
Cu      8.77809815      1.18485333      5.00439993      0.000111     0.000102    -0.000058
Cu      5.93124920      1.97497682      7.67540394     -0.000135     0.000058    -0.000017
Cu      8.96177090      4.27195086      9.82020699     -0.000016     0.000339    -0.000182
Cu      9.65668781      0.88689349     12.63310930      0.000137     0.000125     0.000054
Cu      6.73510082      2.23650961     14.49340808      0.000118     0.000158    -0.000090
Cu      4.46047716      2.08386570      5.08355986     -0.000170    -0.000253     0.000120
Cu      7.30765935      4.33661592      7.92550580     -0.000074    -0.000138     0.000086
Cu      7.60916848      1.10722889     10.27093648      0.000082    -0.000113     0.000163
Cu      4.65812025      2.44454687     12.52916152      0.000129    -0.000139    -0.000103
Cu      7.28121687      5.16448056     14.63899842     -0.000043     0.000137    -0.000140
Cu     13.65510647      2.51881240      5.04414871     -0.000115     0.000314     0.000046
Cu     10.91488872      4.70339211      7.30242060      0.000169    -0.000209    -0.000122
Cu     15.90098124      1.72613986     10.02792715      0.000054    -0.000021     0.000127
Cu     13.60899855      2.93536689     12.63580573      0.000016     0.000103    -0.000023
Cu     10.49496178      5.25375137     15.03272311     -0.000260    -0.000268    -0.000009
Cu     12.76520179      0.59746833      5.35911011      0.000047     0.000062     0.000195
Cu     15.31664792      1.73652729      7.82293059      0.000039    -0.000106     0.000004
Cu     12.21957149      3.20357869      9.86579673      0.000079    -0.000013    -0.000140
Cu     11.64224201      0.72537011     11.95822894     -0.000076     0.000249    -0.000210
Cu     14.46791899      2.24400946     14.82141838      0.000350     0.000102    -0.000037
Cu     14.75359294      0.78636645      5.15094398      0.000080     0.000178     0.000034
Cu     11.92962956      1.61121696      7.56507697     -0.000141    -0.000118     0.000042
Cu     14.92081245      3.37127787     10.12717616     -0.000350     0.000153    -0.000009
Cu     15.39639148      0.55432627     12.43086174      0.000137     0.000241    -0.000097
Cu     12.42839748      1.90947086     14.58606450     -0.000607    -0.000100    -0.000232
Cu     10.41766726      2.60397765      5.27770440      0.000028    -0.000088     0.000191
Cu     13.50474566      4.76677423      7.40169921     -0.000161    -0.000059    -0.000108
Cu     13.81321525      1.04350102     10.30249209     -0.000095    -0.000128     0.000275
Cu     10.54667607      2.85070864     12.40931996      0.000075     0.000173     0.000051
Cu     13.19688769      4.08174348     14.96630408     -0.000301    -0.000182    -0.000081
Cu     -1.51872079      7.80704472      5.19511485      0.000217     0.000276     0.000037
Cu     -4.66110032      9.81485682      7.44605429     -0.000017    -0.000119    -0.000081
Cu      1.38756427      6.17960477     10.30197929     -0.000029     0.000079     0.000231
Cu     -1.84348900      8.26308558     12.54982756     -0.000038    -0.000036    -0.000121
Cu     -4.47487879     10.61688418     14.71823283      0.000067     0.000420    -0.000116
Cu     -2.37094862      5.96582486      5.63466190     -0.000141    -0.000090     0.000390
Cu     -0.40572039      7.44602102      7.52207935     -0.000144     0.000030    -0.000061
Cu     -2.65726901      9.30047737     10.20118953      0.000323     0.000226    -0.000008
Cu     -2.50596490      5.12864632     12.87720638      0.000425    -0.000122     0.000249
Cu     -0.33931721      6.81733579     14.70483376      0.000118     0.000093    -0.000195
Cu     -0.42850693      5.63921212      4.95663682      0.000359    -0.000011    -0.000119
Cu     -2.98249849      7.25717079      7.56959227     -0.000055     0.000065    -0.000003
Cu      0.06704879      9.01133523     10.22043242      0.000058     0.000040     0.000071
Cu     -0.01069482      5.51316559     12.66093807     -0.000019     0.000000     0.000044
Cu     -2.22989579      7.58992488     14.71828211      0.000235     0.000022    -0.000103
Cu     -4.72680524      8.42554358      4.91688677      0.000077     0.000288    -0.000012
Cu     -1.59053859      9.78946069      7.61400507     -0.000040    -0.000036    -0.000040
Cu     -1.26157198      6.28676309     10.13262488      0.000082    -0.000096    -0.000058
Cu     -4.67742774      8.15113860     12.62660217      0.000043     0.000101     0.000020
Cu     -1.31668817      9.76710890     14.83473988      0.000204     0.000015    -0.000039
Cu      4.55211927      7.41361632      5.45621805     -0.000151    -0.000198     0.000286
Cu      1.44177750      9.78328143      7.86486133     -0.000099    -0.000129     0.000136
Cu      7.66425462      6.05457345      9.81571944      0.000144    -0.000173    -0.000123
Cu      4.40636769      8.01156444     12.78491766     -0.000093     0.000070     0.000284
Cu      1.53596459     10.45461928     14.83552671      0.000065    -0.000115    -0.000140
Cu      3.10585040      5.91586323      5.01563051     -0.000072     0.000215     0.000093
Cu      6.10191130      7.08952303      7.46327968     -0.000113    -0.000193    -0.000036
Cu      2.86546126      8.83314448      9.75847977      0.000036     0.000021    -0.000197
Cu      2.92760669      5.58984110     12.54902841      0.000022     0.000027     0.000009
Cu      6.77265021      7.09694495     14.19944673      0.000269     0.000016    -0.000378
Cu      5.78436845      5.84323613      5.18203311     -0.000092     0.000051     0.000189
Cu      2.96220711      7.29523357      7.64798202     -0.000055     0.000034    -0.000097
Cu      6.16326619      9.32105262     10.27259558      0.000149     0.000241     0.000125
Cu      6.04942798      5.41017896     12.49802230      0.000002    -0.000072    -0.000001
Cu      2.77414148      6.59191612     14.59997823     -0.000065    -0.000563    -0.000227
Cu      1.33357076      8.12459763      5.25681868     -0.000145    -0.000127     0.000320
Cu      4.87971731      9.89229724      7.57899622      0.000001    -0.000073     0.000123
Cu      3.98768847      6.16526363     10.10453209     -0.000201    -0.000044    -0.000037
Cu      1.68273396      7.98202671     12.62871680      0.000077    -0.000068     0.000004
Cu      4.47840586     10.41222638     14.75503344     -0.000008     0.000522    -0.000162
Cu     10.33872842      7.60637593      5.20487952     -0.000059    -0.000154     0.000171
Cu      7.35053048     10.08382030      7.46018891      0.000048    -0.000049    -0.000042
Cu     13.28712539      6.31312713     10.18201738     -0.000318    -0.000152     0.000070
Cu     10.97649284      8.25446433     12.42566934      0.000205    -0.000050     0.000023
Cu      7.19974545      9.89810705     14.72649011     -0.000164     0.000116    -0.000024
Cu      9.03196250      5.97916169      5.18291830      0.000086     0.000166     0.000150
Cu     12.22250878      7.16534474      7.40956310      0.000061    -0.000056    -0.000161
Cu      9.35966083      9.08911214     10.06788480      0.000099    -0.000078     0.000041
Cu      9.28559322      5.29063537     12.63932276      0.000163    -0.000054     0.000014
Cu     11.43492412      6.96729895     14.61758501     -0.000291     0.000259    -0.000405
Cu     11.46383588      5.84996185      5.31097756     -0.000311     0.000022     0.000122
Cu      9.32582164      7.36122382      7.59860213     -0.000039     0.000137    -0.000044
Cu     11.94987753      8.92822357     10.30707846     -0.000138    -0.000162     0.000136
Cu     12.11768265      5.80455027     12.53172245      0.000045     0.000107    -0.000010
Cu      9.03155206      7.05564488     14.71251813     -0.000021    -0.000119    -0.000152
Cu      8.12732769      8.20560066      5.37904232      0.000326     0.000003     0.000098
Cu     10.75367173      9.92635899      7.40530355     -0.000012    -0.000086    -0.000176
Cu     10.83617874      6.31903824     10.04671920      0.000107     0.000024     0.000182
Cu      7.64623957      8.63131282     13.16726834      0.000213     0.000222     0.000046
Cu     10.12996916      9.95379345     14.81178197     -0.000340    -0.000069    -0.000197
Cu     -4.73332141     12.83500357      5.33811214      0.000167     0.000339     0.000048
Cu     -7.56620388     14.97088826      8.09330239      0.000055    -0.000198     0.000303
Cu     -1.42394545     11.65980179     10.17708898      0.000024    -0.000006     0.000093
Cu     -4.77747514     13.21095568     12.74167192     -0.000118     0.000036    -0.000156
Cu     -7.74511394     15.31256582     14.68370128     -0.000137     0.000086    -0.000182
Cu     -5.52371875     10.91971815      5.57464194     -0.000136    -0.000525     0.000430
Cu     -3.35636052     12.63951112      7.50906584     -0.000138     0.000030    -0.000093
Cu     -5.87169023     14.57703958      9.60908773      0.000284     0.000114    -0.000213
Cu     -6.03079256     10.59486638     12.56626750     -0.000043    -0.000064     0.000022
Cu     -3.62569364     12.73239248     14.58710139      0.000082    -0.000052    -0.000044
Cu     -3.54947391     10.92663206      4.64420744      0.000006    -0.000088    -0.000228
Cu     -6.10433557     12.57904514      7.77175964     -0.000051    -0.000010     0.000196
Cu     -3.12259048     13.81385124      9.58198611     -0.000135    -0.000129    -0.000241
Cu     -3.31812182     10.43460719     12.67185241     -0.000023    -0.000125     0.000058
Cu     -5.68415149     12.50565683     14.86305386      0.000086    -0.000221    -0.000021
Cu     -7.53540393     13.28134620      5.37615983      0.000101    -0.000084     0.000020
Cu     -4.42912065     14.96643576      7.85079597      0.000073    -0.000180     0.000177
Cu     -4.66161473     11.47196002     10.06290746     -0.000097    -0.000064     0.000111
Cu     -7.38406381     13.52030494     12.44593451      0.000232     0.000047    -0.000139
Cu     -4.92102186     14.79772596     15.25222431     -0.000090    -0.000219     0.000038
Cu      1.06692720     12.94436801      4.77785665     -0.000207    -0.000407    -0.000111
Cu     -1.48666919     14.84619868      7.83655298     -0.000000    -0.000175     0.000065
Cu      5.00624620     12.21862219     10.28910619      0.000228    -0.000007     0.000006
Cu      1.51098257     12.92380454     12.72062556      0.000060    -0.000201     0.000089
Cu     -1.61135285     15.06138504     14.83243558     -0.000144    -0.000132    -0.000169
Cu      0.00515762     10.99092186      4.89414945      0.000001     0.000080     0.000006
Cu      2.79007570     12.63889627      7.35059730     -0.000109     0.000153    -0.000265
Cu      0.04126141     14.10043558     10.10461848     -0.000042    -0.000034     0.000035
Cu      0.00501776     10.83969279     12.42276993      0.000057     0.000015    -0.000050
Cu      2.58455259     12.25468569     14.82430851      0.000031    -0.000020    -0.000156
Cu      3.45842184     10.99497092      5.17410179      0.000214     0.000143     0.000157
Cu      0.19361692     12.60518593      7.68484693      0.000091     0.000007    -0.000063
Cu      3.42207884     14.07214477     10.19377233      0.000379    -0.000124     0.000043
Cu      3.07924742     10.77435531     12.52013430      0.000100    -0.000004     0.000137
Cu      0.43092678     12.17497842     14.66812448     -0.000079     0.000098    -0.000218
Cu     -1.40959456     12.83219396      5.17098746      0.000066    -0.000146     0.000164
Cu      1.38864524     14.98383149      7.62653695     -0.000034    -0.000220     0.000003
Cu      1.58037865     11.45906985      9.94038560     -0.000048    -0.000107    -0.000127
Cu     -1.63732721     13.89297296     12.83041951     -0.000110     0.000161     0.000161
Cu      1.44546150     14.81372994     15.23381648     -0.000102    -0.000345     0.000186
Cu      7.50289835     12.74073355      4.94435402     -0.000115    -0.000262    -0.000172
Cu      4.95109054     14.99584122      7.52520167      0.000273    -0.000009    -0.000040
Cu      9.97439814     11.64445920     10.27452229     -0.000506     0.000021     0.000117
Cu      7.66282033     13.21755270     12.38943120      0.000166    -0.000189    -0.000014
Cu      4.61807584     14.91578249     15.02492200      0.000094    -0.000261    -0.000149
Cu      6.35581205     11.16138866      5.40179815      0.000173     0.000099     0.000171
Cu      8.63181545     12.89441759      7.37572982     -0.000305     0.000307    -0.000201
Cu      5.90743790     13.88762037      9.78560638      0.000064    -0.000034     0.000048
Cu      6.45897882     10.43029049     12.77828287      0.000154    -0.000149     0.000065
Cu      8.48116498     12.39609135     14.68889827     -0.000154    -0.000187    -0.000295
Cu      8.75413955     11.12518321      5.51245573     -0.000206    -0.000080     0.000275
Cu      6.06771964     12.75564222      7.60608869     -0.000017     0.000100    -0.000064
Cu      8.84456863     13.78588499     10.27789719     -0.000166    -0.000382     0.000271
Cu      9.02117808     10.89216283     12.45788925     -0.000179     0.000184    -0.000015
Cu      6.49024786     12.50522770     15.02163014     -0.000132    -0.000167     0.000041
Cu      4.79206735     12.86322383      5.16107034      0.000182    -0.000219     0.000060
Cu      7.73972069     15.22174144      7.83033124     -0.000016    -0.000008     0.000161
Cu      7.49022188     11.82846999     10.25823598      0.000017     0.000175     0.000182
Cu      4.48071733     13.23969905     11.93714840     -0.000079     0.000037    -0.000041
Cu      7.38229113     14.23836262     14.29335183     -0.000100    -0.000417    -0.000497
O       1.22304155      4.61995002      5.42230871     -0.000306    -0.000301    -0.000451
O       1.43677129      1.84081371      8.45506858      0.000094     0.000156    -0.000025
O      -0.34367185      2.88837040     11.59524973      0.000243    -0.000009     0.000208
O       1.56335233      4.64831536     12.83067205     -0.000019     0.000370     0.000099
O      -1.32527486      3.01091654      6.74085157     -0.000046     0.000120    -0.000111
O       1.68681450      4.77492324      9.13136811     -0.000137     0.000155    -0.000283
O       1.78003480      0.89898608     11.95518846      0.000146    -0.000324     0.000307
O       7.37645860      4.53054968      6.05724413      0.000034    -0.000152     0.000371
O       7.56600259      1.43669333      8.50496123      0.000267     0.000333    -0.000025
O       4.75742383      3.41530120     10.54607461      0.000053     0.000222    -0.000020
O       7.61431313      4.35922135     12.98074433      0.000219    -0.000085    -0.000224
O       4.43922367      2.91209753      6.92698771      0.000018     0.000045    -0.000173
O       7.76532899      0.69077843     12.13983585      0.000106    -0.000122     0.000453
O       4.74926913      2.91826317     14.30075065      0.000314     0.000245     0.000037
O      12.46609689      4.16857730      5.90751457     -0.000344     0.000126    -0.000058
O      13.49489982      1.14526390      8.40868746     -0.000407    -0.000078    -0.000041
O      10.40961382      3.34918848     10.55044462     -0.000086     0.000498    -0.000230
O      13.40209360      4.66168780     12.97834102     -0.000182    -0.000208    -0.000198
O      10.60046689      2.66167378      7.05966813      0.000136    -0.000254    -0.000164
O      13.66028929      4.63807868      9.31012019      0.000256     0.000171    -0.000199
O      13.60094907      0.97474340     12.37636643     -0.000156    -0.000211     0.000404
O      10.57145906      2.95688907     14.39044052     -0.000109     0.000059    -0.000048
O      -1.43985945      9.90096813      5.55973743      0.000229     0.000338    -0.000208
O      -1.59832096      6.22124912      8.41343337      0.000047     0.000225     0.000049
O      -4.35387113      8.95873144     10.58786453      0.000047     0.000221     0.000332
O      -1.42961659     10.12569981     12.99422331     -0.000386     0.000148    -0.000139
O      -3.74388632      8.59828891      6.50893571     -0.000124    -0.000032     0.000004
O      -1.18503313     10.01933639      9.39392125      0.000355     0.000160    -0.000115
O      -1.48534762      6.48384142     11.90767303     -0.000285     0.000126    -0.000147
O      -3.45359778      8.86171767     14.06822654      0.000483     0.000291    -0.000124
O       4.92948961      9.73174747      5.81046449      0.000129    -0.000058    -0.000000
O       4.46807290      6.31731282      8.33844396     -0.000028    -0.000120    -0.000055
O       1.57140864      7.87721785     10.69140569      0.000155     0.000104    -0.000024
O       4.55831831      9.78070154     13.03349806      0.000074    -0.000182    -0.000350
O       1.35089738      8.10391433      7.13760063     -0.000121     0.000030    -0.000103
O       4.50574230     10.03951141      9.49340928     -0.000065    -0.000006     0.000042
O       4.52200856      6.34055821     12.02840524     -0.000132    -0.000100     0.000129
O       1.33694808      8.23168185     14.35935221     -0.000173     0.000084    -0.000139
O       9.56991291      9.39952662      5.91709586      0.000033     0.000303     0.000272
O      10.77714389      6.43607703      8.25921575      0.000092    -0.000185     0.000011
O       7.77752616      8.09441570     10.79236832      0.000159     0.000188     0.000558
O      10.39823163      9.79652981     12.95851705     -0.000342     0.000028    -0.000150
O       7.46587974      7.99219048      7.30216230     -0.000323     0.000227     0.000234
O      10.78446102     10.13271814      9.30209962      0.000200     0.000050     0.000102
O      10.54649362      6.50337791     11.90211065      0.000141     0.000068     0.000106
O      -3.68611009     13.86611715      6.42276253      0.000445    -0.000491     0.000653
O      -4.66807678     11.46339013      8.22304781      0.000034     0.000022    -0.000103
O      -6.46337279     13.31987712     10.73117192      0.000985    -0.000017     0.000603
O      -3.39582287     14.43090299     14.11504675      0.000063     0.000121     0.000657
O      -7.65181941     13.35202854      7.15282969      0.000097     0.000344     0.000081
O      -4.54606694     11.43392465     11.86786417     -0.000012     0.000351    -0.000044
O      -7.10776354     13.65154787     14.44214943      0.000402     0.000354     0.000017
O       1.02887683     14.15558588      6.07426087     -0.000574    -0.001102     0.000629
O       1.52246305     11.53592404      8.16763728     -0.000007    -0.000113    -0.000039
O      -1.50894775     13.52020622     10.75113556     -0.000093    -0.000031     0.000071
O       1.41169979     14.42444233     13.49159718     -0.000140    -0.000397     0.000431
O      -1.43161486     12.96972075      7.21497505      0.000002    -0.000506     0.000269
O       1.68789742     14.13106542      9.28985156      0.000209    -0.000228     0.000077
O       1.49726411     11.27238283     11.74555132      0.000138    -0.000350     0.000071
O      -1.23982570     12.90462365     14.74884296      0.000515    -0.000437     0.000112
O       7.12432344     13.96998398      6.41109337     -0.000189    -0.000726     0.000832
O       7.43841541     11.60270771      8.33605714     -0.000340    -0.000113    -0.000011
O       4.33151345     13.26779463      6.93662762     -0.000046     0.000031    -0.000192
O       7.37142027     15.03628652      9.75966304     -0.000235    -0.000007     0.000048
O       4.53102309     13.00250957     14.65980298     -0.000018    -0.000388     0.000173
245
Frame 6  Energy = -11029.8116908969 Hartree
Cu      1.49700112      2.48037720      4.56651106      0.000146     0.000613    -0.000424
Cu     -1.65584665      4.66018179      7.44489946      0.000050    -0.000022     0.000182
Cu      4.39700768      1.50785421     10.24244187      0.000043     0.000131     0.000076
Cu      1.17719176      2.56593899     12.82224880      0.000385    -0.000119    -0.000174
Cu     -1.13954381      4.88740775     14.70025848      0.000019    -0.000197    -0.000023
Cu      0.48126886      0.76767883      5.58003102      0.000001    -0.000140     0.000269
Cu      3.04091509      2.05332569      7.61117144      0.000058     0.000048    -0.000043
Cu      0.27223732      3.77136734     10.02785419      0.000190    -0.000162     0.000164
Cu     -0.38176762      1.03612594     12.27056830     -0.000196     0.000322    -0.000292
Cu      2.48665132      2.51080428     14.46908272     -0.000222     0.000189    -0.000203
Cu      2.74979100      0.85458448      5.12531380     -0.000090    -0.000084     0.000039
Cu     -0.11577967      1.74599817      7.43278590     -0.000131     0.000085     0.000198
Cu      3.12916591      3.93098184      9.86233545     -0.000115    -0.000120    -0.000128
Cu      3.67204011      0.73181062     12.22583020      0.000007    -0.000148    -0.000028
Cu      0.00983243      3.01755963     14.74591002     -0.000101     0.000191     0.000449
Cu     -0.92386603      3.17924470      4.84881555      0.000268     0.000124    -0.000217
Cu      1.19622473      4.23945936      7.31564382     -0.000028    -0.000189    -0.000306
Cu      1.70692528      1.28343288     10.22223577     -0.000060     0.000023     0.000200
Cu     -1.65693611      3.06240992     13.42968280     -0.000318     0.000112     0.000231
Cu      1.38665489      4.52217595     14.81743115      0.000282     0.000247    -0.000102
Cu      7.42913421      3.03822660      5.08711962     -0.000178     0.000833     0.000071
Cu      4.75784101      4.53967435      7.68932288     -0.000002     0.000134    -0.000010
Cu     10.41503029      1.36528178     10.23131692     -0.000191     0.000087    -0.000093
Cu      7.64125862      2.50630521     12.53820246      0.000212    -0.000022    -0.000341
Cu      4.09547949      4.67820529     14.81188849     -0.000311     0.000111    -0.000170
Cu      6.29811087      1.03846902      4.94126065      0.000078    -0.000170    -0.000099
Cu      8.98134791      1.83820512      7.43629120     -0.000125    -0.000035     0.000056
Cu      6.09258534      4.42328850      9.60021372     -0.000028     0.000279     0.000173
Cu      5.81402899      0.71555571     12.51918758      0.000039    -0.000001    -0.000090
Cu      8.81605391      2.11742394     14.58609917      0.000190     0.000098    -0.000168
Cu      8.83456378      1.17746829      4.97123056      0.000123    -0.000097    -0.000103
Cu      5.88681558      1.99607510      7.66665053     -0.000074     0.000037    -0.000020
Cu      8.98273578      4.38961245      9.74198623      0.000125     0.000217    -0.000198
Cu      9.65345953      0.89044213     12.66298546     -0.000123    -0.000093     0.000079
Cu      6.69420856      2.30541179     14.51424544     -0.000276     0.000180     0.000165
Cu      4.39472363      2.02694972      5.13998097     -0.000125    -0.000022     0.000147
Cu      7.31482312      4.27467309      7.92398954      0.000110    -0.000165    -0.000061
Cu      7.65044978      1.05154942     10.34783795      0.000114    -0.000150     0.000191
Cu      4.72433133      2.48575688     12.50222266      0.000178     0.000352    -0.000020
Cu      7.28041067      5.17963851     14.59622371      0.000041    -0.000064    -0.000070
Cu     13.58332101      2.73847733      5.06633655     -0.000218     0.000672     0.000064
Cu     10.97340326      4.60355158      7.27171318      0.000102    -0.000274    -0.000017
Cu     15.99974591      1.66429455     10.10172868      0.000363    -0.000213     0.000225
Cu     13.61263053      2.94344931     12.59993846     -0.000001    -0.000067    -0.000135
Cu     10.37164410      5.07587704     15.03357986     -0.000316    -0.000533     0.000008
Cu     12.71181492      0.58446107      5.45520465     -0.000247    -0.000092     0.000259
Cu     15.30019609      1.68986682      7.81097657     -0.000119    -0.000121    -0.000052
Cu     12.24999599      3.21958501      9.79964585      0.000064     0.000083    -0.000181
Cu     11.67938002      0.80517848     11.88826800      0.000234     0.000142    -0.000126
Cu     14.64945482      2.26889183     14.81813228      0.000470     0.000026     0.000007
Cu     14.87714163      0.82693146      5.15947878      0.000450     0.000056     0.000010
Cu     11.88678036      1.55170430      7.59808136     -0.000081    -0.000170     0.000118
Cu     14.74754786      3.49260047     10.12082051     -0.000429     0.000348    -0.000017
Cu     15.44887991      0.65749970     12.38655078      0.000112     0.000259    -0.000114
Cu     12.15205526      1.85236538     14.49807626     -0.000665    -0.000164    -0.000189
Cu     10.45606081      2.58948705      5.31893244      0.000161     0.000017     0.000007
Cu     13.43894383      4.72575136      7.35958398     -0.000151    -0.000132    -0.000096
Cu     13.74666333      0.97991120     10.40999248     -0.000210    -0.000171     0.000234
Cu     10.59287134      2.97059446     12.42875653      0.000139     0.000383     0.000032
Cu     13.06589975      4.03306270     14.92474021     -0.000322    -0.000077    -0.000118
Cu     -1.41270451      7.94955237      5.20459561      0.000284     0.000374     0.000011
Cu     -4.65943134      9.76341462      7.44497838      0.000035    -0.000126     0.000097
Cu      1.37761747      6.19586750     10.37941649     -0.000019     0.000017     0.000148
Cu     -1.84943193      8.24300346     12.47620909      0.000005    -0.000048    -0.000228
Cu     -4.44529663     10.75621692     14.68289863      0.000080     0.000218    -0.000056
Cu     -2.45745500      5.91120646      5.77769469     -0.000241    -0.000146     0.000274
Cu     -0.45148490      7.45053939      7.49124947     -0.000063     0.000003    -0.000093
Cu     -2.53858617      9.39617797     10.19111098      0.000229     0.000228    -0.000029
Cu     -2.34812696      5.09229393     12.97384348      0.000312    -0.000038     0.000197
Cu     -0.22669073      6.89085627     14.62856340      0.000402     0.000239    -0.000171
Cu     -0.25095809      5.64443118      4.90800328      0.000461     0.000057    -0.000109
Cu     -3.01251570      7.29255072      7.57966049     -0.000085     0.000097     0.000063
Cu      0.09681257      9.03773346     10.24692963      0.000093     0.000085     0.000063
Cu     -0.03015299      5.53356921     12.65398123     -0.000094     0.000116    -0.000089
Cu     -2.18043392      7.59253505     14.69070887      0.000013    -0.000008    -0.000035
Cu     -4.68590695      8.55464976      4.91332056      0.000117     0.000330    -0.000014
Cu     -1.60448904      9.78653569      7.58552840     -0.000025     0.000028    -0.000090
Cu     -1.23183437      6.24848978     10.11489036      0.000056    -0.000086    -0.000042
Cu     -4.64377581      8.20900082     12.61196482      0.000114     0.000169    -0.000074
Cu     -1.22183948      9.79066302     14.82769789      0.000250     0.000098    -0.000012
Cu      4.46973176      7.40965796      5.59021829     -0.000232     0.000171     0.000356
Cu      1.39310841      9.71707852      7.90638288     -0.000135    -0.000187     0.000061
Cu      7.71932812      6.02121821      9.77809780      0.000114     0.000031    -0.000057
Cu      4.37241122      8.02116986     12.89945581     -0.000069    -0.000040     0.000261
Cu      1.55669815     10.33595614     14.77227204      0.000029    -0.000408    -0.000167
Cu      3.04232420      5.98060093      5.05412901     -0.000238     0.000095     0.000085
Cu      6.01079971      6.98770538      7.46018923     -0.000254    -0.000241     0.000013
Cu      2.89569238      8.85827966      9.68348299      0.000114     0.000100    -0.000158
Cu      2.97050152      5.60247537     12.52243941      0.000148     0.000012    -0.000147
Cu      6.83658332      7.12698111     14.06217006      0.000040     0.000133    -0.000290
Cu      5.76928662      5.82045496      5.26041200      0.000009    -0.000150     0.000187
Cu      2.93872161      7.30719167      7.59073864     -0.000060     0.000024    -0.000174
Cu      6.22589665      9.42553075     10.32297011      0.000154     0.000261     0.000117
Cu      6.05622899      5.36879109     12.48753344      0.000027    -0.000122    -0.000053
Cu      2.74130341      6.38107015     14.53111220     -0.000100    -0.000425    -0.000090
Cu      1.26424388      8.06061241      5.39102225     -0.000189    -0.000180     0.000307
Cu      4.86039029      9.85848943      7.64562401     -0.000093    -0.000094     0.000178
Cu      3.92859099      6.16887587     10.10185745     -0.000086     0.000059     0.000022
Cu      1.71189587      7.96176836     12.61634755      0.000066    -0.000026    -0.000057
Cu      4.48136760     10.64331937     14.69258232      0.000025     0.000580    -0.000146
Cu     10.35544927      7.61762661      5.27730886      0.000143     0.000211     0.000179
Cu      7.38271698     10.02691129      7.45406197      0.000101    -0.000202     0.000035
Cu     13.16151430      6.24945596     10.21157864     -0.000276    -0.000157     0.000069
Cu     11.04828038      8.22494834     12.43681174      0.000125    -0.000041     0.000035
Cu      7.14215107      9.97268138     14.78704726     -0.000113     0.000227     0.000296
Cu      9.03411786      5.99295903      5.24695741     -0.000081    -0.000096     0.000157
Cu     12.24836975      7.14605736      7.33883353      0.000055    -0.000038    -0.000175
Cu      9.39826343      9.05035386     10.08349124      0.000081    -0.000109     0.000035
Cu      9.34405659      5.27480185     12.64189438      0.000122    -0.000011    -0.000007
Cu     11.33668398      7.11947536     14.44086118     -0.000207     0.000430    -0.000423
Cu     11.37374477      5.81751175      5.34511724     -0.000123    -0.000171     0.000034
Cu      9.29793023      7.41002000      7.58722124     -0.000088     0.000093    -0.000003
Cu     11.89776052      8.85950551     10.35363393     -0.000104    -0.000171     0.000087
Cu     12.13858421      5.83536223     12.52159582      0.000062     0.000039    -0.000040
Cu      9.02904486      7.01200191     14.66100575      0.000011    -0.000097    -0.000095
Cu      8.23898471      8.21905359      5.41636288      0.000213     0.000073     0.000087
Cu     10.73611581      9.88582584      7.34329399     -0.000042    -0.000098    -0.000075
Cu     10.86359281      6.33363607     10.12821795      0.000016     0.000044     0.000181
Cu      7.78593822      8.69464329     13.11940804      0.000462     0.000101    -0.000249
Cu      9.97937908      9.91866956     14.72426415     -0.000390    -0.000103    -0.000210
Cu     -4.67157422     12.99124398      5.33687466      0.000128     0.000378    -0.000043
Cu     -7.54962037     14.89676349      8.21446944      0.000022    -0.000122     0.000302
Cu     -1.41315189     11.66309250     10.21664351      0.000033     0.000021     0.000096
Cu     -4.82945045     13.24499748     12.64576955     -0.000118     0.000147    -0.000267
Cu     -7.80287845     15.34802554     14.61144027     -0.000150     0.000104    -0.000164
Cu     -5.62179623     10.70174856      5.74409249     -0.000311    -0.000475     0.000355
Cu     -3.38753395     12.55247649      7.52712692     -0.000019    -0.000351     0.000090
Cu     -5.73348698     14.60797654      9.54634190      0.000369     0.000018    -0.000055
Cu     -6.05286187     10.57029113     12.57394774     -0.000046    -0.000048     0.000012
Cu     -3.50362490     12.68414943     14.59878935      0.000482    -0.000112     0.000077
Cu     -3.51309021     10.87622134      4.54347174      0.000134    -0.000141    -0.000245
Cu     -6.13245822     12.56800548      7.85267668     -0.000078    -0.000045     0.000191
Cu     -3.17534847     13.77219243      9.50616605     -0.000113    -0.000074    -0.000113
Cu     -3.32246425     10.39473014     12.68056527     -0.000028    -0.000048    -0.000027
Cu     -5.71169502     12.40107250     14.86652565     -0.000210    -0.000252     0.000026
Cu     -7.49174529     13.24288648      5.37370369      0.000113    -0.000102    -0.000009
Cu     -4.40343301     14.89930056      7.91016143      0.000057    -0.000136     0.000090
Cu     -4.70307182     11.44453444     10.10149515     -0.000102    -0.000064     0.000081
Cu     -7.27370197     13.53799911     12.39446221      0.000277     0.000046    -0.000085
Cu     -4.96985761     14.71757272     15.25914163     -0.000168    -0.000168     0.000001
Cu      0.99902892     12.78726398      4.73299949     -0.000102    -0.000319    -0.000099
Cu     -1.49091037     14.76642790      7.86192244     -0.000023    -0.000221     0.000053
Cu      5.08357715     12.11944588     10.27341023      0.000158    -0.000431    -0.000069
Cu      1.54294092     12.82000957     12.71370335      0.000098    -0.000245    -0.000106
Cu     -1.66915200     14.99026066     14.78806150     -0.000120    -0.000192    -0.000024
Cu      0.01040523     10.99116399      4.89762514      0.000026    -0.000101     0.000004
Cu      2.72847323     12.68070373      7.23780866     -0.000143     0.000061    -0.000292
Cu      0.04337522     14.08998450     10.10786963      0.000038    -0.000024    -0.000009
Cu      0.01791402     10.84346315     12.40044749      0.000001    -0.000001    -0.000062
Cu      2.64791790     12.27889061     14.76861814      0.000238     0.000115    -0.000108
Cu      3.54162545     11.04053437      5.24578984      0.000181     0.000066     0.000187
Cu      0.23648658     12.59671104      7.64379964      0.000083    -0.000071    -0.000127
Cu      3.55563381     14.03890898     10.18213584      0.000264    -0.000031    -0.000103
Cu      3.12565980     10.76892683     12.57893602      0.000130    -0.000027     0.000144
Cu      0.38092175     12.22504110     14.58596633     -0.000079     0.000095    -0.000174
Cu     -1.39676536     12.79224109      5.24956858     -0.000015    -0.000044     0.000222
Cu      1.37755333     14.89246851      7.63859271     -0.000024    -0.000220     0.000048
Cu      1.55330784     11.41225952      9.90736502     -0.000079    -0.000121    -0.000029
Cu     -1.68454319     13.93595496     12.87462078     -0.000120     0.000043     0.000039
Cu      1.39938279     14.66013863     15.33126645     -0.000118    -0.000389     0.000321
Cu      7.46903950     12.72684521      4.85884701     -0.000049     0.000176    -0.000238
Cu      5.06341135     14.99740323      7.50530708      0.000272     0.000030    -0.000051
Cu      9.77677077     11.65695880     10.32026254     -0.000423     0.000023     0.000099
Cu      7.74463671     13.12557569     12.35993643      0.000229    -0.000260    -0.000138
Cu      4.65709173     14.78262927     14.94834623      0.000096    -0.000382    -0.000223
Cu      6.37882747     11.12187717      5.47525276     -0.000055    -0.000287     0.000182
Cu      8.53140328     13.00279610      7.29827544     -0.000128     0.000184    -0.000158
Cu      5.96931194     13.94049942      9.80226886      0.000185     0.000239     0.000044
Cu      6.49002755     10.39561952     12.76063119     -0.000006    -0.000021    -0.000147
Cu      8.48410306     12.27616309     14.56606778      0.000126    -0.000378    -0.000287
Cu      8.69458392     11.05446309      5.63093824     -0.000091    -0.000228     0.000290
Cu      6.04122464     12.76681340      7.59542226     -0.000141    -0.000071     0.000036
Cu      8.76881370     13.65675369     10.38357102     -0.000189    -0.000210     0.000228
Cu      8.93145103     10.97701911     12.44762685     -0.000244     0.000217    -0.000034
Cu      6.35525729     12.39773513     15.06771983     -0.000463    -0.000328     0.000172
Cu      4.87049360     12.79842117      5.17339722      0.000202    -0.000086    -0.000009
Cu      7.71467783     15.21856333      7.90318342     -0.000098     0.000000     0.000189
Cu      7.48445677     11.87697261     10.32603958     -0.000069     0.000039     0.000137
Cu      4.43667422     13.26808805     11.98405842     -0.000128     0.000086     0.000248
Cu      7.34223148     14.15276822     14.09020248     -0.000111    -0.000015    -0.000458
O       1.15367326      4.45364776      5.24415243      0.000000    -0.000474    -0.000365
O       1.47007463      1.82865092      8.47659672      0.000050    -0.000212     0.000131
O      -0.38864338      2.91217540     11.57082980     -0.000416     0.000125    -0.000240
O       1.49161878      4.76872046     12.83758268     -0.000173     0.000187    -0.000096
O      -1.32282911      3.04558423      6.71356851      0.000082     0.000046    -0.000051
O       1.61892175      4.84028378      9.16448414     -0.000158     0.000130     0.000360
O       1.79684478      0.83147287     12.09346429     -0.000042     0.000019     0.000302
O       7.42720588      4.53763462      6.19675000      0.000220     0.000264     0.000259
O       7.58032444      1.61035676      8.49166526     -0.000278     0.000462     0.000106
O       4.79070143      3.51217697     10.53458551      0.000101     0.000248    -0.000048
O       7.69987443      4.35622906     12.86896604      0.000157     0.000049    -0.000295
O       4.48136661      2.89870810      6.88159328      0.000159    -0.000034    -0.000008
O       7.77882291      0.75817433     12.28737764     -0.000052     0.000350     0.000205
O       4.87663397      3.02016146     14.29720013      0.000262     0.000260    -0.000079
O      12.39487956      4.29521745      5.83319436     -0.000004     0.000432    -0.000279
O      13.38851988      1.14170993      8.46081440     -0.000046     0.000063     0.000339
O      10.37583842      3.51915620     10.45894442     -0.000035     0.000273    -0.000184
O      13.34692228      4.64992351     12.95272995     -0.000068     0.000127     0.000064
O      10.54667519      2.59062889      7.11159771     -0.000354    -0.000075     0.000387
O      13.73491720      4.70914499      9.20415992      0.000038     0.000214    -0.000320
O      13.53811942      0.96281962     12.51286980     -0.000109     0.000161     0.000243
O      10.49733362      3.00384337     14.33451239     -0.000217     0.000155    -0.000208
O      -1.41450165     10.02930236      5.50621481     -0.000177     0.000220    -0.000023
O      -1.60467751      6.34449410      8.31645777     -0.000096     0.000283    -0.000366
O      -4.25967868      8.98321983     10.79991077      0.000471    -0.000029     0.000576
O      -1.55702778     10.15319106     12.87217373      0.000017     0.000022    -0.000456
O      -3.78949242      8.48753657      6.53457018     -0.000097    -0.000418     0.000099
O      -1.04839425     10.06467694      9.38124993      0.000272     0.000069     0.000024
O      -1.56570905      6.57156300     11.88971128     -0.000076     0.000228     0.000029
O      -3.37288940      8.91683729     14.02146885     -0.000098    -0.000048    -0.000062
O       4.94307807      9.70693598      5.82961556     -0.000066    -0.000049     0.000165
O       4.44290064      6.29263404      8.30756721     -0.000111     0.000039    -0.000061
O       1.63925471      7.98536662     10.73514499      0.000142     0.000342     0.000169
O       4.57972851      9.74872009     12.92369983      0.000041     0.000097    -0.000110
O       1.30767715      8.11068449      7.16474056     -0.000090    -0.000026     0.000294
O       4.45792877      9.96908123      9.45934572     -0.000187    -0.000327    -0.000192
O       4.45884309      6.36889969     12.05603817     -0.000058     0.000256    -0.000001
O       1.27953002      8.24581573     14.29903688     -0.000092    -0.000020    -0.000150
O       9.65295970      9.57998225      6.03590527      0.000243     0.000420     0.000150
O      10.75986065      6.32508562      8.26416162     -0.000166    -0.000293     0.000066
O       7.85965734      8.18995897     10.99526146      0.000234     0.000253     0.000346
O      10.27783678      9.81926689     12.93534617     -0.000199    -0.000029    -0.000052
O       7.47854695      8.16889365      7.37872104      0.000147     0.000380     0.000163
O      10.82099255     10.07715309      9.34219244     -0.000060    -0.000296     0.000054
O      10.61813205      6.54190018     11.91264163      0.000138     0.000085    -0.000034
O      -3.57242147     14.07084153      6.41846685      0.000168     0.001074    -0.000390
O      -4.63045430     11.48735735      8.21982872      0.000040    -0.000026     0.000129
O      -6.07504156     13.37147282     11.01355646      0.000914     0.000355     0.000535
O      -3.42489247     14.63644776     14.28618252     -0.000164     0.000607     0.000153
O      -7.58244485     13.48121823      7.20198085      0.000241     0.000128    -0.000009
O      -4.48900032     11.60059745     11.93963241      0.000340     0.000198     0.000371
O      -6.92939196     13.83831616     14.41039331      0.000521     0.000439    -0.000151
O       0.76499055     13.67475028      6.35538000     -0.000600    -0.001084     0.000655
O       1.55271316     11.45475950      8.12644717      0.000136    -0.000271    -0.000107
O      -1.61507347     13.46851072     10.78291120     -0.000333    -0.000188     0.000039
O       1.35899166     14.35647702     13.64909629     -0.000097    -0.000145     0.000089
O      -1.53643421     12.71127661      7.37309624     -0.000434    -0.000740     0.000541
O       1.78181839     14.11806369      9.40256815      0.000221     0.000138     0.000413
O       1.62259967     11.20407674     11.74544904      0.000268     0.000009    -0.000057
O      -1.20557078     12.81771811     14.75001307     -0.000601     0.000077    -0.000092
O       7.13862901     13.85973518      6.64452640      0.000191     0.000409     0.000057
O       7.28223222     11.61066901      8.37197386     -0.000367     0.000037     0.000178
O       4.38726058     13.36833272      6.87018509      0.000117     0.000370    -0.000076
O       7.34553161     15.01240273      9.74261879      0.000205    -0.000024    -0.000069
O       4.48891369     12.85006518     14.71100333     -0.000177    -0.000344     0.000075
245
Frame 7  Energy = -11029.6906008479 Hartree
Cu      1.56535526      2.74938155      4.38023368      0.000202     0.000607    -0.000468
Cu     -1.62110296      4.62996569      7.53990100      0.000114    -0.000122     0.000266
Cu      4.42794596      1.55708459     10.26011156      0.000105     0.000105     0.000021
Cu      1.33506410      2.52977349     12.71748542      0.000346    -0.000030    -0.000331
Cu     -1.13418342      4.83717241     14.75007863      0.000019    -0.000028     0.000262
Cu      0.46906065      0.69852793      5.67321522     -0.000049    -0.000166     0.000178
Cu      3.05687588      2.07304892      7.59586221      0.000012     0.000040    -0.000026
Cu      0.35234934      3.70276568     10.09918549      0.000186    -0.000163     0.000183
Cu     -0.46850466      1.15083059     12.13585369     -0.000223     0.000240    -0.000354
Cu      2.44432239      2.57772868     14.43079654      0.000015     0.000139     0.000037
Cu      2.69936958      0.77007784      5.13976052     -0.000154    -0.000287     0.000024
Cu     -0.17761928      1.80786195      7.54186753     -0.000156     0.000201     0.000326
Cu      3.06735614      3.87929164      9.80297458     -0.000166    -0.000124    -0.000148
Cu      3.62109548      0.63588397     12.22552938     -0.000210    -0.000272     0.000029
Cu     -0.02419201      3.03838227     14.95749889     -0.000038    -0.000067     0.000549
Cu     -0.82013351      3.22906766      4.77666789      0.000229     0.000116    -0.000125
Cu      1.18257576      4.16452702      7.18834861     -0.000043    -0.000179    -0.000307
Cu      1.68037154      1.28839417     10.31335095     -0.000062    -0.000001     0.000236
Cu     -1.79624473      3.07072057     13.48860376     -0.000340    -0.000081     0.000065
Cu      1.52049504      4.64225976     14.79377455      0.000302     0.000274    -0.000009
Cu      7.35353375      3.34706075      5.10370634     -0.000185     0.000631     0.000005
Cu      4.74006596      4.58991417      7.66339375     -0.000077     0.000110    -0.000105
Cu     10.32662214      1.41433295     10.17603325     -0.000222     0.000145    -0.000155
Cu      7.72806901      2.55728679     12.38387395      0.000195     0.000280    -0.000369
Cu      3.97943325      4.69775571     14.74180925     -0.000225    -0.000036    -0.000164
Cu      6.34555526      0.95928888      4.89632756      0.000143    -0.000188    -0.000114
Cu      8.91198321      1.81864124      7.47381359     -0.000242    -0.000068     0.000135
Cu      6.06964143      4.53438016      9.70920148     -0.000058     0.000268     0.000320
Cu      5.86952059      0.67528797     12.47670894      0.000189    -0.000160    -0.000114
Cu      8.89991358      2.15781888     14.53889031      0.000173     0.000095    -0.000064
Cu      8.86626160      1.12852405      4.92193890      0.000031    -0.000116    -0.000130
Cu      5.87026517      2.00226663      7.66408383     -0.000016    -0.000007     0.000009
Cu      9.06151203      4.45146813      9.65494418      0.000248     0.000093    -0.000219
Cu      9.58739306      0.82590699     12.68512436     -0.000167    -0.000207     0.000016
Cu      6.55647924      2.38408884     14.60131037     -0.000338     0.000196     0.000227
Cu      4.36485422      2.05749320      5.19944309     -0.000025     0.000152     0.000135
Cu      7.38819270      4.19859510      7.91201342      0.000225    -0.000198     0.000017
Cu      7.69824640      0.98812822     10.41846603      0.000107    -0.000156     0.000139
Cu      4.79256960      2.69415219     12.50329885      0.000141     0.000587     0.000005
Cu      7.31331985      5.12146733     14.57611296      0.000116    -0.000200    -0.000034
Cu     13.48763129      3.01941596      5.09676903     -0.000228     0.000635     0.000080
Cu     10.99323279      4.47662769      7.28914477     -0.000007    -0.000336     0.000097
Cu     16.16787978      1.57887794     10.20493111      0.000422    -0.000183     0.000256
Cu     13.60401686      2.90595666     12.54249967     -0.000044    -0.000074    -0.000122
Cu     10.24233739      4.84636387     15.03648492     -0.000308    -0.000550     0.000005
Cu     12.60251472      0.54425133      5.56280991     -0.000246    -0.000083     0.000249
Cu     15.22061440      1.63525488      7.78627808     -0.000257    -0.000146    -0.000062
Cu     12.26656301      3.26713703      9.71490054      0.000008     0.000142    -0.000230
Cu     11.79686893      0.85003981     11.85189763      0.000276     0.000082    -0.000055
Cu     14.82332331      2.27783106     14.81643525      0.000352     0.000033    -0.000027
Cu     15.07536285      0.85811027      5.16298404      0.000464     0.000112     0.000014
Cu     11.85680086      1.47553563      7.66619421     -0.000058    -0.000193     0.000218
Cu     14.59778975      3.62349103     10.11623063     -0.000281     0.000278    -0.000006
Cu     15.48958872      0.76781743     12.34098704      0.000089     0.000272    -0.000100
Cu     11.90512222      1.78061424     14.42881124     -0.000524    -0.000179    -0.000152
Cu     10.55013002      2.61229322      5.30801532      0.000287     0.000081    -0.000032
Cu     13.38381148      4.66630244      7.31737123     -0.000112    -0.000143    -0.000118
Cu     13.65389320      0.90736592     10.49011112     -0.000220    -0.000175     0.000153
Cu     10.65498607      3.14363012     12.42596853      0.000156     0.000433    -0.000060
Cu     12.94026687      4.00139615     14.86990683     -0.000278    -0.000090    -0.000146
Cu     -1.29315207      8.09390316      5.20532665      0.000283     0.000307    -0.000006
Cu     -4.62255915      9.70704159      7.52746297      0.000146    -0.000147     0.000291
Cu      1.37346536      6.21131331     10.43330936      0.000002     0.000073     0.000122
Cu     -1.84094117      8.24150346     12.37210338      0.000039     0.000050    -0.000265
Cu     -4.40753582     10.78384618     14.67145512      0.000100    -0.000071     0.000003
Cu     -2.54812539      5.85794186      5.84798991     -0.000177    -0.000105     0.000066
Cu     -0.45171629      7.45634917      7.44161469      0.000044     0.000019    -0.000141
Cu     -2.47228051      9.48246348     10.17945930      0.000109     0.000191    -0.000036
Cu     -2.26206532      5.11033497     13.02485178      0.000097     0.000133     0.000043
Cu     -0.03581929      7.00211951     14.56599861      0.000481     0.000283    -0.000127
Cu     -0.06536471      5.69209837      4.87047306      0.000428     0.000171    -0.000069
Cu     -3.04322181      7.32303021      7.63365118     -0.000061     0.000049     0.000197
Cu      0.14758404      9.08017122     10.27594586      0.000149     0.000123     0.000077
Cu     -0.08748338      5.61252985     12.58545391     -0.000147     0.000249    -0.000232
Cu     -2.20189855      7.58324030     14.68224407     -0.000093    -0.000036    -0.000018
Cu     -4.63131014      8.69353510      4.90146830      0.000142     0.000337    -0.000050
Cu     -1.60942041      9.81552952      7.54751309      0.000002     0.000112    -0.000088
Cu     -1.21921711      6.21659618     10.08998959      0.000002    -0.000070    -0.000078
Cu     -4.59357292      8.27747211     12.58094640      0.000114     0.000147    -0.000066
Cu     -1.11460822      9.84267068     14.81065063      0.000263     0.000143    -0.000085
Cu      4.37615250      7.53295498      5.73788811     -0.000208     0.000392     0.000338
Cu      1.33399404      9.64019795      7.91970405     -0.000145    -0.000168     0.000014
Cu      7.75671325      6.08583593      9.76747273      0.000070     0.000275     0.000004
Cu      4.35266252      7.99390734     13.00020115     -0.000021    -0.000062     0.000232
Cu      1.55922119     10.14997090     14.69682542     -0.000018    -0.000468    -0.000196
Cu      2.91495084      5.99833144      5.08356530     -0.000362     0.000002     0.000062
Cu      5.91690099      6.91223941      7.47192977     -0.000193    -0.000118     0.000043
Cu      2.95123063      8.90438839      9.63582065      0.000117     0.000091    -0.000062
Cu      3.02547302      5.59183256     12.42842446      0.000121    -0.000048    -0.000299
Cu      6.81483736      7.20341081     13.95573000     -0.000126     0.000228    -0.000227
Cu      5.77458125      5.73813599      5.33496332     -0.000003    -0.000227     0.000175
Cu      2.91204847      7.31503976      7.51334460     -0.000068     0.000012    -0.000186
Cu      6.29032305      9.53137542     10.36689090      0.000156     0.000240     0.000094
Cu      6.07041866      5.31795225     12.45405867      0.000044    -0.000114    -0.000106
Cu      2.68803689      6.26941626     14.52433657     -0.000148    -0.000068     0.000040
Cu      1.17933384      7.97603808      5.50412703     -0.000216    -0.000228     0.000246
Cu      4.80686292      9.81056896      7.70723543     -0.000159    -0.000143     0.000101
Cu      3.91452547      6.21126390     10.11927059      0.000017     0.000142     0.000057
Cu      1.73803553      7.96115889     12.58781346      0.000062     0.000020    -0.000077
Cu      4.50007674     10.87131459     14.63251566      0.000062     0.000481    -0.000151
Cu     10.45075155      7.75524533      5.35434276      0.000304     0.000413     0.000197
Cu      7.42393369      9.94913553      7.50477914      0.000083    -0.000150     0.000217
Cu     13.06900989      6.18331856     10.23440539     -0.000162    -0.000160     0.000036
Cu     11.07322216      8.24499313     12.44582159     -0.000005     0.000141    -0.000017
Cu      7.10594703     10.06959658     14.93789516     -0.000061     0.000224     0.000389
Cu      8.98088605      5.92318566      5.31101340     -0.000145    -0.000205     0.000152
Cu     12.26115568      7.13175342      7.27022380      0.000001    -0.000036    -0.000154
Cu      9.41678966      8.99742651     10.09840245     -0.000007    -0.000153     0.000040
Cu      9.38520510      5.29008572     12.63172318      0.000069     0.000090    -0.000040
Cu     11.25692714      7.29035559     14.29447382     -0.000180     0.000369    -0.000252
Cu     11.34332595      5.73725416      5.33168361     -0.000060    -0.000174    -0.000103
Cu      9.25817204      7.43404217      7.60266318     -0.000100     0.000017     0.000085
Cu     11.87014097      8.78721837     10.37715123     -0.000027    -0.000177     0.000023
Cu     12.16788612      5.83801969     12.49765038      0.000082    -0.000029    -0.000070
Cu      9.03678728      6.97192259     14.63341856      0.000017    -0.000103    -0.000041
Cu      8.30417672      8.26877575      5.45227858      0.000100     0.000161     0.000086
Cu     10.74180963      9.84877204      7.37675847      0.000049    -0.000090     0.000209
Cu     10.84250303      6.35284046     10.17376974     -0.000124     0.000049     0.000020
Cu      8.01684276      8.72909563     12.99079843      0.000631     0.000077    -0.000338
Cu      9.80781386      9.86524399     14.64702488     -0.000436    -0.000158    -0.000162
Cu     -4.62057934     13.13585061      5.31587704      0.000129     0.000320    -0.000045
Cu     -7.54946304     14.87189353      8.34443144     -0.000018    -0.000032     0.000303
Cu     -1.39087901     11.67436446     10.25275227      0.000080     0.000029     0.000073
Cu     -4.84777641     13.33514647     12.55964400      0.000076     0.000264    -0.000104
Cu     -7.86724564     15.39633619     14.54740480     -0.000146     0.000108    -0.000150
Cu     -5.76608073     10.55065091      5.85262075     -0.000374    -0.000247     0.000168
Cu     -3.38729941     12.41476458      7.53487605     -0.000020    -0.000319    -0.000041
Cu     -5.57587481     14.59295474      9.57515645      0.000390    -0.000073     0.000179
Cu     -6.06059701     10.55885466     12.57864828      0.000012    -0.000002     0.000018
Cu     -3.26628456     12.67034786     14.64192538      0.000590     0.000042     0.000126
Cu     -3.46003427     10.81905634      4.45318892      0.000105    -0.000127    -0.000179
Cu     -6.15859887     12.53644791      7.92815584     -0.000037    -0.000115     0.000175
Cu     -3.21243840     13.74948447      9.49515362     -0.000063    -0.000041     0.000062
Cu     -3.32936789     10.38609131     12.66046475      0.000065    -0.000051    -0.000036
Cu     -5.83827074     12.31509135     14.87660716     -0.000373    -0.000162     0.000014
Cu     -7.44059945     13.19691573      5.37071784      0.000134    -0.000123    -0.000026
Cu     -4.37380394     14.85726086      7.90769136      0.000092    -0.000066    -0.000114
Cu     -4.74253549     11.42041604     10.14787233     -0.000082    -0.000053     0.000160
Cu     -7.17193209     13.56253454     12.37975268      0.000211     0.000075    -0.000003
Cu     -5.06290995     14.65674053     15.25298441     -0.000261    -0.000128    -0.000035
Cu      0.99206602     12.69727119      4.70273004      0.000065    -0.000115    -0.000044
Cu     -1.50863124     14.65727410      7.87368098     -0.000065    -0.000308    -0.000002
Cu      5.14177998     11.90946248     10.24331856      0.000117    -0.000531    -0.000062
Cu      1.59451408     12.74665353     12.64452015      0.000152    -0.000094    -0.000216
Cu     -1.70711912     14.91596253     14.82267216     -0.000076    -0.000159     0.000187
Cu      0.01720402     10.89324594      4.89461012     -0.000015    -0.000374    -0.000011
Cu      2.69267398     12.69759517      7.10382524     -0.000031     0.000021    -0.000353
Cu      0.06023000     14.07805166     10.10537488      0.000039    -0.000035     0.000001
Cu      0.02803056     10.84149189     12.35849760      0.000085    -0.000000    -0.000157
Cu      2.74020168     12.33319688     14.73399183      0.000137     0.000135    -0.000065
Cu      3.60154779     11.04784932      5.32768190      0.000105    -0.000025     0.000208
Cu      0.21653180     12.47830713      7.65209085     -0.000176    -0.000488     0.000162
Cu      3.65170284     14.04454002     10.11455762      0.000217     0.000051    -0.000206
Cu      3.17532261     10.75513581     12.63077959      0.000078    -0.000030     0.000091
Cu      0.33559527     12.25534104     14.53337634     -0.000187     0.000061    -0.000076
Cu     -1.42407786     12.79393409      5.35888772     -0.000108     0.000045     0.000308
Cu      1.36410114     14.79575751      7.66291566     -0.000044    -0.000253     0.000071
Cu      1.51645787     11.35853111      9.90904459     -0.000099    -0.000135     0.000028
Cu     -1.73891915     13.92774241     12.85068402     -0.000146    -0.000076    -0.000159
Cu      1.34810395     14.49167916     15.47935674     -0.000131    -0.000430     0.000345
Cu      7.45121986     12.84680829      4.76225414     -0.000050     0.000363    -0.000209
Cu      5.17877788     15.03068324      7.48599672      0.000290     0.000131    -0.000048
Cu      9.64415848     11.65025188     10.35176861     -0.000204    -0.000066     0.000047
Cu      7.84501150     13.00549330     12.28924753      0.000238    -0.000303    -0.000163
Cu      4.70024815     14.60260070     14.83897929      0.000118    -0.000474    -0.000309
Cu      6.33392600     10.95626063      5.54437740     -0.000135    -0.000469     0.000142
Cu      8.53278412     13.03620817      7.24545406      0.000077     0.000009    -0.000119
Cu      6.02785444     14.04674295      9.83441286      0.000100     0.000262     0.000119
Cu      6.46206785     10.40441915     12.67347728     -0.000113     0.000049    -0.000247
Cu      8.54850971     12.10409539     14.45947126      0.000154    -0.000427    -0.000218
Cu      8.65662116     10.97372511      5.74168453     -0.000117    -0.000130     0.000234
Cu      5.96346392     12.71156029      7.62124252     -0.000213    -0.000166     0.000065
Cu      8.69857075     13.63402650     10.45559989     -0.000138     0.000112     0.000104
Cu      8.83550502     11.05714917     12.43177643     -0.000199     0.000149    -0.000041
Cu      6.16324739     12.25806784     15.15302934     -0.000396    -0.000321     0.000236
Cu      4.96077167     12.79558196      5.15692906      0.000235     0.000072    -0.000056
Cu      7.66607739     15.22915557      7.97797780     -0.000127     0.000052     0.000158
Cu      7.41768269     11.85195446     10.36549328     -0.000257    -0.000158     0.000048
Cu      4.38052351     13.29961568     12.11871601     -0.000138     0.000057     0.000374
Cu      7.28066945     14.19638719     13.92843380     -0.000191     0.000186    -0.000325
O       1.20044201      4.29808467      5.15416400      0.000163    -0.000107    -0.000008
O       1.48619647      1.69261863      8.53415688      0.000044    -0.000390     0.000108
O      -0.63948909      2.97954956     11.47567333     -0.000733     0.000195    -0.000171
O       1.49354617      4.80109702     12.73097703      0.000105    -0.000010    -0.000428
O      -1.25223652      3.06867839      6.68802508      0.000249     0.000104    -0.000076
O       1.57161213      4.83751751      9.32306232     -0.000066    -0.000188     0.000277
O       1.75098141      0.88549231     12.16285208     -0.000170     0.000135    -0.000006
O       7.55644700      4.78242142      6.24379437      0.000381     0.000862     0.000001
O       7.38660346      1.78615980      8.61259915     -0.000491     0.000353     0.000426
O       4.80679664      3.60198159     10.50678111     -0.000094     0.000138    -0.000066
O       7.72288591      4.37975127     12.74111559     -0.000050     0.000065    -0.000328
O       4.53428740      2.93156901      6.92550914      0.000051     0.000212     0.000186
O       7.73660830      0.82739508     12.28697102     -0.000113    -0.000083    -0.000183
O       4.92949374      3.15351491     14.24585099     -0.000036     0.000404    -0.000129
O      12.47001380      4.43657381      5.72756209      0.000363     0.000165    -0.000158
O      13.43411789      1.20597341      8.67039359      0.000181     0.000264     0.000592
O      10.40661442      3.54726602     10.42685294      0.000190    -0.000140     0.000061
O      13.37912082      4.65904005     13.01004033      0.000225    -0.000157     0.000173
O      10.45036285      2.61745423      7.26340386      0.000018     0.000193     0.000239
O      13.67157153      4.82592919      9.07341967     -0.000301     0.000300    -0.000222
O      13.53038584      1.08614067     12.57920200      0.000104     0.000358     0.000100
O      10.44548313      3.08272890     14.23523196      0.000035     0.000223    -0.000230
O      -1.58043324     10.06720396      5.54092221     -0.000520    -0.000000     0.000149
O      -1.67749711      6.38289812      8.24820223     -0.000197    -0.000129     0.000098
O      -3.95719717      8.99097378     10.96705637      0.000915     0.000082     0.000180
O      -1.45635611     10.11123739     12.67641144      0.000193    -0.000307    -0.000367
O      -3.88881198      8.37667049      6.55124723     -0.000418    -0.000063    -0.000014
O      -0.98574326     10.08961359      9.38999178      0.000029     0.000040     0.000015
O      -1.53312436      6.59204453     11.88897014      0.000217    -0.000172    -0.000063
O      -3.48016198      8.84414336     14.03035115     -0.000311    -0.000235     0.000102
O       4.88279473      9.68908766      5.96056140     -0.000212    -0.000063     0.000405
O       4.36218001      6.35890730      8.31318850     -0.000273     0.000228     0.000103
O       1.66773070      8.09791105     10.77013946     -0.000011     0.000148    -0.000044
O       4.61583382      9.80742266     12.97441602      0.000162     0.000066     0.000374
O       1.26974960      8.04122270      7.34698200     -0.000084    -0.000354     0.000479
O       4.37945709      9.82100754      9.38822401     -0.000053    -0.000251    -0.000047
O       4.51982095      6.50703997     12.01883500      0.000282     0.000275    -0.000189
O       1.27459331      8.21935876     14.24097686      0.000104    -0.000071    -0.000118
O       9.72435385      9.62099996      5.92847234      0.000264    -0.000276    -0.000577
O      10.66369808      6.24804102      8.32793923     -0.000264    -0.000025     0.000218
O       7.97443757      8.29382979     11.03204320      0.000307     0.000231    -0.000206
O      10.21851308      9.76842542     12.86541141     -0.000143    -0.000154    -0.000292
O       7.53218967      8.16570160      7.43708069      0.000127    -0.000441     0.000103
O      10.73322214      9.91512319      9.33005803     -0.000315    -0.000439    -0.000116
O      10.63279203      6.54997097     11.90657686     -0.000056    -0.000044     0.000056
O      -3.51585100     14.45327108      6.27954389      0.000130     0.000656    -0.000250
O      -4.71525621     11.39150420      8.32216806     -0.000422    -0.000389     0.000288
O      -5.76666788     13.62082276     11.06392061      0.000425     0.000779    -0.000297
O      -3.52154868     14.80515867     14.22007308     -0.000275     0.000165    -0.000456
O      -7.47204623     13.46424450      7.13286765      0.000252    -0.000042    -0.000159
O      -4.32574835     11.55876358     12.08456360      0.000182    -0.000092     0.000175
O      -6.70140456     14.00084129     14.33880543      0.000447     0.000400    -0.000171
O       0.67850116     13.58441601      6.33489813      0.000136     0.000608    -0.000676
O       1.60466240     11.35070729      8.11799335      0.000074    -0.000150     0.000039
O      -1.71689264     13.39913532     10.76409621     -0.000104    -0.000104    -0.000108
O       1.33856226     14.24356937     13.61110291      0.000002    -0.000367    -0.000054
O      -1.63467737     12.39557166      7.65844871      0.000113    -0.000725     0.000770
O       1.83149307     14.20681527      9.55504147     -0.000045     0.000245     0.000233
O       1.63792964     11.25359349     11.72527018     -0.000132     0.000139    -0.000013
O      -1.51373470     12.88106251     14.67104453     -0.000482     0.000129    -0.000281
O       7.17356170     14.23143638      6.47587334      0.000018     0.001088    -0.000674
O       7.18310171     11.58656001      8.43736647     -0.000068    -0.000135     0.000069
O       4.34372028     13.49817895      6.86354123     -0.000294     0.000199    -0.000003
O       7.56228799     15.03576791      9.76737213      0.000733     0.000064     0.000251
O       4.42092013     12.76162178     14.73098655     -0.000049     0.000035     0.000039
245
Frame 8  Energy = -11029.7994177934 Hartree
Cu      1.67330352      2.93999395      4.18169966      0.000313     0.000330    -0.000468
Cu     -1.56821447      4.56603898      7.65443460      0.000131    -0.000177     0.000276
Cu      4.48069322      1.59179809     10.26962610      0.000147     0.000059     0.000035
Cu      1.45919137      2.56241621     12.56519975      0.000265     0.000182    -0.000380
Cu     -1.12211362      4.86152410     14.89657775      0.000036     0.000129     0.000409
Cu      0.44236462      0.64687799      5.73014614     -0.000084    -0.000071     0.000107
Cu      3.04848801      2.08333053      7.59083788     -0.000054     0.000007     0.000001
Cu      0.41018764      3.63598438     10.18582717      0.000069    -0.000164     0.000243
Cu     -0.56239516      1.23935770     11.98215393     -0.000224     0.000196    -0.000386
Cu      2.48226225      2.62783282     14.49472497      0.000139     0.000100     0.000247
Cu      2.63333315      0.64217880      5.13879601     -0.000150    -0.000307    -0.000034
Cu     -0.23471946      1.89909038      7.69417995     -0.000111     0.000226     0.000398
Cu      3.00698857      3.83156075      9.74818148     -0.000106    -0.000106    -0.000109
Cu      3.52226237      0.52937255     12.24616133     -0.000253    -0.000228     0.000063
Cu     -0.01633049      2.98307423     15.18375173      0.000070    -0.000178     0.000530
Cu     -0.73519398      3.27449467      4.74784704      0.000187     0.000103    -0.000016
Cu      1.15949483      4.09045215      7.06865913     -0.000068    -0.000176    -0.000252
Cu      1.66126486      1.28247987     10.39872303     -0.000026    -0.000028     0.000136
Cu     -1.92917800      3.00635387     13.49685566     -0.000294    -0.000204    -0.000007
Cu      1.59066069      4.70389666     14.81231228      0.000012     0.000004     0.000096
Cu      7.27904317      3.55904806      5.09739267     -0.000170     0.000402    -0.000029
Cu      4.69974498      4.64363467      7.61688390     -0.000115     0.000175    -0.000100
Cu     10.24142716      1.48063163     10.11442224     -0.000181     0.000170    -0.000134
Cu      7.79672983      2.69454106     12.24810141      0.000133     0.000324    -0.000277
Cu      3.91429699      4.65457005     14.68132849     -0.000116    -0.000126    -0.000116
Cu      6.40797470      0.89736273      4.85106481      0.000152    -0.000099    -0.000100
Cu      8.79589629      1.79216580      7.54289503     -0.000289    -0.000046     0.000188
Cu      6.05605881      4.65029628      9.84537084     -0.000013     0.000287     0.000330
Cu      5.93862617      0.60477358     12.42823427      0.000118    -0.000164    -0.000118
Cu      8.94427752      2.19725644     14.52662209      0.000041     0.000102    -0.000007
Cu      8.86568469      1.09566807      4.87033151     -0.000024    -0.000032    -0.000113
Cu      5.86136929      1.99206149      7.67137455     -0.000030    -0.000040     0.000025
Cu      9.18648018      4.47352299      9.56751659      0.000352     0.000020    -0.000194
Cu      9.52823335      0.72740393     12.67337830     -0.000106    -0.000259    -0.000067
Cu      6.43541843      2.46455786     14.68774546     -0.000242     0.000196     0.000179
Cu      4.36506524      2.13711989      5.24909197      0.000016     0.000218     0.000103
Cu      7.48963911      4.12094644      7.92653849      0.000258    -0.000169     0.000044
Cu      7.73175116      0.92428309     10.44629943      0.000050    -0.000148    -0.000026
Cu      4.83837834      2.93478488     12.49071688      0.000084     0.000554    -0.000082
Cu      7.37614159      5.02617519     14.56065572      0.000190    -0.000249    -0.000049
Cu     13.41967373      3.21666010      5.11562756     -0.000064     0.000261    -0.000020
Cu     10.97139596      4.34366188      7.34875896     -0.000092    -0.000267     0.000191
Cu     16.33523668      1.52187434     10.30010162      0.000382    -0.000087     0.000192
Cu     13.57726965      2.90693973     12.50800778     -0.000079     0.000073    -0.000045
Cu     10.11119917      4.64228989     15.04145663     -0.000339    -0.000410     0.000030
Cu     12.52468718      0.52177799      5.65248304     -0.000122    -0.000023     0.000180
Cu     15.09663728      1.56726303      7.76024672     -0.000332    -0.000184    -0.000067
Cu     12.25047896      3.33531296      9.61272055     -0.000089     0.000187    -0.000256
Cu     11.86949504      0.87711882     11.84316909      0.000049     0.000054     0.000022
Cu     14.93644771      2.30384308     14.78778315      0.000198     0.000096    -0.000121
Cu     15.24011022      0.92382158      5.17740058      0.000320     0.000206     0.000065
Cu     11.84241794      1.39800568      7.77975787     -0.000009    -0.000176     0.000326
Cu     14.52004650      3.72467220     10.11465265     -0.000093     0.000212     0.000001
Cu     15.52443934      0.88055743     12.30689249      0.000081     0.000269    -0.000063
Cu     11.71310250      1.70214151     14.36497532     -0.000416    -0.000210    -0.000167
Cu     10.68495388      2.64720072      5.30340676      0.000356     0.000079     0.000009
Cu     13.35326716      4.61896324      7.27174387     -0.000019    -0.000072    -0.000061
Cu     13.58464360      0.83708567     10.54653281     -0.000089    -0.000165     0.000131
Cu     10.72027834      3.31748587     12.36850414      0.000160     0.000397    -0.000215
Cu     12.83682061      3.95482937     14.80453325     -0.000226    -0.000133    -0.000171
Cu     -1.18604766      8.19880352      5.20093866      0.000228     0.000202    -0.000014
Cu     -4.55022385      9.64874207      7.67233729      0.000183    -0.000126     0.000391
Cu      1.38043365      6.25188434     10.47672877      0.000032     0.000101     0.000073
Cu     -1.80982176      8.25795062     12.25504684      0.000117    -0.000024    -0.000310
Cu     -4.36591119     10.71819916     14.68660879      0.000093    -0.000224     0.000070
Cu     -2.59437142      5.82543348      5.84144915     -0.000042    -0.000052    -0.000079
Cu     -0.44649949      7.45144509      7.38449108     -0.000053    -0.000057    -0.000124
Cu     -2.41094280      9.56429887     10.13668870      0.000190     0.000204    -0.000182
Cu     -2.26299305      5.19408430     13.01996881     -0.000084     0.000250    -0.000043
Cu      0.13465095      7.10408760     14.52791359      0.000312     0.000189    -0.000052
Cu      0.09924411      5.78368890      4.85194092      0.000357     0.000274    -0.000024
Cu     -3.07360352      7.34613853      7.72147544     -0.000087     0.000064     0.000207
Cu      0.21262952      9.14057611     10.30786717      0.000161     0.000161     0.000076
Cu     -0.11066328      5.71627572     12.48001518      0.000079     0.000220    -0.000247
Cu     -2.24241564      7.56379233     14.66905710     -0.000090    -0.000059    -0.000051
Cu     -4.57354967      8.83013115      4.86677154      0.000133     0.000317    -0.000110
Cu     -1.60420579      9.87531032      7.51322138      0.000020     0.000171    -0.000081
Cu     -1.23109031      6.18912823     10.05736356     -0.000056    -0.000065    -0.000062
Cu     -4.55853329      8.32297509     12.55518564      0.000051     0.000068    -0.000058
Cu     -1.00798754      9.90218455     14.75022293      0.000249     0.000138    -0.000206
Cu      4.30179864      7.71405221      5.85596860     -0.000150     0.000468     0.000219
Cu      1.27788673      9.58031068      7.92188670     -0.000120    -0.000131    -0.000004
Cu      7.78408646      6.23456899      9.77876629      0.000070     0.000427     0.000045
Cu      4.35764349      7.97657860     13.09145403      0.000048    -0.000037     0.000200
Cu      1.54210411      9.96570412     14.61405050     -0.000061    -0.000390    -0.000193
Cu      2.75571546      5.99190354      5.11085866     -0.000396    -0.000026     0.000079
Cu      5.85099668      6.88894079      7.49714597     -0.000133     0.000001     0.000081
Cu      2.96613293      8.91346411      9.63620337     -0.000023    -0.000032     0.000055
Cu      3.07670218      5.57652281     12.29247966      0.000118    -0.000018    -0.000328
Cu      6.74922388      7.30892751     13.87344893     -0.000170     0.000272    -0.000174
Cu      5.75879833      5.64374352      5.40986614     -0.000077    -0.000218     0.000193
Cu      2.88665027      7.31332033      7.44954488     -0.000047    -0.000028    -0.000109
Cu      6.35306977      9.61309691     10.39851041      0.000148     0.000134     0.000053
Cu      6.09469581      5.28309952     12.40196198      0.000073    -0.000041    -0.000143
Cu      2.63745662      6.35426459     14.54458740     -0.000077     0.000473     0.000038
Cu      1.09367168      7.87462246      5.59754721     -0.000185    -0.000257     0.000207
Cu      4.73264541      9.74092561      7.73867107     -0.000197    -0.000189     0.000089
Cu      3.94379292      6.28302332     10.14572557      0.000127     0.000202     0.000067
Cu      1.76476945      7.97515828     12.54421287      0.000072     0.000046    -0.000153
Cu      4.52007797     11.00660078     14.55907714      0.000012     0.000166    -0.000210
Cu     10.59582539      7.92705208      5.43957813      0.000402     0.000351     0.000204
Cu      7.44625604      9.88998454      7.63115679      0.000025    -0.000166     0.000381
Cu     13.02523982      6.12387373     10.24177129     -0.000063    -0.000113     0.000010
Cu     11.05088164      8.32486665     12.40344159     -0.000091     0.000219    -0.000192
Cu      7.09143927     10.14859217     15.08627741     -0.000009     0.000151     0.000319
Cu      8.93781258      5.84464563      5.37032414     -0.000015    -0.000143     0.000109
Cu     12.24862519      7.11173278      7.21145383     -0.000059    -0.000063    -0.000132
Cu      9.39303397      8.92190909     10.11175280     -0.000068    -0.000197    -0.000003
Cu      9.38978002      5.34781843     12.61429292     -0.000063     0.000183    -0.000034
Cu     11.18905786      7.41464406     14.25019088     -0.000146     0.000234     0.000037
Cu     11.31098545      5.68552236      5.26735302     -0.000104    -0.000073    -0.000196
Cu      9.22390931      7.41566729      7.66446057     -0.000049    -0.000117     0.000220
Cu     11.87493092      8.71535925     10.36847542      0.000047    -0.000169    -0.000073
Cu     12.21536783      5.80487302     12.47291473      0.000151    -0.000134    -0.000039
Cu      9.03642440      6.92286384     14.62382698     -0.000027    -0.000136    -0.000012
Cu      8.32019902      8.34630394      5.48943927     -0.000017     0.000210     0.000100
Cu     10.74978148      9.80317424      7.46825745     -0.000023    -0.000135     0.000181
Cu     10.76094936      6.37706026     10.15187209     -0.000264     0.000076    -0.000090
Cu      8.28885731      8.75564769     12.85405827      0.000662     0.000036    -0.000320
Cu      9.62483497      9.78538994     14.58734877     -0.000439    -0.000230    -0.000126
Cu     -4.55797950     13.25624331      5.30565840      0.000177     0.000261    -0.000002
Cu     -7.55981241     14.85247756      8.45453010     -0.000027    -0.000065     0.000231
Cu     -1.34627786     11.68726457     10.27403389      0.000135     0.000041     0.000025
Cu     -4.75376194     13.45389504     12.56311437      0.000374     0.000315     0.000101
Cu     -7.91556720     15.42933849     14.48421681     -0.000096     0.000061    -0.000155
Cu     -5.92045194     10.49449497      5.89198060     -0.000360    -0.000035     0.000038
Cu     -3.40955642     12.28002327      7.51125533     -0.000076    -0.000333    -0.000057
Cu     -5.40336248     14.58851459      9.62395699      0.000456     0.000083    -0.000012
Cu     -6.04173379     10.57099062     12.59364171      0.000078     0.000062     0.000058
Cu     -3.10708610     12.69876704     14.69918378      0.000179     0.000078     0.000150
Cu     -3.43313305     10.77885003      4.40186640      0.000025    -0.000058    -0.000067
Cu     -6.16440121     12.47233776      7.99579091     -0.000006    -0.000184     0.000145
Cu     -3.22660749     13.73467374      9.55256863     -0.000008    -0.000033     0.000203
Cu     -3.25037357     10.34439471     12.65865821      0.000257    -0.000074    -0.000001
Cu     -6.00154064     12.26253915     14.87200246     -0.000401    -0.000097    -0.000042
Cu     -7.38186304     13.14014788      5.34534488      0.000150    -0.000149    -0.000072
Cu     -4.32598438     14.84305129      7.82119521      0.000138    -0.000010    -0.000285
Cu     -4.76654044     11.40060291     10.23462405     -0.000033    -0.000042     0.000238
Cu     -7.09460495     13.60199680     12.37953682      0.000159     0.000118     0.000003
Cu     -5.15649586     14.61651119     15.23164433     -0.000161    -0.000062    -0.000065
Cu      1.03953900     12.67835904      4.69885637      0.000143    -0.000000     0.000030
Cu     -1.54520344     14.51504125      7.85583007     -0.000114    -0.000375    -0.000087
Cu      5.16859945     11.70913365     10.23032330     -0.000012    -0.000418     0.000005
Cu      1.66650734     12.75499982     12.54850327      0.000192     0.000132    -0.000242
Cu     -1.74620444     14.86077643     14.92460753     -0.000122    -0.000114     0.000276
Cu     -0.01218323     10.70280773      4.89690472     -0.000126    -0.000512     0.000028
Cu      2.68745100     12.69227411      6.95336722     -0.000019    -0.000057    -0.000366
Cu      0.07368283     14.06021068     10.11137262      0.000022    -0.000052     0.000032
Cu      0.07098372     10.83807843     12.27608360      0.000056    -0.000040    -0.000217
Cu      2.72678318     12.38570611     14.70970023     -0.000180     0.000121    -0.000059
Cu      3.63091196     11.02901804      5.41597305      0.000045    -0.000054     0.000213
Cu      0.12953601     12.26836480      7.70751757     -0.000195    -0.000493     0.000090
Cu      3.73492869     14.07518972     10.02588001      0.000176     0.000092    -0.000210
Cu      3.18403232     10.74423751     12.64860365     -0.000019    -0.000034     0.000000
Cu      0.23055327     12.27277324     14.51575788     -0.000254     0.000003    -0.000023
Cu     -1.47515777     12.82270426      5.50196269     -0.000125     0.000088     0.000377
Cu      1.33904105     14.68497159      7.69712785     -0.000080    -0.000279     0.000093
Cu      1.47425946     11.30658613      9.92258200     -0.000098    -0.000104     0.000021
Cu     -1.80657702     13.88344873     12.74881690     -0.000181    -0.000125    -0.000317
Cu      1.29151187     14.30799734     15.59893497     -0.000143    -0.000451     0.000234
Cu      7.42500387     13.00614384      4.69689530     -0.000073     0.000396    -0.000097
Cu      5.30068451     15.09584371      7.45577714      0.000292     0.000165    -0.000112
Cu      9.60842770     11.60385161     10.35451349      0.000019    -0.000147    -0.000037
Cu      7.92341729     12.89872507     12.25271554      0.000124    -0.000182    -0.000005
Cu      4.76160613     14.43380570     14.69365475      0.000198    -0.000215    -0.000393
Cu      6.27839517     10.76093667      5.58701726     -0.000127    -0.000456     0.000061
Cu      8.55933912     13.03746444      7.18907809      0.000033     0.000017    -0.000158
Cu      6.06696616     14.15885260      9.89984325      0.000101     0.000279     0.000193
Cu      6.40933200     10.42825824     12.57144871     -0.000134     0.000066    -0.000233
Cu      8.59595468     11.94279790     14.39837998      0.000067    -0.000337    -0.000062
Cu      8.60879219     10.93672080      5.82150665     -0.000091    -0.000073     0.000149
Cu      5.86526071     12.63811514      7.64632599     -0.000262    -0.000184     0.000057
Cu      8.67006180     13.72724884     10.46636604      0.000033     0.000263    -0.000029
Cu      8.78258185     11.07964586     12.41091012     -0.000043    -0.000059    -0.000069
Cu      6.07736302     12.15102209     15.27014514      0.000016    -0.000180     0.000346
Cu      5.06090249     12.85239472      5.13717790      0.000244     0.000190    -0.000031
Cu      7.61878663     15.25734917      8.03221963     -0.000087     0.000081     0.000109
Cu      7.28929480     11.75934778     10.36278894     -0.000323    -0.000263    -0.000058
Cu      4.32476165     13.31206075     12.27743734     -0.000129     0.000004     0.000381
Cu      7.18567281     14.27992512     13.81342552     -0.000262     0.000196    -0.000242
O       1.26478393      4.43928847      5.25565558      0.000207     0.000633     0.000349
O       1.50568105      1.54173920      8.56226370      0.000035    -0.000309     0.000049
O      -0.94395340      3.07280410     11.42234830     -0.000674     0.000235    -0.000104
O       1.51246634      4.77733744     12.51021327     -0.000008    -0.000078    -0.000583
O      -1.12450248      3.13763126      6.65581870      0.000368     0.000207    -0.000058
O       1.55021723      4.72820001      9.34049354     -0.000081    -0.000233    -0.000218
O       1.66290618      0.84433176     12.10751151     -0.000275    -0.000328    -0.000133
O       7.68790156      5.12442249      6.25769672      0.000067     0.000558     0.000169
O       7.28084356      1.87820413      8.81109514      0.000011     0.000084     0.000463
O       4.68532875      3.59474517     10.49333900     -0.000438    -0.000171     0.000004
O       7.68380112      4.43524614     12.60154731     -0.000076     0.000234    -0.000322
O       4.50990123      3.03616213      6.99702487     -0.000161     0.000209     0.000125
O       7.73588923      0.81766909     12.20277392      0.000147     0.000175    -0.000119
O       4.88510566      3.31841375     14.21956821     -0.000036     0.000244    -0.000017
O      12.56609737      4.54377547      5.72727035     -0.000106     0.000564     0.000134
O      13.47097613      1.36763262      8.85917542     -0.000060     0.000526     0.000236
O      10.51012377      3.43160256     10.51550238      0.000271    -0.000363     0.000335
O      13.49025971      4.56269407     13.06778328      0.000251    -0.000180     0.000102
O      10.49544774      2.64914768      7.29133430      0.000051    -0.000217    -0.000080
O      13.53476009      4.89259720      9.04698446     -0.000314    -0.000068     0.000007
O      13.63527283      1.14710140     12.61974143      0.000362    -0.000146     0.000118
O      10.54496952      3.14942402     14.16365392      0.000430     0.000016    -0.000148
O      -1.75805932     10.05481152      5.59906835     -0.000278    -0.000051     0.000115
O      -1.72071759      6.27956583      8.34672771     -0.000033    -0.000255     0.000223
O      -3.69398639      8.98090610     11.03842403      0.000199    -0.000197     0.000244
O      -1.43655027      9.92915385     12.64235177      0.000092    -0.000386     0.000234
O      -4.06699041      8.34844568      6.59847913     -0.000361    -0.000186     0.000275
O      -0.97688786     10.06800420      9.40331775      0.000132    -0.000136     0.000022
O      -1.47265088      6.53610390     11.82877814     -0.000076     0.000084    -0.000252
O      -3.58466550      8.76351171     14.11437265     -0.000207    -0.000128     0.000300
O       4.77474856      9.62415667      6.05086731     -0.000304    -0.000283    -0.000072
O       4.25669722      6.43804757      8.37560518     -0.000167     0.000125     0.000146
O       1.65065120      8.09012251     10.70491014     -0.000040    -0.000156    -0.000217
O       4.68603824      9.77672727     13.21549348      0.000102    -0.000190     0.000706
O       1.25997788      7.87540219      7.51939137      0.000026    -0.000314     0.000356
O       4.49803147      9.82913011      9.47217929      0.000500     0.000189     0.000417
O       4.61494775      6.53584000     11.90878679      0.000127    -0.000107    -0.000280
O       1.42477660      8.24445710     14.20296194      0.000660     0.000163    -0.000077
O       9.92745375      9.46349195      5.69449699      0.000572    -0.000188    -0.000405
O      10.56099329      6.31088270      8.40196798     -0.000211     0.000293     0.000062
O       8.03878319      8.33554584     10.85746004     -0.000203    -0.000135    -0.000473
O      10.10041912      9.75860169     12.72494176     -0.000461     0.000142    -0.000353
O       7.56145389      7.92264113      7.44410497     -0.000065    -0.000517    -0.000096
O      10.63162010      9.76352104      9.26871182     -0.000108    -0.000251    -0.000089
O      10.61226174      6.52342485     11.95185098      0.000028    -0.000056     0.000094
O      -3.44972370     14.57570338      6.21080260      0.000215    -0.000072    -0.000103
O      -4.90736847     11.22966177      8.40913339     -0.000430    -0.000342     0.000162
O      -5.79333941     13.82836640     11.07521408     -0.000556     0.000087     0.000645
O      -3.61930109     14.75235166     13.95630432     -0.000169    -0.000454    -0.000751
O      -7.38620209     13.52494964      7.14911757      0.000185     0.000312     0.000171
O      -4.42633699     11.63573868     12.05135698     -0.000457     0.000210    -0.000168
O      -6.67182997     14.15475821     14.26443171     -0.000342     0.000243    -0.000201
O       0.73238869     13.85576114      6.12372943      0.000059     0.000550    -0.000263
O       1.60897407     11.34833881      8.10679706     -0.000037     0.000075    -0.000122
O      -1.67822620     13.40509036     10.72691990      0.000290     0.000137    -0.000045
O       1.36330531     14.08191149     13.69791563      0.000131    -0.000392     0.000494
O      -1.53863680     12.16062583      7.94577806      0.000066    -0.000376     0.000566
O       1.75357101     14.29409840      9.56617089     -0.000261     0.000158    -0.000174
O       1.61730784     11.23427449     11.71302458      0.000163    -0.000245    -0.000094
O      -1.32296284     12.92220158     14.53130285      0.001067     0.000158    -0.000376
O       7.21173842     14.62326332      6.21602204      0.000174     0.000729    -0.000471
O       7.23672394     11.52466025      8.39456868      0.000308    -0.000120    -0.000288
O       4.24780455     13.53613799      6.85199954     -0.000021     0.000023    -0.000048
O       7.79987467     15.06041771      9.88690099      0.000204     0.000232     0.000135
O       4.45518402     12.83874734     14.75010976      0.000002    -0.000135     0.000070
245
Frame 9  Energy = -11029.8300332624 Hartree
Cu      1.81437356      3.03443399      4.00791651      0.000361     0.000131    -0.000365
Cu     -1.52152935      4.49345346      7.75894402      0.000088    -0.000163     0.000219
Cu      4.54567925      1.60100565     10.29563516      0.000163    -0.000022     0.000096
Cu      1.56236802      2.65203585     12.41960474      0.000240     0.000221    -0.000309
Cu     -1.10825352      4.92982724     15.06435376      0.000026     0.000189     0.000383
Cu      0.39620396      0.64554394      5.76747203     -0.000140     0.000068     0.000079
Cu      3.01066992      2.07734449      7.59756935     -0.000131    -0.000038     0.000034
Cu      0.40106811      3.57173371     10.29391720     -0.000111    -0.000135     0.000261
Cu     -0.64854105      1.31895786     11.81896711     -0.000185     0.000193    -0.000399
Cu      2.54101630      2.65405741     14.61289418      0.000136     0.000018     0.000304
Cu      2.58511082      0.53268685      5.10950037     -0.000076    -0.000209    -0.000107
Cu     -0.26544400      1.98347609      7.86234683     -0.000037     0.000170     0.000409
Cu      2.98099116      3.79695500      9.71220124     -0.000041    -0.000050    -0.000073
Cu      3.41701087      0.45131679     12.27210830     -0.000256    -0.000149     0.000058
Cu      0.02448642      2.90713408     15.38583724      0.000117    -0.000177     0.000440
Cu     -0.65847870      3.31568437      4.76094895      0.000193     0.000098     0.000075
Cu      1.12423051      4.02168478      6.99630666     -0.000107    -0.000152    -0.000106
Cu      1.65988300      1.26191691     10.40503780      0.000017    -0.000081    -0.000088
Cu     -2.03284496      2.92211637     13.49390468     -0.000201    -0.000187    -0.000000
Cu      1.54189945      4.66820093     14.86544534     -0.000222    -0.000132     0.000151
Cu      7.21764764      3.68230447      5.08208227     -0.000121     0.000192    -0.000044
Cu      4.64520107      4.73843646      7.59085911     -0.000155     0.000253    -0.000026
Cu     10.18155652      1.54750067     10.06974132     -0.000107     0.000140    -0.000079
Cu      7.83808256      2.80424763     12.15958425      0.000072     0.000216    -0.000148
Cu      3.85831611      4.62905193     14.65158867     -0.000153     0.000002    -0.000037
Cu      6.46761365      0.88211952      4.81701667      0.000131     0.000027    -0.000062
Cu      8.68571151      1.78356670      7.62342250     -0.000234     0.000001     0.000195
Cu      6.05222608      4.76514353      9.97371252     -0.000008     0.000264     0.000278
Cu      5.96237542      0.54809760     12.37949277      0.000001    -0.000103    -0.000121
Cu      8.93555294      2.24636106     14.52360075     -0.000081     0.000136    -0.000016
Cu      8.85270832      1.10599161      4.83226684     -0.000035     0.000084    -0.000071
Cu      5.84942811      1.97269471      7.68861536     -0.000024    -0.000050     0.000063
Cu      9.34462717      4.47280477      9.49747716      0.000400    -0.000018    -0.000143
Cu      9.51058748      0.61850497     12.63789314      0.000032    -0.000263    -0.000095
Cu      6.36587320      2.54308020     14.74762773     -0.000062     0.000167     0.000127
Cu      4.37110323      2.22879327      5.28143274      0.000008     0.000218     0.000051
Cu      7.59388257      4.06456531      7.94591406      0.000236    -0.000099     0.000052
Cu      7.73840899      0.86757206     10.39647327     -0.000015    -0.000127    -0.000184
Cu      4.86163543      3.14681859     12.43076391      0.000022     0.000468    -0.000210
Cu      7.47025369      4.91974443     14.53261567      0.000262    -0.000268    -0.000086
Cu     13.42170842      3.25829731      5.08642985      0.000047    -0.000009    -0.000100
Cu     10.92051317      4.26474304      7.44177012     -0.000156    -0.000141     0.000244
Cu     16.48385388      1.50813218     10.35702009      0.000342     0.000020     0.000081
Cu     13.54750656      2.92672348     12.49959675     -0.000053    -0.000007    -0.000000
Cu      9.95460252      4.51198307     15.06346269     -0.000416    -0.000239     0.000065
Cu     12.50517286      0.52813652      5.71052499      0.000031     0.000057     0.000103
Cu     14.95283431      1.48491046      7.72643865     -0.000361    -0.000212    -0.000101
Cu     12.19229829      3.41879929      9.51222804     -0.000191     0.000206    -0.000214
Cu     11.83370621      0.89928556     11.87585765     -0.000209     0.000057     0.000133
Cu     14.99085918      2.35667461     14.71428382      0.000072     0.000155    -0.000233
Cu     15.33605258      1.02567926      5.21809442      0.000144     0.000281     0.000129
Cu     11.84648259      1.33453468      7.92631137      0.000014    -0.000127     0.000365
Cu     14.52102196      3.79563926     10.12139532      0.000097     0.000124     0.000039
Cu     15.56051681      0.98753534     12.28855807      0.000103     0.000247    -0.000028
Cu     11.55849963      1.59231946     14.28558714     -0.000327    -0.000351    -0.000217
Cu     10.83800747      2.67217731      5.31204656      0.000376     0.000039     0.000028
Cu     13.37270128      4.61097926      7.28426299      0.000102     0.000029     0.000098
Cu     13.59140255      0.77127871     10.59105289      0.000118    -0.000148     0.000070
Cu     10.79112329      3.46081504     12.27616082      0.000191     0.000284    -0.000170
Cu     12.74946609      3.89636595     14.72988660     -0.000203    -0.000143    -0.000189
Cu     -1.11101385      8.26309085      5.19453015      0.000128     0.000105    -0.000019
Cu     -4.48176518      9.60162748      7.83404302      0.000141    -0.000113     0.000371
Cu      1.39824165      6.27519319     10.48094151      0.000052    -0.000008    -0.000066
Cu     -1.75072018      8.21925236     12.11796376      0.000154    -0.000079    -0.000325
Cu     -4.33667621     10.61127834     14.72771878      0.000043    -0.000282     0.000126
Cu     -2.58306692      5.81503454      5.79695753      0.000096     0.000000    -0.000120
Cu     -0.50109371      7.40502856      7.34524406     -0.000205    -0.000167    -0.000061
Cu     -2.37298067      9.62446105     10.06316479     -0.000026     0.000072    -0.000155
Cu     -2.31420266      5.30269350     13.00414623     -0.000146     0.000264    -0.000024
Cu      0.22277661      7.16245580     14.51908219      0.000123     0.000107     0.000004
Cu      0.21262075      5.91742925      4.84434039      0.000170     0.000359    -0.000023
Cu     -3.10495078      7.36412620      7.80327107     -0.000050     0.000004     0.000195
Cu      0.28580467      9.19478741     10.34188722      0.000202     0.000072     0.000095
Cu     -0.03161573      5.78870711     12.39200335      0.000255     0.000141    -0.000181
Cu     -2.27145179      7.53390172     14.63905509     -0.000051    -0.000082    -0.000095
Cu     -4.52299465      8.94659617      4.82901426      0.000102     0.000234    -0.000051
Cu     -1.59363477      9.95199046      7.48082775      0.000030     0.000193    -0.000074
Cu     -1.26243226      6.16119764     10.04978280     -0.000096    -0.000073     0.000006
Cu     -4.55105794      8.32995668     12.54963598     -0.000005    -0.000030     0.000047
Cu     -0.91148537      9.95324774     14.64984610      0.000216     0.000105    -0.000258
Cu      4.25086209      7.89961986      5.91233459     -0.000114     0.000357     0.000051
Cu      1.23970988      9.53578491      7.91626827     -0.000057    -0.000065    -0.000021
Cu      7.81862810      6.42616399      9.80140003      0.000097     0.000475     0.000062
Cu      4.39078394      7.94950843     13.15940608      0.000107    -0.000110     0.000122
Cu      1.51001006      9.86954499     14.54926342     -0.000097    -0.000073    -0.000119
Cu      2.59991252      5.98093638      5.15628546     -0.000324    -0.000006     0.000144
Cu      5.80365154      6.91142004      7.53831888     -0.000091     0.000114     0.000115
Cu      2.96121808      8.89762539      9.67152141      0.000012    -0.000035     0.000110
Cu      3.10918989      5.57068556     12.18011148      0.000025    -0.000025    -0.000198
Cu      6.68908400      7.42220196     13.81205033     -0.000107     0.000273    -0.000124
Cu      5.71189471      5.56637141      5.49736900     -0.000149    -0.000151     0.000231
Cu      2.87976469      7.28647608      7.42793391      0.000010    -0.000101     0.000002
Cu      6.41266296      9.61965832     10.40235285      0.000136    -0.000129    -0.000044
Cu      6.12354330      5.29734225     12.33832169      0.000057     0.000122    -0.000159
Cu      2.62509453      6.61541252     14.55168478      0.000020     0.000710     0.000006
Cu      1.03846890      7.77414773      5.67719538     -0.000067    -0.000205     0.000185
Cu      4.65048474      9.66023808      7.78754694     -0.000193    -0.000195     0.000133
Cu      4.01971400      6.37348250     10.16614093      0.000235     0.000228     0.000012
Cu      1.79811167      7.99783422     12.45160653      0.000087     0.000066    -0.000292
Cu      4.50760375     11.01756306     14.46368627     -0.000052    -0.000107    -0.000237
Cu     10.79091529      7.99160043      5.51307377      0.000497     0.000025     0.000155
Cu      7.44652713      9.79648246      7.80343985     -0.000020    -0.000284     0.000432
Cu     13.00757308      6.09800479     10.24581646     -0.000027    -0.000017    -0.000000
Cu     11.00465485      8.41532053     12.30489315     -0.000119     0.000202    -0.000253
Cu      7.09783675     10.18674063     15.20160279      0.000036     0.000022     0.000241
Cu      8.98522112      5.81603068      5.38878534      0.000187    -0.000018     0.000018
Cu     12.21497948      7.07871421      7.16046094     -0.000098    -0.000096    -0.000113
Cu      9.36928565      8.83660310     10.08825428     -0.000095    -0.000236    -0.000087
Cu      9.32772230      5.43859165     12.60623951     -0.000224     0.000261    -0.000012
Cu     11.13611554      7.49195265     14.30807349     -0.000112     0.000152     0.000213
Cu     11.23195584      5.69387458      5.16889873     -0.000296     0.000122    -0.000287
Cu      9.20709124      7.34335845      7.77636472     -0.000088    -0.000201     0.000290
Cu     11.90893274      8.64665176     10.31099353      0.000121    -0.000166    -0.000209
Cu     12.28906288      5.73112521     12.46931889      0.000193    -0.000209     0.000022
Cu      9.01001166      6.86202622     14.61999856     -0.000104    -0.000150    -0.000009
Cu      8.30384734      8.43947598      5.54047834     -0.000040     0.000236     0.000150
Cu     10.72378315      9.73904604      7.49972857     -0.000098    -0.000168    -0.000024
Cu     10.63629100      6.42037924     10.12210659     -0.000320     0.000139    -0.000053
Cu      8.53694708      8.73498049     12.72243696      0.000483    -0.000182    -0.000323
Cu      9.45093566      9.67423176     14.55265587     -0.000397    -0.000306    -0.000025
Cu     -4.47785999     13.34479025      5.30909100      0.000196     0.000152     0.000006
Cu     -7.57029289     14.82260786      8.54226622     -0.000022    -0.000075     0.000203
Cu     -1.27950323     11.71506333     10.26927008      0.000187     0.000096    -0.000053
Cu     -4.55909214     13.58570562     12.61478852      0.000481     0.000269     0.000067
Cu     -7.96614296     15.46617007     14.42214194     -0.000161     0.000131    -0.000141
Cu     -6.05456904     10.51275604      5.89528797     -0.000280     0.000111    -0.000015
Cu     -3.45040214     12.14302979      7.49539442     -0.000130    -0.000324    -0.000014
Cu     -5.22117269     14.62477103      9.63048588      0.000395     0.000074     0.000083
Cu     -6.00030247     10.60835624     12.62806091      0.000111     0.000113     0.000111
Cu     -3.07246824     12.72901366     14.76100091     -0.000010     0.000053     0.000146
Cu     -3.43517896     10.78021194      4.39750899     -0.000027     0.000076     0.000043
Cu     -6.17962595     12.39959763      8.04112790     -0.000080    -0.000150     0.000069
Cu     -3.21852848     13.72033300      9.65112560      0.000054    -0.000038     0.000263
Cu     -3.14850106     10.35667750     12.64738362      0.000229     0.000130    -0.000054
Cu     -6.16161406     12.23267447     14.84140038     -0.000368    -0.000051    -0.000104
Cu     -7.31518155     13.07880310      5.33673159      0.000173    -0.000143     0.000047
Cu     -4.26196349     14.84401967      7.69062467      0.000167     0.000007    -0.000324
Cu     -4.77523489     11.38368784     10.31599463     -0.000017    -0.000040     0.000136
Cu     -7.07951061     13.65550275     12.42280682     -0.000122     0.000132     0.000253
Cu     -5.19644728     14.59987886     15.19105736     -0.000047    -0.000034    -0.000150
Cu      1.09685262     12.68726024      4.73278180      0.000126     0.000043     0.000139
Cu     -1.60397196     14.35118215      7.80172933     -0.000170    -0.000410    -0.000170
Cu      5.11015236     11.57046871     10.24633969     -0.000283    -0.000243     0.000072
Cu      1.74714972     12.83998470     12.44233821      0.000191     0.000261    -0.000269
Cu     -1.80654587     14.81753460     15.03154433     -0.000159    -0.000081     0.000236
Cu     -0.08196040     10.49166635      4.92001251     -0.000198    -0.000489     0.000085
Cu      2.67268900     12.65239485      6.80492813     -0.000037    -0.000119    -0.000349
Cu      0.07932256     14.03667662     10.13328672      0.000022    -0.000056     0.000068
Cu      0.06421075     10.80533078     12.19182324     -0.000048    -0.000102    -0.000183
Cu      2.61307834     12.43404839     14.68209851     -0.000343     0.000112    -0.000077
Cu      3.64546055     11.00985779      5.50015415      0.000032    -0.000035     0.000190
Cu      0.06792037     12.08194627      7.72684822     -0.000153    -0.000403     0.000013
Cu      3.79060647     14.11632402      9.94638712      0.000088     0.000101    -0.000171
Cu      3.17538821     10.71816424     12.63891922     -0.000003    -0.000100    -0.000035
Cu      0.23331876     12.20997956     14.51024051      0.000179    -0.000278    -0.000009
Cu     -1.52024785     12.86461796      5.66320390     -0.000090     0.000113     0.000394
Cu      1.29471822     14.56714145      7.73498144     -0.000141    -0.000289     0.000072
Cu      1.44227192     11.28189365      9.91123486     -0.000046    -0.000008    -0.000089
Cu     -1.88570566     13.83121279     12.60252429     -0.000196    -0.000121    -0.000381
Cu      1.22724798     14.12876816     15.68851923     -0.000176    -0.000398     0.000236
Cu      7.39791972     13.17220107      4.68692289     -0.000049     0.000413     0.000048
Cu      5.41341488     15.15510731      7.38709465      0.000248     0.000115    -0.000223
Cu      9.64702825     11.53849584     10.32032226      0.000154    -0.000156    -0.000124
Cu      7.94449926     12.86851701     12.27629165     -0.000015     0.000031     0.000103
Cu      4.86415139     14.43012220     14.51342199      0.000273     0.000078    -0.000470
Cu      6.23160413     10.58840667      5.59693201     -0.000099    -0.000374    -0.000009
Cu      8.55376247     13.05888294      7.11329695     -0.000061     0.000092    -0.000208
Cu      6.11095356     14.27407201      9.99088986      0.000102     0.000273     0.000245
Cu      6.35334387     10.45964387     12.49084276     -0.000137     0.000087    -0.000144
Cu      8.60135503     11.83358407     14.41407288     -0.000039    -0.000186     0.000132
Cu      8.58332417     10.91041858      5.86454957     -0.000041    -0.000050     0.000064
Cu      5.75334098     12.56147784      7.66860986     -0.000265    -0.000188     0.000053
Cu      8.72951625     13.82119740     10.44398408      0.000216     0.000231    -0.000089
Cu      8.78791753     11.02248553     12.36465414      0.000013    -0.000145    -0.000167
Cu      6.16789057     12.11628275     15.44064421      0.000371     0.000012     0.000462
Cu      5.15643072     12.94188035      5.13506444      0.000212     0.000227     0.000024
Cu      7.60416681     15.29670182      8.06014154      0.000024     0.000111     0.000006
Cu      7.18687358     11.65859071     10.32427113     -0.000140    -0.000194    -0.000119
Cu      4.27421731     13.30469355     12.42627316     -0.000116    -0.000036     0.000329
Cu      7.07017196     14.34979455     13.72270588     -0.000288     0.000144    -0.000201
O       1.42594564      4.68892894      5.30779955      0.000531     0.000415    -0.000133
O       1.51063964      1.45741268      8.58689640     -0.000001    -0.000091     0.000065
O      -1.16228618      3.14644391     11.39111767     -0.000371     0.000100    -0.000036
O       1.52218485      4.76715550     12.29901256      0.000094     0.000045    -0.000394
O      -0.93716088      3.21250852      6.65876379      0.000543     0.000126     0.000084
O       1.47930774      4.65236257      9.17389174     -0.000238    -0.000197    -0.000472
O       1.51247982      0.72080385     12.13794243     -0.000427    -0.000126     0.000230
O       7.53625912      5.13924636      6.41091447     -0.000590    -0.000410     0.000398
O       7.34350740      1.86623274      8.91504997      0.000189    -0.000104    -0.000047
O       4.52217611      3.48095940     10.52778315     -0.000268    -0.000347     0.000201
O       7.71003000      4.55855624     12.48779563      0.000207     0.000309    -0.000240
O       4.43631657      3.06280807      7.03768898     -0.000124    -0.000022     0.000126
O       7.80821146      0.99245640     12.21851911      0.000091     0.000606     0.000123
O       4.94832175      3.29039086     14.19180398      0.000154    -0.000221    -0.000150
O      12.50037676      4.72867332      5.78103940      0.000009     0.000067     0.000123
O      13.37873374      1.61755183      8.91308747     -0.000323     0.000614     0.000160
O      10.60485465      3.29700558     10.59715689      0.000163    -0.000226    -0.000167
O      13.56126495      4.59277261     13.11153645      0.000116     0.000271     0.000126
O      10.44025146      2.42415017      7.22421057     -0.000287    -0.000710    -0.000212
O      13.42486641      4.77448085      9.04007387     -0.000221    -0.000373     0.000019
O      13.76115021      1.04455454     12.67737713      0.000145    -0.000206     0.000154
O      10.76368435      3.13039066     14.09213294      0.000533     0.000093    -0.000173
O      -1.79453675     10.03497860      5.62036623      0.000077    -0.000021    -0.000021
O      -1.74096650      6.23044732      8.32483936     -0.000072     0.000032    -0.000311
O      -3.65218345      8.90598105     11.04987524      0.000176    -0.000069    -0.000285
O      -1.31408282      9.86628016     12.84046813      0.000407    -0.000025     0.000577
O      -4.18834596      8.22977746      6.72521824     -0.000271    -0.000283     0.000266
O      -0.83426122     10.02249536      9.36812376      0.000389    -0.000038    -0.000177
O      -1.56424801      6.61929668     11.72424790     -0.000180     0.000031    -0.000171
O      -3.67683617      8.74600886     14.24983604     -0.000251     0.000030     0.000302
O       4.65432536      9.50936684      5.98237691     -0.000204     0.000002    -0.000078
O       4.25020415      6.45315815      8.38648978      0.000117    -0.000060    -0.000102
O       1.64595018      8.02960399     10.64687230      0.000028    -0.000055    -0.000027
O       4.69340603      9.64908170     13.46546609     -0.000010    -0.000435     0.000404
O       1.23886358      7.83160095      7.64114215     -0.000154     0.000051     0.000207
O       4.66302298      9.87424175      9.63073450      0.000230    -0.000056     0.000224
O       4.62839326      6.47292161     11.85048119     -0.000003    -0.000129     0.000067
O       1.77432201      8.15975502     14.16286285      0.000952    -0.000601    -0.000117
O      10.04738316      9.65909768      5.67426334      0.000054     0.000846     0.000285
O      10.53260862      6.42969981      8.36309877      0.000176     0.000169    -0.000168
O       7.79031563      8.18041976     10.69363121     -0.000723    -0.000477    -0.000381
O       9.94210651      9.81464988     12.58366060      0.000014    -0.000008    -0.000311
O       7.48434374      7.86350989      7.35969856     -0.000193     0.000253    -0.000274
O      10.65166349      9.72208977      9.32593126      0.000173     0.000049     0.000333
O      10.68604482      6.52133205     11.94810134      0.000306     0.000050    -0.000089
O      -3.29858761     14.41401458      6.18078370      0.000586    -0.000646    -0.000025
O      -5.02350747     11.13046550      8.50270393     -0.000097    -0.000135     0.000302
O      -5.94481022     13.86657106     11.16835686      0.000202     0.000200    -0.000575
O      -3.64291245     14.47709008     13.68709589      0.000157    -0.000612    -0.000295
O      -7.27883952     13.64393379      7.17762362      0.000380     0.000173    -0.000106
O      -4.56716097     11.64817599     12.07496852     -0.000131    -0.000100     0.000342
O      -6.87462920     14.10858217     14.22488143     -0.000497    -0.000496     0.000125
O       0.71049858     13.98278350      6.09299705     -0.000168     0.000027     0.000066
O       1.61078362     11.33786761      8.03884513      0.000098    -0.000188    -0.000166
O      -1.51107900     13.48882819     10.73414708      0.000418     0.000211     0.000090
O       1.47141610     13.90774613     13.95915531      0.000408    -0.000501     0.000600
O      -1.67002490     12.10294861      8.09899094     -0.000502     0.000098     0.000130
O       1.68219262     14.32471732      9.44724083     -0.000031    -0.000030    -0.000300
O       1.74835914     11.12162664     11.67650794      0.000260    -0.000207    -0.000035
O      -1.30626148     13.18190767     14.36110254     -0.000665     0.000893    -0.000433
O       7.31166495     14.78657506      6.13611830      0.000310     0.000026     0.000090
O       7.40408055     11.53384425      8.20945299      0.000453     0.000177    -0.000599
O       4.34648123     13.51577597      6.83824500      0.000376    -0.000153    -0.000011
O       7.68986157     15.25806709      9.84495403     -0.000557     0.000496    -0.000173
O       4.38438399     12.66160945     14.83509230     -0.000205    -0.000151     0.000404
245
Frame 10  Energy = -11029.8813861635 Hartree
Cu      1.96699652      3.05313125      3.88149846      0.000374    -0.000038    -0.000246
Cu     -1.49575086      4.43668018      7.82865337      0.000041    -0.000107     0.000112
Cu      4.61358381      1.56563145     10.35083560      0.000163    -0.000158     0.000169
Cu      1.65932568      2.73476755     12.31758435      0.000229     0.000180    -0.000178
Cu     -1.10340243      5.01139445     15.20388048     -0.000006     0.000199     0.000288
Cu      0.33012145      0.70408603      5.79822278     -0.000170     0.000215     0.000073
Cu      2.94172864      2.05225372      7.61832998     -0.000193    -0.000078     0.000060
Cu      0.32157428      3.53124053     10.38595870     -0.000270    -0.000055     0.000170
Cu     -0.71018080      1.39760709     11.65589887     -0.000108     0.000179    -0.000384
Cu      2.59312791      2.63685012     14.73468420      0.000113    -0.000099     0.000279
Cu      2.57102954      0.47423752      5.05176567      0.000001    -0.000072    -0.000170
Cu     -0.26393986      2.03275055      8.03041554      0.000047     0.000062     0.000404
Cu      2.96009397      3.79288257      9.68421443     -0.000060     0.000024    -0.000060
Cu      3.30931467      0.40502130     12.29234506     -0.000267    -0.000077     0.000040
Cu      0.07378662      2.84243806     15.54490341      0.000119    -0.000134     0.000329
Cu     -0.57143588      3.35680353      4.80799711      0.000229     0.000103     0.000151
Cu      1.07216398      3.97168751      6.96024901     -0.000130    -0.000080    -0.000080
Cu      1.67030727      1.20882216     10.35582059      0.000028    -0.000176    -0.000119
Cu     -2.09211624      2.85974017     13.49780551     -0.000085    -0.000112     0.000016
Cu      1.42213418      4.61970444     14.93287869     -0.000344    -0.000089     0.000170
Cu      7.18166067      3.71391480      5.05904955     -0.000051    -0.000045    -0.000075
Cu      4.56607400      4.82242829      7.59249558     -0.000230     0.000123     0.000030
Cu     10.15085540      1.58502032     10.04856481     -0.000047     0.000033    -0.000024
Cu      7.85889652      2.90004535     12.12688727      0.000030     0.000277    -0.000010
Cu      3.79611937      4.64798185     14.63984746     -0.000149     0.000089    -0.000029
Cu      6.51297288      0.92004351      4.80018950      0.000084     0.000157    -0.000021
Cu      8.61777837      1.78599544      7.69201604     -0.000062     0.000001     0.000111
Cu      6.04991047      4.86556023     10.06546899      0.000002     0.000219     0.000154
Cu      5.94182088      0.52601239     12.32499285     -0.000100     0.000002    -0.000143
Cu      8.87962288      2.30700893     14.50839898     -0.000188     0.000148    -0.000061
Cu      8.83885732      1.16603346      4.81018482     -0.000030     0.000207    -0.000036
Cu      5.84213453      1.95178163      7.72433505     -0.000019    -0.000049     0.000106
Cu      9.50454712      4.46045558      9.45110996      0.000356    -0.000042    -0.000079
Cu      9.54667542      0.51565515     12.59797686      0.000116    -0.000224    -0.000096
Cu      6.39991408      2.59651822     14.80321248      0.000190     0.000112     0.000124
Cu      4.36967566      2.31106825      5.28899916     -0.000015     0.000177    -0.000013
Cu      7.68044526      4.03305015      7.98064227      0.000182    -0.000074     0.000143
Cu      7.72152739      0.81932753     10.32335142     -0.000066    -0.000100    -0.000152
Cu      4.85255011      3.31580222     12.32667289     -0.000064     0.000341    -0.000258
Cu      7.58741306      4.79922357     14.49127431      0.000294    -0.000322    -0.000114
Cu     13.45346602      3.22479975      5.04191280      0.000109    -0.000146    -0.000110
Cu     10.84288205      4.21319106      7.53499077     -0.000215    -0.000111     0.000181
Cu     16.62147424      1.53659741     10.36843995      0.000323     0.000117    -0.000021
Cu     13.53897791      2.90972273     12.50864724      0.000016    -0.000060     0.000043
Cu      9.77468440      4.43164325     15.08820039     -0.000442    -0.000159     0.000053
Cu     12.55144996      0.57050489      5.74227733      0.000193     0.000147     0.000056
Cu     14.79610965      1.39447647      7.67556084     -0.000401    -0.000220    -0.000141
Cu     12.09386337      3.49205335      9.44917317     -0.000265     0.000136    -0.000088
Cu     11.71544940      0.92364294     11.94096260     -0.000335     0.000057     0.000160
Cu     15.00095856      2.42825835     14.59731703     -0.000017     0.000188    -0.000328
Cu     15.35968253      1.15269270      5.28222556     -0.000025     0.000327     0.000177
Cu     11.83848351      1.29238113      8.06657022     -0.000060    -0.000080     0.000302
Cu     14.59800913      3.82193581     10.15048835      0.000269    -0.000001     0.000101
Cu     15.60801043      1.08576045     12.28051931      0.000115     0.000230    -0.000014
Cu     11.43481608      1.41217983     14.18686273     -0.000292    -0.000485    -0.000257
Cu     10.99032423      2.67946000      5.32529807      0.000357    -0.000001     0.000036
Cu     13.42737129      4.63930366      7.33098495      0.000147     0.000103     0.000108
Cu     13.66961159      0.71862399     10.60749726      0.000240    -0.000103     0.000026
Cu     10.87715410      3.54888486     12.23159166      0.000214     0.000141    -0.000092
Cu     12.66729750      3.84420319     14.64810382     -0.000190    -0.000098    -0.000202
Cu     -1.08283615      8.27601111      5.18415180      0.000007    -0.000062    -0.000031
Cu     -4.43968630      9.55109461      7.97053955      0.000056    -0.000129     0.000287
Cu      1.42268762      6.24228752     10.41675266      0.000067    -0.000139    -0.000242
Cu     -1.68847843      8.23257139     12.00500015      0.000147     0.000093    -0.000224
Cu     -4.33152287     10.49480699     14.78607151     -0.000019    -0.000268     0.000148
Cu     -2.51330680      5.82877483      5.75211729      0.000243     0.000076    -0.000087
Cu     -0.60286276      7.31640221      7.33066541     -0.000258    -0.000248    -0.000026
Cu     -2.39369774      9.63822207      9.99058828     -0.000029     0.000020    -0.000224
Cu     -2.37396403      5.40545781     13.00516496     -0.000138     0.000223     0.000036
Cu      0.24044750      7.19755188     14.52940346     -0.000025     0.000066     0.000042
Cu      0.23198338      6.05454854      4.82687555     -0.000071     0.000267    -0.000066
Cu     -3.11783054      7.34923193      7.87917329     -0.000037    -0.000061     0.000155
Cu      0.37005674      9.19415727     10.37847144      0.000175    -0.000054     0.000054
Cu      0.07299349      5.83531830     12.33063537      0.000241     0.000081    -0.000114
Cu     -2.28793549      7.50221384     14.59084244     -0.000035    -0.000063    -0.000134
Cu     -4.49691341      9.01597396      4.83621952      0.000021     0.000096     0.000095
Cu     -1.58136780     10.02953739      7.45298718      0.000024     0.000175    -0.000061
Cu     -1.31403292      6.12494065     10.03110382     -0.000157    -0.000105    -0.000116
Cu     -4.54713882      8.31157301     12.58625471      0.000040    -0.000043     0.000115
Cu     -0.82777477      9.98895303     14.57344326      0.000190     0.000069    -0.000069
Cu      4.19638409      7.97515004      5.89772698     -0.000138     0.000073    -0.000116
Cu      1.23438957      9.53422311      7.90689493      0.000031     0.000034    -0.000022
Cu      7.86320591      6.58994586      9.82375573      0.000118     0.000249     0.000027
Cu      4.43977290      7.86730071     13.18492313      0.000123    -0.000301    -0.000005
Cu      1.46831042      9.86735229     14.50758503     -0.000096     0.000053    -0.000082
Cu      2.53911325      6.03371751      5.22630517      0.000022     0.000245     0.000197
Cu      5.78654266      6.99186971      7.58665858      0.000022     0.000280     0.000111
Cu      2.97807424      8.88716847      9.72334934      0.000069    -0.000015     0.000136
Cu      3.10238006      5.55085591     12.13127885     -0.000027    -0.000057    -0.000044
Cu      6.67008354      7.53341785     13.76955609      0.000024     0.000267    -0.000081
Cu      5.63728339      5.51969844      5.59858796     -0.000211    -0.000075     0.000251
Cu      2.87900583      7.23535371      7.44701140     -0.000027    -0.000139     0.000085
Cu      6.46113412      9.50468049     10.35956013      0.000089    -0.000397    -0.000161
Cu      6.14685596      5.38435708     12.27898442      0.000070     0.000295    -0.000114
Cu      2.69931925      6.81142551     14.58457927      0.000361     0.000153     0.000188
Cu      1.04396779      7.72568840      5.76068080      0.000093    -0.000010     0.000228
Cu      4.57956711      9.58457009      7.84020998     -0.000148    -0.000168     0.000116
Cu      4.13353203      6.46798392     10.14937498      0.000312     0.000227    -0.000077
Cu      1.83557643      8.03128761     12.32587963      0.000095     0.000093    -0.000285
Cu      4.49561780     10.96797106     14.38658796      0.000007    -0.000059    -0.000097
Cu     10.97363351      8.00311162      5.56793530      0.000375     0.000052     0.000102
Cu      7.43299528      9.68047435      7.97432477     -0.000036    -0.000228     0.000380
Cu     12.99793761      6.10626158     10.23623061     -0.000027     0.000059    -0.000045
Cu     10.98011499      8.45544106     12.20612721      0.000042    -0.000068    -0.000228
Cu      7.11672457     10.16296320     15.28615946      0.000046    -0.000133     0.000171
Cu      9.05778310      5.82350875      5.40173829      0.000137     0.000057     0.000047
Cu     12.17339823      7.03268666      7.12025799     -0.000093    -0.000125    -0.000078
Cu      9.30293733      8.72911310     10.04791121     -0.000208    -0.000259    -0.000110
Cu      9.23091523      5.57252899     12.59636140     -0.000204     0.000395    -0.000042
Cu     11.09222183      7.54556435     14.40582238     -0.000107     0.000111     0.000242
Cu     11.10968837      5.75295038      5.04484758     -0.000232     0.000125    -0.000297
Cu      9.13029514      7.26623830      7.88018304     -0.000250    -0.000176     0.000197
Cu     11.97696040      8.57581845     10.19755631      0.000205    -0.000179    -0.000334
Cu     12.35919419      5.64827532     12.48511709      0.000135    -0.000175     0.000047
Cu      8.95110527      6.80528372     14.61586400     -0.000176    -0.000116    -0.000008
Cu      8.30052708      8.53473777      5.61190112      0.000038     0.000216     0.000189
Cu     10.67458744      9.67086019      7.47839826     -0.000125    -0.000155    -0.000024
Cu     10.51081800      6.49251556     10.10091605     -0.000270     0.000206    -0.000051
Cu      8.66394015      8.59096183     12.58798096      0.000153    -0.000476    -0.000320
Cu      9.29733750      9.53610583     14.56712250     -0.000348    -0.000359     0.000077
Cu     -4.40770002     13.37393216      5.30275410      0.000143    -0.000002    -0.000030
Cu     -7.57293691     14.78404709      8.61856804      0.000020    -0.000126     0.000151
Cu     -1.19430475     11.76406352     10.22803363      0.000218     0.000135    -0.000146
Cu     -4.43007245     13.63630927     12.55568009      0.000189     0.000043    -0.000269
Cu     -8.03212547     15.51673101     14.36637387     -0.000136     0.000077    -0.000126
Cu     -6.14493967     10.57743391      5.88237251     -0.000149     0.000191    -0.000046
Cu     -3.52592945     12.01351998      7.50308993     -0.000242    -0.000302     0.000056
Cu     -5.07004653     14.66840598      9.65742061      0.000366     0.000178    -0.000024
Cu     -5.96295532     10.65562654     12.68791690      0.000061     0.000106     0.000179
Cu     -3.12248752     12.72861300     14.82171863     -0.000212    -0.000061     0.000145
Cu     -3.44939841     10.84777514      4.43532083     -0.000037     0.000253     0.000139
Cu     -6.22720468     12.34900810      8.05324840     -0.000133    -0.000108    -0.000003
Cu     -3.17395057     13.70137584      9.76508725      0.000171    -0.000055     0.000284
Cu     -3.05817472     10.44329598     12.61931321      0.000214     0.000274    -0.000068
Cu     -6.30021648     12.21231638     14.79123613     -0.000294    -0.000068    -0.000128
Cu     -7.23902650     13.02311105      5.38165142      0.000195    -0.000130     0.000150
Cu     -4.18841452     14.84268907      7.56386192      0.000190    -0.000023    -0.000288
Cu     -4.78074612     11.37251385     10.36563370     -0.000006    -0.000008     0.000143
Cu     -7.13387542     13.71499232     12.52308225     -0.000090     0.000160     0.000188
Cu     -5.20333070     14.57847344     15.09661361      0.000010    -0.000076    -0.000312
Cu      1.13889181     12.71538664      4.81183879      0.000074     0.000093     0.000231
Cu     -1.68264533     14.18665979      7.72595583     -0.000201    -0.000363    -0.000167
Cu      4.94734003     11.51008316     10.28838724     -0.000469    -0.000069     0.000122
Cu      1.82187689     12.95900978     12.32934069      0.000167     0.000300    -0.000274
Cu     -1.87495298     14.82527873     15.13154770     -0.000165     0.000123     0.000255
Cu     -0.15706130     10.30918733      4.96095534     -0.000122    -0.000379     0.000094
Cu      2.66659346     12.60770412      6.67205995      0.000011    -0.000085    -0.000282
Cu      0.12047003     14.02292207     10.15779113      0.000187    -0.000005     0.000048
Cu      0.05581662     10.76461142     12.13248150      0.000010    -0.000090    -0.000090
Cu      2.50770262     12.45971436     14.65404247     -0.000052    -0.000055    -0.000024
Cu      3.65488417     11.00818071      5.56746196     -0.000006     0.000054     0.000120
Cu     -0.01715755     11.93650443      7.72565192     -0.000236    -0.000303    -0.000016
Cu      3.80819476     14.15418113      9.88683123      0.000000     0.000077    -0.000114
Cu      3.18996208     10.65914403     12.62598271      0.000056    -0.000180    -0.000037
Cu      0.27817323     12.08775402     14.49955109      0.000007    -0.000295    -0.000048
Cu     -1.55089132     12.91400209      5.81717598     -0.000046     0.000109     0.000325
Cu      1.21890825     14.44842763      7.73578295     -0.000219    -0.000283    -0.000066
Cu      1.44368481     11.30196825      9.84907800      0.000056     0.000102    -0.000203
Cu     -1.96244954     13.78822502     12.44009507     -0.000169    -0.000082    -0.000374
Cu      1.13474994     13.99195241     15.81625963     -0.000273    -0.000262     0.000362
Cu      7.39144332     13.35405187      4.73148712      0.000025     0.000472     0.000155
Cu      5.50316959     15.18634139      7.27326567      0.000186     0.000027    -0.000322
Cu      9.72774540     11.48385396     10.25757238      0.000230    -0.000102    -0.000170
Cu      7.91881116     12.91239805     12.32587409     -0.000099     0.000165     0.000124
Cu      4.96962381     14.45870648     14.31767687      0.000212     0.000045    -0.000455
Cu      6.20115289     10.45581971      5.58409101     -0.000027    -0.000258    -0.000050
Cu      8.51015984     13.11607902      7.02189667     -0.000144     0.000179    -0.000224
Cu      6.13209599     14.37294474     10.10030427     -0.000033     0.000184     0.000286
Cu      6.29723758     10.50071775     12.45503371     -0.000132     0.000111    -0.000039
Cu      8.57070153     11.78631178     14.49322336     -0.000099    -0.000049     0.000231
Cu      8.56054381     10.90433771      5.88387538     -0.000092     0.000038     0.000045
Cu      5.66621010     12.47678191      7.69486603     -0.000130    -0.000234     0.000080
Cu      8.82276951     13.93411388     10.39174476      0.000216     0.000310    -0.000157
Cu      8.76978784     10.98875919     12.28062270     -0.000078    -0.000048    -0.000214
Cu      6.33943667     12.15657584     15.63583665      0.000423     0.000174     0.000469
Cu      5.23141530     13.02730387      5.15782641      0.000143     0.000172     0.000085
Cu      7.64055876     15.34937932      8.03165206      0.000149     0.000144    -0.000118
Cu      7.17714908     11.61123373     10.27455168      0.000072    -0.000041    -0.000109
Cu      4.23081817     13.28414978     12.54114024     -0.000092    -0.000064     0.000216
Cu      6.96047511     14.40267486     13.64266888     -0.000216     0.000116    -0.000193
O       1.50442585      4.58631588      5.18894165     -0.000192    -0.000797    -0.000433
O       1.51293092      1.45375301      8.59731259      0.000003     0.000044    -0.000029
O      -1.25710715      3.15750158     11.40379635     -0.000118    -0.000029     0.000114
O       1.58388324      4.79731854     12.20642813      0.000119     0.000038    -0.000050
O      -0.70065864      3.23517762      6.71757840      0.000510    -0.000019     0.000171
O       1.38562404      4.54011204      9.04438693     -0.000196    -0.000338    -0.000089
O       1.35618324      0.80507922     12.21044007     -0.000270     0.000529     0.000050
O       7.29546681      4.88168920      6.50354471     -0.000554    -0.000680     0.000026
O       7.33536926      1.81639940      8.79089331     -0.000352    -0.000129    -0.000390
O       4.49539017      3.36741739     10.63672940      0.000091    -0.000115     0.000170
O       7.77658454      4.66267965     12.38819718     -0.000038     0.000180    -0.000260
O       4.42795483      3.07373209      7.12637686      0.000049     0.000078     0.000292
O       7.78595093      1.17950621     12.24517111     -0.000155     0.000114    -0.000026
O       4.88192232      3.25129363     14.08509103     -0.000363    -0.000012    -0.000276
O      12.49123833      4.64606236      5.78319871     -0.000172    -0.000352    -0.000114
O      13.28293458      1.82525946      9.05233055     -0.000081     0.000343     0.000483
O      10.63658462      3.30125216     10.39709796     -0.000049     0.000296    -0.000514
O      13.64335295      4.64562188     13.17522844      0.000339    -0.000130     0.000167
O      10.31294901      2.15410341      7.13051142     -0.000253    -0.000571    -0.000240
O      13.37904312      4.69539768      9.10757746      0.000062     0.000062     0.000273
O      13.73113171      1.02978341     12.74166068     -0.000245     0.000143     0.000133
O      10.95252177      3.27437820     14.05724142      0.000373     0.000478     0.000041
O      -1.75755030     10.05173596      5.59365866     -0.000048     0.000098    -0.000045
O      -1.76208290      6.26808790      8.20064408     -0.000035     0.000018    -0.000152
O      -3.59943017      8.88442340     10.90750711     -0.000060    -0.000152    -0.000231
O      -1.22154138      9.82280230     12.91370229     -0.000080    -0.000222    -0.000422
O      -4.29787086      8.17918830      6.79966661     -0.000208     0.000046     0.000122
O      -0.79685124     10.03119716      9.30990109     -0.000197     0.000033    -0.000023
O      -1.54371601      6.47557975     11.73592131      0.000273    -0.000453     0.000249
O      -3.77912712      8.74727330     14.32968658     -0.000211    -0.000097     0.000063
O       4.65051709      9.71622740      6.06073269      0.000150     0.000548     0.000474
O       4.30561005      6.40634720      8.34428746      0.000075    -0.000092    -0.000024
O       1.68303207      8.04210378     10.64188263      0.000165    -0.000003    -0.000119
O       4.72210189      9.50636202     13.52273901      0.000198    -0.000069    -0.000116
O       1.17048099      7.83404384      7.67241723     -0.000143    -0.000076    -0.000053
O       4.66047424      9.74854234      9.61263275     -0.000232    -0.000490    -0.000249
O       4.63596571      6.45823515     11.95725631      0.000017     0.000039     0.000358
O       1.97103511      8.22141715     14.00967019     -0.000171     0.001140    -0.000688
O      10.05464793      9.91630573      5.85670585      0.000008     0.000299     0.000429
O      10.70671626      6.41812492      8.31637735      0.000493    -0.000141    -0.000062
O       7.59832501      8.07226338     10.56897216     -0.000155     0.000164    -0.000091
O      10.13198058      9.84112174     12.50371231      0.000497     0.000428    -0.000013
O       7.45661582      8.05390471      7.26477634      0.000040     0.000467    -0.000145
O      10.71167187      9.75827294      9.44740055      0.000019     0.000038     0.000150
O      10.83832716      6.55668867     11.92302965      0.000420     0.000104     0.000005
O      -2.95425077     14.09644475      6.21541071      0.000886    -0.000818     0.000157
O      -4.98970585     11.11837351      8.60590239      0.000223     0.000079     0.000101
O      -5.85934045     13.89791759     10.95177974     -0.000120    -0.000202     0.000008
O      -3.42595782     14.48630534     13.92132321      0.000414     0.000498     0.001055
O      -7.07436691     13.67718875      7.08790498      0.000573     0.000076    -0.000213
O      -4.49674237     11.58900176     12.26160432      0.000462    -0.000147     0.000431
O      -7.09425479     13.87971448     14.41896169     -0.000631    -0.000370     0.000726
O       0.60552926     13.86776939      6.15303302     -0.000318    -0.000577     0.000203
O       1.67925561     11.22350640      7.97873617      0.000170    -0.000227    -0.000129
O      -1.43989478     13.52787672     10.79761939     -0.000090    -0.000061     0.000109
O       1.61747652     13.72777581     14.06198192      0.000020    -0.000047    -0.000162
O      -1.78936243     12.20090415      8.05045786      0.000005     0.000313    -0.000308
O       1.72386263     14.25032812      9.41380603      0.000208    -0.000336     0.000146
O       1.71766138     11.11276083     11.66431222     -0.000345     0.000190    -0.000055
O      -1.36862743     13.33432796     14.19717861      0.000537    -0.000311    -0.000320
O       7.46484983     14.65120929      6.25481653      0.000404    -0.000607     0.000393
O       7.55552127     11.59827448      7.90882604      0.000200     0.000021    -0.000813
O       4.43435179     13.43003479      6.83074177     -0.000061    -0.000172    -0.000049
O       7.50234749     15.39793235      9.83055213     -0.000160     0.000245     0.000057
O       4.33652614     12.69762967     15.07203266     -0.000012     0.000029     0.000630
