22
Image 0  Energy = -424.8060137499
C  -0.3515888839  0.0280914689 -0.4997900623
C  -0.2790756349  0.7616101601 -1.7319664428
H  -0.2793295407  0.1188454698 -2.6276274740
O   0.0142179083 -1.2751921010 -0.5360313582
H   0.9875880240 -1.2951564463 -0.4849091944
O   1.9809390633  0.7634993835 -2.0818705795
H   2.1731168116  0.4365165458 -2.9400895335
C   0.0822626419  0.7709179544  0.7624278435
H  -0.4240792435  1.7263369924  0.9062411428
H  -0.1560387250  0.1405984429  1.6015884234
H   1.1531620837  0.9167861038  0.7023096210
C  -2.0213629170  0.1798570509 -0.7391551020
H  -2.3137658167  1.0756562688 -0.2707902615
H  -2.3181308461  0.0897975010 -1.7005063267
H  -2.4739575191 -0.7074727670 -0.1274415851
C  -0.4127972782  2.2207789523 -1.9560094925
H   0.3513109284  2.5810913070 -2.7219348852
H  -1.3643520140  2.4057141191 -2.3737107311
H  -0.2661310802  2.7935389529 -1.0600101931
O   2.4510864228 -1.0779753732 -0.4879436668
H   3.0794650720 -1.7834314240 -0.6639992957
H   2.3070153727 -0.0354235765 -1.3937208379
22
Image 1  Energy = -424.8159683542
C  -0.3526843163  0.0288038371 -0.4997758184
C  -0.2775883449  0.7616766906 -1.7330485463
H  -0.2811409829  0.1222064019 -2.6211398666
O   0.0122391354 -1.2752889805 -0.5362053645
H   1.0154141019 -1.3003261680 -0.4833222337
O   1.9805785602  0.7635851818 -2.0811189131
H   2.1747774507  0.4333255263 -2.9498020504
C   0.0820783357  0.7710667960  0.7622571500
H  -0.4228545184  1.7246458518  0.9047540400
H  -0.1561911215  0.1384577503  1.6040205120
H   1.1553765246  0.9168578456  0.7026181613
C  -2.0211108255  0.1775396587 -0.7358580357
H  -2.3164458474  1.0869037779 -0.2673335593
H  -2.3276562216  0.0877202912 -1.7275354722
H  -2.4646611883 -0.6946737318 -0.1373411090
C  -0.4112292417  2.2208449131 -1.9566181681
H   0.3423347483  2.5745944005 -2.7124311587
H  -1.3747805537  2.4091070603 -2.3776601243
H  -0.2665959722  2.7950594702 -1.0576090318
O   2.4515237434 -1.0777329914 -0.4881059778
H   3.0763477763 -1.7807083492 -0.6640828989
H   2.3079782306 -0.0376951775 -1.3916181093
22
Image 2  Energy = -424.8184229471
C  -0.3530472791  0.0290493843 -0.4997760645
C  -0.2770616572  0.7616969358 -1.7334279198
H  -0.2817466198  0.1233807585 -2.6188886178
O   0.0115608326 -1.2753242586 -0.5362701603
H   1.0251868571 -1.3021153347 -0.4827714278
O   1.9804662372  0.7636162350 -2.0808569448
H   2.1753909424  0.4321783596 -2.9532710402
C   0.0820274887  0.7711174655  0.7621929096
H  -0.4224155565  1.7240553350  0.9042370561
H  -0.1562328668  0.1377120296  1.6048637127
H   1.1561628188  0.9168803654  0.7027189181
C  -2.0210037102  0.1767358830 -0.7347045289
H  -2.3173715045  1.0908388586 -0.2661033711
H  -2.3310217021  0.0869798968 -1.7371461112
H  -2.4614411542 -0.6902608361 -0.1407603687
C  -0.4106697395  2.2208649155 -1.9568319920
H   0.3392442218  2.5723498335 -2.7091497122
H  -1.3784163107  2.4102870188 -2.3790522732
H  -0.2667386433  2.7955879026 -1.0567760730
O   2.4516910266 -1.0776537902 -0.4881677901
H   3.0752359002 -1.7797134148 -0.6641044945
H   2.3083247199 -0.0384937256 -1.3908891955
22
Image 3  Energy = -424.8201153119
C  -0.3531686212  0.0292521593 -0.4998516975
C  -0.2763457096  0.7616888169 -1.7338593480
H  -0.2820969356  0.1244552678 -2.6168514745
O   0.0111452502 -1.2753847337 -0.5364045181
H   1.0345789181 -1.3038217290 -0.4823285063
O   1.9805802081  0.7636185788 -2.0806844038
H   2.1761868153  0.4310742830 -2.9566044170
C   0.0822003137  0.7711377375  0.7620580617
H  -0.4217820289  1.7234743859  0.9036778007
H  -0.1560513758  0.1369849593  1.6055803242
H   1.1571212787  0.9168732404  0.7027379944
C  -2.0206826368  0.1759546749 -0.7336958494
H  -2.3179993788  1.0944847901 -0.2649699399
H  -2.3340037662  0.0863427894 -1.7462395064
H  -2.4581999611 -0.6861632364 -0.1440709733
C  -0.4099243362  2.2208567589 -1.9571064640
H   0.3365635440  2.5702173144 -2.7061451686
H  -1.3816088433  2.4113679769 -2.3804299537
H  -0.2666507388  2.7960563233 -1.0560682884
O   2.4520691333 -1.0776056109 -0.4883001808
H   3.0744108674 -1.7788032095 -0.6641985564
H   2.3088712190 -0.0392723774 -1.3902768807
22
Image 4  Energy = -424.8214052574
C  -0.3534867659  0.0294634263 -0.4998495075
C  -0.2759014126  0.7617070152 -1.7341820136
H  -0.2826228240  0.1254621131 -2.6149204340
O   0.0105568057 -1.2754141691 -0.5364576994
H   1.0429470960 -1.3053541778 -0.4818541157
O   1.9804767963  0.7636460802 -2.0804572382
H   2.1767064605  0.4300901917 -2.9595795271
C   0.0821496531  0.7711819367  0.7620054099
H  -0.4214130621  1.7229693191  0.9032371886
H  -0.1560942012  0.1363468630  1.6063051435
H   1.1577878910  0.9168933425  0.7028267605
C  -2.0205976785  0.1752667835 -0.7327042889
H  -2.3188003263  1.0978585423 -0.2639149664
H  -2.3368964230  0.0857057208 -1.7544817217
H  -2.4554481638 -0.6823816147 -0.1469969570
C  -0.4094520361  2.2208746619 -1.9572872520
H   0.3339091065  2.5682950962 -2.7033317649
H  -1.3847314633  2.4123798708 -2.3816205518
H  -0.2667802048  2.7965098426 -1.0553522970
O   2.4522055728 -1.0775371440 -0.4883508351
H   3.0734478191 -1.7779464964 -0.6642139862
H   2.3091610413 -0.0399561183 -1.3896497354
22
Image 5  Energy = -424.8223436695
C  -0.3538042235  0.0296745742 -0.4998475628
C  -0.2754564262  0.7617250976 -1.7345049219
H  -0.2831480286  0.1264688335 -2.6129896537
O   0.0099690566 -1.2754437207 -0.5365111191
H   1.0513158931 -1.3068867315 -0.4813799694
O   1.9803740701  0.7636734670 -2.0802303120
H   2.1772267897  0.4291059902 -2.9625548706
C   0.0820996819  0.7712260194  0.7619525161
H  -0.4210434055  1.7224641418  0.9027963390
H  -0.1561363366  0.1357086556  1.6070297146
H   1.1584551871  0.9169133250  0.7029152805
C  -2.0205120324  0.1745787825 -0.7317129761
H  -2.3196005063  1.1012320801 -0.2628600572
H  -2.3397885210  0.0850688404 -1.7627241055
H  -2.4526957002 -0.6786001909 -0.1499232598
C  -0.4089790514  2.2208924500 -1.9574682785
H   0.3312553719  2.5663727790 -2.7005186231
H  -1.3878533721  2.4133916437 -2.3828113705
H  -0.2669089766  2.7969632415 -1.0546365513
O   2.4523427027 -1.0774687904 -0.4884017307
H   3.0724854532 -1.7770898857 -0.6642296537
H   2.3094515532 -0.0406399761 -1.3890228280
22
Image 6  Energy = -424.8229455351
C  -0.3541209801  0.0298856286 -0.4998458610
C  -0.2750107374  0.7617430898 -1.7348280708
H  -0.2836725349  0.1274754555 -2.6110591303
O   0.0093820164 -1.2754733628 -0.5365647753
H   1.0596853249 -1.3084193636 -0.4809060653
O   1.9802720439  0.7637007643 -2.0800036249
H   2.1777478132  0.4281217105 -2.9655304271
C   0.0820504135  0.7712700113  0.7618993825
H  -0.4206730458  1.7219588789  0.9023552540
H  -0.1561777690  0.1350703623  1.6077540397
H   1.1591231807  0.9169332138  0.7030035566
C  -2.0204256853  0.1738906972 -0.7307219113
H  -2.3203999124  1.1046054366 -0.2618052253
H  -2.3426800267  0.0844321498 -1.7709666360
H  -2.4499425578 -0.6748189358 -0.1528498702
C  -0.4085053684  2.2209101487 -1.9576495418
H   0.3286023546  2.5644503886 -2.6977057418
H  -1.3909745572  2.4144033210 -2.3840024095
H  -0.2670370407  2.7974165460 -1.0539210489
O   2.4524805352 -1.0774005238 -0.4884528654
H   3.0715237993 -1.7762333695 -0.6642455609
H   2.3097427678 -0.0413239244 -1.3883961575
22
Image 7  Energy = -424.8232257831
C  -0.3544370276  0.0300965877 -0.4998444052
C  -0.2745643392  0.7617609901 -1.7351514627
H  -0.2841963350  0.1284819764 -2.6091288691
O   0.0087956931 -1.2755030970 -0.5366186710
H   1.0680553895 -1.3099520740 -0.4804324069
O   1.9801707252  0.7637279706 -2.0797771800
H   2.1782695375  0.4271373530 -2.9685061950
C   0.0820018556  0.7713139109  0.7618460061
H  -0.4203019757  1.7214535297  0.9019139311
H  -0.1562184907  0.1344319824  1.6084781150
H   1.1597918788  0.9169530073  0.7030915856
C  -2.0203386298  0.1732025271 -0.7297310987
H  -2.3211985353  1.1079786058 -0.2607504725
H  -2.3455709302  0.0837956515 -1.7792093050
H  -2.4471887324 -0.6710378559 -0.1557767887
C  -0.4080309800  2.2209277565 -1.9578310444
H   0.3259500649  2.5625279258 -2.6948931271
H  -1.3940950076  2.4154149002 -2.3851936703
H  -0.2671643892  2.7978697541 -1.0532057935
O   2.4526190778 -1.0773323455 -0.4885042420
H   3.0705628675 -1.7753769516 -0.6642617109
H   2.3100346924 -0.0420079638 -1.3877697274
22
Image 8  Energy = -424.8231986448
C  -0.3547523569  0.0303074498 -0.4998431988
C  -0.2741172232  0.7617787972 -1.7354751008
H  -0.2847194193  0.1294883934 -2.6071988759
O   0.0082100966 -1.2755329245 -0.5366728094
H   1.0764260849 -1.3114848621 -0.4799589983
O   1.9800701230  0.7637550843 -2.0795509811
H   2.1787919708  0.4261529174 -2.9714821739
C   0.0819540172  0.7713577167  0.7617923835
H  -0.4199301868  1.7209480932  0.9014723675
H  -0.1562584927  0.1337935154  1.6092019361
H   1.1604612893  0.9169727040  0.7031793640
C  -2.0202508570  0.1725142715 -0.7287405429
H  -2.3219963642  1.1113515810 -0.2596958016
H  -2.3484612208  0.0831593484 -1.7874521051
H  -2.4444342187 -0.6672569583 -0.1587040163
C  -0.4075558780  2.2209452719 -1.9580127898
H   0.3232985153  2.5606053917 -2.6920807861
H  -1.3972147104  2.4164263786 -2.3863851549
H  -0.2672910131  2.7983228637 -1.0524907896
O   2.4527583392 -1.0772642572 -0.4885558641
H   3.0696026679 -1.7745206346 -0.6642781073
H   2.3103273354 -0.0426920952 -1.3871435419
22
Image 9  Energy = -424.8228780600
C  -0.3550669558  0.0305182126 -0.4998422461
C  -0.2736693782  0.7617965089 -1.7357989890
H  -0.2852417755  0.1304947033 -2.6052691578
O   0.0076252394 -1.2755628474 -0.5367271947
H   1.0847974111 -1.3130177276 -0.4794858443
O   1.9799702492  0.7637821035 -2.0793250326
H   2.1793151239  0.4251684033 -2.9744583636
C   0.0819069100  0.7714014266  0.7617385105
H  -0.4195576680  1.7204425683  0.9010305596
H  -0.1562977633  0.1331549600  1.6099254979
H   1.1611314229  0.9169923019  0.7032668873
C  -2.0201623555  0.1718259295 -0.7277502497
H  -2.3227933853  1.1147243545 -0.2586412151
H  -2.3513508850  0.0825232444 -1.7956950284
H  -2.4416790089 -0.6634762510 -0.1616315546
C  -0.4070800513  2.2209626929 -1.9581947816
H   0.3206477209  2.5586827871 -2.6892687269
H  -1.4003336497  2.4174377526 -2.3875768654
H  -0.2674169003  2.7987758723 -1.0517760423
O   2.4528983309 -1.0771962607 -0.4886077356
H   3.0686432137 -1.7736644217 -0.6642947541
H   2.3106207083 -0.0433763195 -1.3865176060
22
Image 10  Energy = -424.8222760071
C  -0.3553808084  0.0307288733 -0.4998415528
C  -0.2732207894  0.7618141229 -1.7361231323
H  -0.2857633875  0.1315009019 -2.6033397234
O   0.0070411379 -1.2755928681 -0.5367818323
H   1.0931693705 -1.3145506708 -0.4790129511
O   1.9798711193  0.7638090258 -2.0790993405
H   2.1798390117  0.4241838098 -2.9774347649
C   0.0818605497  0.7714450381  0.7616843817
H  -0.4191844040  1.7199369534  0.9005885026
H  -0.1563362868  0.1325163149  1.6106487935
H   1.1618022943  0.9170117984  0.7033541497
C  -2.0200731098  0.1711374996 -0.7267602261
H  -2.3235895801  1.1180969170 -0.2575867165
H  -2.3542399056  0.0818873441 -1.8039380668
H  -2.4389230917 -0.6596957437 -0.1645594066
C  -0.4066034852  2.2209800171 -1.9583770253
H   0.3179977015  2.5567601125 -2.6864569595
H  -1.4034518050  2.4184490185 -2.3887688055
H  -0.2675420351  2.7992287767 -1.0510615582
O   2.4530390683 -1.0771283587 -0.4886598621
H   3.0676845220 -1.7728083167 -0.6643116569
H   2.3109148261 -0.0440606383 -1.3858919261
22
Image 11  Energy = -424.8214272208
C  -0.3554529121  0.0309040066 -0.4999221579
C  -0.2725461071  0.7618013481 -1.7365209111
H  -0.2860398477  0.1324531820 -2.6015368829
O   0.0067070363 -1.2756523499 -0.5369144666
H   1.1015779631 -1.3160773852 -0.4786310598
O   1.9800088055  0.7638056273 -2.0789583909
H   2.1805845876  0.4231941907 -2.9804193504
C   0.0820508876  0.7714575558  0.7615511313
H  -0.4185831913  1.7194135819  0.9000769934
H  -0.1561382027  0.1318626101  1.6112745599
H   1.1626929881  0.9169997285  0.7033579558
C  -2.0197506532  0.1704355950 -0.7258740493
H  -2.3241095126  1.1213380260 -0.2565802005
H  -2.3568692066  0.0813285656 -1.8120561480
H  -2.4359976038 -0.6560511580 -0.1675284801
C  -0.4059027554  2.2209672528 -1.9586346251
H   0.3156440100  2.5548536694 -2.6837915507
H  -1.4062616359  2.4194072219 -2.3900093842
H  -0.2674271759  2.7996407625 -1.0504435262
O   2.4534124822 -1.0770907596 -0.4887908818
H   3.0669852584 -1.7720021440 -0.6644084755
H   2.3114384060 -0.0447606064 -1.3853586735
22
Image 12  Energy = -424.8205045733
C  -0.3557199750  0.0310802929 -0.4999196728
C  -0.2721778120  0.7618167370 -1.7367891424
H  -0.2864800205  0.1332924548 -2.5999270042
O   0.0062147058 -1.2756766547 -0.5369581409
H   1.1085495959 -1.3173542199 -0.4782350809
O   1.9799206878  0.7638287669 -2.0787684375
H   2.1810156983  0.4223743069 -2.9828980216
C   0.0820067210  0.7714946130  0.7615079072
H  -0.4182776732  1.7189929089  0.8997104606
H  -0.1561758403  0.1313310812  1.6118792371
H   1.1632465561  0.9170167130  0.7034325896
C  -2.0196817999  0.1698625662 -0.7250470825
H  -2.3247791016  1.1241499209 -0.2557008543
H  -2.3592813862  0.0807971484 -1.8189242049
H  -2.4337063491 -0.6528994063 -0.1699659387
C  -0.4055111143  2.2209823933 -1.9587846368
H   0.3134300155  2.5532520162 -2.6814463670
H  -1.4088657937  2.4202506948 -2.3910009376
H  -0.2675370264  2.8000189253 -1.0498462129
O   2.4535242322 -1.0770334910 -0.4888324437
H   3.0661807332 -1.7712879687 -0.6644206777
H   2.3116779727 -0.0453301601 -1.3848354145
22
Image 13  Energy = -424.8191633618
C  -0.3560330002  0.0312908217 -0.4999192769
C  -0.2717283999  0.7618342242 -1.7371135778
H  -0.2870008071  0.1342985098 -2.5979978980
O   0.0056314428 -1.2757068020 -0.5370130677
H   1.1169222398 -1.3188872642 -0.4777624877
O   1.9798223822  0.7638555633 -2.0785430398
H   2.1815403987  0.4213896093 -2.9858746613
C   0.0819611882  0.7715380971  0.7614534851
H  -0.4179035845  1.7184871769  0.8992681184
H  -0.1562135360  0.1306923197  1.6126022264
H   1.1639182434  0.9170360788  0.7035195528
C  -2.0195917299  0.1691740222 -0.7240573696
H  -2.3255743780  1.1275222230 -0.2546464609
H  -2.3621696914  0.0801614636 -1.8271673635
H  -2.4309496540 -0.6491191476 -0.1728941446
C  -0.4050337299  2.2209995918 -1.9589671690
H   0.3107808598  2.5513292498 -2.6786349386
H  -1.4119830741  2.4212618205 -2.3921931393
H  -0.2676613272  2.8004716949 -1.0491320319
O   2.4536657955 -1.0769657119 -0.4888848626
H   3.0652228883 -1.7704320032 -0.6644378742
H   2.3119729153 -0.0460146006 -1.3842100291
22
Image 14  Energy = -424.8178545096
C  -0.3563000349  0.0314670918 -0.4999168052
C  -0.2713600761  0.7618495971 -1.7373818225
H  -0.2874409519  0.1351377665 -2.5963880329
O   0.0051391410 -1.2757311230 -0.5370567550
H   1.1238938999 -1.3201641148 -0.4773665218
O   1.9797342927  0.7638786869 -2.0783530993
H   2.1819715374  0.4205697099 -2.9883533450
C   0.0819170502  0.7715751382  0.7614102479
H  -0.4175980376  1.7180664880  0.8989015726
H  -0.1562511451  0.1301607748  1.6132068903
H   1.1644718398  0.9170530470  0.7035941732
C  -2.0195228482  0.1686009775 -0.7232304160
H  -2.3262439326  1.1303340958 -0.2537671127
H  -2.3645818539  0.0796300547 -1.8340354302
H  -2.4286583714 -0.6459674169 -0.1753316238
C  -0.4046420604  2.2210147163 -1.9591171936
H   0.3085668938  2.5497275810 -2.6762897684
H  -1.4145872032  2.4221052774 -2.3931847048
H  -0.2677711488  2.8008498415 -1.0485347317
O   2.4537775741 -1.0769084590 -0.4889264376
H   3.0644183920 -1.7697178438 -0.6644500895
H   2.3122125106 -0.0465841708 -1.3836867826
22
Image 15  Energy = -424.8163750273
C  -0.3565669941  0.0316433510 -0.4999143603
C  -0.2709916763  0.7618649592 -1.7376500938
H  -0.2878810217  0.1359770121 -2.5947781949
O   0.0046469154 -1.2757554547 -0.5371004682
H   1.1308656332 -1.3214409756 -0.4769705822
O   1.9796462787  0.7639017999 -2.0781631850
H   2.1824027513  0.4197498006 -2.9908320536
C   0.0818729880  0.7716121687  0.7613669842
H  -0.4172924147  1.7176457887  0.8985350007
H  -0.1562886783  0.1296292193  1.6138115276
H   1.1650255119  0.9170700041  0.7036687669
C  -2.0194538907  0.1680279223 -0.7224034892
H  -2.3269134041  1.1331459497 -0.2528877724
H  -2.3669939544  0.0790986656 -1.8409035176
H  -2.4263670141 -0.6428157035 -0.1777691385
C  -0.4042503152  2.2210298301 -1.9592672443
H   0.3063530037  2.5481259024 -2.6739446252
H  -1.4171912560  2.4229487237 -2.3941762952
H  -0.2678808941  2.8012279773 -1.0479374579
O   2.4538894286 -1.0768512164 -0.4889680389
H   3.0636139722 -1.7690036952 -0.6644623313
H   2.3124521820 -0.0471537520 -1.3831635618
22
Image 16  Energy = -424.8157791558
C  -0.3568338803  0.0318195999 -0.4999119411
C  -0.2706232029  0.7618803113 -1.7379183908
H  -0.2883210190  0.1368162473 -2.5931683832
O   0.0041547634 -1.2757797964 -0.5371442066
H   1.1378374370 -1.3227178461 -0.4765746681
O   1.9795583376  0.7639249029 -2.0779732959
H   2.1828340379  0.4189298822 -2.9933107864
C   0.0818289991  0.7716491890  0.7613236950
H  -0.4169867182  1.7172250795  0.8981684035
H  -0.1563261382  0.1290976539  1.6144161392
H   1.1655792570  0.9170869508  0.7037433347
C  -2.0193848601  0.1674548574 -0.7215765881
H  -2.3275827951  1.1359577858 -0.2520084399
H  -2.3694059945  0.0785672956 -1.8477716248
H  -2.4240755846 -0.6396640063 -0.1802066873
C  -0.4038584969  2.2210449340 -1.9594173202
H   0.3041391871  2.5465242146 -2.6715995082
H  -1.4197952348  2.4237921598 -2.3951679097
H  -0.2679905656  2.8016061028 -1.0473402095
O   2.4540013566 -1.0767939835 -0.4890096656
H   3.0628096263 -1.7682895568 -0.6644745986
H   2.3126919268 -0.0477233437 -1.3826403658
22
Image 17  Energy = -424.8139754252
C  -0.3571005462  0.0319958187 -0.4999095990
C  -0.2702545076  0.7618956341 -1.7381867647
H  -0.2887607971  0.1376554522 -2.5915586501
O   0.0036628339 -1.2758041677 -0.5371880202
H   1.1448094532 -1.3239947445 -0.4761788302
O   1.9794706169  0.7639479769 -2.0777834824
H   2.1832655438  0.4181099368 -2.9957895908
C   0.0817852315  0.7716861799  0.7612803296
H  -0.4166807996  1.7168043417  0.8978017309
H  -0.1563633766  0.1285660596  1.6150206738
H   1.1661332229  0.9171038671  0.7038178252
C  -2.0193156086  0.1668817640 -0.7207497643
H  -2.3282519435  1.1387695689 -0.2511291304
H  -2.3718178524  0.0780359838 -1.8546397906
H  -2.4217839372 -0.6365123578 -0.1826443379
C  -0.4034664580  2.2210600089 -1.9595674716
H   0.3019255924  2.5449224999 -2.6692544696
H  -1.4223989903  2.4246355665 -2.3961595959
H  -0.2681000143  2.8019841983 -1.0467430373
O   2.4541135060 -1.0767367787 -0.4890513683
H   3.0620055037 -1.7675754483 -0.6644869420
H   2.3129318933 -0.0482929658 -1.3821172441
22
Image 18  Energy = -424.8120178814
C  -0.3573671423  0.0321720276 -0.4999072816
C  -0.2698857422  0.7619109471 -1.7384551631
H  -0.2892005059  0.1384946469 -2.5899489422
O   0.0031709746 -1.2758285487 -0.5372318578
H   1.1517815362 -1.3252716521 -0.4757830166
O   1.9793829658  0.7639710412 -2.0775936930
H   2.1836971191  0.4172899827 -2.9982684182
C   0.0817415339  0.7717231610  0.7612369399
H  -0.4163748110  1.7163835945  0.8974350343
H  -0.1564005451  0.1280344558  1.6156251838
H   1.1666872586  0.9171207734  0.7038922909
C  -2.0192462872  0.1663086613 -0.7199229652
H  -2.3289210151  1.1415813346 -0.2502498285
H  -2.3742296527  0.0775046901 -1.8615079750
H  -2.4194922211 -0.6333607251 -0.1850820210
C  -0.4030743493  2.2210750741 -1.9597176470
H   0.2997120680  2.5433207764 -2.6669094562
H  -1.4250026752  2.4254789633 -2.3971513051
H  -0.2682093926  2.8023622839 -1.0461458895
O   2.4542257255 -1.0766795833 -0.4890930953
H   3.0612014517 -1.7668613497 -0.6644993098
H   2.3131719300 -0.0488625980 -1.3815941461
22
Image 19  Energy = -424.8099138800
C  -0.3576336692  0.0323482266 -0.4999049887
C  -0.2695169071  0.7619262505 -1.7387235860
H  -0.2896401458  0.1393338316 -2.5883392594
O   0.0026791852 -1.2758529394 -0.5372757193
H   1.1587536858 -1.3265485688 -0.4753872274
O   1.9792953839  0.7639940960 -2.0774039278
H   2.1841287632  0.4164700196 -3.0007472682
C   0.0816979058  0.7717601325  0.7611935258
H  -0.4160687525  1.7159628379  0.8970683136
H  -0.1564376440  0.1275028425  1.6162296692
H   1.1672413636  0.9171376696  0.7039667321
C  -2.0191768964  0.1657355491 -0.7190961907
H  -2.3295900104  1.1443930831 -0.2493705342
H  -2.3766413957  0.0769734145 -1.8683761778
H  -2.4172004366 -0.6302091083 -0.1875197364
C  -0.4026821713  2.2210901298 -1.9598678465
H   0.2974986134  2.5417190441 -2.6645644679
H  -1.4276062898  2.4263223505 -2.3981430371
H  -0.2683187009  2.8027403596 -1.0455487659
O   2.4543380145 -1.0766223972 -0.4891348465
H   3.0603974699 -1.7661472609 -0.6645117018
H   2.3134120363 -0.0494322401 -1.3810710718
22
Image 20  Energy = -424.8076678040
C  -0.3579001251  0.0325244155 -0.4999027210
C  -0.2691480004  0.7619415440 -1.7389920339
H  -0.2900797151  0.1401730060 -2.5867296024
O   0.0021874676 -1.2758773401 -0.5373196054
H   1.1657259034 -1.3278254949 -0.4749914630
O   1.9792078730  0.7640171409 -2.0772141872
H   2.1845604781  0.4156500476 -3.0032261416
C   0.0816543491  0.7717970940  0.7611500869
H  -0.4157626225  1.7155420716  0.8967015683
H  -0.1564746715  0.1269712194  1.6168341294
H   1.1677955397  0.9171545556  0.7040411480
C  -2.0191074344  0.1651624274 -0.7182694416
H  -2.3302589274  1.1472048138 -0.2484912475
H  -2.3790530798  0.0764421573 -1.8752443994
H  -2.4149085820 -0.6270575078 -0.1899574849
C  -0.4022899222  2.2211051756 -1.9600180706
H   0.2952852305  2.5401173028 -2.6622195053
H  -1.4302098323  2.4271657275 -2.3991347924
H  -0.2684279374  2.8031184251 -1.0449516672
O   2.4544503750 -1.0765652206 -0.4891766224
H   3.0595935601 -1.7654331823 -0.6645241187
H   2.3136522141 -0.0500018925 -1.3805480218
22
Image 21  Energy = -424.8052785013
C  -0.3581665070  0.0327005937 -0.4999004796
C  -0.2687790194  0.7619568271 -1.7392605079
H  -0.2905192108  0.1410121696 -2.5851199723
O   0.0016958246 -1.2759017512 -0.5373635171
H   1.1726981917 -1.3291024308 -0.4745957245
O   1.9791204361  0.7640401755 -2.0770244723
H   2.1849922665  0.4148300661 -3.0057050392
C   0.0816108667  0.7718340451  0.7611066221
H  -0.4154564180  1.7151212953  0.8963347975
H  -0.1565116247  0.1264395862  1.6174385635
H   1.1683497898  0.9171714310  0.7041155376
C  -2.0190378983  0.1645892957 -0.7174427187
H  -2.3309277630  1.1500165261 -0.2476119690
H  -2.3814647027  0.0759109194 -1.8821126404
H  -2.4126166545 -0.6239059244 -0.1923952678
C  -0.4018975991  2.2211202112 -1.9601683203
H   0.2930719223  2.5385155522 -2.6598745695
H  -1.4328132997  2.4280090942 -2.4001265722
H  -0.2685370992  2.8034964801 -1.0443545945
O   2.4545628098 -1.0765080540 -0.4892184242
H   3.0587897253 -1.7647191142 -0.6645365616
H   2.3138924663 -0.0505715555 -1.3800249971
22
Image 22  Energy = -424.8027395735
C  -0.3584328130  0.0328767611 -0.4998982650
C  -0.2684099620  0.7619720997 -1.7395290087
H  -0.2909586310  0.1418513222 -2.5835103697
O   0.0012042582 -1.2759261729 -0.5374074549
H   1.1796705525 -1.3303793767 -0.4742000127
O   1.9790330750  0.7640631997 -2.0768347838
H   2.1854241304  0.4140100749 -3.0081839616
C   0.0815674604  0.7718709856  0.7610631306
H  -0.4151501370  1.7147005087  0.8959680003
H  -0.1565485017  0.1259079426  1.6180429706
H   1.1689041159  0.9171882953  0.7041899003
C  -2.0189682860  0.1640161537 -0.7166160228
H  -2.3315965148  1.1528282192 -0.2467326987
H  -2.3838762626  0.0753797012 -1.8889809014
H  -2.4103246521 -0.6207543585 -0.1948330858
C  -0.4015052000  2.2211352363 -1.9603185964
H   0.2908586907  2.5369137920 -2.6575296614
H  -1.4354166899  2.4288524501 -2.4011183768
H  -0.2686461842  2.8038745243 -1.0437575484
O   2.4546753209 -1.0764508975 -0.4892602525
H   3.0579859675 -1.7640050570 -0.6645490309
H   2.3141327949 -0.0511412294 -1.3795019983
22
Image 23  Energy = -424.8000445941
C  -0.3586990431  0.0330529177 -0.4998960773
C  -0.2680408283  0.7619873616 -1.7397975362
H  -0.2913979758  0.1426904637 -2.5819007947
O   0.0007127684 -1.2759506052 -0.5374514190
H   1.1866429856 -1.3316563325 -0.4738043275
O   1.9789457897  0.7640862133 -2.0766451216
H   2.1858560697  0.4131900741 -3.0106629087
C   0.0815241303  0.7719079155  0.7610196126
H  -0.4148437798  1.7142797118  0.8956011770
H  -0.1565853025  0.1253762886  1.6186473508
H   1.1694585179  0.9172051487  0.7042642360
C  -2.0188985978  0.1634430015 -0.7157893540
H  -2.3322651831  1.1556398932 -0.2458534368
H  -2.3862877597  0.0748485027 -1.8958491820
H  -2.4080325752 -0.6176028101 -0.1972709391
C  -0.4011127251  2.2211502509 -1.9604688987
H   0.2886455357  2.5353120222 -2.6551847808
H  -1.4380200031  2.4296957953 -2.4021102065
H  -0.2687551926  2.8042525576 -1.0431605290
O   2.4547879081 -1.0763937513 -0.4893021073
H   3.0571822866 -1.7632910106 -0.6645615269
H   2.3143731997 -0.0517109143 -1.3789790255
22
Image 24  Energy = -424.7971927951
C  -0.3589652337  0.0332290682 -0.4998939038
C  -0.2676716548  0.7620026177 -1.7400660779
H  -0.2918372812  0.1435295992 -2.5802912343
O   0.0002213185 -1.2759750434 -0.5374953969
H   1.1936154563 -1.3329332938 -0.4734086563
O   1.9788585440  0.7641092212 -2.0764554734
H   2.1862880483  0.4123700680 -3.0131418690
C   0.0814808399  0.7719448395  0.7609760806
H  -0.4145373827  1.7138589092  0.8952343397
H  -0.1566220636  0.1248446289  1.6192517167
H   1.1700129593  0.9172219961  0.7043385574
C  -2.0188288700  0.1628698437 -0.7149626995
H  -2.3329338078  1.1584515570 -0.2449741793
H  -2.3886992239  0.0743173142 -1.9027174731
H  -2.4057404593 -0.6144512713 -0.1997088109
C  -0.4007202106  2.2211652597 -1.9606192149
H   0.2864324206  2.5337102471 -2.6528399149
H  -1.4406232760  2.4305391345 -2.4031020493
H  -0.2688641610  2.8046305849 -1.0425635236
O   2.4549005351 -1.0763366107 -0.4893439761
H   3.0563786457 -1.7625769702 -0.6645740369
H   2.3146136443 -0.0522806051 -1.3784560664
22
Image 25  Energy = -424.7941908202
C  -0.3592313535  0.0334052085 -0.4998917555
C  -0.2673024100  0.7620178639 -1.7403346447
H  -0.2922765162  0.1443687242 -2.5786816998
O  -0.0002700599 -1.2759994917 -0.5375393994
H   1.2005879944 -1.3342102645 -0.4730130101
O   1.9787713690  0.7641322192 -2.0762658499
H   2.1867200974  0.4115500528 -3.0156208523
C   0.0814376207  0.7719817535  0.7609325236
H  -0.4142309143  1.7134380970  0.8948674779
H  -0.1566587535  0.1243129595  1.6198560575
H   1.1705674717  0.9172388331  0.7044128536
C  -2.0187590712  0.1622966762 -0.7141360703
H  -2.3336023544  1.1612632028 -0.2440949298
H  -2.3911106293  0.0737861441 -1.9095857826
H  -2.4034482736 -0.6112997490 -0.2021467156
C  -0.4003276252  2.2211802586 -1.9607695557
H   0.2842193771  2.5321084631 -2.6504950748
H  -1.4432264768  2.4313824636 -2.4040939154
H  -0.2689730578  2.8050086020 -1.0419665431
O   2.4550132333 -1.0762794797 -0.4893858697
H   3.0555750768 -1.7618629400 -0.6645865718
H   2.3148541601 -0.0528503062 -1.3779331317
22
Image 26  Energy = -424.7910466065
C  -0.3594974041  0.0335813388 -0.4998896318
C  -0.2669330957  0.7620331002 -1.7406032359
H  -0.2927156823  0.1452078389 -2.5770721906
O  -0.0007613684 -1.2760239497 -0.5375834259
H   1.2075605982 -1.3354872443 -0.4726173882
O   1.9786842632  0.7641552074 -2.0760762505
H   2.1871522152  0.4107300288 -3.0180998582
C   0.0813944708  0.7720186577  0.7608889424
H  -0.4139243763  1.7130172752  0.8945005920
H  -0.1566953739  0.1237812804  1.6204603736
H   1.1711220533  0.9172556600  0.7044871251
C  -2.0186892031  0.1617234994 -0.7133094658
H  -2.3342708247  1.1640748309 -0.2432156879
H  -2.3935219773  0.0732549919 -1.9164541099
H  -2.4011560200 -0.6081482430 -0.2045846523
C  -0.3999349707  2.2211952479 -1.9609199205
H   0.2820064037  2.5305066704 -2.6481502601
H  -1.4458296072  2.4322257828 -2.4050858043
H  -0.2690818847  2.8053866090 -1.0413695871
O   2.4551260010 -1.0762223582 -0.4894277875
H   3.0547715780 -1.7611489199 -0.6645991309
H   2.3150947455 -0.0534200174 -1.3774102207
22
Image 27  Energy = -424.7879881766
C  -0.3597633867  0.0337574592 -0.4998875323
C  -0.2665637130  0.7620483269 -1.7408718511
H  -0.2931547808  0.1460469436 -2.5754627062
O  -0.0012526083 -1.2760484174 -0.5376274759
H   1.2145332664 -1.3367642331 -0.4722217902
O   1.9785972254  0.7641781862 -2.0758866749
H   2.1875844006  0.4099099960 -3.0205788863
C   0.0813513893  0.7720555522  0.7608453372
H  -0.4136177699  1.7125964441  0.8941336826
H  -0.1567319261  0.1232495920  1.6210646655
H   1.1716767028  0.9172724770  0.7045613724
C  -2.0186192669  0.1611503132 -0.7124828857
H  -2.3349392202  1.1668864417 -0.2423364536
H  -2.3959332687  0.0727238572 -1.9233224546
H  -2.3988636995 -0.6049967531 -0.2070226205
C  -0.3995422481  2.2212102275 -1.9610703090
H   0.2797934989  2.5289048690 -2.6458054703
H  -1.4484326684  2.4330690922 -2.4060777155
H  -0.2691906429  2.8057646062 -1.0407726550
O   2.4552388369 -1.0761652459 -0.4894697291
H   3.0539681481 -1.7604349097 -0.6646117139
H   2.3153353991 -0.0539897384 -1.3768873330
22
Image 28  Energy = -424.7845707888
C  -0.3600292670  0.0339335651 -0.4998854689
C  -0.2661942275  0.7620635394 -1.7411405023
H  -0.2935937776  0.1468860334 -2.5738532592
O  -0.0017437449 -1.2760728994 -0.5376715612
H   1.2215060314 -1.3380412352 -0.4718262281
O   1.9785102897  0.7642011508 -2.0756971347
H   2.1880166876  0.4090899503 -3.0230579474
C   0.0813084104  0.7720924324  0.7608016963
H  -0.4133110605  1.7121755993  0.8937667379
H  -0.1567683756  0.1227178897  1.6216689212
H   1.1722314545  0.9172892793  0.7046355834
C  -2.0185492282  0.1605771134 -0.7116563421
H  -2.3356075028  1.1696980265 -0.2414572306
H  -2.3983444750  0.0721927492 -1.9301908252
H  -2.3965712786 -0.6018452870 -0.2094606358
C  -0.3991494234  2.2212251931 -1.9612207328
H   0.2775806977  2.5273030550 -2.6434607179
H  -1.4510356254  2.4339123870 -2.4070696603
H  -0.2692992978  2.8061425887 -1.0401757588
O   2.4553517755 -1.0761081473 -0.4895117064
H   3.0531648220 -1.7597209141 -0.6646243327
H   2.3155761556 -0.0545594740 -1.3763644804
22
Image 29  Energy = -424.7810191244
C  -0.3602950804  0.0341096611 -0.4998834294
C  -0.2658246747  0.7620787424 -1.7414091773
H  -0.2940327078  0.1477251131 -2.5722438367
O  -0.0022348139 -1.2760973909 -0.5377156697
H   1.2284788596 -1.3393182461 -0.4714306896
O   1.9784234209  0.7642241060 -2.0755076179
H   2.1884490411  0.4082698961 -3.0255370302
C   0.0812654986  0.7721293031  0.7607580318
H  -0.4130042839  1.7117547453  0.8933997699
H  -0.1568047579  0.1221861781  1.6222731529
H   1.1727862732  0.9173060717  0.7047097705
C  -2.0184791225  0.1600039045 -0.7108298224
H  -2.3362757117  1.1725095941 -0.2405780152
H  -2.4007556256  0.0716616584 -1.9370592128
H  -2.3942787919 -0.5986938369 -0.2118986820
C  -0.3987565317  2.2212401493 -1.9613711799
H   0.2753679642  2.5257012325 -2.6411159902
H  -1.4536385142  2.4347556722 -2.4080616270
H  -0.2694078850  2.8065205615 -1.0395788862
O   2.4554647814 -1.0760510579 -0.4895537071
H   3.0523615638 -1.7590069283 -0.6646369750
H   2.3158169794 -0.0551292193 -1.3758416508
22
Image 30  Energy = -424.7773384085
C  -0.3605608237  0.0342857470 -0.4998814148
C  -0.2654550515  0.7620939354 -1.7416778770
H  -0.2944715683  0.1485641824 -2.5706344400
O  -0.0027258122 -1.2761218924 -0.5377598025
H   1.2354517538 -1.3405952663 -0.4710351759
O   1.9783366221  0.7642470513 -2.0753181257
H   2.1888814643  0.4074498329 -3.0280161358
C   0.0812226572  0.7721661638  0.7607143427
H  -0.4126974367  1.7113338816  0.8930327776
H  -0.1568410698  0.1216544568  1.6228773596
H   1.1733411618  0.9173228538  0.7047839325
C  -2.0184089466  0.1594306860 -0.7100033279
H  -2.3369438433  1.1753211437 -0.2396988077
H  -2.4031667179  0.0711305856 -1.9439276180
H  -2.3919862365 -0.5955424035 -0.2143367606
C  -0.3983635700  2.2212550956 -1.9615216514
H   0.2731553017  2.5240994012 -2.6387712883
H  -1.4562413314  2.4355989472 -2.4090536168
H  -0.2695164014  2.8068985241 -1.0389820384
O   2.4555778576 -1.0759939780 -0.4895957324
H   3.0515583767 -1.7582929528 -0.6646496420
H   2.3160578736 -0.0556989749 -1.3753188453
22
Image 31  Energy = -424.7735314056
C  -0.3608264890  0.0344618215 -0.4998794279
C  -0.2650853499  0.7621091174 -1.7419466042
H  -0.2949103511  0.1494032401 -2.5690250720
O  -0.0032167317 -1.2761464050 -0.5378039624
H   1.2424247215 -1.3418722966 -0.4706396896
O   1.9782499013  0.7642699856 -2.0751286606
H   2.1893139649  0.4066297597 -3.0304952666
C   0.0811798941  0.7722030135  0.7606706262
H  -0.4123905111  1.7109130072  0.8926657583
H  -0.1568773034  0.1211227248  1.6234815385
H   1.1738961284  0.9173396246  0.7048580668
C  -2.0183386926  0.1588574569 -0.7091768614
H  -2.3376118890  1.1781326731 -0.2388196090
H  -2.4055777451  0.0705995329 -1.9507960427
H  -2.3896936046 -0.5923909886 -0.2167748750
C  -0.3979705303  2.2212700309 -1.9616721500
H   0.2709427183  2.5224975602 -2.6364266151
H  -1.4588440691  2.4364422108 -2.4100456322
H  -0.2696248390  2.8072764753 -1.0383852181
O   2.4556910122 -1.0759369088 -0.4896377850
H   3.0507552688 -1.7575789886 -0.6646623363
H   2.3162988461 -0.0562687417 -1.3747960667
22
Image 32  Energy = -424.7695897975
C  -0.3610920650  0.0346378831 -0.4998774727
C  -0.2647155586  0.7621242868 -1.7422153630
H  -0.2953490451  0.1502422845 -2.5674157367
O  -0.0037075611 -1.2761709302 -0.5378481531
H   1.2493977731 -1.3431493386 -0.4702442347
O   1.9781632696  0.7642929075 -2.0749392266
H   2.1897465541  0.4058096752 -3.0329744261
C   0.0811372206  0.7722398505  0.7606268784
H  -0.4120834957  1.7104921207  0.8922987082
H  -0.1569134473  0.1205909806  1.6240856856
H   1.1744511841  0.9173563823  0.7049321693
C  -2.0182683492  0.1582842158 -0.7083504268
H  -2.3382798362  1.1809441795 -0.2379404203
H  -2.4079886979  0.0700685034 -1.9576644896
H  -2.3874008852 -0.5892395951 -0.2192130305
C  -0.3975774015  2.2212849538 -1.9618226795
H   0.2687302253  2.5208957081 -2.6340819749
H  -1.4614467156  2.4372854616 -2.4110376768
H  -0.2697331865  2.8076544136 -1.0377884293
O   2.4558042564 -1.0758798517 -0.4896798688
H   3.0499522515 -1.7568650375 -0.6646750620
H   2.3165399084 -0.0568385213 -1.3742733187
22
Image 33  Energy = -424.7654926152
C  -0.3613575414  0.0348139303 -0.4998755529
C  -0.2643456672  0.7621394423 -1.7424841568
H  -0.2957876400  0.1510813142 -2.5658064380
O  -0.0041982898 -1.2761954695 -0.5378923783
H   1.2563709181 -1.3444263934 -0.4698488148
O   1.9780767375  0.7643158156 -2.0747498273
H   2.1901792423  0.4049895782 -3.0354536177
C   0.0810946471  0.7722766735  0.7605830957
H  -0.4117763802  1.7100712208  0.8919316236
H  -0.1569494913  0.1200592228  1.6246897972
H   1.1750063394  0.9173731256  0.7050062363
C  -2.0181979060  0.1577109613 -0.7075240280
H  -2.3389476736  1.1837556603 -0.2370612428
H  -2.4103995674  0.0695374996 -1.9645329609
H  -2.3851080683 -0.5860882253 -0.2216512316
C  -0.3971841731  2.2212998629 -1.9619732435
H   0.2665178334  2.5192938438 -2.6317373715
H  -1.4640492604  2.4381286981 -2.4120297539
H  -0.2698414332  2.8080323375 -1.0371916756
O   2.4559176005 -1.0758228081 -0.4897219874
H   3.0491493354 -1.7561511007 -0.6646878225
H   2.3167810707 -0.0574083152 -1.3737506050
22
Image 34  Energy = -424.7612171154
C  -0.3616229134  0.0349899626 -0.4998736700
C  -0.2639756709  0.7621545831 -1.7427529874
H  -0.2962261310  0.1519203284 -2.5641971777
O  -0.0046889130 -1.2762200234 -0.5379366395
H   1.2633441608 -1.3457034617 -0.4694534317
O   1.9779903098  0.7643387091 -2.0745604644
H   2.1906120342  0.4041694681 -3.0379328426
C   0.0810521784  0.7723134818  0.7605392764
H  -0.4114691596  1.7096503068  0.8915645030
H  -0.1569854304  0.1195274508  1.6252938716
H   1.1755615989  0.9173898538  0.7050802663
C  -2.0181273582  0.1571376928 -0.7066976665
H  -2.3396153957  1.1865671140 -0.2361820772
H  -2.4128103497  0.0690065230 -1.9714014577
H  -2.3828151491 -0.5829368806 -0.2240894804
C  -0.3967908404  2.2213147574 -1.9621238437
H   0.2643055475  2.5176919667 -2.6293928066
H  -1.4666516983  2.4389719195 -2.4130218652
H  -0.2699495745  2.8084102463 -1.0365949587
O   2.4560310496 -1.0757657786 -0.4897641424
H   3.0483465252 -1.7554371792 -0.6647006196
H   2.3170223380 -0.0579781240 -1.3732279271
22
Image 35  Energy = -424.7567507700
C  -0.3618881832  0.0351659800 -0.4998718234
C  -0.2636055720  0.7621697096 -1.7430218540
H  -0.2966645203  0.1527593273 -2.5625879550
O  -0.0051794331 -1.2762445917 -0.5379809360
H   1.2703174989 -1.3469805430 -0.4690580846
O   1.9779039841  0.7643615884 -2.0743711371
H   2.1910449275  0.4033493452 -3.0404121003
C   0.0810098122  0.7723502757  0.7604954213
H  -0.4111618364  1.7092293789  0.8911973471
H  -0.1570212669  0.1189956649  1.6258979096
H   1.1761169604  0.9174065671  0.7051542598
C  -2.0180567082  0.1565644107 -0.7058713417
H  -2.3402830053  1.1893785412 -0.2353029231
H  -2.4152210466  0.0684755728 -1.9782699792
H  -2.3805221300 -0.5797855604 -0.2265277759
C  -0.3963974056  2.2213296378 -1.9622744792
H   0.2620933654  2.5160900771 -2.6270482796
H  -1.4692540317  2.4398151262 -2.4140140097
H  -0.2700576125  2.8087881403 -1.0359982779
O   2.4561446012 -1.0757087629 -0.4898063331
H   3.0475438189 -1.7547232726 -0.6647134525
H   2.3172637078 -0.0585479474 -1.3727052844
22
Image 36  Energy = -424.7520970814
C  -0.3621533580  0.0353419837 -0.4998700104
C  -0.2632353777  0.7621848227 -1.7432907540
H  -0.2971028150  0.1535983121 -2.5609787674
O  -0.0056698572 -1.2762691734 -0.5380252654
H   1.2772909254 -1.3482576366 -0.4686627709
O   1.9778177532  0.7643844544 -2.0741818428
H   2.1914779150  0.4025292103 -3.0428913882
C   0.0809675412  0.7723870562  0.7604515329
H  -0.4108544177  1.7088084381  0.8908301584
H  -0.1570570081  0.1184638660  1.6265019136
H   1.1766724167  0.9174232665  0.7052282196
C  -2.0179859631  0.1559911158 -0.7050450510
H  -2.3409505101  1.1921899436 -0.2344237799
H  -2.4176316639  0.0679446471 -1.9851385235
H  -2.3782290182 -0.5766342632 -0.2289661148
C  -0.3960038761  2.2213445048 -1.9624251476
H   0.2598812797  2.5144881759 -2.6247037880
H  -1.4718562680  2.4406583190 -2.4150061852
H  -0.2701655547  2.8091660205 -1.0354016306
O   2.4562582480 -1.0756517601 -0.4898485571
H   3.0467412089 -1.7540093798 -0.6647263187
H   2.3175051730 -0.0591177844 -1.3721826744
22
Image 37  Energy = -424.7472723477
C  -0.3624184448  0.0355179745 -0.4998682288
C  -0.2628650952  0.7621999232 -1.7435596851
H  -0.2975410222  0.1544372836 -2.5593696124
O  -0.0061601924 -1.2762937677 -0.5380696253
H   1.2842644336 -1.3495347416 -0.4682674884
O   1.9777316103  0.7644073081 -2.0739925794
H   2.1919109898  0.4017090643 -3.0453707043
C   0.0809253586  0.7724238241  0.7604076136
H  -0.4105469106  1.7083874854  0.8904629392
H  -0.1570926610  0.1179320551  1.6271058862
H   1.1772279608  0.9174399531  0.7053021479
C  -2.0179151299  0.1554178090 -0.7042187920
H  -2.3416179178  1.1950013229 -0.2335446469
H  -2.4200422075  0.0674137440 -1.9920070887
H  -2.3759358205 -0.5734829875 -0.2314044937
C  -0.3956102587  2.2213593595 -1.9625758466
H   0.2576692835  2.5128862640 -2.6223593291
H  -1.4744584140  2.4415014989 -2.4159983895
H  -0.2702734079  2.8095438878 -1.0348050145
O   2.4563719832 -1.0755947694 -0.4898908118
H   3.0459386884 -1.7532955001 -0.6647392157
H   2.3177467265 -0.0596876340 -1.3716600947
22
Image 38  Energy = -424.7422963176
C  -0.3626834462  0.0356939529 -0.4998664776
C  -0.2624947269  0.7622150117 -1.7438286464
H  -0.2979791444  0.1552762421 -2.5577604891
O  -0.0066504413 -1.2763183741 -0.5381140148
H   1.2912380210 -1.3508118576 -0.4678722360
O   1.9776455526  0.7644301496 -2.0738033457
H   2.1923441493  0.4008889075 -3.0478500476
C   0.0808832616  0.7724605798  0.7603636642
H  -0.4102393178  1.7079665210  0.8900956905
H  -0.1571282283  0.1174002324  1.6277098282
H   1.1777835900  0.9174566271  0.7053760458
C  -2.0178442113  0.1548444907 -0.7033925639
H  -2.3422852314  1.1978126797 -0.2326655237
H  -2.4224526796  0.0668828630 -1.9988756743
H  -2.3736425394 -0.5703317328 -0.2338429116
C  -0.3952165561  2.2213742021 -1.9627265753
H   0.2554573741  2.5112843415 -2.6200149021
H  -1.4770604726  2.4423446662 -2.4169906217
H  -0.2703811749  2.8099217425 -1.0342084286
O   2.4564858040 -1.0755377903 -0.4899330964
H   3.0451362546 -1.7525816330 -0.6647521428
H   2.3179883657 -0.0602574960 -1.3711375445
22
Image 39  Energy = -424.7371806082
C  -0.3629483606  0.0358699185 -0.4998647573
C  -0.2621242712  0.7622300877 -1.7440976384
H  -0.2984171799  0.1561151875 -2.5561513981
O  -0.0071406023 -1.2763429930 -0.5381584345
H   1.2982116890 -1.3520889849 -0.4674770144
O   1.9775595819  0.7644529789 -2.0736141426
H   2.1927773951  0.4000687396 -3.0503294185
C   0.0808412519  0.7724973231  0.7603196843
H  -0.4099316374  1.7075455446  0.8897284116
H  -0.1571637081  0.1168683977  1.6283137389
H   1.1783393061  0.9174732883  0.7054499125
C  -2.0177732055  0.1542711606 -0.7025663671
H  -2.3429524489  1.2006240134 -0.2317864106
H  -2.4248630786  0.0663520043 -2.0057442803
H  -2.3713491735 -0.5671804994 -0.2362813691
C  -0.3948227666  2.2213890325 -1.9628773342
H   0.2532455534  2.5096824084 -2.6176705078
H  -1.4796624418  2.4431878207 -2.4179828823
H  -0.2704888539  2.8102995845 -1.0336118737
O   2.4565997122 -1.0754808233 -0.4899754116
H   3.0443339093 -1.7518677789 -0.6647651005
H   2.3182300923 -0.0608273706 -1.3706150245
22
Image 40  Energy = -424.7319220367
C  -0.3632131836  0.0360458707 -0.4998630695
C  -0.2617537240  0.7622451508 -1.7443666626
H  -0.2988551246  0.1569541190 -2.5545423410
O  -0.0076306710 -1.2763676249 -0.5382028858
H   1.3051854412 -1.3533661239 -0.4670818250
O   1.9774737024  0.7644757953 -2.0734249714
H   2.1932107315  0.3992485603 -3.0528088185
C   0.0807993339  0.7725340533  0.7602756722
H  -0.4096238654  1.7071245559  0.8893611012
H  -0.1571990963  0.1163365506  1.6289176169
H   1.1788951131  0.9174899361  0.7055237467
C  -2.0177021084  0.1536978181 -0.7017402033
H  -2.3436195657  1.2034353229 -0.2309073081
H  -2.4272734009  0.0658211690 -2.0126129076
H  -2.3690557186 -0.5640292886 -0.2387198680
C  -0.3944288860  2.2214038499 -1.9630281248
H   0.2510338256  2.5080804642 -2.6153261476
H  -1.4822643173  2.4440309617 -2.4189751726
H  -0.2705964408  2.8106774130 -1.0330153511
O   2.4567137120 -1.0754238687 -0.4900177587
H   3.0435316567 -1.7511539383 -0.6647780903
H   2.3184719106 -0.0613972583 -1.3700925360
22
Image 41  Energy = -424.7265114143
C  -0.3634779104  0.0362218089 -0.4998614159
C  -0.2613830800  0.7622602002 -1.7446357208
H  -0.2992929733  0.1577930359 -2.5529333197
O  -0.0081206424 -1.2763922705 -0.5382473705
H   1.3121592823 -1.3546432751 -0.4666866698
O   1.9773879191  0.7644985982 -2.0732358338
H   2.1936441634  0.3984283688 -3.0552882489
C   0.0807575125  0.7725707698  0.7602316263
H  -0.4093159966  1.7067035540  0.8889937575
H  -0.1572343878  0.1158046903  1.6295214604
H   1.1794510163  0.9175065697  0.7055975465
C  -2.0176309149  0.1531244628 -0.7009140742
H  -2.3442865763  1.2062466069 -0.2300282168
H  -2.4296836423  0.0652903586 -2.0194815572
H  -2.3667621699 -0.5608781016 -0.2411584106
C  -0.3940349094  2.2214186539 -1.9631789488
H   0.2488221959  2.5064785084 -2.6129818236
H  -1.4848660939  2.4448740885 -2.4199674943
H  -0.2707039303  2.8110552273 -1.0324188627
O   2.4568278084 -1.0753669274 -0.4900601396
H   3.0427295021 -1.7504401120 -0.6647911139
H   2.3187138255 -0.0619671598 -1.3695700807
22
Image 42  Energy = -424.7209456897
C  -0.3637425344  0.0363977320 -0.4998597988
C  -0.2610123331  0.7622752350 -1.7449048151
H  -0.2997307198  0.1586319372 -2.5513243366
O  -0.0086105100 -1.2764169307 -0.5382918908
H   1.3191332177 -1.3559204395 -0.4662915508
O   1.9773022384  0.7645213866 -2.0730467321
H   2.1940776971  0.3976081645 -3.0577677118
C   0.0807157940  0.7726074717  0.7601875444
H  -0.4090080248  1.7062825382  0.8886263783
H  -0.1572695764  0.1152728160  1.6301252671
H   1.1800070217  0.9175231883  0.7056713097
C  -2.0175596186  0.1525510936 -0.7000879822
H  -2.3449534735  1.2090578635 -0.2291491375
H  -2.4320937973  0.0647595746 -2.0263502303
H  -2.3644685214 -0.5577269400 -0.2435969996
C  -0.3936408303  2.2214334434 -1.9633298084
H   0.2466106709  2.5048765402 -2.6106375383
H  -1.4874677649  2.4457172002 -2.4209598493
H  -0.2708113162  2.8114330266 -1.0318224107
O   2.4569420078 -1.0753100001 -0.4901025563
H   3.0419274518 -1.7497263010 -0.6648041736
H   2.3189558434 -0.0625370759 -1.3690476610
22
Image 43  Energy = -424.7152227711
C  -0.3640070434  0.0365736385 -0.4998582226
C  -0.2606414710  0.7622902536 -1.7451739499
H  -0.3001683518  0.1594708211 -2.5497153964
O  -0.0091002614 -1.2764416072 -0.5383364508
H   1.3261072585 -1.3571976184 -0.4658964725
O   1.9772166724  0.7645441588 -2.0728576706
H   2.1945113447  0.3967879458 -3.0602472107
C   0.0806741909  0.7726441573  0.7601434222
H  -0.4086999375  1.7058615069  0.8882589595
H  -0.1573046495  0.1147409261  1.6307290326
H   1.1805631417  0.9175397901  0.7057450319
C  -2.0174882073  0.1519777091 -0.6992619318
H  -2.3456202439  1.2118690895 -0.2282700716
H  -2.4345038555  0.0642288203 -2.0332189295
H  -2.3621747610 -0.5545758071 -0.2460356405
C  -0.3932466366  2.2214482168 -1.9634807078
H   0.2443992632  2.5032745582 -2.6082932961
H  -1.4900693177  2.4465602949 -2.4219522417
H  -0.2709185859  2.8118108090 -1.0312259995
O   2.4570563224 -1.0752530884 -0.4901450133
H   3.0411255184 -1.7490125069 -0.6648172735
H   2.3191979766 -0.0631070085 -1.3685252810
22
Image 44  Energy = -424.7093338190
C  -0.3642714160  0.0367495251 -0.4998566947
C  -0.2602704720  0.7623052530 -1.7454431326
H  -0.3006058481  0.1603096843 -2.5481065070
O  -0.0095898750 -1.2764663029 -0.5383810579
H   1.3330814240 -1.3584748144 -0.4655014423
O   1.9771312427  0.7645669121 -2.0726686566
H   2.1949451274  0.3959677104 -3.0627267524
C   0.0806327245  0.7726808237  0.7600992522
H  -0.4083917134  1.7054404573  0.8878914938
H  -0.1573395859  0.1142090178  1.6313327493
H   1.1811193975  0.9175563721  0.7058187056
C  -2.0174166596  0.1514043066 -0.6984359305
H  -2.3462868637  1.2146802790 -0.2273910216
H  -2.4369137987  0.0636981013 -2.0400876592
H  -2.3598808683 -0.5514247080 -0.2484743427
C  -0.3928523069  2.2214629712 -1.9636316544
H   0.2421879947  2.5016725602 -2.6059491054
H  -1.4926707301  2.4474033695 -2.4229446782
H  -0.2710257180  2.8121885715 -1.0306296366
O   2.4571707739 -1.0751961953 -0.4901875178
H   3.0403237238 -1.7482987331 -0.6648304212
H   2.3194402466 -0.0636769603 -1.3680029481
22
Image 45  Energy = -424.7032605651
C  -0.3645356278  0.0369253886 -0.4998552237
C  -0.2598993118  0.7623202299 -1.7457123718
H  -0.3010431841  0.1611485233 -2.5464976775
O  -0.0100793259 -1.2764910212 -0.5384257205
H   1.3400557360 -1.3597520303 -0.4651064688
O   1.9770459736  0.7645896431 -2.0724796987
H   2.1953790695  0.3951474552 -3.0652063442
C   0.0805914195  0.7727174674  0.7600550259
H  -0.4080833278  1.7050193862  0.8875239728
H  -0.1573743608  0.1136770880  1.6319364083
H   1.1816758136  0.9175729308  0.7058923220
C  -2.0173449510  0.1508308828 -0.6976099872
H  -2.3469533060  1.2174914255 -0.2265119904
H  -2.4393236063  0.0631674241 -2.0469564242
H  -2.3575868195 -0.5482736492 -0.2509131170
C  -0.3924578168  2.2214777033 -1.9637826566
H   0.2399768906  2.5000705435 -2.6036049753
H  -1.4952719767  2.4482464206 -2.4239371665
H  -0.2711326875  2.8125663106 -1.0300333307
O   2.4572853866 -1.0751393239 -0.4902300785
H   3.0395220928 -1.7475849830 -0.6648436252
H   2.3196826780 -0.0642469348 -1.3674806706
22
Image 46  Energy = -424.6982446846
C  -0.3647500557  0.0370665063 -0.4998529713
C  -0.2596054594  0.7623326274 -1.7459266931
H  -0.3013960954  0.1618200305 -2.5452095073
O  -0.0104739744 -1.2765103781 -0.5384604021
H   1.3456322816 -1.3607734147 -0.4647894249
O   1.9769747018  0.7646082402 -2.0723274771
H   2.1957231830  0.3944916271 -3.0671890317
C   0.0805553052  0.7727471999  0.7600207081
H  -0.4078396973  1.7046829323  0.8872310056
H  -0.1574052523  0.1132519505  1.6324204132
H   1.1821178880  0.9175866085  0.7059522940
C  -2.0172906483  0.1503725440 -0.6969481501
H  -2.3474898296  1.2197411042 -0.2258084329
H  -2.4412539957  0.0627420812 -2.0524506587
H  -2.3557545884 -0.5457521009 -0.2528627322
C  -0.3921452834  2.2214899011 -1.9639024070
H   0.2382049149  2.4987893011 -2.6017285629
H  -1.4973560871  2.4489212847 -2.4247301616
H  -0.2712213538  2.8128689289 -1.0295552198
O   2.4573740046 -1.0750934266 -0.4902630674
H   3.0388776859 -1.7470135554 -0.6648531258
H   2.3198735483 -0.0647024868 -1.3670618094
22
Image 47  Energy = -424.6930625821
C  -0.3649644691  0.0372076218 -0.4998507240
C  -0.2593115923  0.7623450228 -1.7461410196
H  -0.3017489923  0.1624915355 -2.5439213422
O  -0.0108686083 -1.2765297372 -0.5384950887
H   1.3512088416 -1.3617948012 -0.4644723862
O   1.9769034446  0.7646268352 -2.0721752606
H   2.1960673110  0.3938357970 -3.0691717241
C   0.0805192054  0.7727769303  0.7599863851
H  -0.4075960522  1.7043464764  0.8869380333
H  -0.1574361291  0.1128268110  1.6329044129
H   1.1825599771  0.9176002839  0.7060122608
C  -2.0172363310  0.1499142031 -0.6962863180
H  -2.3480263373  1.2219907793 -0.2251048770
H  -2.4431843732  0.0623167419 -2.0579448975
H  -2.3539223429 -0.5432305559 -0.2548123543
C  -0.3918327354  2.2215020968 -1.9640221626
H   0.2364329537  2.4975080566 -2.5998521556
H  -1.4994401828  2.4495961467 -2.4255231616
H  -0.2713100053  2.8131715450 -1.0290771140
O   2.4574626372 -1.0750475313 -0.4902960615
H   3.0382332937 -1.7464421299 -0.6648626314
H   2.3200644332 -0.0651580411 -1.3666429532
22
Image 48  Energy = -424.6877033965
C  -0.3651788688  0.0373487354 -0.4998484816
C  -0.2590177114  0.7623574162 -1.7463553510
H  -0.3021018757  0.1631630386 -2.5426331821
O  -0.0112632284 -1.2765490983 -0.5385297802
H   1.3567854150 -1.3628161896 -0.4641553522
O   1.9768322010  0.7646454283 -2.0720230489
H   2.1964114526  0.3931799650 -3.0711544212
C   0.0804831194  0.7728066588  0.7599520573
H  -0.4073523933  1.7040100185  0.8866450562
H  -0.1574669923  0.1124016694  1.6333884078
H   1.1830020798  0.9176139574  0.7060722227
C  -2.0171820000  0.1494558603 -0.6956244908
H  -2.3485628300  1.2242404511 -0.2244013226
H  -2.4451147396  0.0618914060 -2.0634391403
H  -2.3520900837 -0.5407090139 -0.2567619829
C  -0.3915201738  2.2215142905 -1.9641419230
H   0.2346610061  2.4962268103 -2.5979757531
H  -1.5015242648  2.4502710068 -2.4263161661
H  -0.2713986431  2.8134741591 -1.0285990130
O   2.4575512836 -1.0750016379 -0.4903290604
H   3.0375889154 -1.7458707064 -0.6648721419
H   2.3202553319 -0.0656135974 -1.3662241017
22
Image 49  Energy = -424.6821787414
C  -0.3653932559  0.0374898470 -0.4998462438
C  -0.2587238177  0.7623698078 -1.7465696869
H  -0.3024547464  0.1638345398 -2.5413450265
O  -0.0116578357 -1.2765684612 -0.5385644760
H   1.3623620010 -1.3638375798 -0.4638383227
O   1.9767609700  0.7646640196 -2.0718708416
H   2.1967556068  0.3925241314 -3.0731371226
C   0.0804470460  0.7728363853  0.7599177250
H  -0.4071087217  1.7036735588  0.8863520746
H  -0.1574978427  0.1119765261  1.6338723982
H   1.1834441952  0.9176276289  0.7061321800
C  -2.0171276563  0.1489975157 -0.6949626681
H  -2.3490993087  1.2264901199 -0.2236977696
H  -2.4470450955  0.0614660733 -2.0689333869
H  -2.3502578119 -0.5381874747 -0.2587116176
C  -0.3912075994  2.2215264825 -1.9642616877
H   0.2328890713  2.4949455622 -2.5960993552
H  -1.5036083341  2.4509458650 -2.4271091749
H  -0.2714872681  2.8137767714 -1.0281209165
O   2.4576399427 -1.0749557463 -0.4903620637
H   3.0369445498 -1.7452992847 -0.6648816569
H   2.3204462433 -0.0660691557 -1.3658052545
22
Image 50  Energy = -424.6765118989
C  -0.3656076312  0.0376309570 -0.4998440102
C  -0.2584299122  0.7623821977 -1.7467840270
H  -0.3028076055  0.1645060392 -2.5400568751
O  -0.0120524312 -1.2765878258 -0.5385991759
H   1.3679385986 -1.3648589717 -0.4635212974
O   1.9766897508  0.7646826092 -2.0717186385
H   2.1970997728  0.3918682961 -3.0751198281
C   0.0804109846  0.7728661102  0.7598833886
H  -0.4068650381  1.7033370974  0.8860590890
H  -0.1575286813  0.1115513810  1.6343563844
H   1.1838863225  0.9176412987  0.7061921332
C  -2.0170733008  0.1485391694 -0.6943008496
H  -2.3496357745  1.2287397858 -0.2229942180
H  -2.4489754418  0.0610407435 -2.0744276371
H  -2.3484255284 -0.5356659381 -0.2606612579
C  -0.3908950132  2.2215386727 -1.9643814567
H   0.2311171482  2.4936643125 -2.5942229614
H  -1.5056923915  2.4516207216 -2.4279021877
H  -0.2715758811  2.8140793820 -1.0276428241
O   2.4577286136 -1.0749098563 -0.4903950712
H   3.0363001962 -1.7447278648 -0.6648911760
H   2.3206371667 -0.0665247157 -1.3653864113
