22
Image 0  Energy = -424.8060363727
C  -0.3519483809  0.0275807083 -0.5004141531
C  -0.2785406789  0.7613446697 -1.7325666750
H  -0.2802652411  0.1185514614 -2.6281879616
O   0.0145831063 -1.2755305622 -0.5358134300
H   0.9876266896 -1.2952894557 -0.4849058872
O   1.9805908019  0.7633858553 -2.0816706709
H   2.1727409224  0.4367315418 -2.9401079479
C   0.0823886353  0.7706230314  0.7621790999
H  -0.4234781153  1.7261975194  0.9062587324
H  -0.1558904662  0.1402840963  1.6013178060
H   1.1533203289  0.9160433708  0.7016262728
C  -2.0213129380  0.1797486019 -0.7393716072
H  -2.3045105955  1.0663550322 -0.2467611365
H  -2.3369359691  0.1280483674 -1.6976350505
H  -2.4745117623 -0.7151042372 -0.1399606937
C  -0.4127558474  2.2206373975 -1.9559205911
H   0.3508597046  2.5813540236 -2.7222112024
H  -1.3647123176  2.4057789295 -2.3725267041
H  -0.2653569378  2.7931788741 -1.0599067309
O   2.4513869574 -1.0777289456 -0.4880832254
H   3.0798112764 -1.7832375882 -0.6641251061
H   2.3074558211 -0.0364890507 -1.3928192865
22
Image 1  Energy = -424.8159812416
C  -0.3530438951  0.0282936567 -0.5004003701
C  -0.2770537166  0.7614118077 -1.7336491587
H  -0.2820767443  0.1219131161 -2.6217009006
O   0.0126041948 -1.2756267915 -0.5359878029
H   1.0154528909 -1.3004581551 -0.4833193224
O   1.9802301016  0.7634723469 -2.0809193891
H   2.1744015124  0.4335410079 -2.9498211844
C   0.0822041354  0.7707725294  0.7620079833
H  -0.4222535816  1.7245070395  0.9047713532
H  -0.1560430971  0.1381440940  1.6037494507
H   1.1555345693  0.9161157156  0.7019343153
C  -2.0210610231  0.1774319974 -0.7360750118
H  -2.3071900861  1.0776024223 -0.2433024455
H  -2.3464633301  0.1259748672 -1.7246653268
H  -2.4652162762 -0.7023058098 -0.1498611068
C  -0.4111880363  2.2207040009 -1.9565296194
H   0.3418836011  2.5748581725 -2.7127082660
H  -1.3751411131  2.4091724641 -2.3764765319
H  -0.2658218421  2.7947000269 -1.0575059704
O   2.4518240740 -1.0774859283 -0.4882459421
H   3.0766937217 -1.7805135971 -0.6642090002
H   2.3084184302 -0.0387599803 -1.3907170161
22
Image 2  Energy = -424.8184282129
C  -0.3534240784  0.0285503694 -0.5003953941
C  -0.2765435873  0.7614433783 -1.7340233106
H  -0.2827000115  0.1230988393 -2.6194442757
O   0.0119091568 -1.2756507974 -0.5360467931
H   1.0252092377 -1.3022359862 -0.4827628283
O   1.9801005753  0.7635148338 -2.0806516086
H   2.1749978269  0.4324054278 -2.9532847425
C   0.0821364190  0.7708345054  0.7619492237
H  -0.4218311343  1.7239279056  0.9042600167
H  -0.1561016971  0.1374096274  1.6045981623
H   1.1563040588  0.9161492277  0.7020402573
C  -2.0209708192  0.1766396187 -0.7349159365
H  -2.3081262987  1.0815427372 -0.2420497809
H  -2.3498590652  0.1252725881 -1.7342688819
H  -2.4620134412 -0.6978865277 -0.1532835818
C  -0.4106454326  2.2207354150 -1.9567377327
H   0.3387756649  2.5726251989 -2.7094212054
H  -1.3787942650  2.4103640360 -2.3778622735
H  -0.2659809329  2.7952397447 -1.0566672397
O   2.4519746208 -1.0773950438 -0.4883021981
H   3.0755650579 -1.7795069457 -0.6642250220
H   2.3087482876 -0.0395478044 -1.3899817801
22
Image 3  Energy = -424.8199716744
C  -0.3537478958  0.0287650542 -0.5003914557
C  -0.2761047722  0.7614650377 -1.7343442321
H  -0.2832316959  0.1241091893 -2.6175113985
O   0.0113151749 -1.2756767841 -0.5360980567
H   1.0335720741 -1.3037649707 -0.4822865485
O   1.9799914990  0.7635458257 -2.0804225389
H   2.1755117611  0.4314249680 -2.9562578039
C   0.0820801865  0.7708821649  0.7618983940
H  -0.4214676293  1.7234263061  0.9038212741
H  -0.1561500935  0.1367749627  1.6053248282
H   1.1569651315  0.9161726975  0.7021307591
C  -2.0208914519  0.1759552034 -0.7339225548
H  -2.3089309973  1.0849182248 -0.2409880113
H  -2.3527610814  0.1246468059 -1.7425084840
H  -2.4592672924 -0.6941028326 -0.1562103039
C  -0.4101787048  2.2207568073 -1.9569166335
H   0.3361154519  2.5707065017 -2.7066058934
H  -1.3819226577  2.4113794892 -2.3790508044
H  -0.2661158332  2.7956967276 -1.0559493231
O   2.4521055167 -1.0773229965 -0.4883510037
H   3.0745966557 -1.7786468631 -0.6642386479
H   2.3090326083 -0.0402282569 -1.3893525661
22
Image 4  Energy = -424.8212879423
C  -0.3540718928  0.0289802132 -0.5003874870
C  -0.2756661076  0.7614871871 -1.7346651139
H  -0.2837635772  0.1251199841 -2.6155785561
O   0.0107210527 -1.2757022862 -0.5361492540
H   1.0419345416 -1.3052934403 -0.4818102237
O   1.9798822375  0.7635773160 -2.0801933915
H   2.1760255554  0.4304449360 -2.9592310130
C   0.0820237924  0.7709303081  0.7618476124
H  -0.4211042785  1.7229252191  0.9033825967
H  -0.1561986473  0.1361408031  1.6060515158
H   1.1576260214  0.9161966341  0.7022212897
C  -2.0208122443  0.1752712995 -0.7329291104
H  -2.3097354534  1.0882937386 -0.2399252312
H  -2.3556641141  0.1240230870 -1.7507481292
H  -2.4565213875 -0.6903190484 -0.1591374202
C  -0.4097121569  2.2207786918 -1.9570954688
H   0.3334551320  2.5687883588 -2.7037906173
H  -1.3850511450  2.4123954192 -2.3802391888
H  -0.2662508741  2.7961541770 -1.0552313719
O   2.4522362664 -1.0772504540 -0.4883997613
H   3.0736279161 -1.7777860740 -0.6642521752
H   2.3093167749 -0.0409082456 -1.3887232670
22
Image 5  Energy = -424.8222509124
C  -0.3543961019  0.0291959297 -0.5003834832
C  -0.2752276154  0.7615099070 -1.7349859577
H  -0.2842956975  0.1261313408 -2.6136456880
O   0.0101267557 -1.2757272213 -0.5362003752
H   1.0502967603 -1.3068213251 -0.4813338364
O   1.9797727633  0.7636093843 -2.0799641694
H   2.1765391350  0.4294654983 -2.9622041543
C   0.0819672085  0.7709790201  0.7617968845
H  -0.4207410969  1.7224247119  0.9029439876
H  -0.1562473894  0.1355072155  1.6067782509
H   1.1582867185  0.9162211178  0.7023118523
C  -2.0207332308  0.1745879775 -0.7319356153
H  -2.3105396513  1.0916693627 -0.2388612302
H  -2.3585682419  0.1234018075 -1.7589875350
H  -2.4537757197 -0.6865350706 -0.1620650626
C  -0.4092458060  2.2208011527 -1.9572742335
H   0.3307946091  2.5668708221 -2.7009753050
H  -1.3881798253  2.4134119294 -2.3814274421
H  -0.2663860735  2.7966121892 -1.0545133553
O   2.4523668346 -1.0771773175 -0.4884484602
H   3.0726589893 -1.7769246829 -0.6642656401
H   2.3096007653 -0.0415876986 -1.3880938624
22
Image 6  Energy = -424.8228759046
C  -0.3547205304  0.0294122226 -0.5003794430
C  -0.2747893019  0.7615332168 -1.7353067621
H  -0.2848280649  0.1271432797 -2.6117127919
O   0.0095322777 -1.2757515700 -0.5362514175
H   1.0586587250 -1.3083486047 -0.4808573844
O   1.9796630693  0.7636420498 -2.0797348711
H   2.1770524890  0.4284866814 -2.9651772091
C   0.0819104283  0.7710283202  0.7617462120
H  -0.4203780904  1.7219248041  0.9025054495
H  -0.1562963268  0.1348742191  1.6075050358
H   1.1589472164  0.9162461675  0.7024024478
C  -2.0206544186  0.1739052573 -0.7309420697
H  -2.3113435835  1.0950451029 -0.2377959656
H  -2.3614734953  0.1227830516 -1.7672266737
H  -2.4510302978 -0.6827508928 -0.1649932483
C  -0.4087796589  2.2208242097 -1.9574529252
H   0.3281338756  2.5649539125 -2.6981599549
H  -1.3913087072  2.4144290400 -2.3826155607
H  -0.2665214366  2.7970707838 -1.0537952702
O   2.4524972140 -1.0771035657 -0.4884970982
H   3.0716898829 -1.7760626846 -0.6642790438
H   2.3098845730 -0.0422665974 -1.3874643489
22
Image 7  Energy = -424.8231776835
C  -0.3550451855  0.0296291112 -0.5003753652
C  -0.2743511738  0.7615571363 -1.7356275253
H  -0.2853606876  0.1281558196 -2.6097798684
O   0.0089376127 -1.2757753123 -0.5363023781
H   1.0670204194 -1.3098752573 -0.4803808656
O   1.9795531479  0.7636753327 -2.0795054943
H   2.1775656090  0.4275085074 -2.9681501706
C   0.0818534448  0.7710782283  0.7616955971
H  -0.4200152654  1.7214255162  0.9020669852
H  -0.1563454663  0.1342418346  1.6082318714
H   1.1596075075  0.9162718022  0.7024930774
C  -2.0205758146  0.1732231597 -0.7299484727
H  -2.3121472409  1.0984209605 -0.2367293960
H  -2.3643799093  0.1221669042 -1.7754655279
H  -2.4482851330 -0.6789665117 -0.1679219925
C  -0.4083137231  2.2208478829 -1.9576315410
H   0.3254729267  2.5630376530 -2.6953445682
H  -1.3944377950  2.4154467703 -2.3838035391
H  -0.2666569690  2.7975299802 -1.0530771149
O   2.4526273979 -1.0770291779 -0.4885456730
H   3.0707205926 -1.7752000605 -0.6642923843
H   2.3101681915 -0.0429449227 -1.3868347232
22
Image 8  Energy = -424.8231708745
C  -0.3553700748  0.0298466156 -0.5003712479
C  -0.2739132381  0.7615816865 -1.7359482451
H  -0.2858935739  0.1291689800 -2.6078469181
O   0.0083427549 -1.2757984276 -0.5363532539
H   1.0753818254 -1.3114012597 -0.4799042779
O   1.9794429912  0.7637092542 -2.0792760361
H   2.1780784861  0.4265309995 -2.9711230322
C   0.0817962510  0.7711287651  0.7616450421
H  -0.4196526288  1.7209268701  0.9016285981
H  -0.1563948148  0.1336100834  1.6089587593
H   1.1602675840  0.9162980419  0.7025837426
C  -2.0204974265  0.1725417069 -0.7289548231
H  -2.3129506138  1.1017969366 -0.2356614785
H  -2.3672875198  0.1215534535 -1.7837040789
H  -2.4455402372 -0.6751819236 -0.1708513103
C  -0.4078480065  2.2208721933 -1.9578100779
H   0.3228117575  2.5611220678 -2.6925291460
H  -1.3975670926  2.4164651405 -2.3849913709
H  -0.2667926767  2.7979897983 -1.0523588873
O   2.4527573792 -1.0769541324 -0.4885941820
H   3.0697511130 -1.7743367901 -0.6643056590
H   2.3104516138 -0.0436226541 -1.3862049818
22
Image 9  Energy = -424.8228691964
C  -0.3556952062  0.0300647568 -0.5003670902
C  -0.2734755020  0.7616068889 -1.7362689202
H  -0.2864267325  0.1301827811 -2.6059139427
O   0.0077476980 -1.2758208943 -0.5364040421
H   1.0837429236 -1.3129265879 -0.4794276198
O   1.9793325912  0.7637438360 -2.0790464943
H   2.1785911114  0.4255541816 -2.9740957873
C   0.0817388396  0.7711799523  0.7615945488
H  -0.4192901877  1.7204288882  0.9011902910
H  -0.1564443798  0.1329789882  1.6096857000
H   1.1609274376  0.9163249075  0.7026744442
C  -2.0204192617  0.1718609216 -0.7279611207
H  -2.3137536915  1.1051730310 -0.2345921680
H  -2.3701963651  0.1209427934 -1.7919423073
H  -2.4427956227 -0.6713971262 -0.1737812186
C  -0.4073825174  2.2208971628 -1.9579885333
H   0.3201503633  2.5592071822 -2.6897136908
H  -1.4006966039  2.4174841715 -2.3861790500
H  -0.2669285656  2.7984502592 -1.0516405862
O   2.4528871506 -1.0768784068 -0.4886426233
H   3.0687814384 -1.7734728523 -0.6643188662
H   2.3107348325 -0.0442997704 -1.3855751218
22
Image 10  Energy = -424.8222852365
C  -0.3560205895  0.0302835608 -0.5003628901
C  -0.2730379745  0.7616327704 -1.7365895480
H  -0.2869601739  0.1311972480 -2.6039809433
O   0.0071524345 -1.2758426856 -0.5364547389
H   1.0921036906 -1.3144512123 -0.4789508889
O   1.9792219378  0.7637791054 -2.0788168655
H   2.1791034736  0.4245780833 -2.9770684277
C   0.0816812015  0.7712318164  0.7615441201
H  -0.4189279506  1.7199315986  0.9007520680
H  -0.1564941701  0.1323485766  1.6104126950
H   1.1615870580  0.9163524246  0.7027651837
C  -2.0203413298  0.1711808322 -0.7269673643
H  -2.3145564615  1.1085492449 -0.2335214092
H  -2.3731064920  0.1203350382 -1.8001801894
H  -2.4400513049 -0.6676121150 -0.1767117374
C  -0.4069172659  2.2209228186 -1.9581669034
H   0.3174887381  2.5572930274 -2.6868982044
H  -1.4038263340  2.4185038891 -2.3873665685
H  -0.2670646433  2.7989113885 -1.0509222091
O   2.4530167032 -1.0768019731 -0.4886909937
H   3.0678115620 -1.7726082207 -0.6643320027
H   2.3110178389 -0.0449762455 -1.3849451388
22
Image 11  Energy = -424.8214416985
C  -0.3564226778  0.0307119292 -0.5003453846
C  -0.2726715472  0.7618755397 -1.7368917675
H  -0.2875780371  0.1324136733 -2.6020613350
O   0.0064978543 -1.2756482656 -0.5364758126
H   1.1002685283 -1.3157342699 -0.4784561592
O   1.9790317532  0.7640338763 -2.0785620619
H   2.1795264769  0.4238426899 -2.9799724103
C   0.0815520158  0.7714996236  0.7615147082
H  -0.4186345552  1.7196610742  0.9003453056
H  -0.1566151843  0.1319436096  1.6111490393
H   1.1621653227  0.9165879901  0.7028669068
C  -2.0203383922  0.1707306539 -0.7259672409
H  -2.3152514546  1.1119268339 -0.2319982926
H  -2.3763953856  0.1206642788 -1.8082183684
H  -2.4374311919 -0.6637999519 -0.1798064624
C  -0.4065326916  2.2211676524 -1.9583162168
H   0.3147822783  2.5556332832 -2.6841033510
H  -1.4069918936  2.4197321900 -2.3884900068
H  -0.2672592582  2.7995813356 -1.0501874638
O   2.4530752011 -1.0764999046 -0.4887163568
H   3.0667879332 -1.7715310275 -0.6643225624
H   2.3112302026 -0.0454403665 -1.3842827800
22
Image 12  Energy = -424.8205306317
C  -0.3566922090  0.0308900263 -0.5003421589
C  -0.2723056159  0.7618927684 -1.7371592551
H  -0.2880207457  0.1332547824 -2.6004507094
O   0.0060031408 -1.2756707392 -0.5365186470
H   1.1072377377 -1.3170092476 -0.4780593657
O   1.9789411681  0.7640588737 -2.0783712705
H   2.1799551172  0.4230247019 -2.9824502711
C   0.0815054378  0.7715385171  0.7614722691
H  -0.4183313928  1.7192422561  0.8999795897
H  -0.1566552308  0.1314139151  1.6117544985
H   1.1627164827  0.9166067580  0.7029422741
C  -2.0202719591  0.1701594840 -0.7251394855
H  -2.3159223776  1.1147395013 -0.2311152957
H  -2.3788122115  0.1201392461 -1.8150852757
H  -2.4351424320 -0.6606472338 -0.1822445807
C  -0.4061434723  2.2211846473 -1.9584654033
H   0.3125658069  2.5540335344 -2.6817573883
H  -1.4095985192  2.4205775411 -2.3894806061
H  -0.2673714434  2.7999613269 -1.0495893243
O   2.4531845602 -1.0764407360 -0.4887571209
H   3.0659810216 -1.7708149566 -0.6643339648
H   2.3114673946 -0.0460081745 -1.3837586007
22
Image 13  Energy = -424.8192021609
C  -0.3570181086  0.0311101727 -0.5003378703
C  -0.2718685209  0.7619200260 -1.7374797831
H  -0.2885547652  0.1342705949 -2.5985176656
O   0.0054074527 -1.2756911617 -0.5365691564
H   1.1155977953 -1.3185324402 -0.4775824866
O   1.9788299943  0.7640955362 -2.0781414644
H   2.1804669373  0.4220500651 -2.9854226659
C   0.0814473328  0.7715917531  0.7614219738
H  -0.4179695788  1.7187463712  0.8995415408
H  -0.1567054855  0.1307848914  1.6124816034
H   1.1633756205  0.9166355960  0.7030330932
C  -2.0201945071  0.1694808074 -0.7241456208
H  -2.3167245372  1.1181159536 -0.2300416262
H  -2.3817249145  0.1195373435 -1.8233224265
H  -2.4323987324 -0.6568617964 -0.1851763120
C  -0.4056787115  2.2212116935 -1.9586435977
H   0.3099037158  2.5521208671 -2.6789418467
H  -1.4127286884  2.4215986462 -2.3906677937
H  -0.2675079113  2.8004238095 -1.0488707939
O   2.4533136609 -1.0763628680 -0.4888053453
H   3.0650107316 -1.7699489225 -0.6643469557
H   2.3117499615 -0.0466833468 -1.3831283696
22
Image 14  Energy = -424.8179034767
C  -0.3572876860  0.0312883568 -0.5003346304
C  -0.2715026296  0.7619373436 -1.7377472562
H  -0.2889975241  0.1351117923 -2.5969070261
O   0.0049126983 -1.2757135469 -0.5366119705
H   1.1225669576 -1.3198073276 -0.4771856746
O   1.9787393630  0.7641206236 -2.0779506530
H   2.1808955308  0.4212321699 -2.9879005066
C   0.0814007120  0.7716307353  0.7613795516
H  -0.4176664560  1.7183276431  0.8991758438
H  -0.1567455747  0.1302552856  1.6130870790
H   1.1639267376  0.9166544493  0.7031084743
C  -2.0201281175  0.1689097278 -0.7233178487
H  -2.3173954378  1.1209286441 -0.2291584400
H  -2.3841419167  0.1190126745 -1.8301892905
H  -2.4301100211 -0.6537090431 -0.1876144999
C  -0.4052895357  2.2212287782 -1.9587927650
H   0.3076871982  2.5505212115 -2.6765958682
H  -1.4153353590  2.4224440882 -2.3916583653
H  -0.2676201347  2.8008038888 -1.0482726353
O   2.4534229784 -1.0763036069 -0.4888460918
H   3.0642037793 -1.7692327601 -0.6643583404
H   2.3119871128 -0.0472510714 -1.3826041655
22
Image 15  Energy = -424.8174797862
C  -0.3575572963  0.0314666250 -0.5003313847
C  -0.2711367650  0.7619547471 -1.7380147232
H  -0.2894403201  0.1359530750 -2.5952963810
O   0.0044179163 -1.2757358468 -0.5366547728
H   1.1295360864 -1.3210821276 -0.4767888525
O   1.9786486988  0.7641457980 -2.0777598300
H   2.1813240910  0.4204143647 -2.9903783356
C   0.0813540617  0.7716698031  0.7613371379
H  -0.4173633593  1.7179090020  0.8988101574
H  -0.1567856932  0.1297257657  1.6136925627
H   1.1644778253  0.9166733852  0.7031838608
C  -2.0200617580  0.1683387354 -0.7224900683
H  -2.3180663014  1.1237413537 -0.2282750701
H  -2.3865590839  0.1184883704 -1.8370561192
H  -2.4278213450 -0.6505562584 -0.1900527672
C  -0.4049003903  2.2212459496 -1.9589419212
H   0.3054706479  2.5489216463 -2.6742498823
H  -1.4179420614  2.4232896181 -2.3926489176
H  -0.2677323829  2.8011840532 -1.0476744660
O   2.4535322676 -1.0762442561 -0.4888868289
H   3.0633967997 -1.7685165090 -0.6643697157
H   2.3122242368 -0.0478187157 -1.3820799448
22
Image 16  Energy = -424.8158466232
C  -0.3578269891  0.0316451074 -0.5003281252
C  -0.2707709669  0.7619723695 -1.7382821756
H  -0.2898832089  0.1367945749 -2.5936857229
O   0.0039230658 -1.2757579290 -0.5366975456
H   1.1365051301 -1.3223567048 -0.4763920055
O   1.9785579523  0.7641711941 -2.0775689783
H   2.1817525673  0.4195967888 -2.9928561354
C   0.0813073378  0.7717090893  0.7612947450
H  -0.4170603279  1.7174905827  0.8984444970
H  -0.1568258849  0.1291964644  1.6142980660
H   1.1650288391  0.9166925311  0.7032592599
C  -2.0199954737  0.1677679656 -0.7216622677
H  -2.3187370686  1.1265541113 -0.2273912315
H  -2.3889766715  0.1179649994 -1.8439228582
H  -2.4255327576 -0.6474033945 -0.1924912385
C  -0.4045113205  2.2212633423 -1.9590910503
H   0.3032540156  2.5473223115 -2.6719038788
H  -1.4205488429  2.4241353720 -2.3936394212
H  -0.2678446927  2.8015644342 -1.0470762701
O   2.4536414862 -1.0761846770 -0.4889275432
H   3.0625897521 -1.7678000320 -0.6643810682
H   2.3124612926 -0.0483861549 -1.3815556828
22
Image 17  Energy = -424.8140530047
C  -0.3580967142  0.0318236734 -0.5003248602
C  -0.2704051950  0.7619900774 -1.7385496223
H  -0.2903261343  0.1376361597 -2.5920750597
O   0.0034281883 -1.2757799262 -0.5367403068
H   1.1434741402 -1.3236311950 -0.4759951487
O   1.9784671734  0.7641966768 -2.0773781152
H   2.1821810107  0.4187793026 -2.9953339235
C   0.0812605849  0.7717484608  0.7612523603
H  -0.4167573222  1.7170722501  0.8980788470
H  -0.1568661054  0.1286672486  1.6149035770
H   1.1655798238  0.9167117591  0.7033346641
C  -2.0199292191  0.1671972827 -0.7208344591
H  -2.3194077988  1.1293668876 -0.2265072103
H  -2.3913944229  0.1174419918 -1.8507895618
H  -2.4232442052 -0.6442504995 -0.1949297887
C  -0.4041222806  2.2212808214 -1.9592401686
H   0.3010373512  2.5457230667 -2.6695578684
H  -1.4231556554  2.4249812134 -2.3946299056
H  -0.2679570268  2.8019449000 -1.0464780639
O   2.4537506769 -1.0761250086 -0.4889682485
H   3.0617826776 -1.7670834669 -0.6643924116
H   2.3126983216 -0.0489535141 -1.3810314045
22
Image 18  Energy = -424.8121063978
C  -0.3583664715  0.0320023225 -0.5003215897
C  -0.2700394492  0.7620078703 -1.7388170631
H  -0.2907690960  0.1384778287 -2.5904643913
O   0.0029332838 -1.2758018390 -0.5367830564
H   1.1504431165 -1.3249055987 -0.4755982821
O   1.9783763623  0.7642222454 -2.0771872409
H   2.1826094213  0.4179619053 -2.9978116999
C   0.0812138032  0.7717879170  0.7612099839
H  -0.4164543422  1.7166540035  0.8977132072
H  -0.1569063546  0.1281381177  1.6155090958
H   1.1661307796  0.9167310686  0.7034100734
C  -2.0198629940  0.1666266861 -0.7200066426
H  -2.3200784922  1.1321796826 -0.2256230082
H  -2.3938123368  0.1169193446 -1.8576562301
H  -2.4209556876 -0.6410975737 -0.1973684173
C  -0.4037332704  2.2212983863 -1.9593892763
H   0.2988206549  2.5441239114 -2.6672118511
H  -1.4257624988  2.4258271416 -2.3956203710
H  -0.2680693852  2.8023254497 -1.0458798472
O   2.4538598400 -1.0760652517 -0.4890089447
H   3.0609755765 -1.7663668142 -0.6644037460
H   2.3129353239 -0.0495207938 -1.3805071100
22
Image 19  Energy = -424.8100140155
C  -0.3586362615  0.0321810557 -0.5003183135
C  -0.2696737299  0.7620257490 -1.7390844980
H  -0.2912120943  0.1393195830 -2.5888537178
O   0.0024383522 -1.2758236664 -0.5368257943
H   1.1574120586 -1.3261799148 -0.4752014056
O   1.9782855185  0.7642479011 -2.0769963551
H   2.1830377986  0.4171445980 -3.0002894646
C   0.0811669923  0.7718274588  0.7611676159
H  -0.4161513881  1.7162358440  0.8973475779
H  -0.1569466328  0.1276090726  1.6161146223
H   1.1666817061  0.9167504606  0.7034854878
C  -2.0197967987  0.1660561768 -0.7191788181
H  -2.3207491484  1.1349924965 -0.2247386228
H  -2.3962304150  0.1163970622 -1.8645228625
H  -2.4186672053 -0.6379446169 -0.1998071251
C  -0.4033442902  2.2213160380 -1.9595383731
H   0.2966039263  2.5425248467 -2.6648658270
H  -1.4283693734  2.4266731575 -2.3966108170
H  -0.2681817680  2.8027060844 -1.0452816200
O   2.4539689750 -1.0760054052 -0.4890496318
H   3.0601684484 -1.7656500729 -0.6644150713
H   2.3131722991 -0.0500879930 -1.3799827993
22
Image 20  Energy = -424.8077794503
C  -0.3589060853  0.0323598758 -0.5003150316
C  -0.2693080381  0.7620437167 -1.7393519267
H  -0.2916551308  0.1401614254 -2.5872430390
O   0.0019433924 -1.2758454054 -0.5368685201
H   1.1643809650 -1.3274541402 -0.4748045189
O   1.9781946410  0.7642736467 -2.0768054575
H   2.1834661415  0.4163273840 -3.0027672168
C   0.0811201510  0.7718670893  0.7611252564
H  -0.4158484610  1.7158177747  0.8969819593
H  -0.1569869411  0.1270801164  1.6167201569
H   1.1672326021  0.9167699380  0.7035609076
C  -2.0197306343  0.1654857581 -0.7183509853
H  -2.3214197662  1.1378053299 -0.2238540480
H  -2.3986486633  0.1158751573 -1.8713894576
H  -2.4163787597 -0.6347916279 -0.2022459147
C  -0.4029553413  2.2213337796 -1.9596874588
H   0.2943871643  2.5409258758 -2.6625197957
H  -1.4309762802  2.4275192644 -2.3976012431
H  -0.2682941763  2.8030868071 -1.0446833820
O   2.4540780810 -1.0759454659 -0.4890903095
H   3.0593612924 -1.7649332399 -0.6644263871
H   2.3134092461 -0.0506551088 -1.3794584716
22
Image 21  Energy = -424.8054010548
C  -0.3591759443  0.0325387867 -0.5003117435
C  -0.2689423749  0.7620617772 -1.7396193491
H  -0.2920982068  0.1410033597 -2.5856323547
O   0.0014484031 -1.2758670522 -0.5369112332
H   1.1713498339 -1.3287282711 -0.4744076215
O   1.9781037282  0.7642994863 -2.0766145476
H   2.1838944485  0.4155102673 -3.0052449562
C   0.0810732782  0.7719068124  0.7610829060
H  -0.4155455620  1.7153997994  0.8966163520
H  -0.1570272808  0.1265512529  1.6173256999
H   1.1677834664  0.9167895044  0.7036363329
C  -2.0196645023  0.1649154336 -0.7175231439
H  -2.3220903439  1.1406181835 -0.2229692756
H  -2.4010670889  0.1153536461 -1.8782560136
H  -2.4140903523 -0.6316386055 -0.2046847896
C  -0.4025664248  2.2213516149 -1.9598365327
H   0.2921703676  2.5393270027 -2.6601737572
H  -1.4335832205  2.4283654661 -2.3985916482
H  -0.2684066111  2.8034676216 -1.0440851326
O   2.4541871566 -1.0758854299 -0.4891309773
H   3.0585541073 -1.7642163114 -0.6644376930
H   2.3136461639 -0.0512221377 -1.3789341264
22
Image 22  Energy = -424.8028723257
C  -0.3594458397  0.0327177913 -0.5003084493
C  -0.2685767413  0.7620799334 -1.7398867648
H  -0.2925413239  0.1418453889 -2.5840216647
O   0.0009533836 -1.2758886038 -0.5369539333
H   1.1783186640 -1.3300023043 -0.4740107131
O   1.9780127790  0.7643254229 -2.0764236249
H   2.1843227183  0.4146932510 -3.0077226821
C   0.0810263728  0.7719466310  0.7610405649
H  -0.4152426920  1.7149819211  0.8962507564
H  -0.1570676529  0.1260224852  1.6179312516
H   1.1683342979  0.9168091627  0.7037117639
C  -2.0195984036  0.1643452066 -0.7166952936
H  -2.3227608802  1.1434310581 -0.2220842994
H  -2.4034856974  0.1148325411 -1.8851225290
H  -2.4118019846 -0.6284855486 -0.2071237524
C  -0.4021775420  2.2213695470 -1.9599855945
H   0.2899535351  2.5377282306 -2.6578277111
H  -1.4361901954  2.4292117655 -2.3995820317
H  -0.2685190732  2.8038485309 -1.0434868716
O   2.4542962009 -1.0758252940 -0.4891716348
H   3.0577468921 -1.7634992842 -0.6644489887
H   2.3138830514 -0.0517890767 -1.3784097630
22
Image 23  Energy = -424.8001876094
C  -0.3597157719  0.0328968906 -0.5003051486
C  -0.2682111376  0.7620981865 -1.7401541737
H  -0.2929844823  0.1426875140 -2.5824109692
O   0.0004583333 -1.2759100591 -0.5369966201
H   1.1852874546 -1.3312762387 -0.4736137936
O   1.9779217930  0.7643514575 -2.0762326894
H   2.1847509505  0.4138763363 -3.0102003944
C   0.0809794344  0.7719865461  0.7609982333
H  -0.4149398514  1.7145641411  0.8958851726
H  -0.1571080579  0.1254938144  1.6185368120
H   1.1688850961  0.9168289140  0.7037872008
C  -2.0195323386  0.1637750781 -0.7158674343
H  -2.3234313748  1.1462439536 -0.2211991171
H  -2.4059044907  0.1143118467 -1.8919890032
H  -2.4095136569 -0.6253324570 -0.2095628039
C  -0.4017886932  2.2213875768 -1.9601346441
H   0.2877366665  2.5361295608 -2.6554816575
H  -1.4387972051  2.4300581639 -2.4005723934
H  -0.2686315631  2.8042295359 -1.0428885988
O   2.4544052135 -1.0757650572 -0.4892122821
H   3.0569396465 -1.7627821572 -0.6644602740
H   2.3141199082 -0.0523559250 -1.3778853813
22
Image 24  Energy = -424.7973471405
C  -0.3599857282  0.0330760511 -0.5003018438
C  -0.2678455536  0.7621165022 -1.7404215782
H  -0.2934276677  0.1435297012 -2.5808002699
O  -0.0000367370 -1.2759314522 -0.5370392983
H   1.1922562193 -1.3325501091 -0.4732168668
O   1.9778307830  0.7643775555 -2.0760417455
H   2.1851791583  0.4130594873 -3.0126780976
C   0.0809324744  0.7720265237  0.7609559078
H  -0.4146370301  1.7141464246  0.8955195965
H  -0.1571484843  0.1249652061  1.6191423782
H   1.1694358727  0.9168487254  0.7038626415
C  -2.0194662957  0.1632050133 -0.7150395692
H  -2.3241018428  1.1490568630 -0.2203138020
H  -2.4083234033  0.1137914171 -1.8988554506
H  -2.4072253555 -0.6221793428 -0.2120019125
C  -0.4013998667  2.2214056700 -1.9602836857
H   0.2855197742  2.5345309571 -2.6531355990
H  -1.4414042376  2.4309046261 -2.4015627408
H  -0.2687440712  2.8046106028 -1.0422903182
O   2.4545142053 -1.0757047550 -0.4892529226
H   3.0561323811 -1.7620649658 -0.6644715526
H   2.3143567450 -0.0529227146 -1.3773609877
22
Image 25  Energy = -424.7943573422
C  -0.3602557205  0.0332553042 -0.5002985327
C  -0.2674799989  0.7621349125 -1.7406889761
H  -0.2938708937  0.1443719821 -2.5791895651
O  -0.0005318374 -1.2759527512 -0.5370819635
H   1.1992249449 -1.3338238830 -0.4728199291
O   1.9777397369  0.7644037493 -2.0758507890
H   2.1856073292  0.4122427375 -3.0151557874
C   0.0808854821  0.7720665956  0.7609135916
H  -0.4143342376  1.7137288040  0.8951540320
H  -0.1571889428  0.1244366926  1.6197479529
H   1.1699866167  0.9168686276  0.7039380879
C  -2.0194002858  0.1626350448 -0.7142116953
H  -2.3247722701  1.1518697928 -0.2194282859
H  -2.4107424962  0.1132713885 -1.9057218574
H  -2.4049370935 -0.6190261947 -0.2144411075
C  -0.4010110735  2.2214238588 -1.9604327153
H   0.2833028466  2.5329324535 -2.6507895333
H  -1.4440113042  2.4317511850 -2.4025530667
H  -0.2688566064  2.8049917633 -1.0416920262
O   2.4546231661 -1.0756443542 -0.4892935530
H   3.0553250859 -1.7613476769 -0.6644828210
H   2.3145935518 -0.0534894153 -1.3768365761
22
Image 26  Energy = -424.7912247608
C  -0.3605257487  0.0334346494 -0.5002952154
C  -0.2671144736  0.7621534171 -1.7409563674
H  -0.2943141600  0.1452143562 -2.5775788549
O  -0.0010269678 -1.2759739565 -0.5371246158
H   1.2061936314 -1.3350975605 -0.4724229806
O   1.9776486549  0.7644300385 -2.0756598199
H   2.1860354634  0.4114260867 -3.0176334636
C   0.0808384575  0.7721067615  0.7608712846
H  -0.4140314739  1.7133112790  0.8947884791
H  -0.1572294334  0.1239082733  1.6203535362
H   1.1705373282  0.9168886203  0.7040135400
C  -2.0193343089  0.1620651723 -0.7133838126
H  -2.3254426569  1.1546827431 -0.2185425696
H  -2.4131617687  0.1127517590 -1.9125882235
H  -2.4026488708 -0.6158730129 -0.2168803885
C  -0.4006223135  2.2214421428 -1.9605817329
H   0.2810858839  2.5313340494 -2.6484434603
H  -1.4466184046  2.4325978400 -2.4035433712
H  -0.2689691687  2.8053730170 -1.0410937227
O   2.4547320958 -1.0755838551 -0.4893341732
H   3.0545177611 -1.7606302911 -0.6644940794
H   2.3148303285 -0.0540560276 -1.3763121467
22
Image 27  Energy = -424.7881769172
C  -0.3607958128  0.0336140867 -0.5002918919
C  -0.2667489776  0.7621720157 -1.7412237520
H  -0.2947574666  0.1460568234 -2.5759681393
O  -0.0015221281 -1.2759950683 -0.5371672552
H   1.2131622786 -1.3363711420 -0.4720260212
O   1.9775575369  0.7644564229 -2.0754688383
H   2.1864635609  0.4106095347 -3.0201111263
C   0.0807914008  0.7721470212  0.7608289868
H  -0.4137287389  1.7128938495  0.8944229377
H  -0.1572699560  0.1233799482  1.6209591279
H   1.1710880073  0.9169087033  0.7040889979
C  -2.0192683650  0.1614953955 -0.7125559214
H  -2.3261130034  1.1574957137 -0.2176566537
H  -2.4155812202  0.1122325277 -1.9194545489
H  -2.4003606874 -0.6127197975 -0.2193197552
C  -0.4002335868  2.2214605219 -1.9607307386
H   0.2788688861  2.5297357447 -2.6460973803
H  -1.4492255387  2.4334445909 -2.4045336543
H  -0.2690817581  2.8057543637 -1.0404954077
O   2.4548409946 -1.0755232579 -0.4893747834
H   3.0537104066 -1.7599128085 -0.6645053276
H   2.3150670754 -0.0546225517 -1.3757876995
22
Image 28  Energy = -424.7847693163
C  -0.3610659262  0.0337936509 -0.5002885598
C  -0.2663835219  0.7621907442 -1.7414911276
H  -0.2952008287  0.1468994192 -2.5743574165
O  -0.0020173295 -1.2760160510 -0.5372098769
H   1.2201308714 -1.3376445906 -0.4716290470
O   1.9774663695  0.7644829389 -2.0752778395
H   2.1868916078  0.4097931191 -3.0225887701
C   0.0807442997  0.7721874105  0.7607867017
H  -0.4134260435  1.7124765517  0.8940574123
H  -0.1573105226  0.1228517531  1.6215647312
H   1.1716386416  0.9169289110  0.7041644635
C  -2.0192024664  0.1609257510 -0.7117280182
H  -2.3267832938  1.1603087120 -0.2167704618
H  -2.4180009191  0.1117138472 -1.9263208176
H  -2.3980725585 -0.6095665360 -0.2217592403
C  -0.3998449059  2.2214790322 -1.9608797278
H   0.2766518402  2.5281375776 -2.6437512906
H  -1.4518327192  2.4342914743 -2.4055239079
H  -0.2691943847  2.8061358388 -1.0398970770
O   2.4549498508 -1.0754625253 -0.4894153798
H   3.0529030115 -1.7591951922 -0.6645165620
H   2.3153037809 -0.0551889538 -1.3752632277
22
Image 29  Energy = -424.7812278121
C  -0.3613360760  0.0339733081 -0.5002852214
C  -0.2660180959  0.7622095677 -1.7417584964
H  -0.2956442316  0.1477421089 -2.5727466883
O  -0.0025125612 -1.2760369391 -0.5372524855
H   1.2270994240 -1.3389179421 -0.4712320619
O   1.9773751658  0.7645095510 -2.0750868280
H   2.1873196176  0.4089768033 -3.0250664000
C   0.0806971661  0.7722278946  0.7607444260
H  -0.4131233772  1.7120593504  0.8936918986
H  -0.1573511217  0.1223236531  1.6221703432
H   1.1721892430  0.9169492100  0.7042399349
C  -2.0191366011  0.1603562033 -0.7109001063
H  -2.3274535436  1.1631217308 -0.2158840684
H  -2.4204207987  0.1111955687 -1.9331870446
H  -2.3957844695 -0.6064132408 -0.2241988117
C  -0.3994562587  2.2214976385 -1.9610287049
H   0.2744347590  2.5265395111 -2.6414051938
H  -1.4544399337  2.4351384546 -2.4065141398
H  -0.2693070387  2.8065174078 -1.0392987348
O   2.4550586756 -1.0754016936 -0.4894559659
H   3.0520955865 -1.7584774781 -0.6645277862
H   2.3155404562 -0.0557552667 -1.3747387381
22
Image 30  Energy = -424.7775572698
C  -0.3616062635  0.0341530622 -0.5002818765
C  -0.2656527009  0.7622284903 -1.7420258582
H  -0.2960876770  0.1485848967 -2.5711359546
O  -0.0030078244 -1.2760577288 -0.5372950805
H   1.2340679343 -1.3401911922 -0.4708350654
O   1.9772839242  0.7645362635 -2.0748958033
H   2.1877475887  0.4081605916 -3.0275440153
C   0.0806499984  0.7722684774  0.7607021599
H  -0.4128207413  1.7116422496  0.8933263971
H  -0.1573917546  0.1217956523  1.6227759640
H   1.1727398101  0.9169696040  0.7043154124
C  -2.0190707706  0.1597867565 -0.7100721853
H  -2.3281237510  1.1659347708 -0.2149974651
H  -2.4228408664  0.1106777093 -1.9400532280
H  -2.3934964223 -0.6032599104 -0.2266384730
C  -0.3990676466  2.2215163449 -1.9611776694
H   0.2722176411  2.5249415494 -2.6390590898
H  -1.4570471835  2.4359855359 -2.4075043490
H  -0.2694197213  2.8068990747 -1.0387003806
O   2.4551674677 -1.0753407586 -0.4894965414
H   3.0512881304 -1.7577596622 -0.6645389997
H   2.3157770998 -0.0563214865 -1.3742142297
22
Image 31  Energy = -424.7737608554
C  -0.3618764924  0.0343329221 -0.5002785243
C  -0.2652873397  0.7622475211 -1.7422932122
H  -0.2965311687  0.1494277913 -2.5695252149
O  -0.0035031221 -1.2760784109 -0.5373376606
H   1.2410363984 -1.3414643315 -0.4704380565
O   1.9771926413  0.7645630855 -2.0747047642
H   2.1881755174  0.4073444936 -3.0300216145
C   0.0806027936  0.7723091681  0.7606599045
H  -0.4125181387  1.7112252586  0.8929609090
H  -0.1574324243  0.1212677599  1.6233815945
H   1.1732903397  0.9169901019  0.7043908964
C  -2.0190049781  0.1592174200 -0.7092442545
H  -2.3287939122  1.1687478338 -0.2141106326
H  -2.4252611396  0.1101603077 -1.9469193634
H  -2.3912084207 -0.6001065418 -0.2290782322
C  -0.3986790728  2.2215351606 -1.9613266201
H   0.2700004831  2.5233437025 -2.6367129780
H  -1.4596544718  2.4368327274 -2.4084945335
H  -0.2695324351  2.8072808486 -1.0381020133
O   2.4552762241 -1.0752797108 -0.4895371052
H   3.0504806402 -1.7570417350 -0.6645502016
H   2.3160137088 -0.0568876046 -1.3736897009
22
Image 32  Energy = -424.7698308839
C  -0.3621467675  0.0345129004 -0.5002751642
C  -0.2649220164  0.7622666731 -1.7425605577
H  -0.2969747123  0.1502708057 -2.5679144686
O  -0.0039984582 -1.2760989725 -0.5373802241
H   1.2480048102 -1.3427373466 -0.4700410338
O   1.9771013120  0.7645900302 -2.0745137090
H   2.1886033987  0.4065285230 -3.0324991957
C   0.0805555473  0.7723499797  0.7606176611
H  -0.4122155732  1.7108083907  0.8925954358
H  -0.1574731354  0.1207399889  1.6239872358
H   1.1738408273  0.9170107162  0.7044663877
C  -2.0189392280  0.1586482069 -0.7084163127
H  -2.3294640213  1.1715609225 -0.2132235432
H  -2.4276816428  0.1096434189 -1.9537854449
H  -2.3889204705 -0.5969531306 -0.2315181012
C  -0.3982905420  2.2215540988 -1.9614755553
H   0.2677832803  2.5217459841 -2.6343668575
H  -1.4622618031  2.4376800424 -2.4094846902
H  -0.2696451839  2.8076627421 -1.0375036314
O   2.4553849405 -1.0752185366 -0.4895776560
H   3.0496731120 -1.7563236833 -0.6645613904
H   2.3162502791 -0.0574536089 -1.3731651493
22
Image 33  Energy = -424.7657470282
C  -0.3624170935  0.0346930095 -0.5002717951
C  -0.2645567349  0.7622859588 -1.7428278937
H  -0.2974183131  0.1511139523 -2.5663037152
O  -0.0044938368 -1.2761194012 -0.5374227693
H   1.2549731641 -1.3440102248 -0.4696439958
O   1.9770099318  0.7646171102 -2.0743226361
H   2.1890312277  0.4057126931 -3.0349767569
C   0.0805082552  0.7723909247  0.7605754307
H  -0.4119130486  1.7103916586  0.8922299792
H  -0.1575138920  0.1202123519  1.6245928890
H   1.1743912685  0.9170314589  0.7045418872
C  -2.0188735249  0.1580791302 -0.7075883587
H  -2.3301340730  1.1743740393 -0.2123361705
H  -2.4301023998  0.1091270962 -1.9606514663
H  -2.3866325769 -0.5937996725 -0.2339580912
C  -0.3979020587  2.2215731721 -1.9616244736
H   0.2655660285  2.5201484075 -2.6320207276
H  -1.4648691817  2.4385274935 -2.4104748162
H  -0.2697579711  2.8080447678 -1.0369052334
O   2.4554936128 -1.0751572231 -0.4896181925
H   3.0488655420 -1.7556054942 -0.6645725650
H   2.3164868067 -0.0580194875 -1.3726405726
22
Image 34  Energy = -424.7614855548
C  -0.3626874732  0.0348732562 -0.5002684168
C  -0.2641914975  0.7623053854 -1.7430952197
H  -0.2978619741  0.1519572378 -2.5646929544
O  -0.0049892600 -1.2761396898 -0.5374652951
H   1.2619414565 -1.3452829585 -0.4692469418
O   1.9769184977  0.7646443328 -2.0741315445
H   2.1894590015  0.4048970113 -3.0374542968
C   0.0804609149  0.7724320101  0.7605332141
H  -0.4116105673  1.7099750695  0.8918645400
H  -0.1575546965  0.1196848560  1.6251985547
H   1.1749416609  0.9170523368  0.7046173951
C  -2.0188078711  0.1575101971 -0.7067603922
H  -2.3308040642  1.1771871856 -0.2114484996
H  -2.4325234238  0.1086113694 -1.9675174242
H  -2.3843447432 -0.5906461652 -0.2363982084
C  -0.3975136253  2.2215923876 -1.9617733739
H   0.2633487249  2.5185509805 -2.6296745880
H  -1.4674766098  2.4393750880 -2.4114649098
H  -0.2698707988  2.8084269326 -1.0363068186
O   2.4556022387 -1.0750957627 -0.4896587140
H   3.0480579280 -1.7548871604 -0.6645837244
H   2.3167232894 -0.0585852337 -1.3721159695
22
Image 35  Energy = -424.7570339499
C  -0.3629579063  0.0350536401 -0.5002650292
C  -0.2638263040  0.7623249522 -1.7433625356
H  -0.2983056950  0.1528006619 -2.5630821863
O  -0.0054847277 -1.2761598390 -0.5375078017
H   1.2689096872 -1.3465555484 -0.4688498718
O   1.9768270101  0.7646716975 -2.0739404344
H   2.1898867204  0.4040814772 -3.0399318153
C   0.0804135265  0.7724732353  0.7604910113
H  -0.4113081291  1.7095586229  0.8914991183
H  -0.1575955489  0.1191575007  1.6258042328
H   1.1754920045  0.9170733493  0.7046929115
C  -2.0187422665  0.1569414070 -0.7059324130
H  -2.3314739952  1.1800003611 -0.2105605317
H  -2.4349447134  0.1080962362 -1.9743833182
H  -2.3820569692 -0.5874926092 -0.2388384521
C  -0.3971252417  2.2216117449 -1.9619222563
H   0.2611313700  2.5169537025 -2.6273284388
H  -1.4700840871  2.4402228252 -2.4124549710
H  -0.2699836670  2.8088092359 -1.0357083869
O   2.4557108182 -1.0750341561 -0.4896992203
H   3.0472502701 -1.7541686826 -0.6645948688
H   2.3169597272 -0.0591508479 -1.3715913401
22
Image 36  Energy = -424.7523955352
C  -0.3632283906  0.0352341552 -0.5002616326
C  -0.2634611527  0.7623446532 -1.7436298419
H  -0.2987494734  0.1536442183 -2.5614714112
O  -0.0059802381 -1.2761798547 -0.5375502899
H   1.2758778582 -1.3478280004 -0.4684527865
O   1.9767354712  0.7646991980 -2.0737493064
H   2.1903143866  0.4032660843 -3.0424093132
C   0.0803660920  0.7725145944  0.7604488217
H  -0.4110057323  1.7091423127  0.8911337132
H  -0.1576364470  0.1186302800  1.6264099227
H   1.1760423013  0.9170944907  0.7047684361
C  -2.0186767091  0.1563727539 -0.7051044219
H  -2.3321438687  1.1828135645 -0.2096722801
H  -2.4373662570  0.1075816703 -1.9812491508
H  -2.3797692527 -0.5843390065 -0.2412788164
C  -0.3967369058  2.2216312378 -1.9620711215
H   0.2589139661  2.5153565673 -2.6249822806
H  -1.4726916115  2.4410706988 -2.4134450013
H  -0.2700965739  2.8091916717 -1.0351099392
O   2.4558193533 -1.0749724096 -0.4897397122
H   3.0464425701 -1.7534500670 -0.6646059987
H   2.3171961220 -0.0597163359 -1.3710666855
22
Image 37  Energy = -424.7475860731
C  -0.3634989237  0.0354147952 -0.5002582276
C  -0.2630960417  0.7623644822 -1.7438971390
H  -0.2991933066  0.1544879010 -2.5598606296
O  -0.0064757890 -1.2761997432 -0.5375927604
H   1.2828459720 -1.3491003211 -0.4680556868
O   1.9766438833  0.7647268280 -2.0735581615
H   2.1907420025  0.4024508262 -3.0448867912
C   0.0803186135  0.7725560811  0.7604066447
H  -0.4107033749  1.7087261324  0.8907683240
H  -0.1576773890  0.1181031876  1.6270156239
H   1.1765925535  0.9171157550  0.7048439684
C  -2.0186111968  0.1558042313 -0.7042764193
H  -2.3328136877  1.1856267944 -0.2087837584
H  -2.4397880423  0.1070676448 -1.9881149244
H  -2.3774815911 -0.5811853596 -0.2437192955
C  -0.3963486157  2.2216508600 -1.9622199704
H   0.2566965154  2.5137595681 -2.6226361138
H  -1.4752991806  2.4419187026 -2.4144350020
H  -0.2702095178  2.8095742338 -1.0345114763
O   2.4559278460 -1.0749105297 -0.4897801903
H   3.0456348302 -1.7527313202 -0.6646171148
H   2.3174324756 -0.0602817035 -1.3705420070
22
Image 38  Energy = -424.7426248131
C  -0.3637695051  0.0355955584 -0.5002548141
C  -0.2627309704  0.7623844371 -1.7441644270
H  -0.2996371937  0.1553317078 -2.5582498416
O  -0.0069713801 -1.2762195064 -0.5376352137
H   1.2898140289 -1.3503725123 -0.4676585727
O   1.9765522471  0.7647545855 -2.0733669998
H   2.1911695688  0.4016357008 -3.0473642496
C   0.0802710916  0.7725976933  0.7603644801
H  -0.4104010565  1.7083100802  0.8904029506
H  -0.1577183740  0.1175762216  1.6276213362
H   1.1771427616  0.9171371402  0.7049195084
C  -2.0185457289  0.1552358373 -0.7034484055
H  -2.3334834529  1.1884400504 -0.2078949708
H  -2.4422100655  0.1065541513 -1.9949806396
H  -2.3751939837 -0.5780316691 -0.2461598872
C  -0.3959603705  2.2216706094 -1.9623688031
H   0.2544790188  2.5121627030 -2.6202899389
H  -1.4779067937  2.4427668343 -2.4154249734
H  -0.2703224983  2.8099569202 -1.0339129983
O   2.4560362970 -1.0748485185 -0.4898206549
H   3.0448270507 -1.7520124441 -0.6646282174
H   2.3176687888 -0.0608469524 -1.3700173050
22
Image 39  Energy = -424.7375240972
C  -0.3640401356  0.0357764475 -0.5002513919
C  -0.2623659398  0.7624045207 -1.7444317057
H  -0.3000811360  0.1561756415 -2.5566390472
O  -0.0074670122 -1.2762391417 -0.5376776491
H   1.2967820273 -1.3516445711 -0.4672614439
O   1.9764605615  0.7647824734 -2.0731758211
H   2.1915970842  0.4008207110 -3.0498416878
C   0.0802235253  0.7726394340  0.7603223283
H  -0.4100987781  1.7078941589  0.8900375934
H  -0.1577594032  0.1170493848  1.6282270599
H   1.1776929246  0.9171586490  0.7049950563
C  -2.0184803064  0.1546675747 -0.7026203803
H  -2.3341531633  1.1912533328 -0.2070059117
H  -2.4446323316  0.1060412012 -2.0018462947
H  -2.3729064320 -0.5748779342 -0.2486005940
C  -0.3955721714  2.2216904889 -1.9625176194
H   0.2522614754  2.5105659752 -2.6179437556
H  -1.4805144517  2.4436150968 -2.4164149150
H  -0.2704355160  2.8103397337 -1.0333145049
O   2.4561447051 -1.0747863732 -0.4898611055
H   3.0440192310 -1.7512934360 -0.6646393061
H   2.3179050604 -0.0614120801 -1.3694925789
22
Image 40  Energy = -424.7322818773
C  -0.3643108174  0.0359574677 -0.5002479608
C  -0.2620009516  0.7624247387 -1.7446989746
H  -0.3005251358  0.1570197075 -2.5550282462
O  -0.0079626869 -1.2762586434 -0.5377200661
H   1.3037499643 -1.3529164918 -0.4668643000
O   1.9763688244  0.7648104971 -2.0729846245
H   2.1920245467  0.4000058628 -3.0523191047
C   0.0801759128  0.7726813085  0.7602801897
H  -0.4097965412  1.7074783740  0.8896722529
H  -0.1578004783  0.1165226827  1.6288327952
H   1.1782430406  0.9171802867  0.7050706124
C  -2.0184149313  0.1540994493 -0.7017923432
H  -2.3348228164  1.1940666428 -0.2061165696
H  -2.4470548508  0.1055288179 -2.0087118867
H  -2.3706189384 -0.5717241533 -0.2510414206
C  -0.3951840203  2.2217105040 -1.9626664184
H   0.2500438833  2.5089693904 -2.6155975638
H  -1.4831221562  2.4444634957 -2.4174048252
H  -0.2705485727  2.8107226797 -1.0327159956
O   2.4562530686 -1.0747240879 -0.4899015416
H   3.0432113693 -1.7505742902 -0.6646503803
H   2.3181412888 -0.0619770813 -1.3689678277
22
Image 41  Energy = -424.7268894420
C  -0.3645815531  0.0361386258 -0.5002445203
C  -0.2616360081  0.7624450977 -1.7449662333
H  -0.3009691959  0.1578639125 -2.5534174384
O  -0.0084584064 -1.2762780048 -0.5377624636
H   1.3107178362 -1.3541882673 -0.4664671401
O   1.9762770333  0.7648386637 -2.0727934093
H   2.1924519536  0.3991911634 -3.0547964991
C   0.0801282517  0.7727233238  0.7602380651
H  -0.4094943480  1.7070627327  0.8893069302
H  -0.1578416018  0.1159961223  1.6294385429
H   1.1787931070  0.9172020600  0.7051461770
C  -2.0183496060  0.1535314679 -0.7009642938
H  -2.3354924094  1.1968799815 -0.2052269301
H  -2.4494776357  0.1050170300 -2.0155774120
H  -2.3683315061 -0.5685703242 -0.2534823729
C  -0.3947959198  2.2217306617 -1.9628151993
H   0.2478262401  2.5073729561 -2.6132513631
H  -1.4857299095  2.4453120378 -2.4183947026
H  -0.2706616703  2.8111057649 -1.0321174696
O   2.4563613852 -1.0746616555 -0.4899419626
H   3.0424034635 -1.7498549999 -0.6646614393
H   2.3183774717 -0.0625419496 -1.3684430504
22
Image 42  Energy = -424.7213436548
C  -0.3648523460  0.0363199301 -0.5002410698
C  -0.2612711119  0.7624656063 -1.7452334810
H  -0.3014133201  0.1587082647 -2.5518066235
O  -0.0089541735 -1.2762972174 -0.5378048406
H   1.3176856387 -1.3554598887 -0.4660699634
O   1.9761851848  0.7648669818 -2.0726021743
H   2.1928793013  0.3983766218 -3.0572738694
C   0.0800805391  0.7727654882  0.7601959553
H  -0.4091922013  1.7066472435  0.8889416262
H  -0.1578827765  0.1154697121  1.6300443036
H   1.1793431209  0.9172239769  0.7052217507
C  -2.0182843335  0.1529636394 -0.7001362312
H  -2.3361619385  1.1996933504 -0.2043369755
H  -2.4519007023  0.1045058735 -2.0224428660
H  -2.3660441388 -0.5654164442 -0.2559234582
C  -0.3944078728  2.2217509706 -1.9629639610
H   0.2456085430  2.5057766816 -2.6109051534
H  -1.4883377144  2.4461607317 -2.4193845450
H  -0.2707748112  2.8114889976 -1.0315189259
O   2.4564696521 -1.0745990673 -0.4899823673
H   3.0415955110 -1.7491355563 -0.6646724821
H   2.3186136063 -0.0631066768 -1.3679182452
22
Image 43  Energy = -424.7156429449
C  -0.3651232016  0.0365013952 -0.5002376083
C  -0.2609062677  0.7624862795 -1.7455007168
H  -0.3018575145  0.1595527789 -2.5501958009
O  -0.0094499927 -1.2763162663 -0.5378471949
H   1.3246533641 -1.3567313403 -0.4656727681
O   1.9760932732  0.7648954664 -2.0724109176
H   2.1933065840  0.3975622540 -3.0597512131
C   0.0800327698  0.7728078168  0.7601538616
H  -0.4088901056  1.7062319219  0.8885763429
H  -0.1579240076  0.1149434674  1.6306500785
H   1.1798930770  0.9172460518  0.7052973345
C  -2.0182191191  0.1523959792 -0.6993081544
H  -2.3368313973  1.2025067523 -0.2034466741
H  -2.4543240785  0.1039954121 -2.0293082409
H  -2.3637568434 -0.5622625085 -0.2583646898
C  -0.3940198849  2.2217714457 -1.9631127015
H   0.2433907868  2.5041805829 -2.6085589338
H  -1.4909455756  2.4470095926 -2.4203743489
H  -0.2708879997  2.8118723927 -1.0309203629
O   2.4565778642 -1.0745363075 -0.4900227544
H   3.0407875073 -1.7484159442 -0.6646835073
H   2.3188496879 -0.0636712488 -1.3673934094
22
Image 44  Energy = -424.7097782628
C  -0.3653941298  0.0366830462 -0.5002341341
C  -0.2605414838  0.7625071431 -1.7457679388
H  -0.3023017901  0.1603974803 -2.5485849697
O  -0.0099458721 -1.2763351259 -0.5378895230
H   1.3316209996 -1.3580025956 -0.4652755514
O   1.9760012888  0.7649241438 -2.0722196358
H   2.1937337916  0.3967480871 -3.0622285257
C   0.0799849351  0.7728503351  0.7601117868
H  -0.4085880690  1.7058167939  0.8882110836
H  -0.1579653037  0.1144174138  1.6312558698
H   1.1804429662  0.9172683096  0.7053729297
C  -2.0181539717  0.1518285136 -0.6984800612
H  -2.3375007745  1.2053201919 -0.2025559717
H  -2.4567478126  0.1034857545 -2.0361735237
H  -2.3614696312 -0.5591085089 -0.2608060903
C  -0.3936319650  2.2217921132 -1.9632614177
H   0.2411729626  2.5025846879 -2.6062127032
H  -1.4935535017  2.4478586464 -2.4213641081
H  -0.2710012433  2.8122559755 -1.0303217775
O   2.4566860132 -1.0744733493 -0.4900631209
H   3.0399794445 -1.7476961372 -0.6646945119
H   2.3190857082 -0.0642356413 -1.3668685385
22
Image 45  Energy = -424.7037308724
C  -0.3656651419  0.0368649127 -0.5002306453
C  -0.2601767696  0.7625282273 -1.7460351446
H  -0.3027461597  0.1612423986 -2.5469741289
O  -0.0104418211 -1.2763537661 -0.5379318208
H   1.3385885300 -1.3592736231 -0.4648783102
O   1.9759092201  0.7649530445 -2.0720283250
H   2.1941609121  0.3959341534 -3.0647058019
C   0.0799370246  0.7728930735  0.7600697336
H  -0.4082861006  1.7054018906  0.8878458520
H  -0.1580066752  0.1138915821  1.6318616799
H   1.1809927780  0.9172907792  0.7054485381
C  -2.0180889020  0.1512612737 -0.6976519491
H  -2.3381700568  1.2081336747 -0.2016648042
H  -2.4591719614  0.1029770296 -2.0430386984
H  -2.3591825158 -0.5559544357 -0.2632476866
C  -0.3932441242  2.2218130036 -1.9634101055
H   0.2389550600  2.5009890291 -2.6038664602
H  -1.4961615025  2.4487079237 -2.4223538154
H  -0.2711145505  2.8126397757 -1.0297231665
O   2.4567940891 -1.0744101611 -0.4901034637
H   3.0391713135 -1.7469761044 -0.6647054929
H   2.3193216574 -0.0647998255 -1.3663436269
22
Image 46  Energy = -424.6987378764
C  -0.3658806167  0.0370069585 -0.5002280826
C  -0.2598839079  0.7625415686 -1.7462491539
H  -0.3031001545  0.1619148471 -2.5456856458
O  -0.0108374702 -1.2763721839 -0.5379661385
H   1.3441640474 -1.3602940539 -0.4645609165
O   1.9758369019  0.7649725952 -2.0718757409
H   2.1945039769  0.3952793005 -3.0666881385
C   0.0798998940  0.7729237479  0.7600357500
H  -0.4080434566  1.7050663889  0.8875532363
H  -0.1580385815  0.1134673859  1.6323460169
H   1.1814338377  0.9173053703  0.7055088165
C  -2.0180356205  0.1508038893 -0.6969897765
H  -2.3387070155  1.2103837199 -0.2009593691
H  -2.4611045691  0.1025550808 -2.0485323944
H  -2.3573513467 -0.5534324153 -0.2651977456
C  -0.3929326129  2.2218261531 -1.9635295002
H   0.2371820334  2.4997087657 -2.6019897176
H  -1.4982466577  2.4493837519 -2.4231463843
H  -0.2712041918  2.8129433315 -1.0292446996
O   2.4568817017 -1.0743632875 -0.4901361115
H   3.0385259050 -1.7464037043 -0.6647146514
H   2.3195115311 -0.0652544841 -1.3659243589
22
Image 47  Energy = -424.6935820240
C  -0.3660961005  0.0371490264 -0.5002255183
C  -0.2595910534  0.7625549326 -1.7464631614
H  -0.3034541592  0.1625873181 -2.5443971611
O  -0.0112331269 -1.2763905790 -0.5380004531
H   1.3497395561 -1.3613144618 -0.4642435201
O   1.9757645748  0.7649921688 -2.0717231537
H   2.1948470327  0.3946244712 -3.0686704720
C   0.0798627553  0.7729544450  0.7600017687
H  -0.4078008197  1.7047309102  0.8872606234
H  -0.1580704958  0.1130432123  1.6328303562
H   1.1818748893  0.9173199832  0.7055690964
C  -2.0179823472  0.1503465279 -0.6963276015
H  -2.3392439650  1.2126337705 -0.2002538860
H  -2.4630372203  0.1021332273 -2.0540260814
H  -2.3555201869 -0.5509103862 -0.2671478253
C  -0.3926211098  2.2218393255 -1.9636488920
H   0.2354089978  2.4984285261 -2.6001129729
H  -1.5003318217  2.4500596033 -2.4239389481
H  -0.2712938398  2.8132469097 -1.0287662297
O   2.4569693067 -1.0743163902 -0.4901687569
H   3.0378804890 -1.7458312809 -0.6647238075
H   2.3197013974 -0.0657091215 -1.3655050865
22
Image 48  Energy = -424.6882506766
C  -0.3663115926  0.0372911157 -0.5002229525
C  -0.2592982057  0.7625683183 -1.7466771675
H  -0.3038081734  0.1632598108 -2.5431086749
O  -0.0116287907 -1.2764089526 -0.5380347646
H   1.3553150565 -1.3623348477 -0.4639261211
O   1.9756922393  0.7650117643 -2.0715705635
H   2.1951900800  0.3939696646 -3.0706528027
C   0.0798256092  0.7729851637  0.7599677895
H  -0.4075581894  1.7043954535  0.8869680131
H  -0.1581024176  0.1126190603  1.6333146976
H   1.1823159335  0.9173346169  0.7056293777
C  -2.0179290816  0.1498891885 -0.6956654245
H  -2.3397809055  1.2148838264 -0.1995483572
H  -2.4649699128  0.1017114649 -2.0595197599
H  -2.3536890360 -0.5483883488 -0.2690979249
C  -0.3923096144  2.2218525199 -1.9637682809
H   0.2336359537  2.4971483092 -2.5982362261
H  -1.5024169938  2.4507354769 -2.4247315071
H  -0.2713834942  2.8135505094 -1.0282877572
O   2.4570569045 -1.0742694703 -0.4902013998
H   3.0372350661 -1.7452588350 -0.6647329612
H   2.3198912567 -0.0661637385 -1.3650858099
22
Image 49  Energy = -424.6827538772
C  -0.3665270927  0.0374332251 -0.5002203853
C  -0.2590053645  0.7625817247 -1.7468911721
H  -0.3041621965  0.1639323239 -2.5418201874
O  -0.0120244612 -1.2764273057 -0.5380690733
H   1.3608905491 -1.3633552126 -0.4636087197
O   1.9756198958  0.7650313808 -2.0714179706
H   2.1955331192  0.3933148796 -3.0726351308
C   0.0797884558  0.7730159030  0.7599338123
H  -0.4073155656  1.7040600176  0.8866754054
H  -0.1581343466  0.1121949289  1.6337990409
H   1.1827569705  0.9173492705  0.7056896602
C  -2.0178758232  0.1494318701 -0.6950032454
H  -2.3403178375  1.2171338872 -0.1988427848
H  -2.4669026448  0.1012897892 -2.0650134304
H  -2.3518578935 -0.5458663035 -0.2710480434
C  -0.3919981263  2.2218657351 -1.9638876673
H   0.2318629016  2.4958681139 -2.5963594775
H  -1.5045021738  2.4514113718 -2.4255240615
H  -0.2714731547  2.8138541296 -1.0278092820
O   2.4571444953 -1.0742225289 -0.4902340406
H   3.0365896364 -1.7446863677 -0.6647421126
H   2.3200811094 -0.0666183362 -1.3646665293
22
Image 50  Energy = -424.6771142201
C  -0.3667426005  0.0375753539 -0.5002178168
C  -0.2587125296  0.7625951509 -1.7471051753
H  -0.3045162283  0.1646048568 -2.5405316984
O  -0.0124201381 -1.2764456391 -0.5381033793
H   1.3664660342 -1.3643755574 -0.4632913159
O   1.9755475447  0.7650510173 -2.0712653750
H   2.1958761507  0.3926601152 -3.0746174562
C   0.0797512956  0.7730466620  0.7598998372
H  -0.4070729479  1.7037246018  0.8863828001
H  -0.1581662823  0.1117708173  1.6342833861
H   1.1831980006  0.9173639431  0.7057499440
C  -2.0178225719  0.1489745717 -0.6943410643
H  -2.3408547614  1.2193839528 -0.1981371708
H  -2.4688354144  0.1008681964 -2.0705070932
H  -2.3500267591 -0.5433442507 -0.2729981799
C  -0.3916866453  2.2218789703 -1.9640070511
H   0.2300898417  2.4945879394 -2.5944827271
H  -1.5065873613  2.4520872869 -2.4263166115
H  -0.2715628210  2.8141577695 -1.0273308043
O   2.4572320796 -1.0741755668 -0.4902666792
H   3.0359442002 -1.7441138800 -0.6647512619
H   2.3202709556 -0.0670729154 -1.3642472449
