27
Scanning combination 1/73: [177.8561]  Energy = -652.9203158770
C  -3.4012325960 -1.5688712871  0.0546669985
C  -2.1132893454 -1.5196481802  0.5162953439
C  -1.3573683495 -0.3217394428  0.4278165217
C  -1.9492877765  0.8278009391 -0.1503231236
C  -3.2934614593  0.7540768889 -0.6111242554
C  -4.0002296756 -0.4156727405 -0.5128644920
H   0.4007688678 -1.1406712634  1.3674945615
H  -3.9716473855 -2.4919272543  0.1168403014
H  -1.6431322975 -2.3997667642  0.9504824402
C  -0.0162145567 -0.2547434506  0.8919492829
C  -1.1682999720  2.0117078822 -0.2477713597
H  -3.7501424352  1.6397570452 -1.0484356560
H  -5.0252172496 -0.4707568764 -0.8707864884
C   0.1294102850  2.0359222903  0.1884148093
C   0.7444802281  0.8809553995  0.7456109853
H  -1.6171919746  2.9030280739 -0.6807707342
H   0.6986475024  2.9617992898  0.1174641604
C   2.2073143156  0.9055207542  1.1401566371
C   3.1893356051  0.5766600698 -0.0103647868
H   2.3807776303  0.1932182493  1.9562615369
H   2.4675275965  1.8967427896  1.5281404091
H   4.2176176784  0.6336499800  0.3627650394
H   3.0695240433  1.2884459873 -0.8316886520
C   2.9690389623 -0.8013204523 -0.5828725845
O   2.2994028847 -1.0671346417 -1.5517533030
O   3.6031596994 -1.7563430547  0.1330610933
H   3.3702104222 -2.5971896560 -0.2945650045
27
Scanning combination 2/73: [182.8561]  Energy = -652.9202598635
C  -3.4012115255 -1.5688173873  0.0555219216
C  -2.1128856581 -1.5208787008  0.5171069257
C  -1.3545431260 -0.3233240544  0.4247297093
C  -1.9475313909  0.8282692935 -0.1487921575
C  -3.2910923808  0.7542231036 -0.6112927875
C  -3.9993535946 -0.4150128413 -0.5126771251
H   0.4079120804 -1.1420865917  1.3580387024
H  -3.9744115874 -2.4906888201  0.1195582543
H  -1.6459921133 -2.4024672453  0.9537720146
C  -0.0128509836 -0.2560888304  0.8871577362
C  -1.1666431185  2.0125297754 -0.2473295701
H  -3.7464849642  1.6409061735 -1.0475748301
H  -5.0244528540 -0.4687538543 -0.8710801557
C   0.1322279666  2.0348043376  0.1863638250
C   0.7452223207  0.8817433434  0.7490554171
H  -1.6197273912  2.9028699246 -0.6795755236
H   0.7020189848  2.9595709688  0.1123464098
C   2.2073361355  0.9043948328  1.1414280917
C   3.1846687062  0.5777663317 -0.0098472654
H   2.3801958340  0.1924100020  1.9564119112
H   2.4636785596  1.8946060425  1.5312523666
H   4.2148451126  0.6430610174  0.3579709157
H   3.0643431075  1.2941353320 -0.8269136964
C   2.9646067208 -0.8018981260 -0.5825275542
O   2.3022638054 -1.0683855135 -1.5555155524
O   3.5935222603 -1.7561105959  0.1404513572
H   3.4354135816 -2.5934355664 -0.3239185940
27
Scanning combination 3/73: [187.8561]  Energy = -652.9199780081
C  -3.4028334550 -1.5655924756  0.0598384934
C  -2.1134450897 -1.5228485844  0.5184829939
C  -1.3503702588 -0.3290248729  0.4222824851
C  -1.9417051759  0.8241120034 -0.1498743921
C  -3.2850999009  0.7550659874 -0.6104484448
C  -3.9967228518 -0.4113479407 -0.5111815553
H   0.4250571635 -1.1552546935  1.3288820460
H  -3.9802720864 -2.4838608570  0.1293402074
H  -1.6515510944 -2.4043720742  0.9595105653
C  -0.0067061993 -0.2636334033  0.8781066279
C  -1.1628509389  2.0091465237 -0.2482225558
H  -3.7365291472  1.6440990472 -1.0458906054
H  -5.0214027421 -0.4619730402 -0.8703394610
C   0.1356608902  2.0329006961  0.1837109431
C   0.7448827234  0.8795960838  0.7496606586
H  -1.6179436250  2.9004339495 -0.6751101516
H   0.7114950833  2.9535403154  0.0992707618
C   2.2032312168  0.9062341664  1.1523952300
C   3.1708262164  0.5784633182 -0.0082222231
H   2.3767462893  0.1902523653  1.9646507969
H   2.4604768246  1.8963862717  1.5457926972
H   4.2043144716  0.6463565262  0.3438756642
H   3.0311826104  1.2872898870 -0.8276611715
C   2.9582280695 -0.8026820587 -0.5792977534
O   2.3320453080 -1.0647348324 -1.5776371290
O   3.5760048256 -1.7593363317  0.1500003195
H   3.4857822887 -2.5787390290 -0.3648275167
27
Scanning combination 4/73: [192.8561]  Energy = -652.9192518000
C  -3.4030593194 -1.5655033768  0.0602359373
C  -2.1134757291 -1.5228847776  0.5183785072
C  -1.3503469954 -0.3290987990  0.4219688088
C  -1.9416783531  0.8241970049 -0.1499317594
C  -3.2852285634  0.7551171219 -0.6103592528
C  -3.9968868530 -0.4112801143 -0.5110434870
H   0.4250367940 -1.1557644502  1.3280344950
H  -3.9806732880 -2.4837305730  0.1297611370
H  -1.6516572704 -2.4045089829  0.9594990714
C  -0.0066908259 -0.2638730442  0.8779599380
C  -1.1626356721  2.0091793754 -0.2481210051
H  -3.7363783984  1.6441869237 -1.0461049817
H  -5.0216097605 -0.4617166834 -0.8700467771
C   0.1358458047  2.0326326613  0.1843999911
C   0.7454436344  0.8788976029  0.7492767538
H  -1.6176351216  2.9002958535 -0.6757254746
H   0.7117158401  2.9531855980  0.0996154367
C   2.2042651291  0.9046071461  1.1514559824
C   3.1717862115  0.5793365912 -0.0089350401
H   2.3769636710  0.1899563637  1.9651114883
H   2.4602954347  1.8947317928  1.5447037662
H   4.2065339167  0.6485798797  0.3437955576
H   3.0310970894  1.2891327325 -0.8283011727
C   2.9537241135 -0.8022843064 -0.5770935830
O   2.3324459369 -1.0644766474 -1.5792963752
O   3.5704358638 -1.7597644200  0.1528103334
H   3.5492197466 -2.5628967127 -0.3937099187
27
Scanning combination 5/73: [197.8561]  Energy = -652.9182878290
C  -3.4044888684 -1.5648399879  0.0616485135
C  -2.1143989695 -1.5231530726  0.5182584957
C  -1.3506287576 -0.3300027788  0.4210220456
C  -1.9413371456  0.8239934303 -0.1501498445
C  -3.2850739216  0.7554987908 -0.6102785700
C  -3.9976212719 -0.4102594823 -0.5097482477
H   0.4251158232 -1.1596832410  1.3235480158
H  -3.9827865334 -2.4825049929  0.1324442991
H  -1.6524829717 -2.4048454543  0.9591026295
C  -0.0064359316 -0.2666926508  0.8755490524
C  -1.1612011833  2.0083793820 -0.2478291380
H  -3.7356984888  1.6444248137 -1.0469993866
H  -5.0226304316 -0.4602384380 -0.8681357269
C   0.1369738372  2.0307359844  0.1854383607
C   0.7460377744  0.8759182082  0.7488991599
H  -1.6147280426  2.8991592711 -0.6777635363
H   0.7135191747  2.9510838627  0.1021904356
C   2.2045549456  0.9023737260  1.1517005675
C   3.1697155721  0.5859008836 -0.0112144380
H   2.3796787281  0.1869103469  1.9643058113
H   2.4600847807  1.8921570669  1.5436995111
H   4.2052591068  0.6549660595  0.3383254807
H   3.0286949072  1.2964543003 -0.8285296068
C   2.9483266719 -0.7954036936 -0.5769442458
O   2.3421109030 -1.0603675156 -1.5852424199
O   3.5580093383 -1.7442658425  0.1731223726
H   3.6210265917 -2.5381574394 -0.3836917416
27
Scanning combination 6/73: [202.8561]  Energy = -652.9195118699
C  -3.4345528987 -1.5509643004  0.0936947600
C  -2.1364834932 -1.5238448387  0.5273838387
C  -1.3605579471 -0.3396321639  0.4196640955
C  -1.9526536412  0.8202422461 -0.1387251375
C  -3.3000655864  0.7641408792 -0.5884398936
C  -4.0240949602 -0.3930249852 -0.4741565386
H   0.4387284380 -1.1983899042  1.2554915242
H  -4.0236776190 -2.4598082607  0.1853510010
H  -1.6776892543 -2.4090840369  0.9635854117
C  -0.0063778884 -0.2903231735  0.8540930920
C  -1.1736029577  2.0037840357 -0.2354300549
H  -3.7456256405  1.6563361703 -1.0243781396
H  -5.0562053000 -0.4317050403 -0.8122336302
C   0.1235681836  2.0209623370  0.1948612168
C   0.7296065974  0.8647779868  0.7556347930
H  -1.6245502294  2.8945054243 -0.6653466294
H   0.7111887831  2.9336130510  0.1066205863
C   2.1829656509  0.9375534525  1.1608220373
C   3.1222308371  0.6859143623 -0.0238869124
H   2.4023172446  0.2203781716  1.9569957984
H   2.3901588266  1.9363301226  1.5601260032
H   4.1562699592  0.9167548908  0.2608027529
H   2.8705855527  1.3281927149 -0.8730914306
C   3.1468504715 -0.7398040914 -0.5219148979
O   3.2872816551 -1.0735164288 -1.6709784809
O   3.1277532738 -1.6377156857  0.4984730654
H   3.5049903829 -2.4624710020  0.1512212494
27
Scanning combination 7/73: [207.8561]  Energy = -652.9182151262
C  -3.4346610941 -1.5512246624  0.0947749950
C  -2.1362489841 -1.5241984300  0.5277237480
C  -1.3607151186 -0.3394048539  0.4193000460
C  -1.9532359451  0.8202515968 -0.1393614955
C  -3.3007861785  0.7635095407 -0.5876859510
C  -4.0247954612 -0.3935347154 -0.4730575701
H   0.4376805197 -1.1973722443  1.2558463348
H  -4.0240028017 -2.4600791820  0.1843578126
H  -1.6780137773 -2.4101138236  0.9638061740
C  -0.0067684540 -0.2893360077  0.8539692624
C  -1.1744811291  2.0042079098 -0.2374941517
H  -3.7452461051  1.6560293826 -1.0235853866
H  -5.0564135805 -0.4317805429 -0.8129338097
C   0.1222339282  2.0214532419  0.1948421462
C   0.7294267066  0.8656500076  0.7559222332
H  -1.6259229899  2.8960681574 -0.6657522886
H   0.7107464053  2.9333029236  0.1072044813
C   2.1838834147  0.9372524247  1.1608770605
C   3.1253537123  0.6862514699 -0.0223111425
H   2.4026667122  0.2195739803  1.9568714254
H   2.3907013108  1.9362993123  1.5590780244
H   4.1604287789  0.9181819621  0.2622200350
H   2.8744765673  1.3263677637 -0.8720492375
C   3.1426717194 -0.7392654094 -0.5225985119
O   3.2872252982 -1.0756385820 -1.6707205701
O   3.1229086090 -1.6395103160  0.4967937761
H   3.5683825900 -2.4378260583  0.1706621999
27
Scanning combination 8/73: [212.8561]  Energy = -652.9168004099
C  -3.4378833869 -1.5544208569  0.0979372672
C  -2.1393093796 -1.5237148356  0.5306385787
C  -1.3646864178 -0.3376176881  0.4195465238
C  -1.9589630717  0.8204567389 -0.1408285664
C  -3.3088050130  0.7613718842 -0.5823360278
C  -4.0307104869 -0.3968342989 -0.4676126939
H   0.4315744599 -1.1881468618  1.2638054802
H  -4.0237523468 -2.4667450865  0.1790183194
H  -1.6802721994 -2.4105614729  0.9644887026
C  -0.0099797755 -0.2831002207  0.8523928561
C  -1.1809097566  2.0050350832 -0.2428867008
H  -3.7561205243  1.6539709578 -1.0150196170
H  -5.0607333285 -0.4387448775 -0.8121902408
C   0.1163560217  2.0260036183  0.1892891449
C   0.7287434160  0.8706068796  0.7480605862
H  -1.6369952877  2.8965971802 -0.6686289233
H   0.6980600704  2.9432967479  0.1111035701
C   2.1859806018  0.9382817094  1.1529045442
C   3.1414802532  0.6831324292 -0.0200435353
H   2.4009465576  0.2183259630  1.9483408110
H   2.3993831439  1.9345924184  1.5545203487
H   4.1758428073  0.8835942933  0.2860158207
H   2.9281219672  1.3339037552 -0.8713255631
C   3.1446688955 -0.7370764059 -0.5299221189
O   3.2980656359 -1.0647943533 -1.6788425032
O   3.1195621213 -1.6417502139  0.4877810644
H   3.6249104595 -2.4164429605  0.1939717056
27
Scanning combination 9/73: [217.8561]  Energy = -652.9150961492
C  -3.4369830692 -1.5542772477  0.0969453725
C  -2.1385969106 -1.5236688261  0.5301837164
C  -1.3643826533 -0.3371936319  0.4197636291
C  -1.9593366195  0.8204679627 -0.1401053702
C  -3.3090381443  0.7616646584 -0.5826218883
C  -4.0305710987 -0.3971774165 -0.4684498300
H   0.4326845146 -1.1881502206  1.2631916783
H  -4.0230823626 -2.4662161399  0.1802351674
H  -1.6794801982 -2.4099022118  0.9649688033
C  -0.0092902978 -0.2830635400  0.8523208427
C  -1.1816019034  2.0051091533 -0.2413867722
H  -3.7570309615  1.6539681697 -1.0149181225
H  -5.0612357676 -0.4386611487 -0.8110449647
C   0.1163602861  2.0256987727  0.1896344763
C   0.7298559381  0.8701361668  0.7462277495
H  -1.6368014830  2.8961468107 -0.6684651767
H   0.6972748312  2.9431022213  0.1098024593
C   2.1867000623  0.9382183400  1.1517251900
C   3.1428787804  0.6827077953 -0.0198596131
H   2.3996201734  0.2184867231  1.9476675832
H   2.3977745287  1.9350909242  1.5537713148
H   4.1776441881  0.8832295418  0.2896546503
H   2.9301004865  1.3358682572 -0.8701551036
C   3.1416647634 -0.7388617872 -0.5315504706
O   3.2980191650 -1.0643255124 -1.6803788781
O   3.1147024832 -1.6474351127  0.4861064997
H   3.6830507920 -2.3863515694  0.2208776137
27
Scanning combination 10/73: [222.8561]  Energy = -652.9132913206
C  -3.4349874968 -1.5546572648  0.0966205860
C  -2.1365422406 -1.5233947939  0.5295467347
C  -1.3637922591 -0.3368437238  0.4191672099
C  -1.9603594733  0.8211270178 -0.1386934717
C  -3.3098856327  0.7614468434 -0.5819555626
C  -4.0298730605 -0.3979259919 -0.4684073387
H   0.4359898159 -1.1879654427  1.2592406764
H  -4.0206077980 -2.4660728030  0.1835857510
H  -1.6763950954 -2.4081339097  0.9661191856
C  -0.0084794764 -0.2836080390  0.8493218269
C  -1.1830518261  2.0056922332 -0.2397581261
H  -3.7593064611  1.6536753548 -1.0135114847
H  -5.0618577656 -0.4395376455 -0.8073935800
C   0.1156460930  2.0256607973  0.1874629053
C   0.7296065321  0.8696644389  0.7422929607
H  -1.6383132880  2.8968856752 -0.6662188024
H   0.6960053197  2.9432233786  0.1051658011
C   2.1851162355  0.9370433587  1.1489669782
C   3.1449918193  0.6829885945 -0.0197254185
H   2.3964839244  0.2180733683  1.9461367350
H   2.3941722736  1.9346755171  1.5497569179
H   4.1777270091  0.8709602828  0.2999484037
H   2.9431045361  1.3434195162 -0.8665399027
C   3.1380417384 -0.7350379104 -0.5373442885
O   3.3009854656 -1.0585359220 -1.6852553696
O   3.1003563477 -1.6437195843  0.4839949559
H   3.7240300017 -2.3537212435  0.2694034094
27
Scanning combination 11/73: [227.8561]  Energy = -652.9113994543
C  -3.4354678522 -1.5550373365  0.0976439933
C  -2.1368216956 -1.5236019950  0.5298701034
C  -1.3640490679 -0.3368348065  0.4186533932
C  -1.9603659838  0.8210382006 -0.1395001707
C  -3.3101969303  0.7612712488 -0.5814030276
C  -4.0302711334 -0.3981497745 -0.4671931346
H   0.4354363118 -1.1879699448  1.2581092617
H  -4.0208755292 -2.4668921855  0.1834106965
H  -1.6763010978 -2.4085063469  0.9658390077
C  -0.0087663425 -0.2830955827  0.8490670184
C  -1.1832992945  2.0059099340 -0.2407657793
H  -3.7593529084  1.6535118604 -1.0130119221
H  -5.0617726260 -0.4400383147 -0.8073741089
C   0.1154542713  2.0260059248  0.1868963024
C   0.7298768941  0.8700477717  0.7416653318
H  -1.6392620689  2.8975062101 -0.6658921004
H   0.6962746228  2.9432879711  0.1049502285
C   2.1861980667  0.9377502107  1.1481213449
C   3.1462921067  0.6841246340 -0.0195364307
H   2.3962914617  0.2184402134  1.9453807103
H   2.3945308882  1.9351283291  1.5505074568
H   4.1810034695  0.8698075121  0.3016170944
H   2.9459241007  1.3452013413 -0.8663557041
C   3.1346716141 -0.7348721115 -0.5380738630
O   3.3012485029 -1.0575544393 -1.6846397101
O   3.0952073654 -1.6496363428  0.4824983309
H   3.7724009361 -2.3173923209  0.3035300297
27
Scanning combination 12/73: [232.8561]  Energy = -652.9095211331
C  -3.4358129595 -1.5555324864  0.0989610223
C  -2.1367317441 -1.5235021819  0.5302155662
C  -1.3641656972 -0.3365879189  0.4180725797
C  -1.9610359570  0.8211847884 -0.1397063439
C  -3.3113437470  0.7607061764 -0.5804132375
C  -4.0310589634 -0.3987000996 -0.4656119559
H   0.4354474011 -1.1876602823  1.2553429474
H  -4.0207257471 -2.4677379655  0.1841975517
H  -1.6758186040 -2.4086513534  0.9652908563
C  -0.0086153179 -0.2825461788  0.8469393872
C  -1.1839417935  2.0060987033 -0.2416735026
H  -3.7610503371  1.6528324495 -1.0117285443
H  -5.0626049713 -0.4412534770 -0.8059107313
C   0.1152607185  2.0265709565  0.1845887055
C   0.7300663813  0.8706998611  0.7391868226
H  -1.6410153175  2.8979149082 -0.6653025214
H   0.6956741164  2.9443152049  0.1034513797
C   2.1860466479  0.9385954450  1.1472527440
C   3.1486834111  0.6843518500 -0.0190419006
H   2.3960353785  0.2187465720  1.9438415453
H   2.3948723543  1.9354123371  1.5509442375
H   4.1825335568  0.8614602943  0.3050267181
H   2.9564825640  1.3489704834 -0.8644672263
C   3.1324926766 -0.7317066679 -0.5406237277
O   3.3014946972 -1.0508839762 -1.6869536373
O   3.0806023846 -1.6491340382  0.4818608890
H   3.8034161235 -2.2803201803  0.3579418589
27
Scanning combination 13/73: [237.8561]  Energy = -652.9076899294
C  -3.4355792002 -1.5555939038  0.0990715794
C  -2.1366954078 -1.5236159039  0.5299430987
C  -1.3643567834 -0.3364070705  0.4176725120
C  -1.9614787708  0.8212250012 -0.1398073697
C  -3.3118395350  0.7609779019 -0.5800426431
C  -4.0314066807 -0.3990179488 -0.4652066643
H   0.4362761558 -1.1874001118  1.2541084710
H  -4.0205077066 -2.4679031310  0.1849843682
H  -1.6753843073 -2.4084550818  0.9653195012
C  -0.0086878417 -0.2822486561  0.8466487026
C  -1.1846728367  2.0062786757 -0.2418964292
H  -3.7619954875  1.6527805411 -1.0112652698
H  -5.0629302213 -0.4415025092 -0.8048871149
C   0.1147646262  2.0267644795  0.1844043999
C   0.7300420603  0.8708705276  0.7384107528
H  -1.6416043669  2.8980690267 -0.6654436928
H   0.6948775559  2.9444251796  0.1023750706
C   2.1865221415  0.9390031344  1.1459362991
C   3.1510400042  0.6851392731 -0.0187343205
H   2.3949852114  0.2188801272  1.9432809059
H   2.3942912209  1.9358359766  1.5506179754
H   4.1853733625  0.8594274390  0.3089776713
H   2.9599281222  1.3518804384 -0.8643251828
C   3.1307736788 -0.7320811985 -0.5408363759
O   3.3010280613 -1.0504160216 -1.6868009411
O   3.0761240527 -1.6557988209  0.4794621413
H   3.8431429723 -2.2389265426  0.3962175996
27
Scanning combination 14/73: [242.8561]  Energy = -652.9059540335
C  -3.4356050232 -1.5556464778  0.0991811985
C  -2.1366080846 -1.5235469128  0.5299555001
C  -1.3643193225 -0.3363298952  0.4176922880
C  -1.9615794301  0.8212585224 -0.1397811747
C  -3.3119958939  0.7608586821 -0.5800068876
C  -4.0314900388 -0.3990328614 -0.4650514074
H   0.4364181867 -1.1873445848  1.2537852088
H  -4.0204903850 -2.4679496985  0.1851041211
H  -1.6753216697 -2.4084169619  0.9652703974
C  -0.0086210749 -0.2821879046  0.8463483901
C  -1.1847812786  2.0062972146 -0.2419134343
H  -3.7621984864  1.6527421845 -1.0110999593
H  -5.0630881066 -0.4415846596 -0.8046733579
C   0.1146827676  2.0268751132  0.1840915841
C   0.7301692646  0.8709825963  0.7379480827
H  -1.6417806213  2.8980864880 -0.6654518515
H   0.6947482173  2.9445895780  0.1021976516
C   2.1866969546  0.9391379055  1.1457075495
C   3.1531520141  0.6845700357 -0.0186682864
H   2.3949022086  0.2189975335  1.9430620427
H   2.3942503292  1.9358861367  1.5505681054
H   4.1860612457  0.8586999474  0.3095382342
H   2.9616946484  1.3514528760 -0.8633795695
C   3.1273008773 -0.7307604109 -0.5419893575
O   3.2999140774 -1.0490059060 -1.6870840629
O   3.0727848635 -1.6599179321  0.4767009414
H   3.8773511082 -2.1946555422  0.4376184343
27
Scanning combination 15/73: [247.8561]  Energy = -652.9043969963
C  -3.4356236277 -1.5556768318  0.0992810868
C  -2.1365985558 -1.5235057783  0.5299729370
C  -1.3643935593 -0.3362369479  0.4176918839
C  -1.9616874534  0.8213140616 -0.1397808107
C  -3.3121254063  0.7608130930 -0.5799278196
C  -4.0315729571 -0.3990719949 -0.4649181810
H   0.4368398224 -1.1872984111  1.2533164772
H  -4.0204552644 -2.4679914678  0.1852267454
H  -1.6752749976 -2.4083832226  0.9652355330
C  -0.0084918192 -0.2820248338  0.8461910194
C  -1.1848938886  2.0063426483 -0.2419723332
H  -3.7623891007  1.6526974691 -1.0109554402
H  -5.0632124336 -0.4416643768 -0.8044603309
C   0.1146492274  2.0269727209  0.1838480913
C   0.7304480899  0.8710604253  0.7373763005
H  -1.6419641815  2.8981166871 -0.6654555234
H   0.6945985952  2.9447770042  0.1020078417
C   2.1867902388  0.9396386245  1.1454323649
C   3.1524984524  0.6841222786 -0.0179288101
H   2.3947692449  0.2191766639  1.9427392146
H   2.3943216658  1.9361394226  1.5506343234
H   4.1873794020  0.8574955228  0.3100649286
H   2.9637281634  1.3517724280 -0.8630914920
C   3.1287737274 -0.7309930789 -0.5433777348
O   3.2962638427 -1.0455585056 -1.6892307007
O   3.0680459951 -1.6677980791  0.4739982611
H   3.9079059575 -2.1477613289  0.4838653662
27
Scanning combination 16/73: [252.8561]  Energy = -652.9030919675
C  -3.4356235106 -1.5557209743  0.0997792470
C  -2.1364430241 -1.5232930124  0.5301298132
C  -1.3643190484 -0.3360870999  0.4175797199
C  -1.9620716267  0.8214338235 -0.1396229500
C  -3.3126681901  0.7606992561 -0.5794287732
C  -4.0319401050 -0.3992278754 -0.4642740242
H   0.4395341038 -1.1868109097  1.2504535065
H  -4.0202466089 -2.4681609686  0.1858176088
H  -1.6750469449 -2.4082220040  0.9651242102
C  -0.0078240988 -0.2818107529  0.8444940583
C  -1.1857492828  2.0066582984 -0.2425219064
H  -3.7632799620  1.6525280922 -1.0103281835
H  -5.0637284318 -0.4420184724 -0.8034699505
C   0.1139105808  2.0278703741  0.1826762348
C   0.7296798792  0.8721386067  0.7364430532
H  -1.6430177365  2.8984058148 -0.6655715913
H   0.6938071625  2.9456725845  0.1010370670
C   2.1855657960  0.9405638680  1.1451222466
C   3.1527925619  0.6808781650 -0.0166198588
H   2.3929200547  0.2200422928  1.9427209030
H   2.3945506884  1.9371856418  1.5500392474
H   4.1862360980  0.8541644629  0.3136018401
H   2.9700801058  1.3499569920 -0.8609718827
C   3.1354276205 -0.7314805934 -0.5461317824
O   3.2856606517 -1.0356173171 -1.6972122743
O   3.0706695565 -1.6758121981  0.4672685753
H   3.9322665201 -2.1055623482  0.5412833308
27
Scanning combination 17/73: [257.8561]  Energy = -652.9020098750
C  -3.4353800723 -1.5557080532  0.1008376587
C  -2.1362389184 -1.5234936411  0.5299279458
C  -1.3638757058 -0.3357005152  0.4163216227
C  -1.9629449221  0.8215650536 -0.1399093745
C  -3.3136861911  0.7609306824 -0.5784889879
C  -4.0328585984 -0.3999842725 -0.4627479162
H   0.4439293142 -1.1860957531  1.2436721270
H  -4.0199489760 -2.4685883741  0.1871421874
H  -1.6743393756 -2.4080616154  0.9650388870
C  -0.0071451400 -0.2812104756  0.8412820555
C  -1.1868847445  2.0072706678 -0.2427871156
H  -3.7647983715  1.6521835853 -1.0090092751
H  -5.0644970419 -0.4426487046 -0.8015412055
C   0.1123551806  2.0291680076  0.1815700453
C   0.7303042471  0.8730749068  0.7328101466
H  -1.6457273184  2.8987368825 -0.6661731831
H   0.6915664999  2.9476892093  0.0993701981
C   2.1857319714  0.9411846008  1.1433963674
C   3.1590195540  0.6815409944 -0.0141230825
H   2.3883052384  0.2215323567  1.9439522730
H   2.3943706111  1.9373850465  1.5474987793
H   4.1909400482  0.8537950259  0.3248019012
H   2.9770916101  1.3515009453 -0.8606021583
C   3.1367732300 -0.7305782627 -0.5465248427
O   3.2734257617 -1.0326011041 -1.6988262894
O   3.0606824071 -1.6820592680  0.4609729568
H   3.9368216849 -2.0638738280  0.5944316520
27
Scanning combination 18/73: [262.8561]  Energy = -652.9011828903
C  -3.4353591918 -1.5558582599  0.1011572672
C  -2.1358655718 -1.5232069130  0.5298556456
C  -1.3636063025 -0.3357640230  0.4159341159
C  -1.9631716222  0.8215299134 -0.1397330722
C  -3.3141182703  0.7606401864 -0.5781434474
C  -4.0330443419 -0.3999615497 -0.4622910381
H   0.4460516225 -1.1861267957  1.2402856275
H  -4.0197153308 -2.4686638855  0.1878757189
H  -1.6738775783 -2.4078358122  0.9647362543
C  -0.0059068747 -0.2810828899  0.8389743620
C  -1.1877790021  2.0072861472 -0.2434495581
H  -3.7656294295  1.6520920240 -1.0083996907
H  -5.0649373031 -0.4429805058 -0.8005141025
C   0.1123038068  2.0297959789  0.1797163677
C   0.7299154945  0.8743157938  0.7314616069
H  -1.6464007909  2.8987581845 -0.6657309428
H   0.6907275206  2.9486525024  0.0991554602
C   2.1844497509  0.9442713867  1.1438000287
C   3.1591607688  0.6783582866 -0.0116490799
H   2.3877912881  0.2233604718  1.9422771651
H   2.3941745079  1.9405061177  1.5486107715
H   4.1897251118  0.8532152341  0.3252699950
H   2.9841788204  1.3500929028 -0.8560890806
C   3.1359162056 -0.7321416609 -0.5466709286
O   3.2676077809 -1.0284583194 -1.7009688881
O   3.0550071970 -1.6902111295  0.4558027799
H   3.9429970053 -2.0186038865  0.6453432283
27
Scanning combination 19/73: [267.8561]  Energy = -652.9006248567
C  -3.4351817170 -1.5560506452  0.1018953029
C  -2.1349605309 -1.5231526456  0.5294357889
C  -1.3631257709 -0.3357209878  0.4145446591
C  -1.9633728239  0.8217551163 -0.1405683287
C  -3.3149058233  0.7602692058 -0.5774060342
C  -4.0332537103 -0.4000733922 -0.4612355024
H   0.4506403170 -1.1854269647  1.2341124008
H  -4.0192245205 -2.4687533446  0.1889199298
H  -1.6731201696 -2.4079135319  0.9644300115
C  -0.0049650149 -0.2802248332  0.8370535049
C  -1.1888910599  2.0081255324 -0.2443985951
H  -3.7665484109  1.6519318811 -1.0074573342
H  -5.0654698090 -0.4434320945 -0.7991086505
C   0.1111284880  2.0312869727  0.1796512093
C   0.7298593383  0.8757155674  0.7304285518
H  -1.6486569833  2.8994641138 -0.6661902824
H   0.6890116046  2.9502320524  0.0979392727
C   2.1843149870  0.9459469607  1.1441892040
C   3.1620969155  0.6785648507 -0.0101420047
H   2.3843680319  0.2259821177  1.9455333812
H   2.3936800995  1.9423205944  1.5477034396
H   4.1927092254  0.8512417857  0.3328354348
H   2.9868876392  1.3494186800 -0.8575121485
C   3.1399931569 -0.7335002295 -0.5457015037
O   3.2574989492 -1.0257597169 -1.7021809410
O   3.0535871574 -1.7010937514  0.4484349659
H   3.9456687584 -1.9744323639  0.6947378623
27
Scanning combination 20/73: [272.8561]  Energy = -652.9003376518
C  -3.4344735623 -1.5560704736  0.1024210213
C  -2.1341292440 -1.5229209004  0.5288996353
C  -1.3620602509 -0.3356187463  0.4135762048
C  -1.9636408318  0.8216667356 -0.1402559245
C  -3.3151613573  0.7601414877 -0.5771121902
C  -4.0334705669 -0.4004190937 -0.4603247441
H   0.4549699727 -1.1853135565  1.2275352644
H  -4.0184775975 -2.4689353824  0.1902538859
H  -1.6719052914 -2.4074669430  0.9636427588
C  -0.0028035058 -0.2799680090  0.8328713883
C  -1.1900005083  2.0083537908 -0.2444367540
H  -3.7677565505  1.6516712752 -1.0064335099
H  -5.0658843791 -0.4440018846 -0.7971586395
C   0.1105037083  2.0327718563  0.1778798054
C   0.7300469413  0.8775552709  0.7278792570
H  -1.6500475830  2.8992081542 -0.6661256837
H   0.6871954805  2.9526244275  0.0976838688
C   2.1834953509  0.9488750562  1.1439995545
C   3.1630365008  0.6739807593 -0.0052397668
H   2.3821408334  0.2294915508  1.9453968928
H   2.3941217938  1.9452297217  1.5469743497
H   4.1924687882  0.8538870288  0.3364061920
H   2.9944291845  1.3442177716 -0.8512361208
C   3.1398194749 -0.7359586553 -0.5464248950
O   3.2472789771 -1.0213628484 -1.7054586205
O   3.0474576122 -1.7092082550  0.4405637474
H   3.9361263125 -1.9308570181  0.7461368016
27
Scanning combination 21/73: [277.8561]  Energy = -652.9003048543
C  -3.4337772199 -1.5562890809  0.1032106908
C  -2.1329020420 -1.5231266958  0.5282264554
C  -1.3612915279 -0.3355497934  0.4115894069
C  -1.9635997785  0.8218991279 -0.1413652261
C  -3.3157286106  0.7600162773 -0.5760747504
C  -4.0335281944 -0.4008113111 -0.4591308279
H   0.4587504638 -1.1848763528  1.2208036810
H  -4.0176068371 -2.4691415853  0.1914271847
H  -1.6704492323 -2.4077592255  0.9630031305
C  -0.0019265118 -0.2793321115  0.8304616569
C  -1.1907063311  2.0092406554 -0.2455223012
H  -3.7683811196  1.6514200083 -1.0054030925
H  -5.0661474145 -0.4444977389 -0.7955325447
C   0.1096119789  2.0340524391  0.1779091555
C   0.7303758015  0.8785783485  0.7268253670
H  -1.6522796641  2.9001656363 -0.6662860964
H   0.6853550304  2.9543634757  0.0972441697
C   2.1843257439  0.9493904699  1.1442550358
C   3.1674809628  0.6756256015 -0.0050849226
H   2.3785805267  0.2312143212  1.9496422068
H   2.3940428106  1.9463820667  1.5455106984
H   4.1961454762  0.8525208572  0.3436832552
H   2.9955494253  1.3449546836 -0.8545057172
C   3.1418155755 -0.7368621567 -0.5453996510
O   3.2369636019 -1.0193313226 -1.7054089321
O   3.0428358719 -1.7181852295  0.4323676520
H   3.9195953447 -1.8901379139  0.7967523645
27
Scanning combination 22/73: [282.8561]  Energy = -652.9005172555
C  -3.4333111508 -1.5563323876  0.1034182141
C  -2.1323523827 -1.5229794462  0.5277379944
C  -1.3604897279 -0.3355081639  0.4110716731
C  -1.9635927481  0.8217809540 -0.1412464462
C  -3.3156835278  0.7599336328 -0.5761481673
C  -4.0335636030 -0.4010117841 -0.4586047149
H   0.4602549513 -1.1851743876  1.2177383656
H  -4.0171207351 -2.4693319630  0.1921068026
H  -1.6696159874 -2.4074464492  0.9623437021
C  -0.0005599609 -0.2793495881  0.8282287189
C  -1.1910554221  2.0092491932 -0.2453025500
H  -3.7690260923  1.6513203332 -1.0048195086
H  -5.0662341959 -0.4448240408 -0.7944134062
C   0.1095321027  2.0346807340  0.1770795651
C   0.7303576378  0.8793558296  0.7253565199
H  -1.6525684126  2.8999341491 -0.6659929724
H   0.6847005343  2.9554228590  0.0974361272
C   2.1830860623  0.9510004083  1.1443588730
C   3.1676610649  0.6725368410 -0.0019848603
H   2.3776650925  0.2332654388  1.9487958270
H   2.3945253570  1.9475732736  1.5457574901
H   4.1945028602  0.8550619074  0.3438751823
H   2.9991593618  1.3416853961 -0.8502754417
C   3.1476574210 -0.7397908452 -0.5459477323
O   3.2294909308 -1.0156125208 -1.7082032829
O   3.0374828062 -1.7243635429  0.4237544560
H   3.8949595469 -1.8413680638  0.8508452531
27
Scanning combination 23/73: [287.8561]  Energy = -652.9010255937
C  -3.4311267801 -1.5572514989  0.1047732476
C  -2.1284810782 -1.5232604288  0.5248661369
C  -1.3578926274 -0.3354067460  0.4056982770
C  -1.9633213266  0.8221772420 -0.1432672316
C  -3.3166878342  0.7592555490 -0.5745770079
C  -4.0331718977 -0.4018510781 -0.4554336601
H   0.4663987147 -1.1855077733  1.2012272565
H  -4.0141533117 -2.4702874903  0.1956501033
H  -1.6644372098 -2.4073494166  0.9587492658
C   0.0027663527 -0.2786160550  0.8187309788
C  -1.1922616819  2.0105989655 -0.2463104471
H  -3.7716081610  1.6507667359 -1.0016306722
H  -5.0669031490 -0.4464446674 -0.7886133407
C   0.1086809954  2.0374320654  0.1748645754
C   0.7323535442  0.8813672821  0.7187586535
H  -1.6561610357  2.9012188484 -0.6648299048
H   0.6808928840  2.9603172093  0.0980889761
C   2.1841331801  0.9524760442  1.1427114329
C   3.1759322962  0.6706564667  0.0025357596
H   2.3703302079  0.2392070126  1.9537203122
H   2.3955008157  1.9497855939  1.5418139929
H   4.2004581803  0.8597093417  0.3552308713
H   3.0086812258  1.3384911632 -0.8475778474
C   3.1466195938 -0.7416693731 -0.5462220662
O   3.2010301970 -1.0083183233 -1.7126760035
O   3.0133705326 -1.7357825842  0.4082001676
H   3.8351418006 -1.8249795959  0.9078334615
27
Scanning combination 24/73: [292.8561]  Energy = -652.9016937915
C  -3.4310120203 -1.5572898096  0.1048202451
C  -2.1280410922 -1.5232540437  0.5246206144
C  -1.3575983388 -0.3354640373  0.4051117170
C  -1.9633245281  0.8222163798 -0.1433926287
C  -3.3168669943  0.7591371500 -0.5743643502
C  -4.0330604102 -0.4018864113 -0.4552738512
H   0.4659671923 -1.1856056112  1.2006221912
H  -4.0137848620 -2.4702968363  0.1959006507
H  -1.6637798865 -2.4073551541  0.9581778896
C   0.0032732351 -0.2786638707  0.8176065932
C  -1.1922119033  2.0106558157 -0.2466019454
H  -3.7718984723  1.6506784208 -1.0013050270
H  -5.0670186659 -0.4465617822 -0.7879542885
C   0.1086635844  2.0374970111  0.1744590538
C   0.7325699748  0.8816151499  0.7185708678
H  -1.6563490609  2.9015644579 -0.6645837134
H   0.6807635063  2.9605555745  0.0981451185
C   2.1842275442  0.9526427499  1.1431000986
C   3.1770941748  0.6688273977  0.0034729864
H   2.3701370501  0.2395737920  1.9543215947
H   2.3953156091  1.9505060103  1.5421875962
H   4.2008659114  0.8582887064  0.3560991889
H   3.0102163333  1.3370696761 -0.8459879240
C   3.1510590515 -0.7440097310 -0.5472446158
O   3.1930990848 -1.0069895075 -1.7145882051
O   3.0179934340 -1.7398964440  0.4017952394
H   3.8104352248 -1.7756526322  0.9536035589
27
Scanning combination 25/73: [297.8561]  Energy = -652.9025286887
C  -3.4310021142 -1.5572537986  0.1048275986
C  -2.1281459837 -1.5232446306  0.5247308171
C  -1.3576394131 -0.3354869010  0.4052482171
C  -1.9633136212  0.8221794450 -0.1433020557
C  -3.3167987747  0.7591840980 -0.5743893703
C  -4.0330770504 -0.4019087232 -0.4553445329
H   0.4658135953 -1.1855961141  1.2008845706
H  -4.0138631060 -2.4702681669  0.1958348990
H  -1.6639273546 -2.4073479127  0.9583233171
C   0.0033526711 -0.2786348832  0.8177394559
C  -1.1922487438  2.0106169084 -0.2466004411
H  -3.7718056028  1.6506738012 -1.0013868354
H  -5.0669910415 -0.4465270444 -0.7881239692
C   0.1087201353  2.0374524343  0.1745094960
C   0.7326238024  0.8815639007  0.7186713395
H  -1.6563001858  2.9014958411 -0.6646211138
H   0.6808036974  2.9604911209  0.0981306261
C   2.1846560676  0.9525994861  1.1428745935
C   3.1769559669  0.6690302694  0.0038795675
H   2.3701460862  0.2396092902  1.9544439151
H   2.3953014360  1.9504444876  1.5423823511
H   4.2016448435  0.8586406116  0.3560595984
H   3.0100862088  1.3368224690 -0.8458099074
C   3.1504963787 -0.7445148460 -0.5461566298
O   3.1920106775 -1.0067989906 -1.7139605769
O   3.0235988778 -1.7432462777  0.3976937787
H   3.7841238921 -1.7274572363  0.9945757578
27
Scanning combination 26/73: [302.8561]  Energy = -652.9035587464
C  -3.4302222449 -1.5573621575  0.1050333330
C  -2.1273479186 -1.5233447236  0.5237665086
C  -1.3570134419 -0.3354968440  0.4037366590
C  -1.9631060637  0.8222118228 -0.1439756757
C  -3.3167991819  0.7593167046 -0.5741080120
C  -4.0331281846 -0.4022223505 -0.4546119455
H   0.4645538666 -1.1860611718  1.2001483904
H  -4.0131759632 -2.4705115185  0.1964235637
H  -1.6623819012 -2.4073229057  0.9570303113
C   0.0041325726 -0.2788563779  0.8155075491
C  -1.1921635050  2.0107510886 -0.2468636812
H  -3.7724528032  1.6505687267 -1.0006175571
H  -5.0670968354 -0.4468007231 -0.7866995727
C   0.1091563224  2.0375323725  0.1741040006
C   0.7330310612  0.8811168577  0.7174017905
H  -1.6564737901  2.9018041013 -0.6640819452
H   0.6805393068  2.9609129518  0.0982112825
C   2.1850069407  0.9507277876  1.1422538156
C   3.1800972742  0.6684574138  0.0039897303
H   2.3688309527  0.2408764738  1.9571611473
H   2.3951545725  1.9488790896  1.5415864062
H   4.2026883319  0.8601961611  0.3598608273
H   3.0115977774  1.3358428136 -0.8447662853
C   3.1619184187 -0.7453967134 -0.5449886636
O   3.1769994611 -1.0108712651 -1.7136065576
O   3.0414869761 -1.7383323436  0.3995083667
H   3.7595806788 -1.6686915728  1.0434272420
27
Scanning combination 27/73: [307.8561]  Energy = -652.9047002349
C  -3.4291449438 -1.5579157641  0.1051466866
C  -2.1257181925 -1.5238683727  0.5215487668
C  -1.3558751447 -0.3358755258  0.4006597461
C  -1.9625901689  0.8221254701 -0.1454351683
C  -3.3169609787  0.7592986887 -0.5735554465
C  -4.0329744521 -0.4026017515 -0.4531991749
H   0.4630100049 -1.1872925983  1.1984385287
H  -4.0119055697 -2.4711631582  0.1975905942
H  -1.6592166098 -2.4074894309  0.9539350737
C   0.0053181780 -0.2798014073  0.8116862332
C  -1.1914952450  2.0106288795 -0.2473091840
H  -3.7737422206  1.6505132338 -0.9989038988
H  -5.0674274960 -0.4472313673 -0.7834975335
C   0.1104144399  2.0366490171  0.1723148480
C   0.7352030483  0.8793686743  0.7126698334
H  -1.6561304233  2.9023590649 -0.6626391514
H   0.6806258551  2.9608756416  0.0986992867
C   2.1865915965  0.9502104766  1.1400269842
C   3.1867903209  0.6704706425  0.0055333588
H   2.3677488178  0.2422389013  1.9572333600
H   2.3948731839  1.9481275477  1.5398507863
H   4.2073509908  0.8684938101  0.3655993719
H   3.0174771261  1.3380975906 -0.8438568026
C   3.1607562624 -0.7461482552 -0.5444049973
O   3.1561118661 -1.0113389577 -1.7131015567
O   3.0375301966 -1.7434428677  0.3914270101
H   3.7071663470 -1.6406462429  1.0817743215
27
Scanning combination 28/73: [312.8561]  Energy = -652.9057978694
C  -3.4293047283 -1.5580468261  0.1050817630
C  -2.1253762463 -1.5238882382  0.5214439644
C  -1.3558420654 -0.3360268200  0.4004625885
C  -1.9625516251  0.8221222680 -0.1455320084
C  -3.3171327091  0.7590204429 -0.5734761748
C  -4.0327675677 -0.4024112013 -0.4530880903
H   0.4630138310 -1.1873268812  1.1982144080
H  -4.0117677459 -2.4711375742  0.1976408571
H  -1.6590260766 -2.4075458470  0.9536366520
C   0.0054045759 -0.2798303743  0.8114410827
C  -1.1913434529  2.0105611845 -0.2474610363
H  -3.7738071157  1.6505264592 -0.9987498067
H  -5.0675110076 -0.4472464686 -0.7832427458
C   0.1103546500  2.0365679677  0.1720613579
C   0.7355342393  0.8794293155  0.7125050544
H  -1.6561416346  2.9024891728 -0.6625494116
H   0.6807607474  2.9608781818  0.0986273453
C   2.1871856913  0.9503690811  1.1397180427
C   3.1875537783  0.6703429930  0.0063078258
H   2.3677010551  0.2425547789  1.9573920576
H   2.3947531201  1.9480606796  1.5398336311
H   4.2088202323  0.8678756008  0.3659527453
H   3.0183255112  1.3374467961 -0.8431655834
C   3.1558151360 -0.7463243410 -0.5441435366
O   3.1541494930 -1.0106114636 -1.7137163132
O   3.0423397378 -1.7459577928  0.3878311451
H   3.6662269099 -1.6050164854  1.1148233346
27
Scanning combination 29/73: [317.8561]  Energy = -652.9068614099
C  -3.4288721689 -1.5581966834  0.1050782734
C  -2.1248438947 -1.5241118800  0.5207663889
C  -1.3553412935 -0.3361668069  0.3996839327
C  -1.9623212052  0.8219776413 -0.1459504891
C  -3.3170839449  0.7589870757 -0.5732333800
C  -4.0327773386 -0.4025830264 -0.4526243887
H   0.4626175907 -1.1875875902  1.1975566656
H  -4.0114303723 -2.4713072306  0.1978318925
H  -1.6581219060 -2.4078372096  0.9525050397
C   0.0060273348 -0.2797932580  0.8102985478
C  -1.1911341275  2.0104407249 -0.2480147377
H  -3.7740622392  1.6504622552 -0.9981099293
H  -5.0676514898 -0.4472676657 -0.7821927883
C   0.1107307735  2.0364935211  0.1711431119
C   0.7356473031  0.8794944089  0.7118018459
H  -1.6560697177  2.9026681089 -0.6622021111
H   0.6810938860  2.9607860139  0.0982255845
C   2.1866104031  0.9506536078  1.1403265824
C   3.1882226941  0.6688808258  0.0079474291
H   2.3668200918  0.2448949964  1.9596728934
H   2.3947115097  1.9483508946  1.5401353519
H   4.2091801710  0.8645760120  0.3663058944
H   3.0203705153  1.3362782875 -0.8410107326
C   3.1600536646 -0.7475712106 -0.5429763720
O   3.1438915393 -1.0108851172 -1.7126007400
O   3.0559197421 -1.7450230563  0.3888047771
H   3.6253598513 -1.5611797320  1.1496899198
27
Scanning combination 30/73: [322.8561]  Energy = -652.9078392390
C  -3.4278287000 -1.5587635649  0.1050044214
C  -2.1232995737 -1.5248470140  0.5185372490
C  -1.3542848835 -0.3365981166  0.3969625949
C  -1.9617791402  0.8217854985 -0.1473588163
C  -3.3171012474  0.7589097209 -0.5726141692
C  -4.0326066555 -0.4029033530 -0.4512094453
H   0.4618603917 -1.1884291223  1.1958233480
H  -4.0103082791 -2.4719281231  0.1983625448
H  -1.6553439029 -2.4085483340  0.9491472876
C   0.0070203196 -0.2801766480  0.8075550013
C  -1.1905879347  2.0103398572 -0.2492544266
H  -3.7748499626  1.6504595156 -0.9963044056
H  -5.0679125934 -0.4473803511 -0.7790452020
C   0.1116261497  2.0362224313  0.1694485941
C   0.7368224564  0.8790170054  0.7097342452
H  -1.6561338710  2.9029895968 -0.6620283206
H   0.6816964470  2.9607126959  0.0965499571
C   2.1872929928  0.9510516663  1.1411245352
C   3.1930333128  0.6688719348  0.0110569998
H   2.3632237089  0.2511591611  1.9670246491
H   2.3943473870  1.9494964277  1.5384164515
H   4.2136847280  0.8630791912  0.3728536827
H   3.0244459536  1.3369159691 -0.8376213140
C   3.1551524200 -0.7474688726 -0.5425815660
O   3.1275512314 -1.0164148999 -1.7108551896
O   3.0614568941 -1.7449800173  0.3859627516
H   3.5796432759 -1.5261135171  1.1721887289
27
Scanning combination 31/73: [327.8561]  Energy = -652.9086999599
C  -3.4277144113 -1.5589559884  0.1048303026
C  -2.1227376587 -1.5249264195  0.5180198329
C  -1.3540597341 -0.3366719271  0.3966195438
C  -1.9616122741  0.8217324603 -0.1475724252
C  -3.3171903107  0.7587369737 -0.5724765546
C  -4.0324627369 -0.4028125639 -0.4509326941
H   0.4620515458 -1.1885200852  1.1953244964
H  -4.0100052571 -2.4720335647  0.1984217101
H  -1.6547616718 -2.4086521216  0.9482206932
C   0.0073114792 -0.2801177753  0.8072999928
C  -1.1903973560  2.0101859393 -0.2495211406
H  -3.7751140761  1.6504821996 -0.9958886381
H  -5.0681337319 -0.4474003509 -0.7782913913
C   0.1117245894  2.0360520182  0.1687326672
C   0.7371935522  0.8792354238  0.7092760996
H  -1.6558910635  2.9029184481 -0.6620900966
H   0.6818459446  2.9605906093  0.0961978988
C   2.1877884425  0.9520090106  1.1406201100
C   3.1922090615  0.6671225351  0.0120338211
H   2.3635176097  0.2522548277  1.9669523951
H   2.3941144014  1.9509079589  1.5379195806
H   4.2138917969  0.8607061022  0.3727225976
H   3.0270062393  1.3371686579 -0.8355108692
C   3.1494628609 -0.7490449380 -0.5420238615
O   3.1235424421 -1.0124722745 -1.7124766056
O   3.0677326855 -1.7483713037  0.3843616386
H   3.5295814491 -1.4998259340  1.1973652712
27
Scanning combination 32/73: [332.8561]  Energy = -652.9094459865
C  -3.4275420258 -1.5589843494  0.1047956048
C  -2.1225882114 -1.5249925031  0.5177879143
C  -1.3538857941 -0.3366859013  0.3964463476
C  -1.9615662017  0.8216961370 -0.1476624663
C  -3.3171906728  0.7587527230 -0.5723943147
C  -4.0324921299 -0.4028859491 -0.4508007162
H   0.4619616333 -1.1886121255  1.1951989348
H  -4.0098619443 -2.4721017280  0.1984236760
H  -1.6544256970 -2.4087519075  0.9478173325
C   0.0074353312 -0.2800476950  0.8070907726
C  -1.1903422634  2.0101623886 -0.2497349224
H  -3.7751968721  1.6504728563 -0.9956827801
H  -5.0681660229 -0.4473967741 -0.7779337455
C   0.1117981354  2.0360807646  0.1685194472
C   0.7370932962  0.8792748609  0.7091590382
H  -1.6558788271  2.9029436598 -0.6621892021
H   0.6819088524  2.9606061080  0.0959420682
C   2.1877932265  0.9522251506  1.1407217225
C   3.1938658892  0.6672072044  0.0126160902
H   2.3633038107  0.2532108455  1.9680461337
H   2.3941475663  1.9510939319  1.5375934188
H   4.2146933768  0.8590313983  0.3732470653
H   3.0276408380  1.3368386535 -0.8347735868
C   3.1451903532 -0.7483715599 -0.5415576440
O   3.1211219303 -1.0128386148 -1.7120035406
O   3.0732430139 -1.7508520531  0.3795725025
H   3.4751170711 -1.4776211704  1.2161468498
27
Scanning combination 33/73: [337.8561]  Energy = -652.9100863192
C  -3.4274373143 -1.5589823566  0.1047994723
C  -2.1225990686 -1.5250270527  0.5177032493
C  -1.3538477291 -0.3366987937  0.3963950301
C  -1.9615609505  0.8216732438 -0.1476932643
C  -3.3171418053  0.7588101017 -0.5723704736
C  -4.0325341281 -0.4029466067 -0.4507565001
H   0.4619375250 -1.1887634772  1.1951955013
H  -4.0098287957 -2.4721345053  0.1984232001
H  -1.6542948925 -2.4087605448  0.9476962528
C   0.0075874996 -0.2799183473  0.8070957912
C  -1.1903550206  2.0101424966 -0.2497957179
H  -3.7752214832  1.6504623121 -0.9956181451
H  -5.0681693071 -0.4473949927 -0.7778263795
C   0.1118915084  2.0360599964  0.1684494173
C   0.7373230718  0.8792747740  0.7089630719
H  -1.6558666217  2.9029364974 -0.6622165077
H   0.6819196477  2.9606063094  0.0958630348
C   2.1884065406  0.9523834399  1.1403779128
C   3.1934982498  0.6670479367  0.0133058834
H   2.3631922794  0.2538338749  1.9687743352
H   2.3941841223  1.9511111000  1.5376154176
H   4.2162011184  0.8582484283  0.3735462708
H   3.0281902899  1.3366586833 -0.8342448817
C   3.1410421244 -0.7489954097 -0.5417162810
O   3.1196253668 -1.0125255487 -1.7119266687
O   3.0804870879 -1.7524639727  0.3773370591
H   3.4197138607 -1.4558937470  1.2343501983
27
Scanning combination 34/73: [342.8561]  Energy = -652.9106623832
C  -3.4269800987 -1.5591015031  0.1047475989
C  -2.1219216317 -1.5250997678  0.5171974796
C  -1.3531807823 -0.3367709990  0.3960393151
C  -1.9612508077  0.8215403085 -0.1478579453
C  -3.3170297841  0.7587450829 -0.5720983505
C  -4.0324052354 -0.4030223224 -0.4503605863
H   0.4617453653 -1.1894058814  1.1951287415
H  -4.0093789869 -2.4722675434  0.1984188869
H  -1.6532300787 -2.4088504548  0.9467112579
C   0.0083532102 -0.2800070267  0.8066375553
C  -1.1900770334  2.0100105969 -0.2502721663
H  -3.7753557084  1.6504233901 -0.9950802932
H  -5.0682307512 -0.4474153126 -0.7769580269
C   0.1122043533  2.0360112537  0.1676291214
C   0.7372531348  0.8796322399  0.7091437730
H  -1.6557640960  2.9028224963 -0.6624342397
H   0.6821415121  2.9606534513  0.0951339882
C   2.1875928954  0.9532239829  1.1421181151
C   3.1924037675  0.6653270224  0.0147603976
H   2.3619360617  0.2594344091  1.9748948294
H   2.3944068749  1.9526059997  1.5370771535
H   4.2152687969  0.8519283570  0.3737618142
H   3.0293247122  1.3364869843 -0.8309990563
C   3.1437709374 -0.7499810259 -0.5409067108
O   3.1140546756 -1.0150060926 -1.7111643616
O   3.0927677653 -1.7489839253  0.3798238628
H   3.3615658691 -1.4228346268  1.2488564336
27
Scanning combination 35/73: [347.8561]  Energy = -652.9111318294
C  -3.4244312576 -1.5602826461  0.1043285739
C  -2.1185516334 -1.5263063927  0.5137686643
C  -1.3511279305 -0.3372473151  0.3934126262
C  -1.9598163749  0.8210562417 -0.1494860270
C  -3.3164286348  0.7583643526 -0.5707497801
C  -4.0313942703 -0.4035861118 -0.4478894380
H   0.4612893224 -1.1905712279  1.1941945871
H  -4.0064779723 -2.4736277100  0.1984799543
H  -1.6477828869 -2.4100667160  0.9410398413
C   0.0094138576 -0.2799984294  0.8065331301
C  -1.1887690867  2.0094339969 -0.2526345534
H  -3.7758894493  1.6503606863 -0.9918101451
H  -5.0680754419 -0.4476868938 -0.7716736632
C   0.1131748765  2.0356893512  0.1662371637
C   0.7372223069  0.8805606372  0.7117014792
H  -1.6547456601  2.9020072443 -0.6649330306
H   0.6835621541  2.9598460193  0.0912285885
C   2.1864922126  0.9570843091  1.1474273004
C   3.1910044373  0.6576227032  0.0209089823
H   2.3580561606  0.2815304897  1.9966847071
H   2.3939614739  1.9630974815  1.5255252082
H   4.2146159737  0.8306014460  0.3821998679
H   3.0338570387  1.3384095445 -0.8188478828
C   3.1318811466 -0.7530109055 -0.5482123006
O   3.1089201071 -1.0116697227 -1.7200853890
O   3.0911351464 -1.7577407822  0.3656053501
H   3.2973318040 -1.4156086538  1.2459052522
27
Scanning combination 36/73: [352.8561]  Energy = -652.9113892768
C  -3.4244552104 -1.5603047903  0.1042950860
C  -2.1185333095 -1.5263328109  0.5137545031
C  -1.3511610452 -0.3372757779  0.3934275699
C  -1.9598528368  0.8210395663 -0.1494648860
C  -3.3164458412  0.7583372206 -0.5707475394
C  -4.0313758891 -0.4035892600 -0.4478846431
H   0.4612681592 -1.1906010225  1.1942460129
H  -4.0064352700 -2.4736388358  0.1984698993
H  -1.6477505946 -2.4100888815  0.9409800294
C   0.0093126154 -0.2799136661  0.8065618745
C  -1.1887656902  2.0094397708 -0.2526592584
H  -3.7758966144  1.6503507473 -0.9917794835
H  -5.0680757352 -0.4476953378 -0.7716172122
C   0.1131623342  2.0356560209  0.1662577016
C   0.7373265279  0.8805991450  0.7116628743
H  -1.6547257839  2.9020202502 -0.6649973532
H   0.6835835306  2.9598470955  0.0912304886
C   2.1869799593  0.9571808551  1.1470294014
C   3.1924242061  0.6576603684  0.0209253339
H   2.3581715288  0.2815288014  1.9965973239
H   2.3939259659  1.9631339889  1.5253623492
H   4.2156757105  0.8304403205  0.3825433355
H   3.0342091771  1.3382201643 -0.8186889883
C   3.1259415032 -0.7529028903 -0.5479705031
O   3.1085510551 -1.0112896079 -1.7199566317
O   3.0975376661 -1.7585362741  0.3645017040
H   3.2378747138 -1.4064238065  1.2541605245
27
Scanning combination 37/73: [357.8561]  Energy = -652.9114708159
C  -3.4244348238 -1.5603352911  0.1042524008
C  -2.1185321849 -1.5263866110  0.5137155069
C  -1.3512885383 -0.3372627592  0.3934559411
C  -1.9599066229  0.8210320648 -0.1494468014
C  -3.3164614188  0.7583200683 -0.5707406138
C  -4.0313834822 -0.4036198979 -0.4478793505
H   0.4608181786 -1.1907208220  1.1943239627
H  -4.0063837936 -2.4736844100  0.1984482072
H  -1.6476792122 -2.4101294673  0.9408782876
C   0.0091496392 -0.2796224299  0.8067315202
C  -1.1887799587  2.0094162829 -0.2526830974
H  -3.7759177605  1.6503355782 -0.9917284593
H  -5.0680877513 -0.4477100027 -0.7715206109
C   0.1132369536  2.0356025944  0.1662798598
C   0.7376699632  0.8806707081  0.7114877720
H  -1.6546729197  2.9020218097 -0.6650999237
H   0.6836056544  2.9598345833  0.0912281034
C   2.1876081302  0.9576428689  1.1465642212
C   3.1913154472  0.6578897311  0.0214170273
H   2.3584581799  0.2820078140  1.9966148151
H   2.3939161122  1.9633239003  1.5251268788
H   4.2170645642  0.8291450891  0.3827002828
H   3.0350426693  1.3381299823 -0.8185266378
C   3.1219139231 -0.7527496459 -0.5470689319
O   3.1072004700 -1.0109626044 -1.7197575695
O   3.1059548894 -1.7582193343  0.3650529796
H   3.1766625697 -1.3989608653  1.2594935154
27
Scanning combination 38/73: [362.8561]  Energy = -652.9113745544
C  -3.4244090282 -1.5603753731  0.1042165390
C  -2.1185183181 -1.5264226440  0.5136764237
C  -1.3513164568 -0.3372362892  0.3935184145
C  -1.9599511903  0.8210462177 -0.1494410701
C  -3.3164838006  0.7583029112 -0.5707288765
C  -4.0313864558 -0.4036480398 -0.4478675716
H   0.4604607163 -1.1908050325  1.1944259791
H  -4.0063391201 -2.4737350903  0.1984209085
H  -1.6476188194 -2.4101813744  0.9407757315
C   0.0090200618 -0.2793871108  0.8068228255
C  -1.1887627470  2.0093993364 -0.2526928857
H  -3.7759464137  1.6503248152 -0.9916814947
H  -5.0681110384 -0.4477274594 -0.7714300379
C   0.1132536520  2.0355834202  0.1662538680
C   0.7378135641  0.8806729037  0.7114280340
H  -1.6546148373  2.9020032520 -0.6651930517
H   0.6836261102  2.9598255273  0.0912232615
C   2.1878865882  0.9580121183  1.1464060148
C   3.1920563581  0.6579204181  0.0214817896
H   2.3587210786  0.2823877690  1.9966400988
H   2.3939133847  1.9635795060  1.5249282134
H   4.2176154468  0.8279555160  0.3827576409
H   3.0356864797  1.3380508114 -0.8183734343
C   3.1173408284 -0.7525304768 -0.5467662840
O   3.1062158622 -1.0104311880 -1.7195686121
O   3.1134876076 -1.7585041738  0.3646414526
H   3.1155658148 -1.3968266436  1.2613089423
27
Scanning combination 39/73: [367.8561]  Energy = -652.9111175243
C  -3.4243610278 -1.5604175690  0.1041820754
C  -2.1185018685 -1.5264711897  0.5136372030
C  -1.3513877090 -0.3371818750  0.3935899245
C  -1.9599993325  0.8210741172 -0.1494389421
C  -3.3165079733  0.7582870947 -0.5707139816
C  -4.0313906870 -0.4036777771 -0.4478518963
H   0.4599082257 -1.1909362823  1.1945811563
H  -4.0062895873 -2.4737913578  0.1983872686
H  -1.6475691179 -2.4102517885  0.9406625587
C   0.0088906000 -0.2790891638  0.8069289069
C  -1.1887461957  2.0093675041 -0.2527047072
H  -3.7759845755  1.6503144560 -0.9916325617
H  -5.0681398513 -0.4477487238 -0.7713322095
C   0.1132920874  2.0355545557  0.1662085831
C   0.7380246141  0.8806756217  0.7114086136
H  -1.6545395838  2.9019739319 -0.6652857306
H   0.6836492551  2.9598109096  0.0912115838
C   2.1882702929  0.9585057022  1.1462438290
C   3.1918331436  0.6580666297  0.0215231857
H   2.3590391337  0.2829962755  1.9967839635
H   2.3939175848  1.9639786164  1.5247539512
H   4.2182015620  0.8262271184  0.3827508539
H   3.0364785656  1.3381181712 -0.8182799091
C   3.1135273758 -0.7522045216 -0.5463728993
O   3.1049788628 -1.0100326190 -1.7191623855
O   3.1216642152 -1.7580411649  0.3653142671
H   3.0538183823 -1.3976297507  1.2598896247
27
Scanning combination 40/73: [372.8561]  Energy = -652.9107596729
C  -3.4240178752 -1.5609355746  0.1037185625
C  -2.1183955418 -1.5266269845  0.5130672699
C  -1.3523525267 -0.3365423263  0.3940596933
C  -1.9607323310  0.8216347441 -0.1494319701
C  -3.3171688461  0.7582707102 -0.5704292192
C  -4.0315729346 -0.4040187141 -0.4474713149
H   0.4541033514 -1.1913633324  1.1980327026
H  -4.0055415057 -2.4746304730  0.1976546203
H  -1.6468580324 -2.4107791352  0.9389273014
C   0.0072863521 -0.2779457212  0.8085024014
C  -1.1889706437  2.0093783860 -0.2534564868
H  -3.7769553639  1.6502401507 -0.9910762734
H  -5.0685597117 -0.4481872061 -0.7700534412
C   0.1127284992  2.0358323844  0.1661825568
C   0.7364703707  0.8815502712  0.7140846318
H  -1.6539232037  2.9019615752 -0.6670028375
H   0.6838023793  2.9595806801  0.0905845833
C   2.1869335195  0.9609560033  1.1473450665
C   3.1892265361  0.6546616281  0.0220442530
H   2.3620572437  0.2902343921  2.0004660889
H   2.3935271873  1.9689917422  1.5208006467
H   4.2144544575  0.8107999841  0.3848520349
H   3.0413730893  1.3386854343 -0.8170728159
C   3.1138712095 -0.7534034218 -0.5517212051
O   3.1045589817 -1.0004664590 -1.7264098718
O   3.1376348903 -1.7685025851  0.3503179043
H   2.9988321236 -1.4302833890  1.2449681150
27
Scanning combination 41/73: [377.8561]  Energy = -652.9102195803
C  -3.4243281345 -1.5611341540  0.1033471089
C  -2.1185555509 -1.5266022191  0.5127078886
C  -1.3530020513 -0.3360777566  0.3944870049
C  -1.9612229040  0.8217528553 -0.1495131266
C  -3.3178319154  0.7583002479 -0.5703724002
C  -4.0320690957 -0.4040970498 -0.4473088292
H   0.4527356191 -1.1905501500  1.2011430326
H  -4.0054675534 -2.4750824168  0.1969614471
H  -1.6467162457 -2.4107369356  0.9380656812
C   0.0064603469 -0.2774966433  0.8101841928
C  -1.1891381832  2.0094635723 -0.2533504216
H  -3.7779105391  1.6501957672 -0.9908563614
H  -5.0691497248 -0.4484239929 -0.7696814639
C   0.1125668981  2.0353865801  0.1665720746
C   0.7368096970  0.8812304277  0.7140639717
H  -1.6537856329  2.9017581525 -0.6680598028
H   0.6833434809  2.9592720527  0.0903751960
C   2.1869980092  0.9603328590  1.1475732450
C   3.1895727781  0.6533134358  0.0233110433
H   2.3619553654  0.2922196782  2.0027486018
H   2.3941218574  1.9692161949  1.5171149774
H   4.2151059213  0.8046755844  0.3870143051
H   3.0445004520  1.3378395778 -0.8152926097
C   3.1106503042 -0.7527348648 -0.5528223374
O   3.1033109217 -0.9991952735 -1.7279613865
O   3.1471212153 -1.7666347285  0.3497138504
H   2.9398204489 -1.4352362149  1.2340841923
27
Scanning combination 42/73: [382.8561]  Energy = -652.9095316235
C  -3.4245690569 -1.5612724387  0.1029891428
C  -2.1190198089 -1.5267803810  0.5127206854
C  -1.3538486308 -0.3360186495  0.3949529284
C  -1.9618633067  0.8217827939 -0.1491634825
C  -3.3183612666  0.7583139088 -0.5701313316
C  -4.0324068138 -0.4041716549 -0.4473324975
H   0.4504562251 -1.1900255684  1.2045583808
H  -4.0054129516 -2.4753387752  0.1962019048
H  -1.6468932612 -2.4110352211  0.9374252432
C   0.0054335243 -0.2770477394  0.8112214672
C  -1.1893658793  2.0091109377 -0.2538508642
H  -3.7785889635  1.6501053547 -0.9905871971
H  -5.0695542420 -0.4485360051 -0.7693786829
C   0.1122963726  2.0352468357  0.1662781594
C   0.7364085322  0.8814738925  0.7150315172
H  -1.6534921928  2.9015797210 -0.6686128779
H   0.6833881825  2.9590571456  0.0901967054
C   2.1874482821  0.9609406116  1.1471260634
C   3.1898356451  0.6526710003  0.0227410737
H   2.3622708472  0.2944497975  2.0035513370
H   2.3942542611  1.9704081881  1.5157268157
H   4.2160510257  0.8000034763  0.3896406319
H   3.0475572262  1.3397771041 -0.8148167635
C   3.1068301724 -0.7535374867 -0.5560132127
O   3.1036965721 -0.9970230420 -1.7311304056
O   3.1581250254 -1.7701003996  0.3444153834
H   2.8858728111 -1.4583658442  1.2182119256
27
Scanning combination 43/73: [387.8561]  Energy = -652.9087121938
C  -3.4248650537 -1.5615309521  0.1027335046
C  -2.1193689707 -1.5267644119  0.5125852959
C  -1.3545397321 -0.3355720641  0.3957214718
C  -1.9621760755  0.8219580589 -0.1493402987
C  -3.3188565731  0.7583364308 -0.5700176361
C  -4.0329466765 -0.4042055445 -0.4471511887
H   0.4486263075 -1.1889955438  1.2084209634
H  -4.0057290771 -2.4758227651  0.1953673544
H  -1.6474067408 -2.4112849340  0.9369954793
C   0.0042271067 -0.2762942923  0.8131548816
C  -1.1896600321  2.0092379645 -0.2537357760
H  -3.7792871742  1.6501960998 -0.9903138583
H  -5.0701218844 -0.4486555871 -0.7693455742
C   0.1120516869  2.0350451055  0.1662940602
C   0.7363825217  0.8811531036  0.7148009457
H  -1.6535902468  2.9013610083 -0.6694781973
H   0.6830316397  2.9587080115  0.0896111718
C   2.1876304484  0.9602500135  1.1467098812
C   3.1893547990  0.6508330473  0.0227772223
H   2.3631821983  0.2950278523  2.0041169918
H   2.3945991972  1.9703530163  1.5134977932
H   4.2157681072  0.7945632681  0.3907979296
H   3.0510816801  1.3388813689 -0.8133630043
C   3.1050120518 -0.7531556266 -0.5578933213
O   3.1034246575 -0.9930557444 -1.7339480002
O   3.1688505002 -1.7682361713  0.3465047136
H   2.8292187134 -1.4720585320  1.2026346584
27
Scanning combination 44/73: [392.8561]  Energy = -652.9077580128
C  -3.4248068378 -1.5614840047  0.1027160953
C  -2.1195903372 -1.5268171058  0.5125901665
C  -1.3547577205 -0.3356121153  0.3957101201
C  -1.9623853746  0.8218828897 -0.1492005942
C  -3.3188055117  0.7583805150 -0.5700252604
C  -4.0330183612 -0.4042290470 -0.4472167222
H   0.4484916779 -1.1889229316  1.2087299165
H  -4.0056612543 -2.4757633415  0.1953392279
H  -1.6474099271 -2.4113147101  0.9369817019
C   0.0041333577 -0.2762916383  0.8130784787
C  -1.1897287216  2.0092101914 -0.2538734480
H  -3.7792971803  1.6501462268 -0.9902866110
H  -5.0700263427 -0.4486477772 -0.7692863649
C   0.1121925326  2.0349828110  0.1662313006
C   0.7364403478  0.8812437466  0.7149934874
H  -1.6535428046  2.9013420653 -0.6694433801
H   0.6830815649  2.9587694912  0.0896105903
C   2.1877544605  0.9602730872  1.1468338428
C   3.1909872601  0.6512919075  0.0225237644
H   2.3632875101  0.2950378155  2.0040058513
H   2.3947050124  1.9702765857  1.5134244400
H   4.2162445071  0.7936625134  0.3909365022
H   3.0511951329  1.3392956989 -0.8139354675
C   3.1006410422 -0.7527604059 -0.5586593470
O   3.1028534981 -0.9928547430 -1.7339159487
O   3.1765136370 -1.7681809002  0.3465451369
H   2.7754075952 -1.4959158895  1.1827213358
27
Scanning combination 45/73: [397.8561]  Energy = -652.9067176584
C  -3.4252012455 -1.5615424648  0.1024454665
C  -2.1201372380 -1.5269689688  0.5127775891
C  -1.3555514458 -0.3354578757  0.3964753613
C  -1.9628186500  0.8220163842 -0.1489451720
C  -3.3192542594  0.7584967895 -0.5698819702
C  -4.0333322522 -0.4042239813 -0.4473463619
H   0.4466511283 -1.1878359480  1.2126033375
H  -4.0059224521 -2.4759380494  0.1947441866
H  -1.6480500210 -2.4116392168  0.9368112464
C   0.0029941140 -0.2756268581  0.8143641837
C  -1.1897536912  2.0089192071 -0.2540802990
H  -3.7797520032  1.6502047148 -0.9901998146
H  -5.0703997632 -0.4486316411 -0.7693311304
C   0.1120541059  2.0348417979  0.1659928488
C   0.7360138737  0.8812850974  0.7156359004
H  -1.6533690030  2.9011140336 -0.6697443029
H   0.6831175016  2.9584590249  0.0891447968
C   2.1874394892  0.9603375411  1.1467799451
C   3.1889820420  0.6514311564  0.0209442658
H   2.3648118886  0.2945857928  2.0030680693
H   2.3952574095  1.9705953994  1.5135010355
H   4.2147216118  0.7881210205  0.3913017244
H   3.0528653612  1.3412539628 -0.8150780407
C   3.1046340955 -0.7526572485 -0.5612473921
O   3.1026355299 -0.9892764381 -1.7375853237
O   3.1928251457 -1.7706761680  0.3425018998
H   2.7268096534 -1.5333064392  1.1551294758
27
Scanning combination 46/73: [402.8561]  Energy = -652.9055834864
C  -3.4266532350 -1.5617186655  0.1018074642
C  -2.1218532025 -1.5269011868  0.5133613380
C  -1.3577681801 -0.3349789709  0.3987079812
C  -1.9640932658  0.8222137452 -0.1483732937
C  -3.3204142958  0.7585610491 -0.5697238598
C  -4.0344686825 -0.4039814599 -0.4475258813
H   0.4418561602 -1.1847430990  1.2239464061
H  -4.0069881770 -2.4763411613  0.1929738218
H  -1.6499326733 -2.4119391863  0.9366287700
C  -0.0001177728 -0.2743970897  0.8193632085
C  -1.1904006650  2.0087618833 -0.2541972424
H  -3.7808467340  1.6504097631 -0.9899925203
H  -5.0715020228 -0.4484616154 -0.7698519679
C   0.1113318039  2.0344244459  0.1660075189
C   0.7347586437  0.8811298036  0.7172437298
H  -1.6533959574  2.9007681569 -0.6712046871
H   0.6831221793  2.9575749949  0.0874334424
C   2.1870890265  0.9584801449  1.1453226010
C   3.1887605453  0.6517036815  0.0193101145
H   2.3683501737  0.2910434804  1.9991802329
H   2.3963005347  1.9678796112  1.5123672534
H   4.2129910410  0.7817345962  0.3931398241
H   3.0557856371  1.3419749392 -0.8160401320
C   3.1050001692 -0.7512063617 -0.5617212287
O   3.1126877971 -0.9881159073 -1.7371925977
O   3.1999786638 -1.7623019686  0.3497446369
H   2.6694842887 -1.5467368934  1.1288055120
27
Scanning combination 47/73: [407.8561]  Energy = -652.9043466155
C  -3.4265648126 -1.5616834457  0.1018225522
C  -2.1218836655 -1.5269442053  0.5133023922
C  -1.3576827693 -0.3350057325  0.3986784091
C  -1.9640303728  0.8222693752 -0.1484259355
C  -3.3203811234  0.7585820982 -0.5697421427
C  -4.0344689429 -0.4040321899 -0.4475008866
H   0.4419768613 -1.1847961519  1.2238101857
H  -4.0069657424 -2.4763611844  0.1930169781
H  -1.6498793229 -2.4119358117  0.9365952777
C  -0.0002559562 -0.2742779819  0.8192211617
C  -1.1903915387  2.0087341140 -0.2541824860
H  -3.7808173101  1.6503900535 -0.9899796767
H  -5.0714624599 -0.4484678576 -0.7698224344
C   0.1113210379  2.0345266654  0.1660156376
C   0.7348765894  0.8810006624  0.7171911404
H  -1.6533996201  2.9008019673 -0.6711835481
H   0.6831101486  2.9576038253  0.0874743951
C   2.1874484751  0.9584779420  1.1451412530
C   3.1902596767  0.6513984181  0.0186923893
H   2.3685016795  0.2909573057  1.9991228032
H   2.3963430542  1.9678855621  1.5122913718
H   4.2136617930  0.7812936308  0.3932635308
H   3.0558885925  1.3419109607 -0.8161905939
C   3.0999098693 -0.7507104702 -0.5616192960
O   3.1119247477 -0.9881006943 -1.7370994360
O   3.2060701607 -1.7601658653  0.3519338119
H   2.6234406569 -1.5784545689  1.1003422804
27
Scanning combination 48/73: [412.8561]  Energy = -652.9031314109
C  -3.4271638739 -1.5615839597  0.1016506709
C  -2.1227392339 -1.5267081030  0.5139272829
C  -1.3584784433 -0.3347614880  0.3999512206
C  -1.9645490170  0.8223926247 -0.1478599779
C  -3.3207971845  0.7587128795 -0.5695938959
C  -4.0349322251 -0.4038726779 -0.4478004862
H   0.4403498498 -1.1836745861  1.2280410952
H  -4.0074949212 -2.4763737365  0.1923832444
H  -1.6505285673 -2.4116644640  0.9369857932
C  -0.0010573888 -0.2739002922  0.8205984871
C  -1.1904187333  2.0083402185 -0.2542191025
H  -3.7811346471  1.6505062406 -0.9900888050
H  -5.0719137681 -0.4482693737 -0.7702741050
C   0.1112501404  2.0340396653  0.1654671698
C   0.7347349232  0.8810041206  0.7174986806
H  -1.6532089795  2.9003615167 -0.6714639687
H   0.6831275079  2.9570426194  0.0868621380
C   2.1873488847  0.9588235172  1.1450822119
C   3.1887076595  0.6524599177  0.0163113186
H   2.3693187710  0.2886459971  1.9966911948
H   2.3963099102  1.9684876516  1.5143303095
H   4.2126586295  0.7817833643  0.3920395855
H   3.0566856009  1.3451527204 -0.8184589638
C   3.1096334140 -0.7500819366 -0.5652070554
O   3.1110591514 -0.9845427459 -1.7415865624
O   3.2278923448 -1.7652434655  0.3465391332
H   2.5911980640 -1.6372568656  1.0618222169
27
Scanning combination 49/73: [417.8561]  Energy = -652.9018792067
C  -3.4273048790 -1.5615451417  0.1016569609
C  -2.1229710335 -1.5267008811  0.5140797424
C  -1.3588017873 -0.3347017031  0.4001682000
C  -1.9646413397  0.8224049261 -0.1477876640
C  -3.3208548290  0.7587481661 -0.5695476984
C  -4.0350379024 -0.4038237261 -0.4478255195
H   0.4400862519 -1.1832806083  1.2292002452
H  -4.0075969171 -2.4763472516  0.1922328674
H  -1.6506943315 -2.4115731631  0.9371201731
C  -0.0014384943 -0.2737289100  0.8210700973
C  -1.1905291668  2.0083250481 -0.2542733557
H  -3.7811696549  1.6505166373 -0.9900929006
H  -5.0720025570 -0.4482217103 -0.7704122622
C   0.1112961363  2.0339636132  0.1655233561
C   0.7350235625  0.8808322729  0.7173070412
H  -1.6532178231  2.9003205807 -0.6716012265
H   0.6831267714  2.9569653082  0.0866218045
C   2.1878238236  0.9585451235  1.1448270243
C   3.1887078515  0.6528808707  0.0161223461
H   2.3697826383  0.2877444132  1.9955524400
H   2.3964250182  1.9679220458  1.5143306039
H   4.2138794883  0.7818622034  0.3920615286
H   3.0568401159  1.3449008794 -0.8189915766
C   3.1070590614 -0.7491120805 -0.5657637306
O   3.1107788843 -0.9843510247 -1.7411459253
O   3.2339225317 -1.7619989019  0.3506737054
H   2.5495783757 -1.6736288713  1.0271825599
27
Scanning combination 50/73: [422.8561]  Energy = -652.9007083778
C  -3.4274328171 -1.5613795202  0.1017208329
C  -2.1238990544 -1.5264006218  0.5144244335
C  -1.3588237284 -0.3346601154  0.4011652752
C  -1.9650902661  0.8226577664 -0.1476518773
C  -3.3209201447  0.7589147434 -0.5694674444
C  -4.0354852179 -0.4037719184 -0.4479435610
H   0.4394888281 -1.1819984300  1.2328000435
H  -4.0080186187 -2.4764005017  0.1918549815
H  -1.6510046597 -2.4113207262  0.9375733372
C  -0.0021660237 -0.2733566877  0.8218764810
C  -1.1904513221  2.0080503158 -0.2542474207
H  -3.7813006037  1.6506251001 -0.9901500194
H  -5.0721795820 -0.4480537122 -0.7707751068
C   0.1111345708  2.0340384736  0.1650429458
C   0.7344715767  0.8806268449  0.7175275169
H  -1.6530904756  2.9001520536 -0.6718830218
H   0.6831152018  2.9566010772  0.0860419258
C   2.1874117470  0.9587106056  1.1447590654
C   3.1877065304  0.6536208654  0.0134378471
H   2.3712541307  0.2839676456  1.9919119313
H   2.3966577855  1.9673284779  1.5151728411
H   4.2126363202  0.7824461751  0.3909691818
H   3.0563574680  1.3458832197 -0.8209409156
C   3.1168724546 -0.7473095265 -0.5661851875
O   3.1080547708 -0.9804824027 -1.7417137498
O   3.2529686596 -1.7624111205  0.3503582759
H   2.5236767763 -1.7286034818  0.9836437176
27
Scanning combination 51/73: [427.8561]  Energy = -652.8996743862
C  -3.4281719048 -1.5612399702  0.1016892649
C  -2.1241522689 -1.5262184858  0.5152130239
C  -1.3596507298 -0.3342886159  0.4019604449
C  -1.9651849406  0.8225783845 -0.1472938252
C  -3.3212891614  0.7589672245 -0.5694233201
C  -4.0356807136 -0.4035492470 -0.4480335203
H   0.4387055220 -1.1802823416  1.2369427865
H  -4.0083856588 -2.4762535876  0.1914695605
H  -1.6515026980 -2.4108943870  0.9382199042
C  -0.0025850035 -0.2730930487  0.8233568564
C  -1.1905923206  2.0080795988 -0.2544089952
H  -3.7813846151  1.6507491659 -0.9902291202
H  -5.0724537857 -0.4478642825 -0.7712575786
C   0.1110626998  2.0337002741  0.1647549676
C   0.7344613108  0.8808612162  0.7173162169
H  -1.6530619664  2.8999313050 -0.6723361777
H   0.6831654375  2.9563999382  0.0851594044
C   2.1869745098  0.9581139775  1.1441089244
C   3.1885034836  0.6554417245  0.0132868129
H   2.3724800850  0.2797600924  1.9875321475
H   2.3969142137  1.9663913628  1.5166773480
H   4.2118113595  0.7862333780  0.3903381463
H   3.0553604735  1.3458497619 -0.8231657678
C   3.1238692276 -0.7455161577 -0.5651866412
O   3.1066259371 -0.9804048196 -1.7399599622
O   3.2613826337 -1.7594402107  0.3553528429
H   2.4912901031 -1.7760712446  0.9382400064
27
Scanning combination 52/73: [432.8561]  Energy = -652.8988474313
C  -3.4289214972 -1.5607272453  0.1020595428
C  -2.1255039623 -1.5254174681  0.5169919763
C  -1.3604321042 -0.3337530889  0.4041794294
C  -1.9658108890  0.8228605899 -0.1466462715
C  -3.3216784800  0.7592827788 -0.5692516717
C  -4.0363215808 -0.4031962207 -0.4482911674
H   0.4371377484 -1.1767105815  1.2461835960
H  -4.0092510714 -2.4758964499  0.1908010045
H  -1.6528640912 -2.4100406375  0.9403756110
C  -0.0035528883 -0.2719658855  0.8265067954
C  -1.1906995135  2.0078960340 -0.2548843029
H  -3.7815233481  1.6510520477 -0.9905261733
H  -5.0728241724 -0.4474844278 -0.7723857826
C   0.1108917499  2.0335333566  0.1634639182
C   0.7341482799  0.8809609202  0.7170469112
H  -1.6532703062  2.8995408806 -0.6736920890
H   0.6833381237  2.9559567353  0.0826167341
C   2.1863186775  0.9563918079  1.1433062212
C   3.1896312559  0.6572472387  0.0121556583
H   2.3734703594  0.2711799602  1.9802789204
H   2.3965360092  1.9628299305  1.5218038931
H   4.2100654752  0.8004358915  0.3902739235
H   3.0516664469  1.3443572150 -0.8266661872
C   3.1381760092 -0.7450905956 -0.5653546688
O   3.1106941041 -0.9780179734 -1.7412152703
O   3.2810325783 -1.7606985041  0.3542956381
H   2.4769744309 -1.8359694633  0.8839343450
27
Scanning combination 53/73: [437.8561]  Energy = -652.8982478682
C  -3.4290275876 -1.5605936430  0.1021631949
C  -2.1256348766 -1.5253276053  0.5173477088
C  -1.3606757241 -0.3337678235  0.4043895076
C  -1.9657445289  0.8227080807 -0.1465354955
C  -3.3215862090  0.7593252265 -0.5692553326
C  -4.0362901965 -0.4030873724 -0.4482855079
H   0.4374274178 -1.1764038166  1.2469413720
H  -4.0092307096 -2.4757513987  0.1908984185
H  -1.6530684769 -2.4098425260  0.9409150880
C  -0.0034109851 -0.2721181932  0.8266465640
C  -1.1907310311  2.0077919949 -0.2550599065
H  -3.7814076744  1.6510235921 -0.9905593169
H  -5.0727117419 -0.4474635903 -0.7725137871
C   0.1113412140  2.0333059633  0.1632659537
C   0.7345769321  0.8807603148  0.7168437283
H  -1.6530885422  2.8993481535 -0.6738502726
H   0.6835069804  2.9558682591  0.0821244603
C   2.1869014677  0.9558823360  1.1433682384
C   3.1882825130  0.6581696549  0.0114615682
H   2.3729982737  0.2696983055  1.9795752851
H   2.3968482595  1.9617262162  1.5218064698
H   4.2113836482  0.7997999298  0.3894589065
H   3.0510600259  1.3447419305 -0.8275786753
C   3.1407184812 -0.7417906075 -0.5643857005
O   3.1078162281 -0.9790192127 -1.7393222049
O   3.2834762288 -1.7547751362  0.3619278424
H   2.4518540308 -1.8810262505  0.8355166289
27
Scanning combination 54/73: [442.8561]  Energy = -652.8979302947
C  -3.4291607588 -1.5604837366  0.1023476295
C  -2.1256247596 -1.5252685860  0.5178186802
C  -1.3606108209 -0.3337330855  0.4046479670
C  -1.9655320284  0.8226229797 -0.1464532277
C  -3.3214917700  0.7593465417 -0.5692337038
C  -4.0362024131 -0.4030356898 -0.4482714756
H   0.4377443024 -1.1760128918  1.2478027175
H  -4.0093045842 -2.4756371622  0.1910295384
H  -1.6531563207 -2.4095977638  0.9415580157
C  -0.0032975807 -0.2722017822  0.8267701231
C  -1.1904778321  2.0076344373 -0.2552058363
H  -3.7812220202  1.6510607912 -0.9906260041
H  -5.0726646640 -0.4473988474 -0.7726832094
C   0.1115842731  2.0331515196  0.1629262247
C   0.7347228784  0.8807146781  0.7165708324
H  -1.6528097406  2.8991061021 -0.6740135057
H   0.6837559464  2.9556230198  0.0815920008
C   2.1866315019  0.9560289994  1.1435348093
C   3.1891416492  0.6596348256  0.0110232197
H   2.3730730651  0.2673842047  1.9775545612
H   2.3969972804  1.9617884174  1.5226618332
H   4.2110279225  0.8007505439  0.3885741575
H   3.0505823113  1.3459328664 -0.8284005267
C   3.1451415488 -0.7409532079 -0.5614058878
O   3.1024057777 -0.9818767321 -1.7346624207
O   3.2771118120 -1.7496467083  0.3733203219
H   2.4199006117 -1.9230911361  0.7816972380
27
Scanning combination 55/73: [447.8561]  Energy = -652.8978832666
C  -3.4291175478 -1.5604973384  0.1022277023
C  -2.1257482147 -1.5253295250  0.5176167331
C  -1.3607788514 -0.3336776822  0.4046066743
C  -1.9656845568  0.8226602160 -0.1464902100
C  -3.3215587432  0.7593828402 -0.5692518847
C  -4.0362958566 -0.4030745801 -0.4482974918
H   0.4374958407 -1.1760091382  1.2476890737
H  -4.0092713786 -2.4756850429  0.1909122857
H  -1.6529133333 -2.4096063698  0.9412522694
C  -0.0033903704 -0.2719942227  0.8268352656
C  -1.1905004322  2.0076362580 -0.2551094562
H  -3.7813358117  1.6510668364 -0.9905920858
H  -5.0726720956 -0.4474111446 -0.7726142500
C   0.1116599777  2.0331574761  0.1631155101
C   0.7352016054  0.8806622837  0.7164467917
H  -1.6528677436  2.8991994782 -0.6738507754
H   0.6836000306  2.9557579507  0.0818715313
C   2.1871222872  0.9565859095  1.1435218591
C   3.1893682354  0.6598587909  0.0113379770
H   2.3731862211  0.2677831705  1.9771371855
H   2.3972647361  1.9624158080  1.5218541607
H   4.2123374581  0.7980823308  0.3883341124
H   3.0519581690  1.3458260563 -0.8285793776
C   3.1406614549 -0.7404094720 -0.5587065868
O   3.0996842183 -0.9857680852 -1.7310481794
O   3.2580955953 -1.7441168062  0.3851979983
H   2.3823566668 -1.9617168397  0.7290680753
27
Scanning combination 56/73: [452.8561]  Energy = -652.8981213425
C  -3.4292378733 -1.5605393805  0.1021199603
C  -2.1255055828 -1.5253603078  0.5175977691
C  -1.3608347306 -0.3335239533  0.4045937474
C  -1.9655402477  0.8226266542 -0.1464660199
C  -3.3216333460  0.7593864310 -0.5692692172
C  -4.0362432127 -0.4030579433 -0.4482936804
H   0.4373483231 -1.1759281059  1.2476571049
H  -4.0092918779 -2.4757271670  0.1908414384
H  -1.6527635479 -2.4095714438  0.9410602713
C  -0.0035265595 -0.2721295866  0.8269139388
C  -1.1903667552  2.0076266665 -0.2549718882
H  -3.7814151988  1.6510929032 -0.9905837575
H  -5.0728096267 -0.4474254996 -0.7726128611
C   0.1117561949  2.0331074068  0.1630901688
C   0.7355393947  0.8807147001  0.7161051664
H  -1.6527614055  2.8990905004 -0.6736477237
H   0.6835179170  2.9558141670  0.0820720807
C   2.1876031703  0.9571503982  1.1436032007
C   3.1896788858  0.6594301649  0.0112331438
H   2.3733177813  0.2674917667  1.9766631752
H   2.3976738531  1.9633256727  1.5213548981
H   4.2134671527  0.7954018574  0.3879311886
H   3.0534474688  1.3454121778 -0.8284548944
C   3.1372205557 -0.7401398091 -0.5550844791
O   3.0961608682 -0.9899849278 -1.7268515243
O   3.2312259371 -1.7381346746  0.3968753917
H   2.3444082251 -2.0013690587  0.6716536071
27
Scanning combination 57/73: [457.8561]  Energy = -652.8987148706
C  -3.4291359461 -1.5603586343  0.1024884868
C  -2.1252608379 -1.5251244148  0.5183538670
C  -1.3605137557 -0.3334271855  0.4049627606
C  -1.9652567091  0.8225493934 -0.1464587502
C  -3.3214285234  0.7593565258 -0.5692418574
C  -4.0359093489 -0.4029071928 -0.4482008886
H   0.4371665463 -1.1744147188  1.2505025254
H  -4.0092787663 -2.4754091673  0.1909826732
H  -1.6522343584 -2.4089855807  0.9421074953
C  -0.0032013697 -0.2715345732  0.8276483385
C  -1.1901013006  2.0075364928 -0.2556115701
H  -3.7810030715  1.6511736124 -0.9906424745
H  -5.0724781715 -0.4473083799 -0.7727772717
C   0.1118290305  2.0334979812  0.1622944852
C   0.7351602884  0.8819603281  0.7167242969
H  -1.6524867057  2.8991042462 -0.6739526906
H   0.6841098906  2.9559194275  0.0811583840
C   2.1862176882  0.9592806949  1.1445533320
C   3.1875905523  0.6615733915  0.0121431146
H   2.3732072684  0.2635166298  1.9715507818
H   2.3968395740  1.9650657851  1.5242626449
H   4.2105610660  0.7987992684  0.3904661797
H   3.0549365978  1.3455087610 -0.8303208907
C   3.1435448186 -0.7411225579 -0.5497467654
O   3.0870293674 -0.9995549390 -1.7190862701
O   3.2143044602 -1.7373506208  0.4071836388
H   2.3198750325 -2.0451619541  0.5988620698
27
Scanning combination 58/73: [462.8561]  Energy = -652.8995437477
C  -3.4289584196 -1.5603146861  0.1025855276
C  -2.1253245215 -1.5250418016  0.5183873017
C  -1.3604512181 -0.3333932611  0.4049975507
C  -1.9652653463  0.8225522070 -0.1465041498
C  -3.3213195983  0.7594365143 -0.5692619210
C  -4.0359467749 -0.4029678692 -0.4481870091
H   0.4373550959 -1.1741498268  1.2508189117
H  -4.0092499723 -2.4753990206  0.1910564879
H  -1.6522961101 -2.4089563179  0.9422848981
C  -0.0029424840 -0.2715069704  0.8278539379
C  -1.1902068547  2.0076289123 -0.2557033817
H  -3.7809440977  1.6511630219 -0.9906609312
H  -5.0723928126 -0.4473117541 -0.7727787176
C   0.1118715290  2.0336356532  0.1623292680
C   0.7353295563  0.8819768299  0.7165054086
H  -1.6525833766  2.8991535257 -0.6741517857
H   0.6840908087  2.9559766770  0.0809601900
C   2.1867868291  0.9588247879  1.1440617168
C   3.1890166796  0.6611019995  0.0118995005
H   2.3730292581  0.2632220401  1.9711497253
H   2.3966631206  1.9644946681  1.5244836408
H   4.2116373826  0.7997345874  0.3911956387
H   3.0549796503  1.3451106431 -0.8302941770
C   3.1414906865 -0.7411627727 -0.5497226749
O   3.0852499654 -0.9999297117 -1.7194447371
O   3.2129546886 -1.7324164278  0.4121103717
H   2.3273230065 -2.0922382989  0.5492227788
27
Scanning combination 59/73: [467.8561]  Energy = -652.9006776367
C  -3.4290003778 -1.5603716150  0.1024275914
C  -2.1252542209 -1.5251054165  0.5181096530
C  -1.3600706648 -0.3334258908  0.4048320719
C  -1.9652188025  0.8224002294 -0.1464649104
C  -3.3214298595  0.7594396459 -0.5692076445
C  -4.0361016648 -0.4029984614 -0.4482067761
H   0.4374753024 -1.1744123371  1.2504415131
H  -4.0094140047 -2.4754793085  0.1908178501
H  -1.6522853041 -2.4091255522  0.9418317832
C  -0.0023935857 -0.2716409893  0.8278935636
C  -1.1900783521  2.0075157011 -0.2554802049
H  -3.7811200897  1.6512089751 -0.9905872314
H  -5.0725754138 -0.4472890676 -0.7727709275
C   0.1120943246  2.0334603619  0.1625950117
C   0.7360866203  0.8820237460  0.7165327880
H  -1.6524610128  2.8991852463 -0.6737431141
H   0.6840691838  2.9559105336  0.0814079435
C   2.1872021296  0.9596401501  1.1446170362
C   3.1892696722  0.6584348434  0.0134687825
H   2.3732818294  0.2640605976  1.9709059614
H   2.3972888305  1.9658427422  1.5234926930
H   4.2121941127  0.7952888161  0.3900510265
H   3.0572000909  1.3429162802 -0.8289642165
C   3.1356949119 -0.7446574617 -0.5458715940
O   3.0829684123 -1.0039330788 -1.7169351439
O   3.1584094805 -1.7335693507  0.4175533461
H   2.2819514480 -2.1363049310  0.4751356212
27
Scanning combination 60/73: [472.8561]  Energy = -652.9021253590
C  -3.4279784415 -1.5597889801  0.1030263956
C  -2.1243947389 -1.5247581870  0.5189254388
C  -1.3587366541 -0.3336519047  0.4049064253
C  -1.9640588256  0.8222321515 -0.1466268768
C  -3.3202589633  0.7593511084 -0.5692100913
C  -4.0351591540 -0.4028285142 -0.4480229496
H   0.4414938369 -1.1704865273  1.2550928992
H  -4.0082662425 -2.4747963774  0.1916895840
H  -1.6527840100 -2.4088951190  0.9437695030
C  -0.0014520358 -0.2712299004  0.8285821871
C  -1.1900490087  2.0081613218 -0.2560707505
H  -3.7800536112  1.6510464015 -0.9905395087
H  -5.0715947459 -0.4473614664 -0.7726523538
C   0.1121897259  2.0347968869  0.1618303734
C   0.7357246941  0.8828784711  0.7154232328
H  -1.6531577672  2.8991581270 -0.6752630074
H   0.6841489756  2.9572622986  0.0796977806
C   2.1859835580  0.9570167436  1.1442255401
C   3.1892386815  0.6559856265  0.0156979414
H   2.3700227064  0.2580767993  1.9677082453
H   2.3971782944  1.9617943845  1.5246951517
H   4.2101078407  0.8026020618  0.3970819545
H   3.0571143395  1.3369033251 -0.8301223694
C   3.1332483728 -0.7488864042 -0.5416406832
O   3.0758842028 -1.0094843707 -1.7125942159
O   3.1233497321 -1.7366439887  0.4210737850
H   2.2620193931 -2.1731966115  0.3928120091
27
Scanning combination 61/73: [477.8561]  Energy = -652.9037722800
C  -3.4276564578 -1.5599533510  0.1033071201
C  -2.1241618312 -1.5246042626  0.5192325697
C  -1.3583144064 -0.3336694524  0.4050173029
C  -1.9638888641  0.8220322852 -0.1466860084
C  -3.3199865245  0.7592590893 -0.5692561397
C  -4.0349207782 -0.4028216566 -0.4480405861
H   0.4420962408 -1.1693640230  1.2559808334
H  -4.0081403020 -2.4748472763  0.1920403659
H  -1.6528675859 -2.4089379536  0.9444148758
C  -0.0007907242 -0.2713214863  0.8287489241
C  -1.1897877822  2.0081192541 -0.2564311172
H  -3.7796780873  1.6511304578 -0.9906378937
H  -5.0713341290 -0.4473503061 -0.7726249725
C   0.1123406473  2.0349964409  0.1611972264
C   0.7356104180  0.8836726247  0.7153097576
H  -1.6531935801  2.8989258980 -0.6754876673
H   0.6842111075  2.9575720708  0.0793392247
C   2.1857312357  0.9568353848  1.1446378892
C   3.1890226848  0.6560022424  0.0163360335
H   2.3686934874  0.2568180252  1.9673117243
H   2.3976655920  1.9615450510  1.5257260663
H   4.2098265165  0.8021644628  0.3973535793
H   3.0576167058  1.3354586704 -0.8292779400
C   3.1342126532 -0.7481155806 -0.5424161811
O   3.0738155184 -1.0114608759 -1.7124607555
O   3.1181475367 -1.7291727090  0.4241454999
H   2.2892068706 -2.2190290741  0.3445622468
27
Scanning combination 62/73: [482.8561]  Energy = -652.9056113664
C  -3.4275705741 -1.5598504882  0.1034138950
C  -2.1239319378 -1.5245944970  0.5194812127
C  -1.3579792509 -0.3337286250  0.4050204995
C  -1.9635901770  0.8219901146 -0.1467127028
C  -3.3198844119  0.7592317253 -0.5693360497
C  -4.0347058116 -0.4029616327 -0.4479647463
H   0.4427169191 -1.1688241158  1.2566078391
H  -4.0079895052 -2.4748438162  0.1922910182
H  -1.6530267340 -2.4088840098  0.9448215915
C  -0.0003281241 -0.2711183305  0.8286941734
C  -1.1898971103  2.0080734629 -0.2567169485
H  -3.7794071644  1.6510628276 -0.9906750772
H  -5.0711612055 -0.4473759431 -0.7726080208
C   0.1125311483  2.0352853832  0.1610068462
C   0.7358076475  0.8835652644  0.7152680946
H  -1.6532931143  2.8988888968 -0.6757610578
H   0.6842414923  2.9578398571  0.0790160195
C   2.1859833496  0.9565469012  1.1446458111
C   3.1891693946  0.6559363812  0.0170409937
H   2.3679623551  0.2563054412  1.9669806921
H   2.3978750147  1.9610054006  1.5262257103
H   4.2104720440  0.8022084295  0.3978650893
H   3.0579023938  1.3355191039 -0.8292064497
C   3.1333719161 -0.7480747337 -0.5417906301
O   3.0720110673 -1.0132154608 -1.7126002811
O   3.1140360367 -1.7232438769  0.4273458488
H   2.3212041010 -2.2633039005  0.2986127977
27
Scanning combination 63/73: [487.8561]  Energy = -652.9075783495
C  -3.4276060814 -1.5599283865  0.1033402940
C  -2.1240411627 -1.5244362989  0.5193111058
C  -1.3580033437 -0.3336277521  0.4050065083
C  -1.9637915665  0.8220280551 -0.1466099725
C  -3.3200265407  0.7592687124 -0.5692890588
C  -4.0348856330 -0.4029040287 -0.4480187900
H   0.4424874442 -1.1690531909  1.2562037209
H  -4.0081243631 -2.4748802712  0.1920952099
H  -1.6531057849 -2.4089184718  0.9445137737
C  -0.0001956034 -0.2714500073  0.8286744617
C  -1.1898616599  2.0081332797 -0.2565167593
H  -3.7796140367  1.6511370307 -0.9906484869
H  -5.0712952266 -0.4473462729 -0.7726266239
C   0.1126079628  2.0351164170  0.1611976250
C   0.7359682325  0.8833883145  0.7150994584
H  -1.6532634445  2.8989767134 -0.6755740523
H   0.6842026041  2.9577583879  0.0792237029
C   2.1861595233  0.9564928262  1.1446209891
C   3.1904448824  0.6558839346  0.0173407801
H   2.3684625729  0.2567718689  1.9670341407
H   2.3979034416  1.9612066002  1.5256738488
H   4.2111006554  0.8015212993  0.3974149707
H   3.0585683519  1.3350902528 -0.8288345383
C   3.1323362620 -0.7486829319 -0.5420729398
O   3.0704171070 -1.0141823081 -1.7121234931
O   3.1079088712 -1.7190033994  0.4294575579
H   2.3578422590 -2.3074104393  0.2557667152
27
Scanning combination 64/73: [492.8561]  Energy = -652.9096784447
C  -3.4272461530 -1.5595325664  0.1036928699
C  -2.1235923236 -1.5241822437  0.5197912862
C  -1.3568501312 -0.3339969548  0.4046704595
C  -1.9628312095  0.8219627012 -0.1465522170
C  -3.3193863898  0.7591896153 -0.5692021878
C  -4.0343377881 -0.4029234447 -0.4479109677
H   0.4461685955 -1.1678679539  1.2565689318
H  -4.0074171233 -2.4746755711  0.1927396778
H  -1.6541324871 -2.4088160697  0.9456142630
C   0.0007577964 -0.2717978793  0.8279553190
C  -1.1895806218  2.0082765372 -0.2568355178
H  -3.7789519740  1.6508739211 -0.9906643918
H  -5.0708581221 -0.4474537343 -0.7725916677
C   0.1130241209  2.0357122738  0.1606268801
C   0.7354174369  0.8833126740  0.7151778829
H  -1.6532900586  2.8988655648 -0.6760216429
H   0.6844178943  2.9584762006  0.0785831757
C   2.1849523837  0.9542147134  1.1453394955
C   3.1880995013  0.6528882999  0.0186708100
H   2.3669324801  0.2545265565  1.9679651125
H   2.3985313474  1.9589801426  1.5256245404
H   4.2078034445  0.8018088885  0.3985721717
H   3.0597051806  1.3335959567 -0.8266417773
C   3.1335666371 -0.7521190166 -0.5407878776
O   3.0659640129 -1.0235787427 -1.7104793078
O   3.0897314009 -1.7163503320  0.4299520389
H   2.3880326923 -2.3406850642  0.1921705665
27
Scanning combination 65/73: [497.8561]  Energy = -652.9117371295
C  -3.4270111033 -1.5596751963  0.1040037119
C  -2.1234817580 -1.5242646756  0.5200673938
C  -1.3566843075 -0.3340641959  0.4047776261
C  -1.9625741565  0.8217410968 -0.1467945096
C  -3.3189900702  0.7590627148 -0.5693365244
C  -4.0340651447 -0.4029278407 -0.4478502624
H   0.4472400094 -1.1675931669  1.2555950208
H  -4.0073521776 -2.4746610043  0.1932427941
H  -1.6541301207 -2.4088928138  0.9464799879
C   0.0007188967 -0.2717340173  0.8284942365
C  -1.1892926954  2.0081767686 -0.2570624508
H  -3.7784110570  1.6509128278 -0.9907416419
H  -5.0704841897 -0.4473811228 -0.7725626617
C   0.1132438986  2.0357126570  0.1606240280
C   0.7356750719  0.8832914734  0.7147665885
H  -1.6532353458  2.8986492084 -0.6763513194
H   0.6845926322  2.9585451352  0.0782784380
C   2.1853679722  0.9530918194  1.1449628997
C   3.1891978898  0.6532144314  0.0187732951
H   2.3658986922  0.2533279628  1.9674676291
H   2.3987357795  1.9574661392  1.5261233766
H   4.2089907105  0.8014781050  0.3997967224
H   3.0591686210  1.3334448020 -0.8266523034
C   3.1307463627 -0.7516430063 -0.5405202547
O   3.0653607518 -1.0255590960 -1.7101557160
O   3.0836011097 -1.7108529223  0.4323204241
H   2.4350232424 -2.3757621559  0.1548220999
27
Scanning combination 66/73: [502.8561]  Energy = -652.9137288783
C  -3.4268722088 -1.5597128340  0.1043267719
C  -2.1234007959 -1.5242337177  0.5205179889
C  -1.3564937637 -0.3340747361  0.4049561499
C  -1.9622821940  0.8216571201 -0.1468223741
C  -3.3186368992  0.7589338382 -0.5694475920
C  -4.0337674727 -0.4029809747 -0.4478256498
H   0.4482669833 -1.1676236986  1.2542353224
H  -4.0072840322 -2.4746139430  0.1937621281
H  -1.6541960385 -2.4088111120  0.9473109008
C   0.0006930105 -0.2716870649  0.8286946763
C  -1.1890005790  2.0080641619 -0.2572671736
H  -3.7779160848  1.6508236347 -0.9908956797
H  -5.0701643739 -0.4473741911 -0.7725374564
C   0.1135688420  2.0356916160  0.1604210578
C   0.7358015559  0.8831687993  0.7145375661
H  -1.6530686061  2.8984207229 -0.6766843423
H   0.6848338848  2.9586093284  0.0779821682
C   2.1855104761  0.9520981687  1.1449150901
C   3.1893704167  0.6530058018  0.0191071606
H   2.3653040308  0.2518851508  1.9669647319
H   2.3989383465  1.9561572304  1.5268172129
H   4.2093793330  0.8010888521  0.4002106479
H   3.0595635554  1.3336587376 -0.8260840488
C   3.1280315571 -0.7517082579 -0.5401825823
O   3.0647136270 -1.0285656536 -1.7095390748
O   3.0767557853 -1.7054317608  0.4343031471
H   2.4863712718 -2.4076898104  0.1191263058
27
Scanning combination 67/73: [507.8561]  Energy = -652.9156188671
C  -3.4268171165 -1.5597472545  0.1045487373
C  -2.1233946307 -1.5241535498  0.5208094907
C  -1.3563919919 -0.3340138421  0.4050996345
C  -1.9621358025  0.8216547304 -0.1468128605
C  -3.3184453623  0.7588692884 -0.5694926177
C  -4.0336233980 -0.4029864100 -0.4478069902
H   0.4486432316 -1.1676869567  1.2532689751
H  -4.0072561504 -2.4745684015  0.1940636019
H  -1.6542432728 -2.4087344442  0.9478059869
C   0.0004809284 -0.2717274920  0.8288277898
C  -1.1888234222  2.0080105033 -0.2573777215
H  -3.7776822911  1.6507680638 -0.9910371692
H  -5.0700034539 -0.4473916605 -0.7725442201
C   0.1137538186  2.0356678904  0.1602908808
C   0.7358056252  0.8831597358  0.7144595848
H  -1.6529038149  2.8982924911 -0.6768725719
H   0.6850089503  2.9586003323  0.0778093417
C   2.1860541318  0.9515180950  1.1447395702
C   3.1893640693  0.6526863334  0.0189363558
H   2.3650447456  0.2510422829  1.9667985767
H   2.3990147759  1.9554811406  1.5273316983
H   4.2105325468  0.8007658737  0.4007078997
H   3.0600693671  1.3340063027 -0.8256500874
C   3.1242434594 -0.7521712235 -0.5393231184
O   3.0644668057 -1.0308559089 -1.7095859765
O   3.0712024671 -1.7011586029  0.4359125513
H   2.5436516993 -2.4371220764  0.0888090023
27
Scanning combination 68/73: [512.8561]  Energy = -652.9173575048
C  -3.4268102271 -1.5597242416  0.1048066877
C  -2.1233926427 -1.5240511509  0.5212338817
C  -1.3562807708 -0.3338641009  0.4053096256
C  -1.9620433215  0.8217085456 -0.1468255561
C  -3.3182951085  0.7588358687 -0.5695715264
C  -4.0334735134 -0.4030169764 -0.4477704240
H   0.4487179651 -1.1678052028  1.2518816930
H  -4.0072593089 -2.4745318391  0.1944271503
H  -1.6543179961 -2.4086288185  0.9484271843
C   0.0002703983 -0.2714128664  0.8292611340
C  -1.1884744304  2.0079669311 -0.2574556643
H  -3.7774250330  1.6506899895 -0.9912287762
H  -5.0698054397 -0.4474106718 -0.7725636428
C   0.1141404435  2.0355169570  0.1602104141
C   0.7359928097  0.8830532722  0.7144264498
H  -1.6526858398  2.8981789345 -0.6771115914
H   0.6852278063  2.9585702676  0.0775874414
C   2.1855655974  0.9509628928  1.1452545438
C   3.1892802860  0.6530251301  0.0194611675
H   2.3648928563  0.2501882026  1.9665448507
H   2.3992648554  1.9545250612  1.5277967698
H   4.2096411913  0.7991465311  0.4000965215
H   3.0610370593  1.3339406054 -0.8246687590
C   3.1218181944 -0.7508251880 -0.5395951342
O   3.0642935387 -1.0351333166 -1.7083087676
O   3.0673883850 -1.6942109202  0.4382078528
H   2.6060658884 -2.4624874591  0.0625730003
27
Scanning combination 69/73: [517.8561]  Energy = -652.9188563977
C  -3.4267342215 -1.5596792906  0.1050570670
C  -2.1233932304 -1.5239842610  0.5215857801
C  -1.3564552583 -0.3338124907  0.4055289603
C  -1.9618575519  0.8218160608 -0.1467801699
C  -3.3181452998  0.7588474336 -0.5696288586
C  -4.0333439232 -0.4030106602 -0.4477323153
H   0.4487153564 -1.1681508753  1.2509532673
H  -4.0072437144 -2.4744528669  0.1947135062
H  -1.6543463274 -2.4084822221  0.9489189641
C  -0.0000114366 -0.2715198260  0.8291914652
C  -1.1884333167  2.0079506265 -0.2576238469
H  -3.7772901105  1.6506616921 -0.9914283420
H  -5.0697085220 -0.4474333975 -0.7726078012
C   0.1141543275  2.0356155844  0.1600084252
C   0.7356249019  0.8831294686  0.7148918208
H  -1.6523726268  2.8980755378 -0.6772639482
H   0.6855127552  2.9584982825  0.0774225967
C   2.1861109566  0.9506381358  1.1449376083
C   3.1901803707  0.6527199169  0.0187643108
H   2.3647350811  0.2493397151  1.9665881897
H   2.3992411970  1.9542381637  1.5285539621
H   4.2104143372  0.7983457172  0.4005356883
H   3.0612496725  1.3359409470 -0.8251818539
C   3.1160349122 -0.7513866607 -0.5384587773
O   3.0654475872 -1.0374127714 -1.7082826054
O   3.0633798992 -1.6924300819  0.4402708783
H   2.6702615268 -2.4847550040  0.0396737112
27
Scanning combination 70/73: [522.8561]  Energy = -652.9200784121
C  -3.4267994588 -1.5596724551  0.1050406253
C  -2.1233871043 -1.5239915623  0.5216295527
C  -1.3563106506 -0.3337629169  0.4055528088
C  -1.9619712424  0.8218146709 -0.1468047925
C  -3.3181828737  0.7588543266 -0.5696468164
C  -4.0333355756 -0.4030135927 -0.4477297294
H   0.4484309902 -1.1680554040  1.2508006782
H  -4.0072295556 -2.4744466100  0.1947234176
H  -1.6542790534 -2.4085288817  0.9489484060
C  -0.0000616742 -0.2713929752  0.8294280745
C  -1.1883343881  2.0079506726 -0.2576152208
H  -3.7772669128  1.6506448539 -0.9914241043
H  -5.0696607595 -0.4474317386 -0.7725953978
C   0.1143156430  2.0354909026  0.1601123670
C   0.7360698936  0.8830244350  0.7146785239
H  -1.6524148133  2.8981462233 -0.6773056323
H   0.6855008325  2.9585105805  0.0774009808
C   2.1864194324  0.9505631588  1.1450042630
C   3.1909570649  0.6523802311  0.0190588065
H   2.3647905784  0.2494581291  1.9664347754
H   2.3993330581  1.9540254128  1.5284775880
H   4.2113903903  0.7976494660  0.4004769160
H   3.0619685822  1.3351698455 -0.8245265460
C   3.1114685937 -0.7514410233 -0.5381581981
O   3.0654589018 -1.0385510735 -1.7081588576
O   3.0575989421 -1.6918309574  0.4392488897
H   2.7361915128 -2.5070168433  0.0185673070
27
Scanning combination 71/73: [527.8561]  Energy = -652.9210324440
C  -3.4267679235 -1.5596771273  0.1050618704
C  -2.1233352682 -1.5239774591  0.5216733635
C  -1.3563165963 -0.3336713462  0.4055877069
C  -1.9619569937  0.8218487727 -0.1468152925
C  -3.3181888073  0.7588506976 -0.5696510960
C  -4.0333378047 -0.4030197138 -0.4477298681
H   0.4480290592 -1.1679187662  1.2507483685
H  -4.0072318369 -2.4744485762  0.1947348016
H  -1.6542350593 -2.4085561034  0.9489703112
C  -0.0001925828 -0.2712273557  0.8296307299
C  -1.1882638606  2.0079751191 -0.2575989415
H  -3.7772663147  1.6506549596 -0.9914386081
H  -5.0696596657 -0.4474317903 -0.7725988971
C   0.1144198651  2.0354071314  0.1601207888
C   0.7363260931  0.8829622558  0.7144991058
H  -1.6523976559  2.8981439316 -0.6773089301
H   0.6854892274  2.9585026675  0.0773921679
C   2.1867301218  0.9504994225  1.1449448399
C   3.1918888006  0.6518572465  0.0196405825
H   2.3648976555  0.2494884053  1.9663865397
H   2.3994391904  1.9539470461  1.5284746920
H   4.2121541874  0.7969136151  0.4003294424
H   3.0626247954  1.3346872633 -0.8241495170
C   3.1066095817 -0.7516582425 -0.5381932341
O   3.0657895468 -1.0394124863 -1.7080950487
O   3.0526816661 -1.6914250797  0.4386565331
H   2.8050882211 -2.5243617372  0.0020494085
27
Scanning combination 72/73: [532.8561]  Energy = -652.9217903320
C  -3.4265866094 -1.5595117173  0.1058764186
C  -2.1234305863 -1.5234436570  0.5228823076
C  -1.3576856583 -0.3325124356  0.4065616050
C  -1.9622641660  0.8227795621 -0.1467994566
C  -3.3182333551  0.7591392682 -0.5700034845
C  -4.0329298101 -0.4029344428 -0.4475654331
H   0.4436879846 -1.1686386484  1.2495924802
H  -4.0070342181 -2.4742243344  0.1956754255
H  -1.6536843210 -2.4077742129  0.9503252506
C  -0.0025852532 -0.2700587001  0.8314686324
C  -1.1878001939  2.0083354045 -0.2581562869
H  -3.7772005750  1.6506692094 -0.9923073153
H  -5.0691219391 -0.4476178589 -0.7726713803
C   0.1147454652  2.0354928092  0.1600121054
C   0.7344896125  0.8836468898  0.7173220730
H  -1.6512738481  2.8985021735 -0.6781193428
H   0.6865969502  2.9580583354  0.0767343100
C   2.1846062506  0.9500289180  1.1469700298
C   3.1837172148  0.6513602250  0.0179700645
H   2.3651362536  0.2473894383  1.9668915225
H   2.4002209717  1.9528940840  1.5309092752
H   4.2065485400  0.7822556219  0.3961709625
H   3.0641807966  1.3375385080 -0.8236353688
C   3.1000881619 -0.7496797988 -0.5391030830
O   3.0765117600 -1.0486720463 -1.7070912829
O   3.0525142390 -1.6853567776  0.4400265618
H   2.8848536956 -2.5272795177 -0.0150021912
27
Scanning combination 73/73: [537.8561]  Energy = -652.9222034816
C  -3.4265934285 -1.5595107250  0.1058814980
C  -2.1234177399 -1.5234521993  0.5228976691
C  -1.3577287684 -0.3324262701  0.4065657873
C  -1.9623024707  0.8227707649 -0.1468024592
C  -3.3182329208  0.7591593272 -0.5700082108
C  -4.0329228079 -0.4029396348 -0.4475597867
H   0.4436280280 -1.1686303740  1.2495160870
H  -4.0070291832 -2.4742299166  0.1956866704
H  -1.6536726712 -2.4077542345  0.9503308419
C  -0.0026702665 -0.2700600188  0.8316488265
C  -1.1877873348  2.0083722717 -0.2581759542
H  -3.7772127035  1.6506757242 -0.9923237013
H  -5.0691157619 -0.4476239031 -0.7726711535
C   0.1147573795  2.0354486675  0.1600796886
C   0.7346160768  0.8836752480  0.7172490709
H  -1.6512761282  2.8985432572 -0.6781507809
H   0.6866101650  2.9580542602  0.0767134121
C   2.1851000745  0.9500068952  1.1468612824
C   3.1853999394  0.6509711139  0.0178676383
H   2.3651449919  0.2474834361  1.9668192802
H   2.4002281480  1.9528250515  1.5309507869
H   4.2076991421  0.7818607388  0.3964045566
H   3.0644467986  1.3373637879 -0.8234448432
C   3.0948890953 -0.7501271134 -0.5388172475
O   3.0769733551 -1.0486382806 -1.7075623088
O   3.0479356102 -1.6862854944  0.4391205445
H   2.9565958533 -2.5371632313 -0.0224706792
