27
Scanning combination 1/73: [95.0877]  Energy = -652.9203159515
C  -3.4012325960 -1.5688712871  0.0546669985
C  -2.1132893454 -1.5196481802  0.5162953439
C  -1.3573683495 -0.3217394428  0.4278165217
C  -1.9492877765  0.8278009391 -0.1503231236
C  -3.2934614593  0.7540768889 -0.6111242554
C  -4.0002296756 -0.4156727405 -0.5128644920
H   0.4007688678 -1.1406712634  1.3674945615
H  -3.9716473855 -2.4919272543  0.1168403014
H  -1.6431322975 -2.3997667642  0.9504824402
C  -0.0162145567 -0.2547434506  0.8919492829
C  -1.1682999720  2.0117078822 -0.2477713597
H  -3.7501424352  1.6397570452 -1.0484356560
H  -5.0252172496 -0.4707568764 -0.8707864884
C   0.1294102850  2.0359222903  0.1884148093
C   0.7444802281  0.8809553995  0.7456109853
H  -1.6171919746  2.9030280739 -0.6807707342
H   0.6986475024  2.9617992898  0.1174641604
C   2.2073143996  0.9055207052  1.1401567228
C   3.1893320536  0.5766596789 -0.0103624795
H   2.3807776303  0.1932182493  1.9562615369
H   2.4675275965  1.8967427896  1.5281404091
H   4.2176176784  0.6336499800  0.3627650394
H   3.0695240433  1.2884459873 -0.8316886520
C   2.9690427656 -0.8013199388 -0.5828751711
O   2.2994030366 -1.0671346199 -1.5517534140
O   3.6031643555 -1.7563426187  0.1330575513
H   3.3702052789 -2.5971901874 -0.2945611582
27
Scanning combination 2/73: [100.0877]  Energy = -652.9206432257
C  -3.4010050974 -1.5662932790  0.0579672610
C  -2.1123629202 -1.5231257881  0.5175853828
C  -1.3514352986 -0.3284342479  0.4249225039
C  -1.9417959441  0.8242028007 -0.1493742998
C  -3.2850346619  0.7547127897 -0.6101874571
C  -3.9955174357 -0.4119590743 -0.5114244761
H   0.4232869519 -1.1529549631  1.3382237336
H  -3.9762911026 -2.4854620815  0.1257532875
H  -1.6486677029 -2.4039303833  0.9578023163
C  -0.0086589312 -0.2623066939  0.8853310825
C  -1.1631809885  2.0100671122 -0.2455029604
H  -3.7378686066  1.6430207941 -1.0457074065
H  -5.0199142565 -0.4637283836 -0.8701048548
C   0.1334937111  2.0348421425  0.1923199347
C   0.7435637221  0.8798161461  0.7546528535
H  -1.6148337582  2.9010454510 -0.6771174685
H   0.7119365443  2.9543217541  0.1063051205
C   2.2053116287  0.9010515299  1.1458877100
C   3.1713708362  0.5839574360 -0.0181250511
H   2.3839389158  0.1873974390  1.9573682784
H   2.4644002840  1.8875499379  1.5442113299
H   4.2058044954  0.6549731942  0.3367612078
H   3.0201047652  1.3000261452 -0.8294923016
C   2.9645325636 -0.7971524531 -0.5921540966
O   2.3563956073 -1.0658669748 -1.5998446847
O   3.5340612250 -1.7507692188  0.1783970987
H   3.3662939955 -2.5945630094 -0.2720731332
27
Scanning combination 3/73: [105.0877]  Energy = -652.9208478186
C  -3.4022561975 -1.5647936747  0.0613422071
C  -2.1132945034 -1.5245283878  0.5190667156
C  -1.3490165294 -0.3317963203  0.4244151978
C  -1.9381400110  0.8223882029 -0.1478012901
C  -3.2815552098  0.7556159254 -0.6085514801
C  -3.9949487125 -0.4099276501 -0.5092566854
H   0.4303367069 -1.1646748955  1.3212906260
H  -3.9800079772 -2.4826736985  0.1305116658
H  -1.6510877468 -2.4061548743  0.9594087349
C  -0.0050063742 -0.2691663464  0.8815508524
C  -1.1578172460  2.0066970164 -0.2441901074
H  -3.7322446774  1.6441171583 -1.0456301453
H  -5.0191791881 -0.4599140675 -0.8686026768
C   0.1381774446  2.0304439706  0.1952236266
C   0.7446912974  0.8752134928  0.7609868116
H  -1.6089540846  2.8981325497 -0.6747787895
H   0.7182458398  2.9484672718  0.1091234815
C   2.2060042896  0.8982976529  1.1507624293
C   3.1572344520  0.5937838957 -0.0265861424
H   2.3935270934  0.1764176154  1.9531161586
H   2.4650354276  1.8822864131  1.5559035646
H   4.1957243421  0.6734791322  0.3110305362
H   2.9932256797  1.3070919327 -0.8386291419
C   2.9674918288 -0.7902605182 -0.5981829823
O   2.4232860417 -1.0646010709 -1.6396782623
O   3.4793541446 -1.7420770807  0.2147867511
H   3.3379558516 -2.5856067648 -0.2462255590
27
Scanning combination 4/73: [110.0877]  Energy = -652.9210749272
C  -3.4041630888 -1.5639190015  0.0641454182
C  -2.1145291186 -1.5270277825  0.5204048982
C  -1.3477099516 -0.3358372321  0.4250924491
C  -1.9351130687  0.8201820006 -0.1456276391
C  -3.2783957122  0.7558313437 -0.6069499912
C  -3.9942056872 -0.4078833385 -0.5070240027
H   0.4371343177 -1.1758915962  1.3065740967
H  -3.9845858354 -2.4799040139  0.1351284871
H  -1.6544364106 -2.4097469492  0.9610104119
C  -0.0023586903 -0.2765160209  0.8791473013
C  -1.1543629062  2.0043610047 -0.2401594643
H  -3.7263984596  1.6454930890 -1.0445924940
H  -5.0188339684 -0.4553025737 -0.8655773466
C   0.1405667685  2.0262864001  0.2015049168
C   0.7457245019  0.8688944095  0.7638135007
H  -1.6036765951  2.8959849961 -0.6726142349
H   0.7246188167  2.9414511003  0.1145363948
C   2.2072010550  0.8927886468  1.1492205644
C   3.1504034580  0.6047544210 -0.0364092634
H   2.4019753001  0.1644782851  1.9424640473
H   2.4637434299  1.8737303412  1.5611287931
H   4.1930782060  0.7005823278  0.2883247138
H   2.9662212861  1.3164733486 -0.8448666810
C   2.9767156546 -0.7823834268 -0.6082626102
O   2.5023235915 -1.0601042344 -1.6830237286
O   3.4148341648 -1.7324233879  0.2492779847
H   3.2984573424 -2.5806864595 -0.2102298958
27
Scanning combination 5/73: [115.0877]  Energy = -652.9212671969
C  -3.4062065943 -1.5633649169  0.0666204784
C  -2.1159562509 -1.5289404316  0.5213697661
C  -1.3471147666 -0.3387424378  0.4255162962
C  -1.9334439701  0.8184090605 -0.1437963388
C  -3.2768773198  0.7561297074 -0.6050429658
C  -3.9947515932 -0.4063958578 -0.5044878043
H   0.4386239079 -1.1845934956  1.2987289363
H  -3.9888194341 -2.4780814267  0.1384633840
H  -1.6574498023 -2.4126490566  0.9617737149
C  -0.0007430053 -0.2824385212  0.8775353062
C  -1.1522352456  2.0024114767 -0.2360249022
H  -3.7230045003  1.6467286858 -1.0426603988
H  -5.0195298906 -0.4518412282 -0.8629028104
C   0.1424268580  2.0221111702  0.2056326037
C   0.7467235929  0.8634080435  0.7655846530
H  -1.6008018742  2.8945626508 -0.6682714084
H   0.7284577170  2.9358458609  0.1192970633
C   2.2087005951  0.8900615188  1.1487900796
C   3.1435503636  0.6130329206 -0.0449136239
H   2.4107946444  0.1545794649  1.9333944016
H   2.4630811581  1.8693654041  1.5658248854
H   4.1887952204  0.7218142147  0.2687008480
H   2.9479935705  1.3226212319 -0.8538164784
C   2.9875827201 -0.7762853916 -0.6169226683
O   2.5872884623 -1.0584111808 -1.7194537280
O   3.3549990759 -1.7250052648  0.2775415623
H   3.2613159288 -2.5746137085 -0.1838643105
27
Scanning combination 6/73: [120.0877]  Energy = -652.9214447443
C  -3.4086105572 -1.5628826663  0.0686803309
C  -2.1181399292 -1.5303137926  0.5226086239
C  -1.3480655612 -0.3408523751  0.4271490393
C  -1.9332792735  0.8172561582 -0.1411876393
C  -3.2765934952  0.7565879851 -0.6026568975
C  -3.9959164888 -0.4050266557 -0.5019745596
H   0.4363447645 -1.1908191737  1.2977793890
H  -3.9925959035 -2.4767168226  0.1409765008
H  -1.6602741316 -2.4147612768  0.9622871901
C  -0.0009750216 -0.2871494307  0.8780165133
C  -1.1515155897  2.0009396705 -0.2319793995
H  -3.7213230252  1.6479398738 -1.0401362167
H  -5.0207827090 -0.4489815747 -0.8601255069
C   0.1433141011  2.0185001510  0.2090838621
C   0.7467387240  0.8584910734  0.7669915012
H  -1.5990819914  2.8938571572 -0.6636158923
H   0.7313588747  2.9308896111  0.1232709856
C   2.2095952864  0.8869406395  1.1462276266
C   3.1381544350  0.6198036961 -0.0527243601
H   2.4173393308  0.1474829224  1.9250705494
H   2.4621358583  1.8653451907  1.5661869895
H   4.1850468906  0.7400085923  0.2525520719
H   2.9334738707  1.3273542660 -0.8611319288
C   3.0012725552 -0.7715857124 -0.6252686267
O   2.6791488759 -1.0558539282 -1.7523254710
O   3.2966452118 -1.7189577849  0.2976878117
H   3.2285893000 -2.5706674414 -0.1645033941
27
Scanning combination 7/73: [125.0877]  Energy = -652.9216325734
C  -3.4117322448 -1.5623247023  0.0708072100
C  -2.1213147176 -1.5310926987  0.5248310574
C  -1.3503569798 -0.3422139024  0.4304077992
C  -1.9343717647  0.8165315347 -0.1378296860
C  -3.2775062118  0.7572231410 -0.5996945501
C  -3.9979241618 -0.4037251260 -0.4993950710
H   0.4326833988 -1.1953242885  1.3001653027
H  -3.9964647482 -2.4756934817  0.1426772053
H  -1.6638255722 -2.4162024982  0.9635824484
C  -0.0025623173 -0.2908035113  0.8802259828
C  -1.1518258180  1.9996571280 -0.2282245323
H  -3.7210742311  1.6491307976 -1.0371840404
H  -5.0227177554 -0.4465568864 -0.8577173453
C   0.1432767057  2.0152392815  0.2118537988
C   0.7459034312  0.8541648177  0.7680571096
H  -1.5984222536  2.8933560405 -0.6591974282
H   0.7333238484  2.9262936113  0.1257339351
C   2.2097596930  0.8840330706  1.1425153897
C   3.1341280338  0.6249585768 -0.0595622014
H   2.4226853118  0.1421600587  1.9170870346
H   2.4607560986  1.8616229810  1.5650891998
H   4.1820175656  0.7569938425  0.2392997237
H   2.9217264531  1.3299507142 -0.8683383362
C   3.0183171955 -0.7678606610 -0.6332826509
O   2.7788575009 -1.0530581610 -1.7804760601
O   3.2384626123 -1.7149024374  0.3113175683
H   3.1991921838 -2.5673618465 -0.1527256554
27
Scanning combination 8/73: [130.0877]  Energy = -652.9218486402
C  -3.4154349204 -1.5617028973  0.0733973462
C  -2.1250746919 -1.5315041005  0.5279070040
C  -1.3528810084 -0.3433920193  0.4340125170
C  -1.9361953403  0.8159566232 -0.1340156765
C  -3.2792636320  0.7578918634 -0.5961683131
C  -4.0006328723 -0.4025319892 -0.4965251530
H   0.4297442789 -1.1990789546  1.3018717178
H  -4.0007238857 -2.4748146196  0.1443893387
H  -1.6683723323 -2.4172796023  0.9662008887
C  -0.0042537999 -0.2939952339  0.8821893707
C  -1.1529755563  1.9985491893 -0.2245519329
H  -3.7217795043  1.6503142054 -1.0337082341
H  -5.0251935305 -0.4444280119 -0.8555482789
C   0.1427234873  2.0121766416  0.2137179193
C   0.7450834530  0.8502263103  0.7679968798
H  -1.5989115156  2.8928333712 -0.6550332021
H   0.7342857187  2.9221335964  0.1269025652
C   2.2095504520  0.8813959094  1.1385833989
C   3.1312340458  0.6292014309 -0.0652792684
H   2.4267619916  0.1376334908  1.9097543924
H   2.4591640293  1.8586217627  1.5627183474
H   4.1795196931  0.7731498467  0.2285923502
H   2.9127601534  1.3313355513 -0.8750336992
C   3.0372133367 -0.7646098165 -0.6404171373
O   2.8835392574 -1.0499269935 -1.8023405097
O   3.1799707694 -1.7119299323  0.3188001964
H   3.1707695878 -2.5646217883 -0.1463260069
27
Scanning combination 9/73: [135.0877]  Energy = -652.9218395654
C  -3.4169496367 -1.5613925138  0.0748369880
C  -2.1263906299 -1.5304253347  0.5297039672
C  -1.3525487375 -0.3435532487  0.4344058236
C  -1.9366770723  0.8163441569 -0.1306409305
C  -3.2799584530  0.7580967898 -0.5942153889
C  -4.0018129383 -0.4023337506 -0.4962594000
H   0.4287689414 -1.2003964340  1.3022855330
H  -4.0027857022 -2.4745017581  0.1454527014
H  -1.6708625163 -2.4169569949  0.9671017871
C  -0.0026453019 -0.2961491266  0.8794240601
C  -1.1511310865  1.9969908223 -0.2225307475
H  -3.7229361954  1.6503947922 -1.0322526384
H  -5.0274896282 -0.4440107035 -0.8542741162
C   0.1464145683  2.0091799544  0.2106543429
C   0.7471641037  0.8485966974  0.7709636732
H  -1.5990196131  2.8903603231 -0.6516534073
H   0.7337678995  2.9224798472  0.1276578756
C   2.2124080926  0.8795951391  1.1460425864
C   3.1163447128  0.6324194835 -0.0741277130
H   2.4331179181  0.1301418545  1.9140700903
H   2.4619058741  1.8612960676  1.5649825593
H   4.1643631401  0.7715118355  0.2164996348
H   2.9119551440  1.3401256677 -0.8821408720
C   3.0344961937 -0.7637638360 -0.6447714706
O   2.9502021001 -1.0552067765 -1.8121100305
O   3.1429007285 -1.7057893829  0.3230710365
H   3.1590758008 -2.5554259667 -0.1469514424
27
Scanning combination 10/73: [140.0877]  Energy = -652.9221073542
C  -3.4213305674 -1.5615387538  0.0783179981
C  -2.1310377809 -1.5323903402  0.5337021388
C  -1.3561436859 -0.3459982673  0.4390250962
C  -1.9392779113  0.8153707963 -0.1253853362
C  -3.2816369762  0.7583443947 -0.5894433990
C  -4.0042967410 -0.4012820501 -0.4923361083
H   0.4252379945 -1.2042875498  1.3039132974
H  -4.0085294494 -2.4736122088  0.1494527473
H  -1.6761428337 -2.4196495100  0.9711097238
C  -0.0057913735 -0.2997568924  0.8815502075
C  -1.1548494226  1.9967992397 -0.2167030597
H  -3.7219860221  1.6523050346 -1.0265046932
H  -5.0300124964 -0.4405227199 -0.8494388501
C   0.1431167757  2.0067175435  0.2152666173
C   0.7461507158  0.8426029943  0.7650163743
H  -1.6005241606  2.8906517959 -0.6480385495
H   0.7350850943  2.9167269272  0.1318947187
C   2.2119198363  0.8760305795  1.1334482802
C   3.1269365451  0.6370898570 -0.0751728342
H   2.4325954901  0.1265422645  1.8994001155
H   2.4552561811  1.8566764454  1.5546549338
H   4.1740251978  0.8177780435  0.2042874253
H   2.8943571277  1.3265933104 -0.8911917175
C   3.0731234694 -0.7604705722 -0.6476993710
O   3.0908002650 -1.0377882661 -1.8207919210
O   3.0639775076 -1.7107857083  0.3185911312
H   3.1012946424 -2.5646552719 -0.1443281840
27
Scanning combination 11/73: [145.0877]  Energy = -652.9220083956
C  -3.4241507546 -1.5608622574  0.0810153821
C  -2.1328947043 -1.5333146406  0.5343306515
C  -1.3565282991 -0.3476692660  0.4381706851
C  -1.9397214277  0.8136620965 -0.1264508780
C  -3.2833447487  0.7585289047 -0.5874626737
C  -4.0070319188 -0.4002270060 -0.4885666089
H   0.4248401358 -1.2076781178  1.3005690097
H  -4.0118915838 -2.4723816196  0.1529001396
H  -1.6794165737 -2.4205051212  0.9733824374
C  -0.0068804572 -0.3016336067  0.8831441406
C  -1.1552729041  1.9954177986 -0.2160345904
H  -3.7243135076  1.6532043516 -1.0223838211
H  -5.0325429886 -0.4391282110 -0.8459792857
C   0.1421273286  2.0046035253  0.2168400996
C   0.7449074673  0.8415274951  0.7684699984
H  -1.6012009656  2.8909800973 -0.6437873186
H   0.7355720998  2.9133001076  0.1296079296
C   2.2119246244  0.8764830476  1.1326580661
C   3.1189435762  0.6405511852 -0.0814418056
H   2.4397286401  0.1272790092  1.8954068219
H   2.4565934475  1.8557877732  1.5564306252
H   4.1684993899  0.8158494188  0.1931188443
H   2.8849929657  1.3329837907 -0.8947859080
C   3.0835007309 -0.7578148727 -0.6507383131
O   3.1831139610 -1.0414364945 -1.8191557442
O   3.0133023159 -1.7062359430  0.3142683407
H   3.0819669674 -2.5580037505 -0.1490383452
27
Scanning combination 12/73: [150.0877]  Energy = -652.9216070775
C  -3.4252240296 -1.5601045856  0.0825847183
C  -2.1338489602 -1.5324470814  0.5352954410
C  -1.3563578136 -0.3477094908  0.4383682857
C  -1.9398400037  0.8138489334 -0.1244041240
C  -3.2840333170  0.7591861153 -0.5851432917
C  -4.0084166886 -0.3995788073 -0.4870713912
H   0.4237205392 -1.2089823339  1.3010238500
H  -4.0129671259 -2.4717946032  0.1541220766
H  -1.6807375714 -2.4198887309  0.9735540798
C  -0.0063984342 -0.3029019984  0.8824930936
C  -1.1531016863  1.9936952873 -0.2153494928
H  -3.7257004395  1.6529226366 -1.0214688346
H  -5.0344081430 -0.4390417674 -0.8445912267
C   0.1451685663  2.0026570988  0.2152068206
C   0.7456983826  0.8405522023  0.7731986065
H  -1.6005385842  2.8888074194 -0.6409790177
H   0.7354029035  2.9140585612  0.1298696553
C   2.2144149678  0.8740833208  1.1378132935
C   3.1038798649  0.6428742644 -0.0923356612
H   2.4454641153  0.1238142158  1.9007695227
H   2.4598144736  1.8550123182  1.5603959892
H   4.1531093877  0.8118582583  0.1819336616
H   2.8781503061  1.3435480580 -0.9015661578
C   3.0825289321 -0.7571309997 -0.6583000619
O   3.2519606123 -1.0510693704 -1.8159085155
O   2.9773179815 -1.6992358352  0.3091866963
H   3.0730626284 -2.5480117468 -0.1527940455
27
Scanning combination 13/73: [155.0877]  Energy = -652.9215885554
C  -3.4310290657 -1.5598296691  0.0868799100
C  -2.1401024818 -1.5327611317  0.5406259727
C  -1.3632101727 -0.3473325127  0.4462087018
C  -1.9450757122  0.8151457172 -0.1177310221
C  -3.2881810466  0.7604083582 -0.5795972292
C  -4.0128161473 -0.3980054859 -0.4820201407
H   0.4141697794 -1.2096893740  1.3095532712
H  -4.0195533977 -2.4710958804  0.1580230360
H  -1.6855068827 -2.4210999249  0.9766110809
C  -0.0130464026 -0.3040707148  0.8874256443
C  -1.1581629063  1.9949428807 -0.2092995586
H  -3.7271178183  1.6551508981 -1.0165236088
H  -5.0388136520 -0.4355059287 -0.8387939250
C   0.1410242390  2.0005707812  0.2185297264
C   0.7438916340  0.8345541269  0.7650475931
H  -1.6023359759  2.8902143320 -0.6389570914
H   0.7355802643  2.9086839573  0.1338481618
C   2.2125197505  0.8694762981  1.1244587498
C   3.1171967770  0.6457854232 -0.0913960579
H   2.4423779706  0.1170672190  1.8849000292
H   2.4529039430  1.8492626272  1.5497613822
H   4.1621892359  0.8734124482  0.1628306313
H   2.8526427765  1.3168179530 -0.9148614986
C   3.1380154898 -0.7569620268 -0.6536147133
O   3.4155631702 -1.0332818410 -1.7939880134
O   2.9046857453 -1.7086790607  0.2810426471
H   3.0155833017 -2.5617216812 -0.1721759059
27
Scanning combination 14/73: [160.0877]  Energy = -652.9211963717
C  -3.4346323059 -1.5583290328  0.0891869993
C  -2.1428681940 -1.5331135377  0.5416483444
C  -1.3650547073 -0.3483266541  0.4456910227
C  -1.9463469933  0.8138155201 -0.1190048264
C  -3.2904866986  0.7612080692 -0.5781162291
C  -4.0157110671 -0.3965127382 -0.4788654902
H   0.4129099552 -1.2117053878  1.3082959092
H  -4.0226762951 -2.4692565773  0.1611739190
H  -1.6892589253 -2.4204881629  0.9798722405
C  -0.0157366622 -0.3052065452  0.8905134473
C  -1.1586541696  1.9937076898 -0.2092895335
H  -3.7304894235  1.6563057340 -1.0125255637
H  -5.0413157583 -0.4340594504 -0.8356997114
C   0.1396803030  1.9988191807  0.2198941545
C   0.7413036372  0.8342611586  0.7703086329
H  -1.6027479999  2.8909891281 -0.6353623666
H   0.7365723025  2.9054179287  0.1291454523
C   2.2125685122  0.8675740904  1.1225469190
C   3.1067646427  0.6491712692 -0.1006329875
H   2.4488947402  0.1167070721  1.8799526398
H   2.4555932576  1.8447899259  1.5504889351
H   4.1538029337  0.8686193445  0.1514865503
H   2.8407536222  1.3271740726 -0.9175722584
C   3.1478253665 -0.7547741358 -0.6564930019
O   3.5017549976 -1.0377480778 -1.7737402481
O   2.8661757965 -1.7055580369  0.2657144616
H   3.0097849534 -2.5561950024 -0.1821488608
27
Scanning combination 15/73: [165.0877]  Energy = -652.9209587578
C  -3.4417170818 -1.5570165802  0.0949306643
C  -2.1499344761 -1.5316911549  0.5479141790
C  -1.3716793010 -0.3471565269  0.4513855369
C  -1.9527557095  0.8159934752 -0.1122984357
C  -3.2962350077  0.7629318830 -0.5726974018
C  -4.0219163573 -0.3945361108 -0.4737464906
H   0.4054812231 -1.2119221033  1.3123143797
H  -4.0310174982 -2.4675239559  0.1660476301
H  -1.6960054498 -2.4203742248  0.9837723779
C  -0.0204242047 -0.3067682253  0.8893992567
C  -1.1631051941  1.9940810206 -0.2060647632
H  -3.7345771614  1.6588268821 -1.0075499065
H  -5.0482489756 -0.4303657904 -0.8297668888
C   0.1379314220  1.9951707677  0.2157240371
C   0.7406521008  0.8294200441  0.7640996070
H  -1.6063522813  2.8915978305 -0.6331028240
H   0.7354096831  2.9013063771  0.1284160244
C   2.2138136943  0.8611382433  1.1183247126
C   3.1141256570  0.6488388632 -0.1039787493
H   2.4452606807  0.1039217524  1.8727939285
H   2.4493322464  1.8425492890  1.5458405481
H   4.1514278846  0.9163760629  0.1396284459
H   2.8262809522  1.3062403554 -0.9292470615
C   3.1971759757 -0.7558770770 -0.6546466656
O   3.6431913494 -1.0356299191 -1.7404083528
O   2.8136420550 -1.7047973990  0.2291980307
H   2.9777306298 -2.5560417051 -0.2095394712
27
Scanning combination 16/73: [170.0877]  Energy = -652.9202924524
C  -3.4435063992 -1.5551458784  0.0968112770
C  -2.1512645089 -1.5305136387  0.5481167035
C  -1.3712488826 -0.3478983434  0.4497986437
C  -1.9520103244  0.8152173092 -0.1131656438
C  -3.2973655982  0.7641235551 -0.5701666142
C  -4.0242000931 -0.3927730705 -0.4710773403
H   0.4053408270 -1.2138424183  1.3114997360
H  -4.0321207081 -2.4659120873  0.1678200354
H  -1.6985002730 -2.4186159334  0.9851964615
C  -0.0205161453 -0.3083061635  0.8894432459
C  -1.1603045447  1.9916149670 -0.2068474551
H  -3.7375980006  1.6586738151 -1.0061306295
H  -5.0503596824 -0.4304130083 -0.8285589446
C   0.1403076919  1.9940676293  0.2155183159
C   0.7399123202  0.8285274276  0.7687083157
H  -1.6054315862  2.8892897804 -0.6294679528
H   0.7357413009  2.9019572718  0.1250063362
C   2.2143938693  0.8576035510  1.1197747492
C   3.0967490491  0.6528646344 -0.1179878966
H   2.4519590292  0.1053882497  1.8769299313
H   2.4540447608  1.8350778003  1.5512281848
H   4.1359087115  0.9059432806  0.1311641487
H   2.8163616612  1.3237387098 -0.9365038137
C   3.1951611715 -0.7537193304 -0.6624523857
O   3.7041692499 -1.0453221175 -1.7172118683
O   2.7917914878 -1.6992742732  0.2162603839
H   2.9771925924 -2.5479655482 -0.2176891276
27
Scanning combination 17/73: [175.0877]  Energy = -652.9198613469
C  -3.4467714272 -1.5548882461  0.0994446683
C  -2.1543855375 -1.5312549872  0.5507360077
C  -1.3747329227 -0.3477839231  0.4541123294
C  -1.9546082939  0.8159049740 -0.1098943934
C  -3.2989633392  0.7647545638 -0.5685070678
C  -4.0263088645 -0.3919408586 -0.4686689222
H   0.4026045977 -1.2160617636  1.3103182996
H  -4.0377223574 -2.4643397302  0.1727201009
H  -1.7013699028 -2.4199820193  0.9877919379
C  -0.0243935811 -0.3092884154  0.8937906956
C  -1.1630550335  1.9928560515 -0.2033824364
H  -3.7376887566  1.6612267721 -1.0017177331
H  -5.0532854688 -0.4262631084 -0.8224865741
C   0.1377029123  1.9923175625  0.2193834644
C   0.7377045670  0.8263183649  0.7699527157
H  -1.6047292887  2.8907331106 -0.6307772075
H   0.7383056634  2.8954575639  0.1240813788
C   2.2137337874  0.8535329141  1.1133551478
C   3.0982848886  0.6559007592 -0.1226957017
H   2.4552749323  0.0922037029  1.8602579104
H   2.4542001168  1.8308527047  1.5463653297
H   4.1347160699  0.9344707457  0.1100867255
H   2.7909996201  1.3169012464 -0.9399879267
C   3.2257997413 -0.7512482538 -0.6600333460
O   3.8166497591 -1.0416167881 -1.6713592002
O   2.7237267512 -1.6935241295  0.1679788207
H   2.9681730136 -2.5472612855 -0.2270850799
27
Scanning combination 18/73: [180.0877]  Energy = -652.9197225575
C  -3.4546289661 -1.5512723507  0.1079077191
C  -2.1606055967 -1.5306430494  0.5561706721
C  -1.3782656550 -0.3496958767  0.4550301151
C  -1.9579796862  0.8157036717 -0.1075519055
C  -3.3043729684  0.7676438399 -0.5605406788
C  -4.0329130001 -0.3876049841 -0.4588883738
H   0.4005982456 -1.2189945354  1.3088382784
H  -4.0449478155 -2.4607209638  0.1789044419
H  -1.7082908213 -2.4197984515  0.9923898671
C  -0.0267401523 -0.3129999325  0.8893891292
C  -1.1652666088  1.9907836119 -0.2037393321
H  -3.7421448196  1.6641223323 -0.9946479336
H  -5.0591145101 -0.4219237997 -0.8152619001
C   0.1368334390  1.9884918439  0.2139179787
C   0.7367757095  0.8200104407  0.7598433885
H  -1.6073551489  2.8918149381 -0.6242621155
H   0.7387986740  2.8904256806  0.1207318780
C   2.2111879523  0.8498012351  1.1038772743
C   3.1082111459  0.6609078622 -0.1242435875
H   2.4519817332  0.0858946648  1.8473637895
H   2.4473899671  1.8214298180  1.5493395245
H   4.1302992510  0.9972208695  0.0905330496
H   2.7650178502  1.2814481083 -0.9596984221
C   3.2834299217 -0.7511985794 -0.6371833948
O   3.9621361621 -1.0378062356 -1.5923640235
O   2.6807053334 -1.6939226919  0.1187591735
H   2.9183913933 -2.5461894794 -0.2843070428
27
Scanning combination 19/73: [185.0877]  Energy = -652.9194042538
C  -3.4620506590 -1.5489513255  0.1149338218
C  -2.1668734776 -1.5292891123  0.5592944391
C  -1.3822100859 -0.3498167172  0.4556610717
C  -1.9625612677  0.8167028802 -0.1016707672
C  -3.3096407581  0.7696994746 -0.5526327250
C  -4.0403829957 -0.3848886202 -0.4511265357
H   0.4002725529 -1.2228608818  1.2973237952
H  -4.0553310364 -2.4567136390  0.1914256870
H  -1.7137566577 -2.4191141410  0.9927336558
C  -0.0262811093 -0.3171136086  0.8782543017
C  -1.1657094801  1.9891653824 -0.2036489582
H  -3.7473367223  1.6665179212 -0.9859208691
H  -5.0696390282 -0.4162613414 -0.7992646037
C   0.1399300886  1.9837847303  0.2040820400
C   0.7397238294  0.8137484242  0.7465103780
H  -1.6104591409  2.8880735170 -0.6246942048
H   0.7400767579  2.8886203265  0.1126381156
C   2.2120334309  0.8422672041  1.1023414582
C   3.1188188239  0.6628352921 -0.1214075775
H   2.4427778345  0.0800592686  1.8528695824
H   2.4367991270  1.8157553777  1.5496888543
H   4.1236191022  1.0516529493  0.0808212350
H   2.7493839823  1.2449181569 -0.9740189186
C   3.3295016468 -0.7495423594 -0.6203847527
O   4.0848243298 -1.0423694655 -1.5146079929
O   2.6341301128 -1.6866561379  0.0573380456
H   2.8914739075 -2.5402773037 -0.3285493425
27
Scanning combination 20/73: [190.0877]  Energy = -652.9187984023
C  -3.4614453428 -1.5482662431  0.1157615983
C  -2.1655235019 -1.5294306367  0.5587877119
C  -1.3807216765 -0.3503648298  0.4554006231
C  -1.9604404733  0.8158735450 -0.1037986201
C  -3.3087911040  0.7703155945 -0.5522740897
C  -4.0402176731 -0.3835939889 -0.4485980388
H   0.4011000660 -1.2246224756  1.2970950685
H  -4.0544472299 -2.4560215656  0.1915134539
H  -1.7135526632 -2.4192543732  0.9932739727
C  -0.0265987299 -0.3174259915  0.8825874766
C  -1.1639626327  1.9882640043 -0.2031848385
H  -3.7475345586  1.6669501794 -0.9855290069
H  -5.0688404086 -0.4160453451 -0.7996212981
C   0.1403387191  1.9835426616  0.2077614442
C   0.7386551834  0.8145286890  0.7546077597
H  -1.6075168744  2.8878161283 -0.6234994773
H   0.7412119706  2.8869482120  0.1121166547
C   2.2130780222  0.8420684205  1.1031489168
C   3.0994897789  0.6648899933 -0.1366213879
H   2.4523540027  0.0786315196  1.8498163712
H   2.4451873685  1.8132045608  1.5529438634
H   4.1096093792  1.0381546202  0.0655034905
H   2.7317208727  1.2639866247 -0.9795739183
C   3.3227063237 -0.7490376967 -0.6265905613
O   4.1293270190 -1.0481882009 -1.4736130714
O   2.6062822419 -1.6834347910  0.0328613782
H   2.8942870727 -2.5384842629 -0.3273783225
27
Scanning combination 21/73: [195.0877]  Energy = -652.9186737243
C  -3.4675610985 -1.5457115528  0.1233046614
C  -2.1711356898 -1.5287432044  0.5639137525
C  -1.3850641152 -0.3505326560  0.4591303089
C  -1.9646563681  0.8168303732 -0.0984214719
C  -3.3134849777  0.7729272233 -0.5441442036
C  -4.0460586731 -0.3805293813 -0.4396460754
H   0.3987764828 -1.2246968572  1.2974277058
H  -4.0608202103 -2.4533312480  0.1985325297
H  -1.7173927661 -2.4195541743  0.9949662128
C  -0.0294667641 -0.3193253500  0.8801832175
C  -1.1666197797  1.9880276526 -0.2021829005
H  -3.7508652480  1.6695635741 -0.9780391292
H  -5.0747897394 -0.4112918513 -0.7884185792
C   0.1395182299  1.9813414081  0.2034737648
C   0.7383430885  0.8099727815  0.7434554575
H  -1.6102861878  2.8881794689 -0.6214377172
H   0.7414567680  2.8842795395  0.1113579704
C   2.2110393918  0.8367391399  1.0940064230
C   3.1168876441  0.6649253657 -0.1350013107
H   2.4424718287  0.0716422945  1.8416242953
H   2.4366834574  1.8046221936  1.5534372697
H   4.1015356322  1.1128708901  0.0361914640
H   2.7005730781  1.1972118587 -0.9999370094
C   3.3841224039 -0.7525069923 -0.5908868364
O   4.2635522461 -1.0626014381 -1.3576453880
O   2.5613522618 -1.6693494474 -0.0411902921
H   2.8434498073 -2.5282152687 -0.3973507180
27
Scanning combination 22/73: [200.0877]  Energy = -652.9182322625
C  -3.4681882077 -1.5451044615  0.1243651837
C  -2.1707430717 -1.5293653879  0.5632965934
C  -1.3848706634 -0.3517344865  0.4581675203
C  -1.9636543948  0.8161871015 -0.1003149104
C  -3.3132808481  0.7730097277 -0.5442596552
C  -4.0459024895 -0.3793223310 -0.4377685408
H   0.3998592338 -1.2275199420  1.2943006651
H  -4.0617283138 -2.4518231999  0.2016275055
H  -1.7180884408 -2.4196997599  0.9964318060
C  -0.0307439305 -0.3195884445  0.8837642758
C  -1.1664720008  1.9874701673 -0.2017439631
H  -3.7517169638  1.6707706319 -0.9749215810
H  -5.0755169252 -0.4096719677 -0.7849437875
C   0.1386757114  1.9813548361  0.2068909383
C   0.7363212356  0.8105553366  0.7510890963
H  -1.6076806258  2.8887202541 -0.6211235918
H   0.7438477222  2.8807759812  0.1073446729
C   2.2117046950  0.8375530556  1.0915271069
C   3.1025409896  0.6674961055 -0.1453135201
H   2.4535696593  0.0698921880  1.8317693372
H   2.4453666584  1.8026985852  1.5504898665
H   4.0929557902  1.1048010068  0.0206567742
H   2.6798991404  1.2117184913 -0.9991158230
C   3.3801375243 -0.7509197272 -0.5901915586
O   4.3075015209 -1.0639966460 -1.2964552279
O   2.5328127593 -1.6701352708 -0.0814477833
H   2.8505366196 -2.5304018014 -0.4030029703
27
Scanning combination 23/73: [205.0877]  Energy = -652.9181108777
C  -3.4725437501 -1.5442349907  0.1309011827
C  -2.1746484249 -1.5280537367  0.5693291408
C  -1.3886559194 -0.3496224057  0.4634967365
C  -1.9679324981  0.8187528608 -0.0933631442
C  -3.3171258721  0.7748105777 -0.5376938142
C  -4.0505634596 -0.3776417849 -0.4310130380
H   0.3961805562 -1.2267471980  1.2964316666
H  -4.0684983293 -2.4504654350  0.2077313476
H  -1.7216495156 -2.4206013094  0.9982117630
C  -0.0317039889 -0.3199088497  0.8809960871
C  -1.1691667062  1.9888170510 -0.1995392783
H  -3.7533747455  1.6735918177 -0.9692270021
H  -5.0814236383 -0.4053477315 -0.7762667119
C   0.1382660308  1.9784914243  0.2018090415
C   0.7374230432  0.8077181679  0.7433954612
H  -1.6112139467  2.8887628267 -0.6212708707
H   0.7432814026  2.8784786940  0.1073040400
C   2.2124390261  0.8346199425  1.0895073581
C   3.1136085498  0.6665911460 -0.1464860607
H   2.4445804713  0.0619650263  1.8303734669
H   2.4360125304  1.8033017858  1.5495795732
H   4.0814982606  1.1567927766 -0.0033409860
H   2.6574776746  1.1527390347 -1.0203889120
C   3.4276128710 -0.7547327852 -0.5602086157
O   4.4074431979 -1.0816858574 -1.1844009667
O   2.5023275166 -1.6531172410 -0.1640605577
H   2.8265353381 -2.5171510098 -0.4671181441
27
Scanning combination 24/73: [210.0877]  Energy = -652.9177086059
C  -3.4730757292 -1.5425696249  0.1318581949
C  -2.1748737449 -1.5277269613  0.5683771065
C  -1.3874834797 -0.3506536398  0.4620597530
C  -1.9665136305  0.8171690676 -0.0953436284
C  -3.3170581646  0.7755927515 -0.5366421670
C  -4.0513937967 -0.3762982532 -0.4290436808
H   0.3972269397 -1.2282918455  1.2951386032
H  -4.0679480225 -2.4490210581  0.2093186887
H  -1.7224305294 -2.4192624895  0.9992470385
C  -0.0316083937 -0.3202127122  0.8840735775
C  -1.1668051109  1.9870800091 -0.1997860617
H  -3.7553147157  1.6734017594 -0.9677601240
H  -5.0816572081 -0.4054491685 -0.7747852962
C   0.1395124999  1.9786357465  0.2048944186
C   0.7368428364  0.8083514867  0.7490291845
H  -1.6093316776  2.8875505962 -0.6193974278
H   0.7443578345  2.8787873100  0.1040089645
C   2.2133693783  0.8321450000  1.0877958190
C   3.0981626729  0.6675774627 -0.1609890651
H   2.4532927333  0.0644270487  1.8313298411
H   2.4451301298  1.7975143482  1.5491912289
H   4.0700778564  1.1464353732 -0.0124717918
H   2.6408089781  1.1726818516 -1.0235189092
C   3.4241718824 -0.7531520863 -0.5676693070
O   4.4400974371 -1.0862869563 -1.1288420491
O   2.4882322267 -1.6517065847 -0.1992689261
H   2.8303051906 -2.5189146158 -0.4727696628
27
Scanning combination 25/73: [215.0877]  Energy = -652.9177594189
C  -3.4771831030 -1.5418421739  0.1379985293
C  -2.1784718920 -1.5271965413  0.5742574757
C  -1.3910705124 -0.3499559307  0.4671800104
C  -1.9702935291  0.8187781353 -0.0891727923
C  -3.3203766978  0.7768488749 -0.5306111515
C  -4.0547316912 -0.3746974718 -0.4227519216
H   0.3931376998 -1.2273491031  1.3000957596
H  -4.0736663793 -2.4474085624  0.2161526372
H  -1.7257876450 -2.4201075859  1.0029944836
C  -0.0334303561 -0.3206859666  0.8831873310
C  -1.1709003249  1.9884649554 -0.1976599484
H  -3.7561434977  1.6760968394 -0.9613915235
H  -5.0860011038 -0.4013435170 -0.7660296820
C   0.1372993472  1.9774284962  0.2009677072
C   0.7367563822  0.8065306412  0.7408316276
H  -1.6127939490  2.8889590008 -0.6184975902
H   0.7442007496  2.8758111890  0.1042186439
C   2.2121997905  0.8339204682  1.0813674807
C   3.1106143314  0.6667177862 -0.1595580758
H   2.4471892637  0.0603961280  1.8208361246
H   2.4362652323  1.8000568670  1.5467963294
H   4.0623722767  1.1903826885 -0.0392728577
H   2.6253634213  1.1086270904 -1.0413969118
C   3.4645675701 -0.7567893557 -0.5254183693
O   4.5231117587 -1.1052061093 -0.9917853195
O   2.4665869617 -1.6338180569 -0.2948927014
H   2.8132914679 -2.5021924271 -0.5575278368
27
Scanning combination 26/73: [220.0877]  Energy = -652.9174593989
C  -3.4775279998 -1.5402343689  0.1392692655
C  -2.1785064686 -1.5267638200  0.5736232051
C  -1.3900654104 -0.3505794935  0.4657240383
C  -1.9690372735  0.8176196625 -0.0911666069
C  -3.3204017256  0.7775137310 -0.5297912661
C  -4.0557166895 -0.3735452076 -0.4206554415
H   0.3946951094 -1.2284797898  1.2990193597
H  -4.0731623468 -2.4460634134  0.2178431714
H  -1.7266474469 -2.4187599139  1.0040293842
C  -0.0333707276 -0.3204151166  0.8861054600
C  -1.1687611295  1.9869875972 -0.1977944930
H  -3.7584233528  1.6758974090 -0.9599515879
H  -5.0866068548 -0.4015768468 -0.7645064641
C   0.1384453953  1.9776280177  0.2039306315
C   0.7361094639  0.8069605328  0.7468938547
H  -1.6114770911  2.8875982232 -0.6168941191
H   0.7447355901  2.8765132596  0.1005244273
C   2.2135676260  0.8297022507  1.0790593117
C   3.0988980010  0.6674546118 -0.1738164814
H   2.4554704654  0.0623421630  1.8235767482
H   2.4462779811  1.7937815081  1.5432366959
H   4.0528782367  1.1849064696 -0.0462996930
H   2.6077601663  1.1283051394 -1.0429973173
C   3.4629798573 -0.7561253951 -0.5340195206
O   4.5477140306 -1.1093455547 -0.9303685122
O   2.4569696362 -1.6325733644 -0.3372504119
H   2.8174616136 -2.5063097906 -0.5625518894
27
Scanning combination 27/73: [225.0877]  Energy = -652.9174997661
C  -3.4809669943 -1.5390939924  0.1461121848
C  -2.1815976606 -1.5265624082  0.5794384205
C  -1.3921767437 -0.3505340138  0.4691863754
C  -1.9722991520  0.8181458280 -0.0858225826
C  -3.3235398982  0.7783918997 -0.5230688160
C  -4.0590383956 -0.3724142998 -0.4137256788
H   0.3926497942 -1.2272860948  1.3036093691
H  -4.0774580795 -2.4445726066  0.2254165908
H  -1.7295879829 -2.4190350067  1.0083413145
C  -0.0337658716 -0.3203419718  0.8835902356
C  -1.1724011024  1.9876356444 -0.1974699874
H  -3.7597635856  1.6774636273 -0.9535662940
H  -5.0903643377 -0.3988308403 -0.7555995151
C   0.1363051819  1.9770357878  0.1983307199
C   0.7348541391  0.8062938532  0.7378036768
H  -1.6158465627  2.8884209504 -0.6148899707
H   0.7441408034  2.8752752772  0.0988374649
C   2.2108636699  0.8342544356  1.0709529894
C   3.1096814499  0.6665717012 -0.1739199255
H   2.4485508798  0.0655772094  1.8143769180
H   2.4372157625  1.7979150091  1.5406654187
H   4.0477719968  1.2139782617 -0.0693898377
H   2.6026736305  1.0728341841 -1.0601789885
C   3.4952400589 -0.7592901134 -0.4925152974
O   4.6064247612 -1.1280333493 -0.7881961395
O   2.4545629592 -1.6139515124 -0.4288393687
H   2.8166987275 -2.4881595739 -0.6492883295
27
Scanning combination 28/73: [230.0877]  Energy = -652.9172243182
C  -3.4803032819 -1.5383694264  0.1471637544
C  -2.1810611096 -1.5258601695  0.5787271481
C  -1.3913734489 -0.3507773210  0.4687628318
C  -1.9709881035  0.8178133719 -0.0872926842
C  -3.3231579831  0.7790051014 -0.5231460061
C  -4.0595772630 -0.3719108662 -0.4122022017
H   0.3946319965 -1.2279226023  1.3020085464
H  -4.0771453369 -2.4436927732  0.2272693453
H  -1.7297979917 -2.4185378811  1.0092926546
C  -0.0339006324 -0.3204721006  0.8870016665
C  -1.1715388992  1.9868488619 -0.1966159261
H  -3.7612916130  1.6774457239 -0.9521782501
H  -5.0908678469 -0.3988076079 -0.7537920833
C   0.1372579631  1.9779975584  0.2017068488
C   0.7354342616  0.8070920571  0.7439513335
H  -1.6144735509  2.8874672256 -0.6146501137
H   0.7442502117  2.8752173967  0.0959030153
C   2.2138194091  0.8302823795  1.0686204137
C   3.1001531117  0.6667548210 -0.1874858651
H   2.4587141376  0.0647399690  1.8144423198
H   2.4480950804  1.7934969061  1.5335737392
H   4.0353194881  1.2183663964 -0.0762140760
H   2.5823657027  1.0865504555 -1.0618329877
C   3.4976723221 -0.7583816269 -0.4990395576
O   4.6236484406 -1.1359320850 -0.7219953127
O   2.4526221461 -1.6097070867 -0.4740650803
H   2.8224076376 -2.4903042729 -0.6505958931
27
Scanning combination 29/73: [235.0877]  Energy = -652.9170164768
C  -3.4803695801 -1.5384888428  0.1494420390
C  -2.1805146330 -1.5264079349  0.5808971162
C  -1.3910398021 -0.3505685362  0.4715604570
C  -1.9711533970  0.8178650720 -0.0846844200
C  -3.3229647609  0.7790108949 -0.5211660646
C  -4.0591786975 -0.3715395225 -0.4096035361
H   0.3960586281 -1.2287186660  1.3024136474
H  -4.0777994448 -2.4432180592  0.2310584175
H  -1.7296616474 -2.4193014600  1.0109813988
C  -0.0326118422 -0.3202989152  0.8884105972
C  -1.1719167153  1.9877252229 -0.1939289996
H  -3.7606776272  1.6784308248 -0.9494831558
H  -5.0911944883 -0.3974435559 -0.7493002795
C   0.1365889617  1.9771794052  0.2029893589
C   0.7364048503  0.8068245850  0.7425341926
H  -1.6136207342  2.8880249175 -0.6152098664
H   0.7449727000  2.8736090402  0.0963926395
C   2.2155812642  0.8336578488  1.0659453367
C   3.0976557335  0.6708058219 -0.1926876104
H   2.4640464524  0.0622529957  1.8048590643
H   2.4526382858  1.7970286358  1.5274359082
H   4.0314212463  1.2311947372 -0.0972014355
H   2.5699617479  1.0705720388 -1.0676986852
C   3.4989771647 -0.7564809408 -0.4817620495
O   4.6363379267 -1.1389437888 -0.6161005054
O   2.4507392973 -1.6048101612 -0.5501812169
H   2.8323280517 -2.4893269736 -0.6776038480
27
Scanning combination 30/73: [240.0877]  Energy = -652.9169594798
C  -3.4810858204 -1.5385944309  0.1557171682
C  -2.1803887292 -1.5262308884  0.5854781830
C  -1.3909034300 -0.3503818844  0.4734841249
C  -1.9731221371  0.8183464627 -0.0807896307
C  -3.3250709504  0.7789149314 -0.5157656584
C  -4.0606367763 -0.3715668530 -0.4031942290
H   0.3999737917 -1.2261575949  1.3010425082
H  -4.0789425617 -2.4431604146  0.2379920022
H  -1.7296347031 -2.4199618567  1.0142803215
C  -0.0304430653 -0.3192641777  0.8840910182
C  -1.1759755707  1.9889569054 -0.1937830700
H  -3.7617650253  1.6790765446 -0.9438589456
H  -5.0933033358 -0.3967731878 -0.7412668791
C   0.1337402124  1.9788193980  0.1978920526
C   0.7356902466  0.8097318447  0.7362493620
H  -1.6195710969  2.8890557407 -0.6137117066
H   0.7418239306  2.8755238237  0.0955172298
C   2.2133447703  0.8421949569  1.0623348748
C   3.1004685960  0.6664142262 -0.1946045742
H   2.4592530661  0.0699451684  1.8013408379
H   2.4448696658  1.8094621849  1.5233641594
H   4.0294376842  1.2336341105 -0.1071101964
H   2.5741823892  1.0414243267 -1.0803702013
C   3.5109336938 -0.7630033753 -0.4532176002
O   4.6513141556 -1.1593732268 -0.4927970479
O   2.4605943604 -1.5925280282 -0.6258684264
H   2.8415553293 -2.4773102085 -0.7524473504
27
Scanning combination 31/73: [245.0877]  Energy = -652.9174913023
C  -3.4907722346 -1.5421453272  0.1915990005
C  -2.1796780824 -1.5246650306  0.5872267297
C  -1.3947549407 -0.3491899051  0.4473268417
C  -1.9956295147  0.8160542018 -0.0934368928
C  -3.3591692695  0.7718305987 -0.4931688427
C  -4.0884170266 -0.3799340585 -0.3580884442
H   0.4180907630 -1.2180384570  1.2359923373
H  -4.0841505738 -2.4467486784  0.2965525307
H  -1.7182875011 -2.4127730452  1.0158580077
C  -0.0252582254 -0.3116652146  0.8300985657
C  -1.2043802420  1.9888885963 -0.2211611936
H  -3.8120109247  1.6691179463 -0.9104675477
H  -5.1288739330 -0.4107926195 -0.6708231371
C   0.1119788212  1.9882551974  0.1513575377
C   0.7324953023  0.8232863295  0.6812626379
H  -1.6631003518  2.8900992579 -0.6231056027
H   0.7020769407  2.8971813952  0.0477043236
C   2.2007840053  0.8682830289  1.0501460641
C   3.1717574611  0.6378029242 -0.1333118124
H   2.4117748279  0.1522629734  1.8545749930
H   2.4184696087  1.8618779389  1.4573688181
H   4.1193192132  1.1438695384  0.0621388305
H   2.7397654312  1.0623999525 -1.0470464768
C   3.5385950102 -0.8030403821 -0.4035011703
O   4.6493063613 -1.2641525745 -0.2842237703
O   2.4996265802 -1.5510136217 -0.8268319047
H   2.8588905145 -2.4443685245 -0.9621673868
27
Scanning combination 32/73: [250.0877]  Energy = -652.9174868021
C  -3.4891505447 -1.5420697362  0.1934469881
C  -2.1776534657 -1.5261987463  0.5863033682
C  -1.3920440555 -0.3509592051  0.4472814215
C  -1.9912408722  0.8145298085 -0.0942578124
C  -3.3553857634  0.7717340603 -0.4922052317
C  -4.0861977646 -0.3792158039 -0.3552043330
H   0.4214212558 -1.2207023010  1.2347318137
H  -4.0827095013 -2.4468851904  0.2983398688
H  -1.7160000491 -2.4153806159  1.0124087764
C  -0.0232639239 -0.3137699588  0.8321944658
C  -1.1995096707  1.9874990504 -0.2216383675
H  -3.8087388654  1.6687947750 -0.9093143831
H  -5.1270130806 -0.4095782460 -0.6659430284
C   0.1156121370  1.9875829783  0.1547628362
C   0.7338491963  0.8213390327  0.6845718167
H  -1.6584516089  2.8870028623 -0.6270501943
H   0.7074788990  2.8953888606  0.0480236872
C   2.2040245245  0.8653579243  1.0476046135
C   3.1657441428  0.6459631283 -0.1464274203
H   2.4269890915  0.1454400667  1.8449291178
H   2.4209775752  1.8555977214  1.4605806358
H   4.1112834596  1.1608465974  0.0431183000
H   2.7268858636  1.0721246663 -1.0537474645
C   3.5302767242 -0.7983073484 -0.4002470767
O   4.6225058388 -1.2729439388 -0.2011538096
O   2.5062972010 -1.5402527452 -0.8706197082
H   2.8554246136 -2.4438389767 -0.9636244228
27
Scanning combination 33/73: [255.0877]  Energy = -652.9174644206
C  -3.4871928032 -1.5423408799  0.1945335025
C  -2.1746316072 -1.5275077398  0.5859758978
C  -1.3888898521 -0.3529936357  0.4475755513
C  -1.9875566832  0.8131157183 -0.0934247783
C  -3.3522692226  0.7711297864 -0.4906235719
C  -4.0835711898 -0.3785558384 -0.3529601436
H   0.4249075128 -1.2234702011  1.2349464984
H  -4.0810339724 -2.4464040415  0.2999721422
H  -1.7135708474 -2.4176926686  1.0103516437
C  -0.0198599074 -0.3164172953  0.8330085382
C  -1.1957000261  1.9855973849 -0.2213993536
H  -3.8048566116  1.6686077873 -0.9079123089
H  -5.1254312042 -0.4081038029 -0.6620210198
C   0.1188127788  1.9861256851  0.1563193889
C   0.7374903580  0.8201531241  0.6875794597
H  -1.6533210467  2.8847159062 -0.6288609392
H   0.7117694995  2.8929521207  0.0488165351
C   2.2084000603  0.8659175804  1.0449818923
C   3.1595183463  0.6537997696 -0.1588633116
H   2.4389757326  0.1400047592  1.8346284109
H   2.4260428311  1.8531754178  1.4641710865
H   4.1038906612  1.1724767723  0.0233844091
H   2.7080541010  1.0706598961 -1.0642357700
C   3.5213715488 -0.7943703472 -0.3890797311
O   4.5896333846 -1.2834611092 -0.1101230854
O   2.5192794794 -1.5243591113 -0.9201724990
H   2.8556655243 -2.4364253142 -0.9717300113
27
Scanning combination 34/73: [260.0877]  Energy = -652.9174489830
C  -3.4844377071 -1.5425816807  0.1958793775
C  -2.1718420641 -1.5290022746  0.5859771948
C  -1.3851828388 -0.3545511908  0.4479488745
C  -1.9840018789  0.8116182719 -0.0924502804
C  -3.3486525997  0.7708525713 -0.4889862025
C  -4.0810752543 -0.3785650648 -0.3506865998
H   0.4290083301 -1.2255253261  1.2351882348
H  -4.0790965707 -2.4463664403  0.3015300472
H  -1.7109559830 -2.4199513523  1.0088830148
C  -0.0155726450 -0.3179897105  0.8333539572
C  -1.1921422995  1.9842344669 -0.2208013217
H  -3.8008447538  1.6684856256 -0.9060314350
H  -5.1231694309 -0.4069472208 -0.6583971792
C   0.1221660041  1.9848199774  0.1578205954
C   0.7402499588  0.8193778946  0.6898876251
H  -1.6493262076  2.8828328107 -0.6297061065
H   0.7156996087  2.8912492760  0.0493583515
C   2.2120452852  0.8680438525  1.0429946367
C   3.1534383832  0.6593529399 -0.1702034063
H   2.4502173076  0.1371986855  1.8261107989
H   2.4300078619  1.8531253449  1.4671372027
H   4.0962824767  1.1838318896  0.0029906986
H   2.6915756653  1.0656202143 -1.0745871218
C   3.5122746965 -0.7917766014 -0.3752757829
O   4.5500675185 -1.2958803710 -0.0177475177
O   2.5363124016 -1.5096615938 -0.9684664023
H   2.8578605579 -2.4279352861 -0.9869554408
27
Scanning combination 35/73: [265.0877]  Energy = -652.9174079750
C  -3.4816582345 -1.5430081978  0.1971859868
C  -2.1683203332 -1.5302628103  0.5861437896
C  -1.3814421771 -0.3561332286  0.4483725894
C  -1.9803669604  0.8102947614 -0.0913765613
C  -3.3453431435  0.7701278716 -0.4871658312
C  -4.0780509562 -0.3784144407 -0.3484253646
H   0.4338545971 -1.2269101014  1.2349808177
H  -4.0764889390 -2.4463482350  0.3031436008
H  -1.7078879272 -2.4218805984  1.0078150927
C  -0.0114527601 -0.3194634446  0.8336581685
C  -1.1888411996  1.9831531038 -0.2198765641
H  -3.7970260773  1.6683017279 -0.9039023283
H  -5.1206876062 -0.4062691105 -0.6550003389
C   0.1247865174  1.9843173397  0.1594960826
C   0.7431497379  0.8194327246  0.6922035946
H  -1.6459827883  2.8812949575 -0.6299172051
H   0.7191466512  2.8902376921  0.0497825840
C   2.2154754836  0.8713237069  1.0411515448
C   3.1476469566  0.6637193314 -0.1794748601
H   2.4614009513  0.1373877832  1.8190494726
H   2.4340308887  1.8545815723  1.4682618270
H   4.0893908783  1.1943752784 -0.0163994598
H   2.6763742104  1.0572792350 -1.0838911239
C   3.5013393613 -0.7907029154 -0.3604198218
O   4.5021645325 -1.3086185663  0.0750554761
O   2.5579458826 -1.4958968020 -1.0178889329
H   2.8623612449 -2.4201847995 -1.0063606276
27
Scanning combination 36/73: [270.0877]  Energy = -652.9173447196
C  -3.4785039111 -1.5434162797  0.1984866101
C  -2.1647519246 -1.5312544002  0.5863717669
C  -1.3775044630 -0.3572328113  0.4487334580
C  -1.9769830129  0.8092509345 -0.0902052117
C  -3.3421877917  0.7695764488 -0.4853952093
C  -4.0752276304 -0.3786350001 -0.3463815373
H   0.4389731689 -1.2277332432  1.2345350437
H  -4.0736214926 -2.4465390155  0.3046575256
H  -1.7045865173 -2.4233506366  1.0070357776
C  -0.0070366478 -0.3201914665  0.8337163716
C  -1.1859956567  1.9824131115 -0.2187718274
H  -3.7937599817  1.6679810899 -0.9018034117
H  -5.1182081100 -0.4060809789 -0.6520265952
C   0.1272214470  1.9844294734  0.1613527702
C   0.7460135765  0.8202262970  0.6950955804
H  -1.6432518904  2.8800118456 -0.6295182334
H   0.7217985999  2.8900290957  0.0504062554
C   2.2187699248  0.8751305676  1.0402436902
C   3.1415759532  0.6665823605 -0.1882732141
H   2.4724799377  0.1400908198  1.8139210779
H   2.4383501671  1.8580317745  1.4683089243
H   4.0815315803  1.2023158562 -0.0344915160
H   2.6626159303  1.0481188702 -1.0928997988
C   3.4909980495 -0.7913396734 -0.3465061782
O   4.4488935436 -1.3225483779  0.1625736084
O   2.5830432563 -1.4835279948 -1.0642737988
H   2.8688824246 -2.4127257204 -1.0266669711
27
Scanning combination 37/73: [275.0877]  Energy = -652.9172733728
C  -3.4745496147 -1.5440199245  0.1999319034
C  -2.1605046531 -1.5323788102  0.5866499330
C  -1.3729903550 -0.3582612099  0.4491189556
C  -1.9733663214  0.8082715062 -0.0888112509
C  -3.3386759472  0.7689449460 -0.4834371925
C  -4.0718819701 -0.3791817285 -0.3441258947
H   0.4452078739 -1.2279511051  1.2337033050
H  -4.0699377476 -2.4470238614  0.3063764409
H  -1.7002630138 -2.4248957213  1.0063540131
C  -0.0017760028 -0.3206481500  0.8331204538
C  -1.1834492595  1.9821733328 -0.2171994120
H  -3.7901761551  1.6675847387 -0.8993579705
H  -5.1150455940 -0.4062293758 -0.6488117217
C   0.1295067627  1.9850229453  0.1634239409
C   0.7492275738  0.8215189989  0.6973445312
H  -1.6409287634  2.8792033222 -0.6288178420
H   0.7240752512  2.8904291770  0.0517386307
C   2.2220996511  0.8810453149  1.0397562836
C   3.1351278747  0.6686705987 -0.1950575786
H   2.4833469122  0.1450392532  1.8100193812
H   2.4418842252  1.8642331457  1.4672511109
H   4.0752630634  1.2074553989 -0.0528650369
H   2.6503889687  1.0368958164 -1.1014126803
C   3.4755543399 -0.7927228240 -0.3304628335
O   4.3838195612 -1.3365464329  0.2508484273
O   2.6124039119 -1.4725176275 -1.1116789805
H   2.8786067066 -2.4063867745 -1.0521122003
27
Scanning combination 38/73: [280.0877]  Energy = -652.9171947543
C  -3.4697242624 -1.5448513676  0.2014776466
C  -2.1550131317 -1.5335887985  0.5867789943
C  -1.3676633492 -0.3591070828  0.4492232583
C  -1.9693884559  0.8072883780 -0.0874523113
C  -3.3348830241  0.7679834480 -0.4811976432
C  -4.0678389114 -0.3800414804 -0.3415493325
H   0.4525923887 -1.2273674348  1.2323733292
H  -4.0649821415 -2.4477654481  0.3083832402
H  -1.6946634269 -2.4263040979  1.0055269433
C   0.0041517051 -0.3203488042  0.8323424629
C  -1.1811264173  1.9824557190 -0.2154952779
H  -3.7864610775  1.6668877298 -0.8964553392
H  -5.1112717047 -0.4070126752 -0.6452125717
C   0.1311848962  1.9868325903  0.1659217373
C   0.7520504726  0.8242768304  0.7000401036
H  -1.6394268737  2.8787534303 -0.6276907995
H   0.7257092550  2.8923163959  0.0535435617
C   2.2245029715  0.8890391559  1.0394789126
C   3.1290110748  0.6691720823 -0.1999022285
H   2.4938308068  0.1541568736  1.8082759993
H   2.4451735784  1.8734737714  1.4640762316
H   4.0700482653  1.2086733767 -0.0700909469
H   2.6395994172  1.0247963035 -1.1083438661
C   3.4554821845 -0.7962477656 -0.3132450926
O   4.3060030889 -1.3526544552  0.3383221181
O   2.6470236119 -1.4634473680 -1.1611567716
H   2.8920126950 -2.4012198105 -1.0818993917
27
Scanning combination 39/73: [285.0877]  Energy = -652.9200439159
C  -3.3832215695 -1.5941568492  0.2203629030
C  -2.0619315252 -1.5375589514  0.5727484549
C  -1.3201832218 -0.3369386746  0.4152429886
C  -1.9738757427  0.8099031418 -0.0998009694
C  -3.3485365594  0.7253275941 -0.4564242535
C  -4.0364276678 -0.4490572293 -0.3003181719
H   0.5297748284 -1.1401358627  1.1841686623
H  -3.9414959406 -2.5186036228  0.3402415028
H  -1.5571830906 -2.4141208418  0.9746749754
C   0.0553566380 -0.2530845009  0.7710882529
C  -1.2285200598  2.0115590053 -0.2326914229
H  -3.8469385405  1.6079921698 -0.8517696575
H  -5.0861328726 -0.5128623334 -0.5738967374
C   0.0920591425  2.0603102914  0.1251962133
C   0.7668679721  0.9138009206  0.6301650901
H  -1.7297483674  2.8996935521 -0.6136198402
H   0.6363028760  2.9990443150  0.0409255090
C   2.2290823113  1.0158601469  1.0076770750
C   3.2337821453  0.5698900116 -0.0750347863
H   2.4347389073  0.4316328422  1.9111864058
H   2.4537118838  2.0559283421  1.2625126721
H   4.2353887261  0.8601643364  0.2577951551
H   3.0213194550  1.0604841595 -1.0287939523
C   3.2578485800 -0.9305490619 -0.2482038479
O   3.7759764715 -1.7056854774  0.5211308567
O   2.6311065322 -1.3391006100 -1.3690299518
H   2.7162205566 -2.3063102385 -1.3867689481
27
Scanning combination 40/73: [290.0877]  Energy = -652.9203470800
C  -3.3809357712 -1.5952277841  0.2210263977
C  -2.0580163383 -1.5389548009  0.5693197956
C  -1.3160073984 -0.3370803787  0.4158369618
C  -1.9699088498  0.8097451754 -0.0984213225
C  -3.3448901062  0.7249599977 -0.4550405755
C  -4.0340235584 -0.4497558252 -0.3002205769
H   0.5362682746 -1.1440214667  1.1808911480
H  -3.9419677932 -2.5190942307  0.3406702827
H  -1.5564949401 -2.4155429525  0.9747820192
C   0.0591480115 -0.2536407933  0.7765459291
C  -1.2234391770  2.0107237200 -0.2315870565
H  -3.8416420692  1.6081965901 -0.8511542478
H  -5.0846879581 -0.5117632204 -0.5735509284
C   0.0965575402  2.0595966072  0.1289931006
C   0.7697496640  0.9144195166  0.6406062107
H  -1.7245754573  2.8972608148 -0.6153440516
H   0.6411944887  2.9975111624  0.0362940393
C   2.2329339440  1.0141661043  1.0174874482
C   3.2251158773  0.5748201983 -0.0830679842
H   2.4407857721  0.4197110185  1.9178827275
H   2.4607329439  2.0553607228  1.2683125318
H   4.2283196621  0.8767753798  0.2318865240
H   2.9988770654  1.0540659315 -1.0403871792
C   3.2491821016 -0.9257887765 -0.2446931859
O   3.7062016791 -1.6995577344  0.5633693616
O   2.6817202548 -1.3346213199 -1.3962837417
H   2.7126048062 -2.3047666271 -1.3816396677
27
Scanning combination 41/73: [295.0877]  Energy = -652.9209185545
C  -3.3732356488 -1.5969740037  0.2214599755
C  -2.0503591248 -1.5426842624  0.5727780105
C  -1.3085169760 -0.3400208271  0.4230783064
C  -1.9606276634  0.8076682676 -0.0926956863
C  -3.3340437508  0.7238669994 -0.4519316454
C  -4.0240036637 -0.4493596353 -0.2986193332
H   0.5491662395 -1.1471945270  1.1787027271
H  -3.9357438008 -2.5198202678  0.3394251693
H  -1.5493253235 -2.4219289401  0.9735740611
C   0.0663987634 -0.2556463650  0.7823898137
C  -1.2154741589  2.0089939250 -0.2307362334
H  -3.8262039702  1.6093621091 -0.8491327158
H  -5.0744225327 -0.5087725249 -0.5723029454
C   0.1032053943  2.0576625206  0.1298422841
C   0.7740859264  0.9149488624  0.6459179979
H  -1.7140760134  2.8940473670 -0.6210984720
H   0.6525784189  2.9923456722  0.0349738440
C   2.2366106116  1.0241660127  1.0222254525
C   3.2103179642  0.5847757160 -0.0910805266
H   2.4451161851  0.4139319486  1.9091477947
H   2.4536941444  2.0634484094  1.2917239879
H   4.2315440697  0.8650831905  0.1916983858
H   2.9695795554  1.0586314169 -1.0467369969
C   3.2006865472 -0.9164638597 -0.2347931273
O   3.5777893838 -1.6823135698  0.6210234814
O   2.7136032667 -1.3364550397 -1.4176324058
H   2.7524821330 -2.3071187587 -1.3969758810
27
Scanning combination 42/73: [300.0877]  Energy = -652.9211481516
C  -3.3699743038 -1.5965671855  0.2218161790
C  -2.0481346455 -1.5425336345  0.5724611167
C  -1.3061933947 -0.3400641924  0.4240409602
C  -1.9577846033  0.8072898643 -0.0930203790
C  -3.3310861258  0.7238805670 -0.4516543543
C  -4.0218773606 -0.4494185655 -0.2979466035
H   0.5524524386 -1.1475900683  1.1788212310
H  -3.9323472586 -2.5196509914  0.3394215347
H  -1.5466940416 -2.4214519694  0.9741351154
C   0.0676835578 -0.2543508745  0.7877541898
C  -1.2124139260  2.0082142351 -0.2298762081
H  -3.8246236789  1.6086359152 -0.8484074435
H  -5.0718754314 -0.5095241112 -0.5718594496
C   0.1056453576  2.0592470280  0.1349263475
C   0.7747159641  0.9165936568  0.6560432797
H  -1.7108479642  2.8919619525 -0.6223409574
H   0.6537837316  2.9939990499  0.0338783110
C   2.2399751016  1.0230950897  1.0272385573
C   3.2003737400  0.5856306664 -0.0951945846
H   2.4587332511  0.4115311635  1.9102008812
H   2.4646294401  2.0601314070  1.2934610800
H   4.2205805524  0.8827682639  0.1779612368
H   2.9488600807  1.0511075242 -1.0504932228
C   3.1930040799 -0.9160015936 -0.2344521732
O   3.5004885012 -1.6819885264  0.6485841914
O   2.7740219814 -1.3382409263 -1.4424500377
H   2.7558829702 -2.3090264768 -1.3973297332
27
Scanning combination 43/73: [305.0877]  Energy = -652.9215152417
C  -3.3633357697 -1.5983509652  0.2229276358
C  -2.0421525853 -1.5418881283  0.5782538603
C  -1.3040758841 -0.3363131436  0.4348162866
C  -1.9545684315  0.8097004722 -0.0861423068
C  -3.3260230973  0.7233439456 -0.4497290959
C  -4.0145736711 -0.4508427474 -0.2974039525
H   0.5563647667 -1.1442450842  1.1854479344
H  -3.9246915276 -2.5223475382  0.3380801543
H  -1.5381965248 -2.4206414237  0.9769772113
C   0.0692884505 -0.2501813805  0.7992353260
C  -1.2107187509  2.0113538654 -0.2261233105
H  -3.8176267225  1.6084656017 -0.8484809115
H  -5.0644534851 -0.5109811169 -0.5722783411
C   0.1059582232  2.0621471632  0.1405221147
C   0.7742074211  0.9222399345  0.6639786095
H  -1.7056439580  2.8933689678 -0.6269073450
H   0.6579662399  2.9946489278  0.0417468374
C   2.2401352804  1.0338799846  1.0294678452
C   3.1845914298  0.5838919082 -0.1010751578
H   2.4577748713  0.4149889454  1.9061548325
H   2.4622504745  2.0721563998  1.3005575475
H   4.2187560111  0.8556425334  0.1468939014
H   2.9267635824  1.0523687075 -1.0537945130
C   3.1543311862 -0.9191100644 -0.2324063128
O   3.3766159131 -1.6822340288  0.6792306720
O   2.8359508427 -1.3447792902 -1.4684285419
H   2.8279281075 -2.3152399739 -1.4237946554
27
Scanning combination 44/73: [310.0877]  Energy = -652.9219637368
C  -3.3570201930 -1.5987768385  0.2255813728
C  -2.0378049937 -1.5368633030  0.5872423810
C  -1.3034665087 -0.3287544437  0.4466591985
C  -1.9562343664  0.8144846480 -0.0777657058
C  -3.3258592857  0.7229215869 -0.4473554638
C  -4.0104151955 -0.4538493384 -0.2979774235
H   0.5629078057 -1.1331252664  1.1920176348
H  -3.9151369521 -2.5250349027  0.3371897632
H  -1.5310208259 -2.4136179711  0.9871010761
C   0.0690828050 -0.2405146730  0.8125130815
C  -1.2148072846  2.0174414279 -0.2200387024
H  -3.8187800777  1.6062230313 -0.8486584750
H  -5.0590768319 -0.5174020653 -0.5766583551
C   0.1012309919  2.0715219575  0.1493652886
C   0.7705759948  0.9340477890  0.6769424231
H  -1.7098525650  2.8971821243 -0.6261009489
H   0.6527488077  3.0037693893  0.0468699968
C   2.2389578986  1.0408270009  1.0300568269
C   3.1691545225  0.5700855438 -0.1016673916
H   2.4582811531  0.4300152186  1.9132815685
H   2.4721940018  2.0802756316  1.2863470403
H   4.2091767808  0.8313929431  0.1345454346
H   2.9068049732  1.0393048977 -1.0544294755
C   3.1121493035 -0.9323200131 -0.2350429766
O   3.2374586334 -1.7029471226  0.6886682980
O   2.9364945399 -1.3510175360 -1.5012399612
H   2.9287263555 -2.3214450705 -1.4608884518
27
Scanning combination 45/73: [315.0877]  Energy = -652.9221681211
C  -3.3565025832 -1.5980256234  0.2261329458
C  -2.0374737562 -1.5362003178  0.5868888941
C  -1.3030652473 -0.3282403613  0.4462460192
C  -1.9547246202  0.8147739410 -0.0784563736
C  -3.3249599093  0.7233176906 -0.4462823056
C  -4.0101922577 -0.4532253572 -0.2967486597
H   0.5620850352 -1.1323343122  1.1927379988
H  -3.9136837063 -2.5247089562  0.3372083905
H  -1.5310780096 -2.4124643708  0.9879223955
C   0.0678898500 -0.2391762420  0.8162433049
C  -1.2119970770  2.0173487846 -0.2188466859
H  -3.8190029620  1.6052664537 -0.8485434860
H  -5.0583784899 -0.5186088290 -0.5774196424
C   0.1036097899  2.0727789279  0.1530199999
C   0.7703628240  0.9348656212  0.6842961925
H  -1.7091441677  2.8956770646 -0.6247336134
H   0.6532305263  3.0065950487  0.0465252326
C   2.2405058916  1.0365471083  1.0356757100
C   3.1574425624  0.5703975078 -0.1069708115
H   2.4680372202  0.4272799277  1.9176299231
H   2.4789211093  2.0749737845  1.2867877916
H   4.1950503587  0.8464552831  0.1215260593
H   2.8941477073  1.0324557980 -1.0617348058
C   3.1215828093 -0.9322875411 -0.2365477255
O   3.1863133996 -1.7012851076  0.6956465855
O   2.9900578914 -1.3542539808 -1.5071751078
H   2.9307129036 -2.3228745993 -1.4612760727
27
Scanning combination 46/73: [320.0877]  Energy = -652.9225104455
C  -3.3547573824 -1.5980066001  0.2278749220
C  -2.0380041096 -1.5318297883  0.5957992125
C  -1.3071714619 -0.3207109410  0.4597549996
C  -1.9584576356  0.8207556163 -0.0696625550
C  -3.3260817851  0.7246156094 -0.4449714013
C  -4.0082972836 -0.4543364514 -0.2980649795
H   0.5556908437 -1.1217692739  1.2127683199
H  -3.9101857419 -2.5262550375  0.3374219301
H  -1.5283657247 -2.4065860215  0.9966644904
C   0.0613333008 -0.2309226936  0.8324114707
C  -1.2173897577  2.0245479469 -0.2102345481
H  -3.8197642804  1.6057649020 -0.8492865096
H  -5.0553616081 -0.5210149466 -0.5813997675
C   0.0985339786  2.0785180604  0.1603218194
C   0.7661699733  0.9409772078  0.6885856261
H  -1.7105257428  2.9030993399 -0.6204254451
H   0.6516267528  3.0100953047  0.0583620740
C   2.2387984997  1.0421750198  1.0314633458
C   3.1461005579  0.5598645892 -0.1115347861
H   2.4589884031  0.4307071649  1.9125767197
H   2.4775107334  2.0819814157  1.2829487080
H   4.1958978405  0.8201426012  0.0851826178
H   2.8675370359  1.0193503881 -1.0634095057
C   3.0959803418 -0.9429061565 -0.2414157058
O   3.0687809840 -1.7131931296  0.6915221457
O   3.0923450071 -1.3592323959 -1.5206491373
H   3.0517142294 -2.3286918373 -1.4856287437
27
Scanning combination 47/73: [325.0877]  Energy = -652.9229141478
C  -3.3593897172 -1.5945796031  0.2321414325
C  -2.0450997951 -1.5227515701  0.6084108027
C  -1.3163510152 -0.3109608810  0.4713031623
C  -1.9685545042  0.8289425452 -0.0602505098
C  -3.3350415638  0.7268111262 -0.4412574926
C  -4.0138441738 -0.4543559825 -0.3008022637
H   0.5434310775 -1.1067205552  1.2343233325
H  -3.9122350686 -2.5242449048  0.3391318157
H  -1.5357994005 -2.3955795244  1.0145033664
C   0.0506323041 -0.2193879283  0.8455774777
C  -1.2260759345  2.0321130023 -0.2013600530
H  -3.8295205307  1.6051362508 -0.8509576341
H  -5.0600210256 -0.5252989729 -0.5895241416
C   0.0906369043  2.0874592630  0.1684361362
C   0.7589862930  0.9485765399  0.6968976486
H  -1.7236515722  2.9091509560 -0.6107614835
H   0.6406297180  3.0207245516  0.0605825978
C   2.2347885289  1.0340432723  1.0291152525
C   3.1342486674  0.5439459479 -0.1153530986
H   2.4591955060  0.4308138550  1.9184300647
H   2.4885571397  2.0732127754  1.2608126682
H   4.1814850386  0.8169383558  0.0766797840
H   2.8621446903  0.9964440873 -1.0741422737
C   3.0959834087 -0.9582358152 -0.2542659928
O   2.9928295353 -1.7404803935  0.6629757910
O   3.2276061556 -1.3631911617 -1.5313838603
H   3.1608786833 -2.3322909849 -1.5135636449
27
Scanning combination 48/73: [330.0877]  Energy = -652.9231913541
C  -3.3647640561 -1.5906926463  0.2373457334
C  -2.0518905197 -1.5187801303  0.6163577335
C  -1.3227153222 -0.3071065645  0.4801046555
C  -1.9720447695  0.8324018239 -0.0561431404
C  -3.3368960609  0.7312789468 -0.4405311972
C  -4.0161370494 -0.4496540135 -0.2973279072
H   0.5378751626 -1.1029298369  1.2437983708
H  -3.9170900036 -2.5211380211  0.3427059354
H  -1.5433635839 -2.3889873279  1.0286429623
C   0.0424770821 -0.2153120676  0.8595090343
C  -1.2305444718  2.0364599285 -0.1940389643
H  -3.8316162608  1.6099235013 -0.8496401542
H  -5.0590260952 -0.5226425812 -0.5935376258
C   0.0863623833  2.0909895849  0.1747920739
C   0.7516486314  0.9519404059  0.7049181191
H  -1.7262887525  2.9147352943 -0.6016452364
H   0.6399600653  3.0217095893  0.0642199515
C   2.2297021342  1.0316337597  1.0228174553
C   3.1143929903  0.5368774338 -0.1287081493
H   2.4596495378  0.4280769807  1.9072879082
H   2.4901823004  2.0678851065  1.2600278325
H   4.1648671278  0.8016145986  0.0558553874
H   2.8333871046  0.9948366272 -1.0818216536
C   3.0828181760 -0.9665725548 -0.2707264453
O   2.9089344119 -1.7512688894  0.6335186108
O   3.3210609031 -1.3690045516 -1.5328625772
H   3.3090314065 -2.3399513695 -1.5083794475
27
Scanning combination 49/73: [335.0877]  Energy = -652.9233353887
C  -3.3740625167 -1.5860788718  0.2415586878
C  -2.0617405540 -1.5135242644  0.6261280201
C  -1.3323558722 -0.3018059873  0.4879137223
C  -1.9808974442  0.8375688082 -0.0491835281
C  -3.3455212021  0.7353624735 -0.4370562709
C  -4.0237974677 -0.4464420671 -0.2970222446
H   0.5262493825 -1.0996074882  1.2518485537
H  -3.9268130673 -2.5159602118  0.3477164682
H  -1.5533159203 -2.3840319918  1.0372478997
C   0.0348641611 -0.2127645154  0.8612896248
C  -1.2372485269  2.0401493572 -0.1886293269
H  -3.8384280510  1.6127994765 -0.8500777758
H  -5.0673425872 -0.5187875288 -0.5937034480
C   0.0809047811  2.0917169364  0.1782252162
C   0.7482073162  0.9508102725  0.7036687203
H  -1.7313626969  2.9196953831 -0.5971607719
H   0.6351989328  3.0220182509  0.0704397447
C   2.2293162579  1.0244599942  1.0202677502
C   3.1153854272  0.5303790119 -0.1334010628
H   2.4534074788  0.4174092464  1.9050412136
H   2.4900830505  2.0619220789  1.2540287122
H   4.1642574669  0.8198721467  0.0282641139
H   2.8109817891  0.9705218247 -1.0878433600
C   3.1033372039 -0.9747673239 -0.2733861779
O   2.8598627431 -1.7645081712  0.6102489945
O   3.4305761348 -1.3687961077 -1.5189949626
H   3.3915742632 -2.3398557696 -1.5145791984
27
Scanning combination 50/73: [340.0877]  Energy = -652.9234426324
C  -3.3841287184 -1.5790368805  0.2486129257
C  -2.0718141742 -1.5094676122  0.6304655944
C  -1.3396638426 -0.3000141019  0.4926591625
C  -1.9858954025  0.8404376848 -0.0446496700
C  -3.3501895956  0.7409296955 -0.4331515518
C  -4.0319917604 -0.4387008700 -0.2906103926
H   0.5176318261 -1.1015274562  1.2551943259
H  -3.9374252541 -2.5086883401  0.3532397971
H  -1.5651792433 -2.3792432490  1.0453081297
C   0.0267764173 -0.2132213093  0.8680402545
C  -1.2397273030  2.0415488875 -0.1825254511
H  -3.8422660095  1.6182516693 -0.8476939173
H  -5.0735063077 -0.5117268793 -0.5921465824
C   0.0788390983  2.0917216102  0.1817970198
C   0.7420836725  0.9488977781  0.7068527395
H  -1.7334004846  2.9205869307 -0.5908476708
H   0.6335230542  3.0222409648  0.0717744860
C   2.2232941089  1.0163999748  1.0144901139
C   3.0975078070  0.5249393776 -0.1453342283
H   2.4538930868  0.4099773852  1.8967019300
H   2.4924893344  2.0498113305  1.2538118510
H   4.1427762916  0.8272912548  0.0015882410
H   2.7865637648  0.9607877973 -1.0998082755
C   3.1073993889 -0.9798083165 -0.2841397095
O   2.8068743981 -1.7758829898  0.5750788254
O   3.5366969327 -1.3676213655 -1.4998217696
H   3.5105115862 -2.3394086835 -1.4954253271
27
Scanning combination 51/73: [345.0877]  Energy = -652.9237637375
C  -3.4350207894 -1.5567439929  0.2708773211
C  -2.1206954712 -1.4983904134  0.6475055665
C  -1.3755570170 -0.2985963496  0.4957880443
C  -2.0165339529  0.8479788951 -0.0360084537
C  -3.3840079984  0.7610929887 -0.4161812645
C  -4.0750370455 -0.4127249566 -0.2707832205
H   0.4810737569 -1.1189329980  1.2420060410
H  -3.9975440709 -2.4801507862  0.3816740940
H  -1.6229855514 -2.3716002259  1.0668422891
C  -0.0017024041 -0.2268609599  0.8524622494
C  -1.2609924668  2.0424624031 -0.1778105647
H  -3.8697333271  1.6429777448 -0.8289274482
H  -5.1182713623 -0.4765549117 -0.5691369140
C   0.0615684331  2.0782457016  0.1730727380
C   0.7238412004  0.9268176444  0.6829947780
H  -1.7520640452  2.9292453522 -0.5739745760
H   0.6234654697  3.0032238575  0.0580720373
C   2.2074221356  0.9853359400  0.9883827452
C   3.1050338434  0.5145726337 -0.1641024078
H   2.4357081251  0.3704601849  1.8654581314
H   2.4748238295  2.0171299383  1.2385185945
H   4.1358019969  0.8594893747  0.0008582912
H   2.7868493015  0.9293759925 -1.1261175051
C   3.1933888907 -0.9880037866 -0.2968856991
O   2.8543652254 -1.7998558361  0.5322770622
O   3.7518093756 -1.3485517889 -1.4700367712
H   3.7942927342 -2.3190793362 -1.4644819610
27
Scanning combination 52/73: [350.0877]  Energy = -652.9236140255
C  -3.4382342499 -1.5539495813  0.2767669215
C  -2.1203676505 -1.5023058528  0.6422681908
C  -1.3702467994 -0.3058922840  0.4847699174
C  -2.0097695534  0.8431013174 -0.0440204829
C  -3.3808017684  0.7625831982 -0.4126554403
C  -4.0765939214 -0.4076406291 -0.2612093657
H   0.4880908575 -1.1315184093  1.2207359886
H  -4.0040203282 -2.4748292537  0.3913151467
H  -1.6255119039 -2.3778243783  1.0600381407
C   0.0037419691 -0.2365218795  0.8409332161
C  -1.2521769039  2.0362982715 -0.1867756418
H  -3.8661727834  1.6460693146 -0.8220488020
H  -5.1213743502 -0.4679198734 -0.5546752621
C   0.0696054371  2.0711432912  0.1667369624
C   0.7271030960  0.9209027154  0.6842037093
H  -1.7432153614  2.9260221679 -0.5757183291
H   0.6332529827  2.9954985658  0.0537424880
C   2.2088145036  0.9864052015  0.9971237049
C   3.0951371092  0.5216392422 -0.1652094987
H   2.4416646751  0.3710606349  1.8724759200
H   2.4694184263  2.0189716728  1.2510657090
H   4.1228789921  0.8836073341 -0.0222009022
H   2.7582491963  0.9226623839 -1.1270774534
C   3.1949351567 -0.9814622506 -0.2870480437
O   2.7992371951 -1.7957487097  0.5147016191
O   3.7982162101 -1.3415879616 -1.4367268783
H   3.7955404294 -2.3132604134 -1.4499532286
27
Scanning combination 53/73: [355.0877]  Energy = -652.9233528380
C  -3.4391922670 -1.5526380702  0.2762634084
C  -2.1201725085 -1.5013324598  0.6398047506
C  -1.3718646605 -0.3030229723  0.4914354624
C  -2.0120215180  0.8461194435 -0.0360194305
C  -3.3815845241  0.7645401421 -0.4103018040
C  -4.0786441063 -0.4048156473 -0.2585346159
H   0.4879083027 -1.1312920351  1.2194606053
H  -4.0075278449 -2.4713684081  0.3973070617
H  -1.6206311925 -2.3787280495  1.0480842940
C   0.0022336960 -0.2345636634  0.8460851231
C  -1.2529622871  2.0371335169 -0.1821043369
H  -3.8643495795  1.6490939555 -0.8212288440
H  -5.1280582140 -0.4597771623 -0.5381217119
C   0.0682440330  2.0728148096  0.1739513470
C   0.7257700133  0.9228969751  0.6928410034
H  -1.7402717008  2.9194760844 -0.5920727731
H   0.6316805155  2.9961846264  0.0551473979
C   2.2090171264  0.9814418030  0.9997992580
C   3.0862434869  0.5204893330 -0.1737157900
H   2.4406912866  0.3570793017  1.8713696814
H   2.4743861264  2.0134085336  1.2539442397
H   4.1100927470  0.8965741961 -0.0522512060
H   2.7303590339  0.9206381002 -1.1315491002
C   3.1887901697 -0.9832110170 -0.2968731532
O   2.7286793396 -1.8000423184  0.4684909779
O   3.8690376942 -1.3440620926 -1.4030385389
H   3.8614472165 -2.3155558954 -1.4208255245
27
Scanning combination 54/73: [360.0877]  Energy = -652.9229525034
C  -3.4426640320 -1.5498249832  0.2838051481
C  -2.1230916359 -1.5001880259  0.6443152221
C  -1.3726559144 -0.3033596763  0.4862190920
C  -2.0107473997  0.8466584650 -0.0429468378
C  -3.3838033547  0.7678563212 -0.4051669835
C  -4.0810920111 -0.4012436673 -0.2492386033
H   0.4818217549 -1.1286560721  1.2285102298
H  -4.0087375862 -2.4715502977  0.3942477622
H  -1.6273925632 -2.3797288574  1.0532005720
C   0.0000527986 -0.2349085828  0.8445573786
C  -1.2505688164  2.0383933610 -0.1888537002
H  -3.8702051882  1.6519128095 -0.8124798558
H  -5.1271056901 -0.4595977819 -0.5388622017
C   0.0709846998  2.0711317118  0.1670650623
C   0.7249564647  0.9216440437  0.6896684020
H  -1.7393642533  2.9297450916 -0.5773078894
H   0.6365660546  2.9946658684  0.0591018201
C   2.2084146477  0.9797523589  0.9979574251
C   3.0725987471  0.5180345009 -0.1825836959
H   2.4437150056  0.3523741118  1.8650602040
H   2.4738570025  2.0101657475  1.2577972387
H   4.0992055984  0.8945941336 -0.0720185829
H   2.7061861825  0.9020592273 -1.1405662939
C   3.1894457277 -0.9841869786 -0.2992748168
O   2.6816319121 -1.8091996205  0.4245988419
O   3.9335237818 -1.3338537034 -1.3669232480
H   3.9130026774 -2.3042620226 -1.3988070953
27
Scanning combination 55/73: [365.0877]  Energy = -652.9224209640
C  -3.4431258949 -1.5491786549  0.2765286452
C  -2.1245792045 -1.4982821767  0.6419569690
C  -1.3777200414 -0.2983997036  0.4987672937
C  -2.0175030409  0.8514494443 -0.0269607821
C  -3.3857290093  0.7703237626 -0.4049749118
C  -4.0826556288 -0.4003151547 -0.2562599132
H   0.4816361809 -1.1309004235  1.2220361501
H  -4.0137536572 -2.4663605206  0.4015824749
H  -1.6232212972 -2.3739368044  1.0521341655
C  -0.0037405320 -0.2320894502  0.8546298023
C  -1.2569111288  2.0412476233 -0.1734381477
H  -3.8673485727  1.6568306970 -0.8131355433
H  -5.1333323719 -0.4518411548 -0.5311601023
C   0.0654556415  2.0731375853  0.1807531506
C   0.7221395828  0.9236835806  0.7018427278
H  -1.7420112820  2.9222929537 -0.5888466536
H   0.6330778479  2.9920530565  0.0512938532
C   2.2099385442  0.9737578248  0.9987150984
C   3.0683565038  0.5142967777 -0.1905755909
H   2.4391012085  0.3468371628  1.8699655184
H   2.4795334577  2.0057457798  1.2496439012
H   4.0876184427  0.9103835738 -0.0976119999
H   2.6824574025  0.8954169539 -1.1443546431
C   3.1949667212 -0.9896086330 -0.3051322953
O   2.6315555455 -1.8162833744  0.3746736548
O   3.9959368694 -1.3388439916 -1.3313961638
H   3.9733105393 -2.3097403379 -1.3782509297
27
Scanning combination 56/73: [370.0877]  Energy = -652.9220409397
C  -3.4492858461 -1.5443578354  0.2831721466
C  -2.1307789948 -1.4961914344  0.6471769113
C  -1.3814919417 -0.2987785091  0.4978988450
C  -2.0170321114  0.8523961045 -0.0307991138
C  -3.3879053690  0.7744911898 -0.3992474204
C  -4.0861230406 -0.3943620868 -0.2472954642
H   0.4758031791 -1.1285067916  1.2311847358
H  -4.0168300129 -2.4637563470  0.4001891251
H  -1.6329632637 -2.3733346668  1.0581853163
C  -0.0094142688 -0.2330328868  0.8570663096
C  -1.2550629871  2.0428473570 -0.1745066823
H  -3.8730366180  1.6598662685 -0.8040767189
H  -5.1337809663 -0.4496539188 -0.5305931244
C   0.0668748221  2.0737096589  0.1789078297
C   0.7184326547  0.9213864940  0.6976673496
H  -1.7384886102  2.9313290486 -0.5744405438
H   0.6378171669  2.9932678100  0.0616513220
C   2.2046179370  0.9682516931  0.9880840179
C   3.0562422215  0.5081902271 -0.2023078817
H   2.4420005559  0.3421635644  1.8550920678
H   2.4793284382  1.9948753542  1.2512768957
H   4.0725484801  0.9125635274 -0.1344189180
H   2.6469093893  0.8760227862 -1.1506520492
C   3.1892933279 -0.9924028080 -0.3177723962
O   2.5748629017 -1.8270076386  0.3042229021
O   4.0793594379 -1.3279854293 -1.2736724502
H   4.0588387332 -2.2976003011 -1.3319785475
27
Scanning combination 57/73: [375.0877]  Energy = -652.9215065990
C  -3.4576835716 -1.5382357061  0.2902555573
C  -2.1384505932 -1.4920567430  0.6540347949
C  -1.3887948388 -0.2944849467  0.5071923970
C  -2.0231888257  0.8570431749 -0.0207296422
C  -3.3936691956  0.7808467911 -0.3912289959
C  -4.0934108248 -0.3872995750 -0.2400889804
H   0.4701567693 -1.1311964226  1.2237556971
H  -4.0249728146 -2.4588087914  0.4002206535
H  -1.6395164778 -2.3722138287  1.0565923117
C  -0.0155363361 -0.2312604709  0.8611868835
C  -1.2601019965  2.0458784725 -0.1675303839
H  -3.8746497533  1.6652225710 -0.8034006870
H  -5.1394368472 -0.4429868606 -0.5304441834
C   0.0621871316  2.0752540045  0.1841753740
C   0.7131739948  0.9215151445  0.7005758450
H  -1.7451517258  2.9319469940 -0.5706184325
H   0.6333338138  2.9938414639  0.0612139325
C   2.2013619563  0.9615217795  0.9822526639
C   3.0439012754  0.5013554861 -0.2159501485
H   2.4443191402  0.3374411921  1.8492363113
H   2.4851785469  1.9857170444  1.2437382925
H   4.0576889898  0.9142943007 -0.1588499373
H   2.6197040225  0.8625260908 -1.1600829129
C   3.1947285221 -0.9985603635 -0.3325559586
O   2.5427294333 -1.8446423359  0.2336963020
O   4.1562499055 -1.3213952610 -1.2222929220
H   4.1501010941 -2.2913202374 -1.2782752578
27
Scanning combination 58/73: [380.0877]  Energy = -652.9207490538
C  -3.4605665978 -1.5379742375  0.2886934978
C  -2.1414862055 -1.4912570005  0.6536661248
C  -1.3892621793 -0.2949644076  0.5035998384
C  -2.0246013043  0.8582950054 -0.0214933679
C  -3.3961415902  0.7822349738 -0.3907772692
C  -4.0957374169 -0.3866960187 -0.2421625146
H   0.4681732743 -1.1304121028  1.2277489467
H  -4.0307254937 -2.4565177144  0.4048460423
H  -1.6463389515 -2.3704928862  1.0633984071
C  -0.0152850574 -0.2327384701  0.8570999736
C  -1.2600572604  2.0472952026 -0.1650226128
H  -3.8803941990  1.6691332754 -0.7944169672
H  -5.1443216888 -0.4392177430 -0.5245355792
C   0.0632547001  2.0734032456  0.1840116015
C   0.7142063890  0.9199904900  0.6988676209
H  -1.7421564360  2.9380419368 -0.5618676003
H   0.6356886455  2.9915161088  0.0671707154
C   2.2024429996  0.9617965411  0.9814798661
C   3.0367652632  0.4993819881 -0.2240671109
H   2.4417622114  0.3280503279  1.8437554566
H   2.4839035431  1.9890126356  1.2408743975
H   4.0463511913  0.9237810772 -0.1815359417
H   2.6044680860  0.8434390177 -1.1708431019
C   3.2007263965 -1.0008092488 -0.3276714907
O   2.5129442117 -1.8509166423  0.1874972719
O   4.2052055759 -1.3164484588 -1.1721033496
H   4.1853984842 -2.2838717773 -1.2599051791
27
Scanning combination 59/73: [385.0877]  Energy = -652.9201017324
C  -3.4662300034 -1.5314210553  0.2984324983
C  -2.1461027307 -1.4877341344  0.6593341553
C  -1.3954725210 -0.2912999816  0.5109551157
C  -2.0284170736  0.8617344484 -0.0150037386
C  -3.3992239431  0.7886564822 -0.3830072392
C  -4.1002296180 -0.3784344177 -0.2302205931
H   0.4605816679 -1.1351821403  1.2173702624
H  -4.0342324206 -2.4522978448  0.4031833171
H  -1.6458604213 -2.3694358398  1.0574034508
C  -0.0218568539 -0.2310281763  0.8620820164
C  -1.2642723817  2.0495307901 -0.1610968458
H  -3.8772662426  1.6750024455 -0.7951586830
H  -5.1450145394 -0.4329169694 -0.5244942126
C   0.0590806481  2.0758177662  0.1888090601
C   0.7095165858  0.9203800704  0.7053372483
H  -1.7531628236  2.9356496974 -0.5605229281
H   0.6308386893  2.9937667884  0.0662261481
C   2.2008101440  0.9517098713  0.9781602429
C   3.0268717143  0.4926485337 -0.2369460489
H   2.4489739895  0.3307013268  1.8484892295
H   2.4900061788  1.9764614134  1.2347251783
H   4.0316059544  0.9275119858 -0.2076106907
H   2.5637798514  0.8312199995 -1.1721420978
C   3.2057696523 -1.0043558417 -0.3503104352
O   2.4804939586 -1.8597754983  0.1014197624
O   4.2704838855 -1.3147563825 -1.1183223351
H   4.2606502921 -2.2839860696 -1.1962141173
27
Scanning combination 60/73: [390.0877]  Energy = -652.9192940299
C  -3.4681337120 -1.5322850013  0.2918193039
C  -2.1486855596 -1.4881789023  0.6560745792
C  -1.3952072937 -0.2926054820  0.5106276356
C  -2.0293416673  0.8629228101 -0.0123381577
C  -3.4008171346  0.7882668685 -0.3829512208
C  -4.1023750042 -0.3793506502 -0.2359683223
H   0.4670065398 -1.1319486818  1.2235685231
H  -4.0396556392 -2.4493069005  0.4097654603
H  -1.6552532399 -2.3689045324  1.0640138162
C  -0.0205108968 -0.2321053411  0.8618609869
C  -1.2631873135  2.0510909412 -0.1538795946
H  -3.8848751610  1.6754569604 -0.7862219955
H  -5.1518626046 -0.4302345303 -0.5166244593
C   0.0606025038  2.0752681538  0.1924101871
C   0.7096752487  0.9192546171  0.7032316733
H  -1.7398915323  2.9430100703 -0.5534076096
H   0.6363656434  2.9909607978  0.0726937704
C   2.2005375607  0.9544411870  0.9714930194
C   3.0174963809  0.4898858997 -0.2468104533
H   2.4431617773  0.3215755689  1.8330409822
H   2.4898136311  1.9790174941  1.2318566921
H   4.0194981580  0.9331125108 -0.2320534376
H   2.5546501167  0.8136514857 -1.1846963946
C   3.2023118286 -1.0078493646 -0.3444310113
O   2.4487217318 -1.8673247932  0.0481505504
O   4.3099784271 -1.3067760669 -1.0559856693
H   4.2971590666 -2.2706215801 -1.1764909446
27
Scanning combination 61/73: [395.0877]  Energy = -652.9188566510
C  -3.4736651473 -1.5263537975  0.2979076362
C  -2.1539209773 -1.4847168159  0.6611640909
C  -1.4006808219 -0.2895028155  0.5167824188
C  -2.0341564347  0.8660694787 -0.0036691370
C  -3.4050395008  0.7947278814 -0.3744871295
C  -4.1074847332 -0.3728119498 -0.2286012667
H   0.4582015722 -1.1359696386  1.2202610091
H  -4.0442220279 -2.4444175365  0.4106594114
H  -1.6561919685 -2.3657576845  1.0629232446
C  -0.0253984282 -0.2322429812  0.8643327787
C  -1.2674812263  2.0532782385 -0.1468616888
H  -3.8843264926  1.6828435580 -0.7807386730
H  -5.1555699789 -0.4228861337 -0.5128954660
C   0.0570371919  2.0758952369  0.1978875505
C   0.7069369839  0.9172407823  0.7036578685
H  -1.7498875076  2.9428621503 -0.5455514362
H   0.6305174563  2.9930688303  0.0767089740
C   2.1981801151  0.9441416880  0.9629317975
C   3.0126474908  0.4835244543 -0.2605371584
H   2.4447564915  0.3220633530  1.8322238920
H   2.4918304977  1.9686194477  1.2168524551
H   4.0071733478  0.9393666528 -0.2633691021
H   2.5184634651  0.8077056897 -1.1847943380
C   3.2002580710 -1.0131500109 -0.3802815967
O   2.4100246494 -1.8741419800 -0.0728692158
O   4.3746937330 -1.3084040769 -0.9785550041
H   4.3857489256 -2.2740761256 -1.0851481790
27
Scanning combination 62/73: [400.0877]  Energy = -652.9183069620
C  -3.4797741174 -1.5233883298  0.3003976662
C  -2.1601401042 -1.4848365065  0.6626440688
C  -1.4048838824 -0.2910181275  0.5175912195
C  -2.0375334403  0.8667586900  0.0004846250
C  -3.4089486569  0.7973833181 -0.3674445492
C  -4.1131131415 -0.3694068115 -0.2241364883
H   0.4558255722 -1.1389434020  1.2170048506
H  -4.0515729312 -2.4399269319  0.4142236405
H  -1.6649841268 -2.3668274851  1.0657610511
C  -0.0287026803 -0.2349795174  0.8621154736
C  -1.2703521170  2.0546086752 -0.1407528318
H  -3.8893004707  1.6860605819 -0.7694005494
H  -5.1618172225 -0.4175982460 -0.5058251332
C   0.0552379341  2.0757137789  0.2007782875
C   0.7047989090  0.9131083664  0.6986961516
H  -1.7522698657  2.9474120005 -0.5327875654
H   0.6317150725  2.9920108366  0.0821302539
C   2.1982287244  0.9372615785  0.9471066342
C   3.0115210379  0.4826314302 -0.2780560697
H   2.4487332398  0.3167299402  1.8157650034
H   2.4894620590  1.9598250512  1.2063098193
H   4.0035340090  0.9446729729 -0.2807595986
H   2.5093729636  0.8021821816 -1.1980892330
C   3.2004404235 -1.0114520160 -0.3976683425
O   2.3795863397 -1.8670836180 -0.1667353835
O   4.4217130914 -1.3085458186 -0.8921977354
H   4.4390885374 -2.2711819761 -1.0193455675
27
Scanning combination 63/73: [405.0877]  Energy = -652.9177879397
C  -3.4844293297 -1.5211465777  0.3057320230
C  -2.1629514570 -1.4846115277  0.6644161876
C  -1.4064723162 -0.2917937878  0.5177595439
C  -2.0391875783  0.8671029258  0.0026327154
C  -3.4123018093  0.7996801446 -0.3604234796
C  -4.1175356675 -0.3654433904 -0.2159042261
H   0.4541782771 -1.1432562447  1.2090598822
H  -4.0565934879 -2.4376281523  0.4162064253
H  -1.6692652327 -2.3690309214  1.0641792012
C  -0.0296948653 -0.2369372278  0.8596696321
C  -1.2719961906  2.0551497210 -0.1372337919
H  -3.8915441303  1.6894869312 -0.7620468815
H  -5.1660452074 -0.4135056885 -0.5006963587
C   0.0533365057  2.0751275552  0.2028818601
C   0.7038485101  0.9113924327  0.6970608406
H  -1.7561229137  2.9492361296 -0.5246491539
H   0.6304167139  2.9908457978  0.0823272665
C   2.1970630151  0.9346449898  0.9404588665
C   3.0078417796  0.4829388112 -0.2896993529
H   2.4549226983  0.3194646144  1.8109194344
H   2.4923426891  1.9557466938  1.1993970932
H   3.9994781181  0.9442867501 -0.2935673521
H   2.4980326954  0.7990874341 -1.2081012979
C   3.2017488228 -1.0106802089 -0.4135072898
O   2.3621670418 -1.8667333086 -0.2623926285
O   4.4546258368 -1.3086421823 -0.8188395633
H   4.4672870258 -2.2698750419 -0.9568987933
27
Scanning combination 64/73: [410.0877]  Energy = -652.9172758464
C  -3.4871902218 -1.5204832900  0.3091972178
C  -2.1653350474 -1.4849369132  0.6654510056
C  -1.4068052526 -0.2931643805  0.5168118442
C  -2.0408586483  0.8676030804  0.0066090076
C  -3.4144241443  0.8028058314 -0.3550066372
C  -4.1194710809 -0.3633434226 -0.2112791222
H   0.4538633932 -1.1475201641  1.2061372584
H  -4.0604775293 -2.4374062097  0.4191816247
H  -1.6714837213 -2.3701478239  1.0630799137
C  -0.0279593932 -0.2405588494  0.8537787856
C  -1.2732695906  2.0545755371 -0.1340120405
H  -3.8940713501  1.6937593753 -0.7550732535
H  -5.1683366708 -0.4096703313 -0.4934399101
C   0.0529316171  2.0725515664  0.2023394832
C   0.7041108671  0.9097280045  0.6958188282
H  -1.7560379493  2.9504827667 -0.5172779183
H   0.6297899635  2.9881389406  0.0862333575
C   2.1984698425  0.9380506155  0.9368780001
C   3.0010311325  0.4820943997 -0.2997631053
H   2.4583907305  0.3165269517  1.8030049961
H   2.4960672593  1.9620464236  1.1926510124
H   3.9914199820  0.9429648558 -0.3083266747
H   2.4908968645  0.7982673735 -1.2161215314
C   3.1977476882 -1.0105374714 -0.4290604475
O   2.3466714923 -1.8645797232 -0.3565688868
O   4.4769861008 -1.3106046610 -0.7410699927
H   4.4879854142 -2.2684205091 -0.9017167103
27
Scanning combination 65/73: [415.0877]  Energy = -652.9170137499
C  -3.4899923142 -1.5203108057  0.3121944021
C  -2.1668650042 -1.4857142532  0.6644635171
C  -1.4085051915 -0.2936381034  0.5181058934
C  -2.0419342035  0.8685626590  0.0108807177
C  -3.4155745656  0.8041625282 -0.3498682742
C  -4.1213641942 -0.3609772367 -0.2041089364
H   0.4536797026 -1.1497452644  1.2017272702
H  -4.0642622423 -2.4365786982  0.4242242042
H  -1.6742642876 -2.3723202535  1.0598783271
C  -0.0287778180 -0.2424573002  0.8518450915
C  -1.2750148514  2.0567924499 -0.1260680776
H  -3.8955634339  1.6975957531 -0.7441833729
H  -5.1711696411 -0.4058813150 -0.4821320028
C   0.0526422421  2.0727136462  0.2048515196
C   0.7047520818  0.9060514975  0.6914453574
H  -1.7614550624  2.9507734684 -0.5107495743
H   0.6282578999  2.9896868982  0.0885115793
C   2.1994873601  0.9296170069  0.9283115907
C   3.0013253123  0.4830525332 -0.3141549389
H   2.4658569363  0.3147264208  1.7993272565
H   2.4922135079  1.9565952115  1.1733102722
H   3.9909548660  0.9454942129 -0.3226622335
H   2.4768531197  0.8096708258 -1.2191570484
C   3.1916001262 -1.0085699865 -0.4613719794
O   2.3226072508 -1.8461784733 -0.4820854113
O   4.4921126744 -1.3213939528 -0.6476303743
H   4.5198793874 -2.2777593491 -0.8129197618
27
Scanning combination 66/73: [420.0877]  Energy = -652.9169137482
C  -3.4936888713 -1.5203462484  0.3166562100
C  -2.1696706029 -1.4881827889  0.6642027409
C  -1.4103956277 -0.2967242235  0.5170087327
C  -2.0437309881  0.8674173391  0.0139274326
C  -3.4183938346  0.8052795815 -0.3416561207
C  -4.1249998002 -0.3596362030 -0.1955507219
H   0.4501316121 -1.1530942994  1.2055141686
H  -4.0680241521 -2.4366404310  0.4275724156
H  -1.6770958925 -2.3758545982  1.0572228078
C  -0.0299955940 -0.2467051671  0.8496801723
C  -1.2768358425  2.0564154950 -0.1215358575
H  -3.8989104198  1.6998854040 -0.7319289720
H  -5.1749454955 -0.4029545677 -0.4712599358
C   0.0519512917  2.0696947114  0.2062676270
C   0.7055251467  0.8994723268  0.6838437787
H  -1.7641352023  2.9530156960 -0.5004103799
H   0.6282120217  2.9866483987  0.0915389130
C   2.2017350924  0.9220513388  0.9112922881
C   3.0088327967  0.4929839573 -0.3355109189
H   2.4732257293  0.3088219836  1.7816522632
H   2.4892369506  1.9467893518  1.1635363623
H   3.9985451953  0.9563345414 -0.3337394895
H   2.4791965998  0.8278804295 -1.2347239693
C   3.1909584587 -0.9985201089 -0.4905701607
O   2.3123432030 -1.8184447253 -0.6037599190
O   4.4978343419 -1.3365681642 -0.5455355575
H   4.5239068079 -2.2911923630 -0.7223594200
27
Scanning combination 67/73: [425.0877]  Energy = -652.9175315503
C  -3.5058565191 -1.5231474025  0.3313268655
C  -2.1781255903 -1.4978155144  0.6665683584
C  -1.4138997079 -0.3101941526  0.5122798137
C  -2.0514564791  0.8582142533  0.0232667762
C  -3.4311066754  0.8050793383 -0.3140057176
C  -4.1399435588 -0.3579713668 -0.1680421355
H   0.4433955358 -1.1738884509  1.1937115056
H  -4.0815761474 -2.4384643395  0.4408426302
H  -1.6849052039 -2.3893641798  1.0504989878
C  -0.0271325304 -0.2666843243  0.8230833000
C  -1.2822416359  2.0439598428 -0.1180985011
H  -3.9113617087  1.7036887744 -0.6958029121
H  -5.1920942404 -0.3967253613 -0.4366481969
C   0.0520539882  2.0492414089  0.1830894334
C   0.7129434796  0.8756255629  0.6396702525
H  -1.7713394979  2.9488572867 -0.4734648188
H   0.6272035871  2.9672470057  0.0763286959
C   2.2094963867  0.9157041022  0.8652503216
C   3.0507179656  0.5355795315 -0.3765656354
H   2.4872619091  0.2679188800  1.7068029306
H   2.4839721197  1.9338002696  1.1609264651
H   4.0509090553  0.9692729494 -0.3052143515
H   2.5724413865  0.9374620351 -1.2754401115
C   3.1905130985 -0.9565727567 -0.5628217287
O   2.3028586572 -1.7376575338 -0.8084986939
O   4.4656989013 -1.3620483718 -0.3829803683
H   4.4558890252 -2.3278173502 -0.4849509740
27
Scanning combination 68/73: [430.0877]  Energy = -652.9177097235
C  -3.5043173769 -1.5230058866  0.3319715841
C  -2.1752280939 -1.4981560767  0.6639994592
C  -1.4106951872 -0.3108101427  0.5092126585
C  -2.0496638923  0.8572369037  0.0223767158
C  -3.4304978876  0.8045358741 -0.3124236032
C  -4.1396609778 -0.3579690393 -0.1657315388
H   0.4509140657 -1.1748461008  1.1823552653
H  -4.0808794520 -2.4370568679  0.4459976748
H  -1.6842681586 -2.3900383630  1.0488057763
C  -0.0233800765 -0.2662269638  0.8202699859
C  -1.2809230437  2.0430701654 -0.1203077871
H  -3.9124447142  1.7032853244 -0.6916855322
H  -5.1937225283 -0.3961815965 -0.4293178534
C   0.0529435889  2.0508863623  0.1814525073
C   0.7138996963  0.8803253006  0.6459383553
H  -1.7711420225  2.9465020188 -0.4764821215
H   0.6279404106  2.9683886640  0.0666050433
C   2.2118731035  0.9218889999  0.8731985058
C   3.0398720546  0.5326544522 -0.3755104187
H   2.4955028994  0.2753686010  1.7130651255
H   2.4883114268  1.9410549140  1.1657417987
H   4.0430202780  0.9603537621 -0.3061933782
H   2.5601361072  0.9273640617 -1.2742529479
C   3.1820466468 -0.9592176681 -0.5544398626
O   2.3077372416 -1.7305505802 -0.8677941452
O   4.4476342298 -1.3691517036 -0.3221551471
H   4.4591308941 -2.3243182427 -0.4981544996
27
Scanning combination 69/73: [435.0877]  Energy = -652.9181041721
C  -3.4996021673 -1.5261828540  0.3397222157
C  -2.1691718053 -1.5018406268  0.6623053766
C  -1.4066040327 -0.3139337854  0.5068831564
C  -2.0471713067  0.8556229006  0.0247147454
C  -3.4286643278  0.8030922431 -0.3037373686
C  -4.1376149982 -0.3590703152 -0.1520426545
H   0.4611973383 -1.1787369988  1.1680790196
H  -4.0764682458 -2.4400367147  0.4571048268
H  -1.6734823587 -2.3951715288  1.0393192454
C  -0.0174285115 -0.2709197564  0.8089258979
C  -1.2791429734  2.0416557183 -0.1214665534
H  -3.9110327084  1.7036033732 -0.6796122286
H  -5.1936370128 -0.3948805287 -0.4056179051
C   0.0555044561  2.0486913305  0.1772536411
C   0.7173054002  0.8757998576  0.6348544180
H  -1.7691966044  2.9422600139 -0.4857511870
H   0.6286359310  2.9679178226  0.0683501661
C   2.2121141002  0.9169160372  0.8686710698
C   3.0476911652  0.5424143516 -0.3796917496
H   2.4897295997  0.2713842833  1.7131190318
H   2.4823030777  1.9402850949  1.1504105322
H   4.0469304884  0.9774308857 -0.3086473154
H   2.5589695010  0.9591127287 -1.2638001759
C   3.1810787227 -0.9469151630 -0.5952055655
O   2.3212667055 -1.6830687111 -1.0173750824
O   4.4020982595 -1.3980300173 -0.2339234340
H   4.4067788371 -2.3572704798 -0.3906897428
27
Scanning combination 70/73: [440.0877]  Energy = -652.9181850556
C  -3.4992975139 -1.5255843133  0.3413184164
C  -2.1673660068 -1.5022600602  0.6607263611
C  -1.4027571930 -0.3150705239  0.5030544034
C  -2.0449438194  0.8534364395  0.0215009444
C  -3.4290867948  0.8025649221 -0.3013224032
C  -4.1389934657 -0.3591323018 -0.1488269329
H   0.4621475798 -1.1817567248  1.1645260322
H  -4.0764561123 -2.4394823186  0.4580177474
H  -1.6748687350 -2.3963177888  1.0391904646
C  -0.0134169467 -0.2709766303  0.8081883441
C  -1.2766552150  2.0390434989 -0.1244077931
H  -3.9129577449  1.7019696103 -0.6771227729
H  -5.1953494410 -0.3958140257 -0.4040263134
C   0.0571908797  2.0482889200  0.1776241200
C   0.7197028625  0.8788926524  0.6415337628
H  -1.7682730529  2.9412311575 -0.4815910908
H   0.6292985969  2.9671544514  0.0637399899
C   2.2146096971  0.9263843159  0.8724163631
C   3.0336375434  0.5451452863 -0.3851844092
H   2.5043493622  0.2773774704  1.7091825602
H   2.4925499645  1.9450453968  1.1658894768
H   4.0423858651  0.9581139431 -0.3105516523
H   2.5565360732  0.9560511435 -1.2809297101
C   3.1690769830 -0.9471035742 -0.5842654201
O   2.3413305547 -1.6862204796 -1.0619156219
O   4.3788981713 -1.3956709911 -0.1844929418
H   4.3920312155 -2.3436417989 -0.3959854239
27
Scanning combination 71/73: [445.0877]  Energy = -652.9186874334
C  -3.4933450435 -1.5302093850  0.3468317738
C  -2.1599969232 -1.5073319748  0.6597468797
C  -1.3979328156 -0.3186622929  0.5032185679
C  -2.0410495218  0.8513938614  0.0259559564
C  -3.4251904780  0.8003261904 -0.2938048277
C  -4.1341643321 -0.3614656894 -0.1384695803
H   0.4730069080 -1.1842633194  1.1561269491
H  -4.0707747066 -2.4442211767  0.4645144823
H  -1.6641226128 -2.4024097461  1.0322073876
C  -0.0071340526 -0.2755876920  0.8004212124
C  -1.2755429094  2.0387932763 -0.1189354457
H  -3.9082831811  1.7019316464 -0.6664874093
H  -5.1915978858 -0.3964107065 -0.3888427556
C   0.0591331009  2.0466161158  0.1784400250
C   0.7241780171  0.8733274680  0.6292452326
H  -1.7684323656  2.9392502555 -0.4800718999
H   0.6300548213  2.9664462949  0.0695654343
C   2.2179929118  0.9198095460  0.8606246037
C   3.0435258211  0.5573271441 -0.3987168413
H   2.5035777232  0.2707663629  1.6993936486
H   2.4881563673  1.9410599357  1.1468067562
H   4.0487893064  0.9828955531 -0.3215381811
H   2.5547338583  0.9856651297 -1.2779198987
C   3.1684972384 -0.9317469919 -0.6254686690
O   2.3696415020 -1.6337829322 -1.1998396687
O   4.3119318979 -1.4234993302 -0.0984750883
H   4.3146116959 -2.3789763194 -0.2755367763
27
Scanning combination 72/73: [450.0877]  Energy = -652.9186891023
C  -3.4922785925 -1.5296379031  0.3466604459
C  -2.1588339609 -1.5075464110  0.6585181143
C  -1.3941953753 -0.3206464405  0.4992492082
C  -2.0395503339  0.8491563088  0.0252538374
C  -3.4249798878  0.7992423443 -0.2918855898
C  -4.1345970876 -0.3623059745 -0.1383278464
H   0.4752633392 -1.1872469371  1.1516107749
H  -4.0694176182 -2.4431694754  0.4660486225
H  -1.6647959255 -2.4029277514  1.0316438803
C  -0.0020389120 -0.2764544609  0.7966406190
C  -1.2732935716  2.0359714393 -0.1208936894
H  -3.9104751846  1.6996223742 -0.6633235363
H  -5.1927893246 -0.3977403711 -0.3857195511
C   0.0611677538  2.0468398878  0.1782819406
C   0.7265516322  0.8774748240  0.6385542350
H  -1.7669146409  2.9379264264 -0.4755736285
H   0.6314144704  2.9671082218  0.0654773861
C   2.2222565695  0.9297012228  0.8652249138
C   3.0276409197  0.5584769384 -0.4043229944
H   2.5212826414  0.2744871977  1.6933541248
H   2.4980148957  1.9482614511  1.1612250858
H   4.0409227219  0.9609063196 -0.3274629085
H   2.5521656550  0.9847192176 -1.2914952790
C   3.1543984130 -0.9311615035 -0.6184249706
O   2.3960177585 -1.6336140404 -1.2427493706
O   4.2760862010 -1.4231284532 -0.0457497818
H   4.3014028313 -2.3657111423 -0.2799539788
27
Scanning combination 73/73: [455.0877]  Energy = -652.9196288739
C  -3.4756828958 -1.5410758950  0.3542805029
C  -2.1384752965 -1.5204465994  0.6490735140
C  -1.3766235453 -0.3331362622  0.4833910311
C  -2.0297487832  0.8403574291  0.0292181048
C  -3.4179075289  0.7907973476 -0.2725690215
C  -4.1237821465 -0.3723326154 -0.1189443272
H   0.5021875481 -1.2009995024  1.1062856311
H  -4.0496221914 -2.4558383232  0.4747393158
H  -1.6371003391 -2.4167217886  1.0099826082
C   0.0196818176 -0.2890162692  0.7602805512
C  -1.2695711374  2.0312659335 -0.1148597324
H  -3.9066814860  1.6925991340 -0.6357583662
H  -5.1839807129 -0.4077018853 -0.3557440065
C   0.0668441499  2.0441968587  0.1737610453
C   0.7410292226  0.8700070061  0.6078291011
H  -1.7699806814  2.9370189608 -0.4504046830
H   0.6323755007  2.9698009541  0.0794207855
C   2.2348340186  0.9328075700  0.8308823004
C   3.0587660254  0.5961464916 -0.4366620256
H   2.5384991990  0.2609592094  1.6427160675
H   2.4980354584  1.9450620026  1.1557504516
H   4.0723458355  0.9952018729 -0.3383373044
H   2.5922709883  1.0417964352 -1.3196883891
C   3.1482774225 -0.8931232573 -0.6616416779
O   2.4290303744 -1.5525129598 -1.3734804070
O   4.1231348238 -1.4572142988  0.0864811700
H   4.0559434201 -2.4128961748 -0.0757266379
