22
Scanning combination 1/73: [359.9984]  Energy = -463.1707730091
C  -2.3402432413  0.1513296086 -0.2351343802
C  -1.0082651076  0.2131906611 -0.6623345060
C  -0.3059124502  1.4105763666 -0.6688563642
C  -0.9150462688  2.5862953554 -0.2473492552
C  -2.2365739880  2.5448632208  0.1802426875
C  -2.9366799597  1.3461601218  0.1857730623
C  -3.0951393514 -1.1384457671 -0.2286519002
C  -2.4987070281 -2.3332674860 -0.6495662749
C  -3.1987927963 -3.5319795024 -0.6440317573
C  -4.5203392965 -3.5734190832 -0.2164369841
C  -5.1294600870 -2.3977060972  0.2050512530
C  -4.4271280267 -1.2003142422  0.1985630083
H  -0.4933245149 -0.6795426993 -0.9996573614
H   0.7266703593  1.4232550250 -1.0066487240
H  -0.3670261856  3.5226120400 -0.2520593190
H  -2.7296757525  3.4538939779  0.5134361501
H  -3.9657282414  1.3605226194  0.5274916781
H  -1.4696548397 -2.3476507575 -0.9912975079
H  -2.7057055214 -4.4410068277 -0.9772292239
H  -5.0683698430 -4.5097327064 -0.2117395093
H  -6.1620410807 -2.4103649775  0.5428646302
H  -4.9420565327 -0.3075690200  0.5358705638
22
Scanning combination 2/73: [364.9984]  Energy = -463.1704462117
C  -2.3327554460  0.1493725582 -0.2158542968
C  -1.0088892278  0.2183087455 -0.6734040909
C  -0.3049529162  1.4159988657 -0.6767636604
C  -0.9124136915  2.5909951474 -0.2473962034
C  -2.2338982556  2.5486458848  0.1845062979
C  -2.9303164452  1.3468314755  0.2009976441
C  -3.1024297306 -1.1366086694 -0.2480234497
C  -2.4964794831 -2.3393268678 -0.6391982221
C  -3.1981337527 -3.5383651108 -0.6368470023
C  -4.5231068077 -3.5780213810 -0.2163345573
C  -5.1339801006 -2.4004037479  0.2016140882
C  -4.4344373809 -1.2004253532  0.1837425181
H  -0.4913031354 -0.6738557354 -1.0105618918
H   0.7299818004  1.4226065594 -1.0116350620
H  -0.3635599176  3.5283984988 -0.2513485744
H  -2.7335364096  3.4569506455  0.5139467983
H  -3.9644350962  1.3660423548  0.5312637075
H  -1.4671699329 -2.3559833963 -0.9823676908
H  -2.7013617596 -4.4448615756 -0.9756107666
H  -5.0721478273 -4.5153232329 -0.2123032643
H  -6.1658339986 -2.4089441798  0.5457117347
H  -4.9480402383 -0.3103316552  0.5341659078
22
Scanning combination 3/73: [369.9984]  Energy = -463.1713675505
C  -2.3401032000  0.1534891715 -0.2489592531
C  -1.0469393442  0.2438647736 -0.7831840300
C  -0.3428693347  1.4431760963 -0.7760694916
C  -0.9165463762  2.5958800147 -0.2505554407
C  -2.1972024620  2.5252072276  0.2851135339
C  -2.8868770288  1.3191778074  0.3066417182
C  -3.0888283928 -1.1443807232 -0.2176623364
C  -2.4646769325 -2.3612465400 -0.5266769863
C  -3.1734522884 -3.5577155337 -0.5317201504
C  -4.5263012817 -3.5786380279 -0.2099617945
C  -5.1625761394 -2.3816907371  0.0974530830
C  -4.4607192718 -1.1828982996  0.0705400208
H  -0.5789243835 -0.6174490154 -1.2505649564
H   0.6650006338  1.4721289323 -1.1819416437
H  -0.3681020156  3.5341800036 -0.2479918664
H  -2.6713389069  3.4171015291  0.6884154118
H  -3.8579704824  1.2980350213  0.7929937157
H  -1.3993123499 -2.4007659700 -0.7336623054
H  -2.6613149281 -4.4797254470 -0.7943542565
H  -5.0798364839 -4.5139107145 -0.2102654569
H  -6.2164976853 -2.3758818490  0.3661769167
H  -5.0138111055 -0.2662379191  0.2545355062
22
Scanning combination 4/73: [374.9984]  Energy = -463.1724582932
C  -2.3516762979  0.1589245811 -0.2535614653
C  -1.0843964596  0.2553153029 -0.8428382219
C  -0.3805350689  1.4537208312 -0.8536323575
C  -0.9123629251  2.5874594667 -0.2489831436
C  -2.1594659021  2.5057184095  0.3617205655
C  -2.8665380123  1.3090339195  0.3588208460
C  -3.0937390625 -1.1400383041 -0.2057541809
C  -2.4506588417 -2.3591505740 -0.4567683078
C  -3.1483144235 -3.5606576356 -0.4485128050
C  -4.5195942030 -3.5768133471 -0.2163814952
C  -5.1801380027 -2.3738804629  0.0119992176
C  -4.4768012166 -1.1754081978  0.0164255675
H  -0.6409251491 -0.6068897583 -1.3319846412
H   0.5923780807  1.4973991921 -1.3372925024
H  -0.3602710650  3.5231908325 -0.2520587275
H  -2.5867830186  3.3793159643  0.8478414573
H  -3.8266607664  1.2762206220  0.8661480674
H  -1.3793700050 -2.3865866131 -0.6336847881
H  -2.6135671612 -4.4904219994 -0.6280338905
H  -5.0667523917 -4.5151489158 -0.2154006779
H  -6.2534461393 -2.3660672589  0.1857016231
H  -5.0295817032 -0.2535362374  0.1745297988
22
Scanning combination 5/73: [379.9984]  Energy = -463.1728949270
C  -2.3414704460  0.1527850160 -0.2333009482
C  -1.0871434976  0.2552930040 -0.8488472216
C  -0.3844072721  1.4538646140 -0.8597593437
C  -0.9144565293  2.5860647530 -0.2502715243
C  -2.1586328089  2.5026191782  0.3668045802
C  -2.8600049596  1.3027122541  0.3760752253
C  -3.0975997642 -1.1376448281 -0.2288322347
C  -2.4479783456 -2.3590104117 -0.4506575868
C  -3.1461254634 -3.5599039225 -0.4417121812
C  -4.5184087179 -3.5748331618 -0.2146786884
C  -5.1804115355 -2.3711132134  0.0066210693
C  -4.4798615069 -1.1711277310 -0.0023437403
H  -0.6490809235 -0.6043152787 -1.3480979292
H   0.5917750483  1.4957394946 -1.3377109675
H  -0.3620387280  3.5214033996 -0.2515679326
H  -2.5915914382  3.3784523707  0.8438786917
H  -3.8258337539  1.2736690424  0.8723605062
H  -1.3745859263 -2.3871988253 -0.6160903341
H  -2.6122452140 -4.4891683041 -0.6279120841
H  -5.0662002264 -4.5126637241 -0.2153633407
H  -6.2519642422 -2.3632549033  0.1911598908
H  -5.0309334854 -0.2506690051  0.1685460325
22
Scanning combination 6/73: [384.9984]  Energy = -463.1740917659
C  -2.3479430380  0.1534763729 -0.2517503545
C  -1.1278687762  0.2734890136 -0.9266827867
C  -0.4284621901  1.4746641522 -0.9351066211
C  -0.9229001448  2.5801811943 -0.2496109184
C  -2.1233771975  2.4701436332  0.4456233838
C  -2.8248790682  1.2709066911  0.4433509804
C  -3.0895836187 -1.1393397745 -0.2110330338
C  -2.4294790940 -2.3639636744 -0.3629324675
C  -3.1322751496 -3.5631639611 -0.3531074251
C  -4.5167312361 -3.5648040607 -0.2124057034
C  -5.1901701716 -2.3538285177 -0.0834772560
C  -4.4833689809 -1.1576910069 -0.0834495028
H  -0.7331169357 -0.5706641759 -1.4869295346
H   0.5117081480  1.5425170481 -1.4769458628
H  -0.3764604881  3.5191067602 -0.2550474999
H  -2.5201920428  3.3218463215  0.9926969821
H  -3.7448683261  1.1971552028  1.0181064197
H  -1.3461292386 -2.3882193118 -0.4526518014
H  -2.5923789954 -4.5005687436 -0.4621755157
H  -5.0668280932 -4.5015842235 -0.2054875588
H  -6.2723775558 -2.3365705349  0.0198240041
H  -5.0315175455 -0.2213885924 -0.0125079963
22
Scanning combination 7/73: [389.9984]  Energy = -463.1743940360
C  -2.3370776286  0.1476347792 -0.2327076783
C  -1.1323771819  0.2768039860 -0.9332987992
C  -0.4324475280  1.4771155509 -0.9413612969
C  -0.9225308985  2.5804372337 -0.2497118160
C  -2.1210642449  2.4685327433  0.4489928749
C  -2.8171320112  1.2659063159  0.4583174097
C  -3.0927427990 -1.1380230655 -0.2334372039
C  -2.4295822651 -2.3645737521 -0.3542938003
C  -3.1317709824 -3.5635749019 -0.3453329337
C  -4.5167577340 -3.5652540657 -0.2124515256
C  -5.1901732416 -2.3535691670 -0.0878841264
C  -4.4857798089 -1.1558191841 -0.1007656584
H  -0.7387560744 -0.5674845134 -1.4941066065
H   0.5096757602  1.5436577005 -1.4802346687
H  -0.3749038212  3.5185526062 -0.2537241221
H  -2.5202666547  3.3226577972  0.9900629358
H  -3.7450907824  1.1983568738  1.0208777211
H  -1.3461473132 -2.3880799587 -0.4429946782
H  -2.5919786357 -4.5007482082 -0.4581716817
H  -5.0666895961 -4.5020238590 -0.2075308429
H  -6.2715112791 -2.3378540441  0.0221164337
H  -5.0340950193 -0.2209510538 -0.0140600032
22
Scanning combination 8/73: [394.9984]  Energy = -463.1751478038
C  -2.3425545000  0.1494062245 -0.2448728844
C  -1.1727530455  0.2952712662 -0.9974068176
C  -0.4739077502  1.4977877635 -1.0029274431
C  -0.9293011589  2.5772900062 -0.2522445426
C  -2.0862580207  2.4421904151  0.5099027275
C  -2.7817841953  1.2382774903  0.5149011242
C  -3.0886807090 -1.1388630955 -0.2206547733
C  -2.4193037754 -2.3655972359 -0.2770514443
C  -3.1245859709 -3.5638242350 -0.2685924831
C  -4.5150805898 -3.5593372794 -0.2076848770
C  -5.1943136975 -2.3450043399 -0.1622033694
C  -4.4865876379 -1.1487307308 -0.1726521511
H  -0.8208762615 -0.5301017272 -1.6120022054
H   0.4396226782  1.5858291929 -1.5852332152
H  -0.3785762800  3.5142946519 -0.2476695810
H  -2.4584846797  3.2788786182  1.0953414956
H  -3.6636061650  1.1300731413  1.1431374898
H  -1.3318905573 -2.3855563955 -0.2953057475
H  -2.5851727792 -4.5057767444 -0.3253534568
H  -5.0679419867 -4.4947906901 -0.2112575502
H  -6.2797566859 -2.3255591688 -0.1066899301
H  -5.0274060035 -0.2044573035 -0.1751804191
22
Scanning combination 9/73: [399.9984]  Energy = -463.1751189328
C  -2.3296511439  0.1422419873 -0.2270996890
C  -1.1773451127  0.3001095061 -1.0040224415
C  -0.4766383769  1.5005677661 -1.0068282215
C  -0.9266435692  2.5759482211 -0.2473170705
C  -2.0845480631  2.4399110728  0.5136525617
C  -2.7736685331  1.2322401531  0.5281282388
C  -3.0894739031 -1.1387849216 -0.2437691121
C  -2.4206129455 -2.3669996346 -0.2678404331
C  -3.1252709281 -3.5645594490 -0.2631693900
C  -4.5160978481 -3.5589969066 -0.2133374390
C  -5.1941805977 -2.3437561477 -0.1667590834
C  -4.4871420011 -1.1471885624 -0.1892117189
H  -0.8262446864 -0.5282176629 -1.6151431892
H   0.4341848157  1.5879623891 -1.5941236923
H  -0.3802842057  3.5150991865 -0.2508124308
H  -2.4552185372  3.2774792856  1.0986344513
H  -3.6666872521  1.1341038885  1.1412522688
H  -1.3331314400 -2.3835486986 -0.2892540467
H  -2.5833463452 -4.5057929631 -0.3148660563
H  -5.0672708617 -4.4949863508 -0.2076682906
H  -6.2795999652 -2.3261783380 -0.1114914176
H  -5.0303282715 -0.2049539968 -0.1706538537
22
Scanning combination 10/73: [404.9984]  Energy = -463.1756076238
C  -2.3298741909  0.1415111317 -0.2391612931
C  -1.2140249471  0.3224491758 -1.0613768645
C  -0.5246805141  1.5303061071 -1.0690307091
C  -0.9342019849  2.5758661744 -0.2464553515
C  -2.0421382681  2.4066383576  0.5789471618
C  -2.7316308830  1.2000671534  0.5812318689
C  -3.0822286616 -1.1423347385 -0.2347543810
C  -2.4157004139 -2.3704096099 -0.1964718148
C  -3.1270699724 -3.5653526953 -0.1791772408
C  -4.5185894494 -3.5527295685 -0.2097786702
C  -5.1935096716 -2.3361028947 -0.2510434438
C  -4.4800905908 -1.1435526266 -0.2638124450
H  -0.9002913106 -0.4838242275 -1.7211534043
H   0.3409181065  1.6519872758 -1.7149392072
H  -0.3909877326  3.5169032260 -0.2474144232
H  -2.3759331280  3.2194233629  1.2179964461
H  -3.5845880983  1.0655539349  1.2425645031
H  -1.3287142894 -2.3870911962 -0.1526194110
H  -2.5911307435 -4.5104178657 -0.1496764806
H  -5.0738442401 -4.4866972605 -0.2034732644
H  -6.2796466162 -2.3146191945 -0.2657537261
H  -5.0112421605 -0.1958741916 -0.3163479115
22
Scanning combination 11/73: [409.9984]  Energy = -463.1751630626
C  -2.3170903420  0.1344226466 -0.2234304502
C  -1.2219617609  0.3282351426 -1.0704328033
C  -0.5289181893  1.5331832999 -1.0752814792
C  -0.9332192333  2.5758742877 -0.2461150551
C  -2.0384913452  2.4041876340  0.5836760348
C  -2.7242748070  1.1946154977  0.5929292591
C  -3.0819661374 -1.1428810385 -0.2562727473
C  -2.4173137926 -2.3705637140 -0.1831654659
C  -3.1269607809 -3.5658041527 -0.1711245141
C  -4.5185055463 -3.5533846261 -0.2105229165
C  -5.1932503681 -2.3359353643 -0.2575351872
C  -4.4804229504 -1.1422152909 -0.2785518125
H  -0.9051447719 -0.4826249301 -1.7234215465
H   0.3389778852  1.6524308932 -1.7192527826
H  -0.3917568471  3.5178971166 -0.2483315888
H  -2.3745418832  3.2183828244  1.2206821644
H  -3.5873673231  1.0667842463  1.2431166957
H  -1.3297566130 -2.3848161975 -0.1477627147
H  -2.5895898901 -4.5106485169 -0.1451765822
H  -5.0743065084 -4.4870114224 -0.2020618461
H  -6.2799864667 -2.3142124025 -0.2688760813
H  -5.0133520884 -0.1942161038 -0.3147886427
22
Scanning combination 12/73: [414.9984]  Energy = -463.1751419327
C  -2.3161118229  0.1338426444 -0.2386204181
C  -1.2608779426  0.3544670094 -1.1283775900
C  -0.5785336673  1.5665773092 -1.1311423830
C  -0.9434040766  2.5779217605 -0.2469395469
C  -1.9971027508  2.3707693523  0.6398521852
C  -2.6796374432  1.1595242997  0.6381163765
C  -3.0723622504 -1.1484653436 -0.2456885799
C  -2.4161207812 -2.3747758646 -0.1087781221
C  -3.1351301994 -3.5650100169 -0.0896827428
C  -4.5228990698 -3.5470262541 -0.2034238258
C  -5.1872629845 -2.3302139077 -0.3343983733
C  -4.4662977785 -1.1418586019 -0.3497528793
H  -0.9801372672 -0.4290680527 -1.8289873450
H   0.2476100848  1.7198315707 -1.8201083654
H  -0.4055465996  3.5224379276 -0.2434188877
H  -2.2965980313  3.1570755569  1.3275544823
H  -3.4974778310  0.9912681020  1.3365011194
H  -1.3327492769 -2.3924915874 -0.0079042076
H  -2.6108263065 -4.5118606792  0.0052582312
H  -5.0846660709 -4.4772957374 -0.1963240919
H  -6.2709485680 -2.3040629023 -0.4139215972
H  -4.9821191078 -0.1898867221 -0.4615135076
22
Scanning combination 13/73: [419.9984]  Energy = -463.1743097550
C  -2.3009990622  0.1251251536 -0.2235450414
C  -1.2682208371  0.3617880442 -1.1354092740
C  -0.5829074697  1.5710980469 -1.1359015260
C  -0.9416828908  2.5778070616 -0.2441646989
C  -1.9944565406  2.3679061905  0.6434171672
C  -2.6701834085  1.1524821473  0.6496477782
C  -3.0697819192 -1.1501324558 -0.2685687131
C  -2.4198703450 -2.3755724207 -0.0968507685
C  -3.1372090280 -3.5657648052 -0.0820930070
C  -4.5238629854 -3.5473326666 -0.2065014977
C  -5.1863141408 -2.3294677480 -0.3395643622
C  -4.4646789115 -1.1413138720 -0.3661483328
H  -0.9862348001 -0.4259548040 -1.8308544677
H   0.2438193298  1.7211258300 -1.8256807900
H  -0.4065507441  3.5233394502 -0.2444430496
H  -2.2947468925  3.1560950682  1.3286693367
H  -3.4993166402  0.9944414151  1.3363467005
H  -1.3359051125 -2.3901800177 -0.0019741272
H  -2.6097640327 -4.5115539515  0.0120259587
H  -5.0850696298 -4.4773752194 -0.1946734985
H  -6.2702750687 -2.3045593329 -0.4161547157
H  -4.9849886123 -0.1903012517 -0.4592791409
22
Scanning combination 14/73: [424.9984]  Energy = -463.1740625671
C  -2.2978327681  0.1241277753 -0.2414120089
C  -1.3080760202  0.3920035756 -1.1912491300
C  -0.6354761369  1.6104938227 -1.1887982195
C  -0.9520414726  2.5832889216 -0.2439597731
C  -1.9473150838  2.3326140505  0.6962829338
C  -2.6181584059  1.1151585792  0.6913441866
C  -3.0580090713 -1.1579119668 -0.2573498766
C  -2.4228555992 -2.3806246651 -0.0221161059
C  -3.1529534343 -3.5650721939  0.0007937912
C  -4.5311177576 -3.5424663109 -0.1987963067
C  -5.1755456582 -2.3281574497 -0.4179882798
C  -4.4442692593 -1.1465262765 -0.4396303282
H  -1.0662255997 -0.3629380788 -1.9365757877
H   0.1429325490  1.8023090538 -1.9221412725
H  -0.4210291009  3.5318453689 -0.2360462967
H  -2.2124558181  3.0905666894  1.4288711449
H  -3.3966411291  0.9151862315  1.4246953158
H  -1.3475980851 -2.3993700722  0.1439729809
H  -2.6468646150 -4.5116958454  0.1692065797
H  -5.1007096263 -4.4681752044 -0.1897549988
H  -6.2527668069 -2.2976439942 -0.5602939373
H  -4.9441908336 -0.1953121490 -0.6107546916
22
Scanning combination 15/73: [429.9984]  Energy = -463.1729510522
C  -2.2821205345  0.1149495763 -0.2269020740
C  -1.3171472239  0.3996358968 -1.1974429407
C  -0.6410521035  1.6151466507 -1.1932420751
C  -0.9499855654  2.5827642892 -0.2413426346
C  -1.9441864655  2.3289488974  0.7001775920
C  -2.6072595464  1.1069197595  0.7032488240
C  -3.0545917126 -1.1599737691 -0.2802515948
C  -2.4278617344 -2.3799920510 -0.0097410232
C  -3.1556393004 -3.5648560896  0.0088692883
C  -4.5315928804 -3.5428714027 -0.2021647717
C  -5.1740405370 -2.3272320930 -0.4238945798
C  -4.4415090555 -1.1463068138 -0.4575503596
H  -1.0737771924 -0.3602695152 -1.9367583543
H   0.1382591351  1.8016818129 -1.9275689739
H  -0.4224946867  3.5327561578 -0.2379228012
H  -2.2094312654  3.0893383639  1.4302354474
H  -3.3981594498  0.9178772543  1.4263200411
H  -1.3518002893 -2.3951131747  0.1493388375
H  -2.6446768211 -4.5095980124  0.1757377522
H  -5.1007813607 -4.4681963624 -0.1871942091
H  -6.2517228311 -2.2988144702 -0.5634462590
H  -4.9476283126 -0.1950950427 -0.6102052123
22
Scanning combination 16/73: [434.9984]  Energy = -463.1726583860
C  -2.2849366639  0.1172793749 -0.2455845972
C  -1.3677703591  0.4320171914 -1.2519157376
C  -0.7039664552  1.6558874888 -1.2448270356
C  -0.9609631377  2.5864097694 -0.2419091902
C  -1.8867007333  2.2893435497  0.7543875369
C  -2.5457236836  1.0653558000  0.7476546517
C  -3.0465888518 -1.1653986009 -0.2639070161
C  -2.4365990067 -2.3774008061  0.0708595934
C  -3.1762186040 -3.5566421848  0.0970953806
C  -4.5372714877 -3.5366378262 -0.1942396662
C  -5.1576117721 -2.3311696139 -0.5106271355
C  -4.4166631196 -1.1553984093 -0.5399187317
H  -1.1761994210 -0.2898663336 -2.0422143020
H   0.0207253452  1.8844444362 -2.0215753202
H  -0.4379789900  3.5395570721 -0.2331631921
H  -2.1048501607  3.0147929891  1.5336589196
H  -3.2726411787  0.8281434104  1.5215509919
H  -1.3760372583 -2.3910811075  0.3105386352
H  -2.6893683499 -4.4970287733  0.3410439756
H  -5.1133453325 -4.4585580679 -0.1796382540
H  -6.2225598982 -2.3028478654 -0.7255957268
H  -4.8959306380 -0.2095016099 -0.7833738721
22
Scanning combination 17/73: [439.9984]  Energy = -463.1714746005
C  -2.2679166779  0.1075278865 -0.2326731186
C  -1.3784348240  0.4408639841 -1.2574263210
C  -0.7097930241  1.6609192796 -1.2485998741
C  -0.9580697759  2.5862770160 -0.2392819987
C  -1.8828492645  2.2857591570  0.7579961882
C  -2.5344986371  1.0573841066  0.7584231745
C  -3.0414196621 -1.1686801297 -0.2865654867
C  -2.4433990116 -2.3759864711  0.0840437529
C  -3.1796494441 -3.5562360692  0.1049411832
C  -4.5378069839 -3.5378856997 -0.1978984174
C  -5.1557815041 -2.3309247564 -0.5167282738
C  -4.4133552739 -1.1559609103 -0.5570766772
H  -1.1838842829 -0.2866970421 -2.0417624523
H   0.0155493288  1.8841184010 -2.0271359882
H  -0.4388438034  3.5408891768 -0.2343413055
H  -2.1014868958  3.0140410667  1.5346531624
H  -3.2734148431  0.8313705067  1.5241967721
H  -1.3810274183 -2.3868173236  0.3156442367
H  -2.6874988040 -4.4947590339  0.3480609253
H  -5.1139457273 -4.4590186854 -0.1778197979
H  -6.2215388840 -2.3046717238 -0.7285232586
H  -4.9001343427 -0.2098128533 -0.7838265181
22
Scanning combination 18/73: [444.9984]  Energy = -463.1711940116
C  -2.2729819023  0.1112952441 -0.2533907025
C  -1.4341695738  0.4771209467 -1.3096694021
C  -0.7776646434  1.7053758733 -1.2955347189
C  -0.9689587950  2.5907920944 -0.2389193075
C  -1.8209504291  2.2444605131  0.8056971473
C  -2.4694109569  1.0142214231  0.7943411887
C  -3.0339386777 -1.1738981850 -0.2668710111
C  -2.4579174220 -2.3709078137  0.1671670358
C  -3.2071312250 -3.5447445279  0.1938236278
C  -4.5447424503 -3.5318825878 -0.1904464093
C  -5.1329295669 -2.3394759542 -0.6016842467
C  -4.3813922959 -1.1697526451 -0.6356761789
H  -1.2933071146 -0.2059582253 -2.1438638978
H  -0.1112649937  1.9724002151 -2.1113871247
H  -0.4511348715  3.5468962842 -0.2265924441
H  -1.9878426411  2.9343304362  1.6287144826
H  -3.1398302928  0.7378651076  1.6048177543
H  -1.4171078581 -2.3820888635  0.4816937098
H  -2.7448016514 -4.4748779612  0.5132761411
H  -5.1266664631 -4.4503510483 -0.1745580630
H  -6.1803378713 -2.3159120348 -0.8907125491
H  -4.8347180456 -0.2332083670 -0.9519251369
22
Scanning combination 19/73: [449.9984]  Energy = -463.1701101459
C  -2.2552844541  0.1009973378 -0.2417215830
C  -1.4464049904  0.4865442482 -1.3145677277
C  -0.7842757268  1.7116878299 -1.2996117088
C  -0.9664195868  2.5903097288 -0.2361408562
C  -1.8138865217  2.2391868703  0.8104186891
C  -2.4555817115  1.0044627286  0.8051409869
C  -3.0274650062 -1.1777787370 -0.2891958099
C  -2.4659819525 -2.3684519802  0.1810094231
C  -3.2116072898 -3.5445003426  0.2027577622
C  -4.5451819484 -3.5326648120 -0.1941184839
C  -5.1294938743 -2.3403245931 -0.6110425498
C  -4.3759569903 -1.1713495800 -0.6549260746
H  -1.3041524999 -0.2012535408 -2.1448656340
H  -0.1187629855  1.9730872319 -2.1181342061
H  -0.4529210351  3.5491676491 -0.2268710759
H  -1.9841903813  2.9326300856  1.6296207403
H  -3.1395899712  0.7396254257  1.6078119517
H  -1.4233903712 -2.3767351723  0.4902277087
H  -2.7437139569 -4.4718052546  0.5228474173
H  -5.1287705915 -4.4503212502 -0.1725743513
H  -6.1784580971 -2.3174651838 -0.8940401557
H  -4.8377097983 -0.2333487661 -0.9537245698
22
Scanning combination 20/73: [454.9984]  Energy = -463.1708629972
C  -2.2815739794  0.1163968241 -0.2609884867
C  -1.5304160053  0.5324324114 -1.3632151704
C  -0.8876852640  1.7682744432 -1.3504031411
C  -0.9779805978  2.5943685531 -0.2332509162
C  -1.7106131830  2.1793928366  0.8746113934
C  -2.3560868965  0.9473909394  0.8579688640
C  -3.0361521837 -1.1726153628 -0.2545582237
C  -2.4984124333 -2.3460192449  0.2808914202
C  -3.2567873287 -3.5137133016  0.3189041122
C  -4.5533744704 -3.5251800327 -0.1883407306
C  -5.0895868184 -2.3646112291 -0.7382358597
C  -4.3327033675 -1.1981791408 -0.7705039762
H  -1.4539760469 -0.1137800769 -2.2344972029
H  -0.3181457032  2.0873771285 -2.2193885687
H  -0.4833751911  3.5627279799 -0.2284536515
H  -1.7803221159  2.8130462055  1.7550754622
H  -2.9354345061  0.6169346880  1.7161997147
H  -1.4838948250 -2.3406227577  0.6723599935
H  -2.8329113426 -4.4165802512  0.7510206343
H  -5.1473225103 -4.4350729964 -0.1494882864
H  -6.0977031000 -2.3650925196 -1.1446421590
H  -4.7447418364 -0.2851751802 -1.1927653333
22
Scanning combination 21/73: [459.9984]  Energy = -463.1707051790
C  -2.2616217367  0.1048325659 -0.2527516175
C  -1.5436566192  0.5422557750 -1.3679936432
C  -0.8958565187  1.7738241382 -1.3537473849
C  -0.9781018399  2.5954361659 -0.2333893023
C  -1.7075028786  2.1758349734  0.8761809829
C  -2.3428467638  0.9379037508  0.8663230860
C  -3.0259855577 -1.1787508976 -0.2760323990
C  -2.5071577246 -2.3428496216  0.2953302752
C  -3.2615749348 -3.5117209384  0.3279188459
C  -4.5541619450 -3.5256685477 -0.1877815297
C  -5.0868011157 -2.3645344368 -0.7423835673
C  -4.3262907986 -1.2002049430 -0.7875004181
H  -1.4693913785 -0.1054648771 -2.2379404298
H  -0.3186308717  2.0871659487 -2.2202507075
H  -0.4781153256  3.5606167468 -0.2268995673
H  -1.7819653492  2.8153005328  1.7520218150
H  -2.9344754768  0.6166357285  1.7202664789
H  -1.4928955077 -2.3346102322  0.6865570728
H  -2.8324028247 -4.4163674071  0.7518613680
H  -5.1450322495 -4.4374165008 -0.1543649788
H  -6.0981749048 -2.3661092388 -1.1406698174
H  -4.7465573860 -0.2844087688 -1.1964546757
22
Scanning combination 22/73: [464.9984]  Energy = -463.1709032602
C  -2.2566654064  0.1013528133 -0.2655152443
C  -1.5851406150  0.5681745612 -1.3992072686
C  -0.9191602391  1.7911602124 -1.3685967194
C  -0.9692576689  2.5875871378 -0.2276921759
C  -1.6786427279  2.1522507009  0.8879979140
C  -2.3007710935  0.9083655513  0.8723965848
C  -3.0144942248 -1.1849890566 -0.2704215633
C  -2.5215558229 -2.3358067657  0.3510607380
C  -3.2733043539 -3.5085776839  0.3582285380
C  -4.5488197664 -3.5260488425 -0.1998041721
C  -5.0668608207 -2.3697619069 -0.7755778551
C  -4.2946005731 -1.2139185754 -0.8260893665
H  -1.5814611907 -0.0363078190 -2.3027050679
H  -0.3792276720  2.1348288191 -2.2471204699
H  -0.4733048987  3.5552658932 -0.2118360209
H  -1.7569018711  2.7838286322  1.7690889935
H  -2.8448862609  0.5541584437  1.7443141747
H  -1.5423003664 -2.3089040703  0.8223442007
H  -2.8716118955 -4.4053583863  0.8225804686
H  -5.1481361400 -4.4330958688 -0.1701452009
H  -6.0763850606 -2.3621617235 -1.1783614724
H  -4.6857110230 -0.3103421443 -1.2866391420
22
Scanning combination 23/73: [469.9984]  Energy = -463.1733159817
C  -2.3362498206  0.1504415341 -0.2357098601
C  -1.7185422983  0.6222649242 -1.3993856358
C  -1.0222375947  1.8287867927 -1.3961021654
C  -0.9342876781  2.5827497844 -0.2294101978
C  -1.5286261457  2.1153900758  0.9391777391
C  -2.2100055912  0.9019518728  0.9366980616
C  -3.0929484320 -1.1412930884 -0.2306895883
C  -2.6026665117 -2.2637652714  0.4455396704
C  -3.3172684253 -3.4599070624  0.4503446397
C  -4.5335872624 -3.5505827111 -0.2200747086
C  -5.0229805001 -2.4469385413 -0.9120617787
C  -4.2992090803 -1.2580121931 -0.9282502598
H  -1.7906102545  0.0382754079 -2.3138975800
H  -0.5506126186  2.1868601516 -2.3082392588
H  -0.4057763761  3.5333098749 -0.2263804169
H  -1.4534490831  2.6929172194  1.8575324243
H  -2.6486053837  0.5243311520  1.8576230096
H  -1.6555686831 -2.1940922852  0.9753337003
H  -2.9277922130 -4.3237146744  0.9836912750
H  -5.1028299275 -4.4774583545 -0.2052101725
H  -5.9664548360 -2.5140842233 -1.4485688753
H  -4.6688909813 -0.4057304228 -1.4936601778
22
Scanning combination 24/73: [474.9984]  Energy = -463.1734996310
C  -2.3138334129  0.1358130961 -0.2325133014
C  -1.7339420977  0.6323904858 -1.4036535966
C  -1.0344035384  1.8353374626 -1.3986802865
C  -0.9367255154  2.5815925604 -0.2280818269
C  -1.5262839508  2.1071316801  0.9403728360
C  -2.1947443640  0.8859843132  0.9421322536
C  -3.0768504014 -1.1491877347 -0.2509205059
C  -2.6126685581 -2.2591758497  0.4610534892
C  -3.3243852530 -3.4549595723  0.4614040316
C  -4.5342108336 -3.5478202606 -0.2200888012
C  -5.0166741947 -2.4435355656 -0.9170646503
C  -4.2855589990 -1.2592044508 -0.9463631283
H  -1.8059112925  0.0450740036 -2.3159806685
H  -0.5576221449  2.1855580376 -2.3103082373
H  -0.4020253186  3.5286957184 -0.2276816916
H  -1.4571227808  2.6889124764  1.8558659383
H  -2.6550681214  0.5209986459  1.8577855517
H  -1.6641534023 -2.1868317401  0.9878799005
H  -2.9276876573 -4.3183648889  0.9888672651
H  -5.0974021475 -4.4781808963 -0.2079382234
H  -5.9635783623 -2.5096415537 -1.4465756365
H  -4.6683473494 -0.3988860044 -1.4912108651
22
Scanning combination 25/73: [479.9984]  Energy = -463.1744908712
C  -2.3257075522  0.1392750265 -0.2468175274
C  -1.7981630555  0.6649438567 -1.4302374514
C  -1.1074730376  1.8726999131 -1.4190561018
C  -0.9481017881  2.5769000413 -0.2277102077
C  -1.4655630246  2.0580411275  0.9559109801
C  -2.1316549783  0.8383493513  0.9466860439
C  -3.0749159554 -1.1467817076 -0.2322993728
C  -2.6416005686 -2.2370671546  0.5286195025
C  -3.3631655596 -3.4265192634  0.5309599117
C  -4.5342538278 -3.5364909296 -0.2153742064
C  -4.9698441938 -2.4575597253 -0.9799504969
C  -4.2328909633 -1.2796602488 -1.0018187182
H  -1.9312784225  0.1217953326 -2.3629674085
H  -0.6990743865  2.2713481907 -2.3433590622
H  -0.4109824044  3.5211568669 -0.2212807211
H  -1.3457193783  2.5989811765  1.8914038621
H  -2.5230225185  0.4162716980  1.8700185496
H  -1.7334878557 -2.1491398338  1.1204860362
H  -3.0167429709 -4.2687269744  1.1233315856
H  -5.0979576359 -4.4650298953 -0.2101560640
H  -5.8818296061 -2.5332085946 -1.5670192390
H  -4.5557700249 -0.4378783163 -1.6110700606
22
Scanning combination 26/73: [484.9984]  Energy = -463.1745244956
C  -2.2999873042  0.1245113058 -0.2417858698
C  -1.8101720056  0.6747374806 -1.4296933924
C  -1.1168055489  1.8802417776 -1.4194618202
C  -0.9446339710  2.5764381026 -0.2261198197
C  -1.4600747741  2.0546409740  0.9574921577
C  -2.1174146516  0.8291848438  0.9513896624
C  -3.0587762962 -1.1566423443 -0.2556987875
C  -2.6529744255 -2.2330378722  0.5383286462
C  -3.3715166767 -3.4237597090  0.5391694488
C  -4.5337716227 -3.5382780058 -0.2187541078
C  -4.9665192209 -2.4594258052 -0.9853612262
C  -4.2242964494 -1.2838329331 -1.0165915328
H  -1.9454836924  0.1277896537 -2.3604931573
H  -0.7046877311  2.2729401289 -2.3451831197
H  -0.4114135119  3.5235952708 -0.2203643908
H  -1.3422925189  2.5998561373  1.8901905068
H  -2.5219927774  0.4215618819  1.8757733779
H  -1.7437371319 -2.1407710968  1.1287712226
H  -3.0185957302 -4.2659128236  1.1284338850
H  -5.1004840321 -4.4657636075 -0.2097749048
H  -5.8807783094 -2.5367134356 -1.5677839858
H  -4.5627913252 -0.4396599880 -1.6141829604
22
Scanning combination 27/73: [489.9984]  Energy = -463.1753788537
C  -2.3159871809  0.1333506912 -0.2399429027
C  -1.8734226344  0.7099890126 -1.4336901253
C  -1.1932940846  1.9231984320 -1.4268072369
C  -0.9499747212  2.5815702166 -0.2241379397
C  -1.3741875968  2.0093573753  0.9719855066
C  -2.0382363735  0.7883687750  0.9634812948
C  -3.0713824342 -1.1486765437 -0.2449622405
C  -2.6965825668 -2.2055125254  0.5893205639
C  -3.4230618532 -3.3914935859  0.6028217261
C  -4.5404259311 -3.5363640673 -0.2154567055
C  -4.9144596578 -2.4951855274 -1.0605232827
C  -4.1762913111 -1.3177401992 -1.0846155774
H  -2.0674855128  0.1981166346 -2.3741727478
H  -0.8619907073  2.3609555076 -2.3649888620
H  -0.4286942885  3.5351935466 -0.2171548248
H  -1.1814808015  2.5113243884  1.9163248914
H  -2.3683008347  0.3425885965  1.8992843510
H  -1.8262130294 -2.0909702832  1.2323726806
H  -3.1216684515 -4.2009560655  1.2627525149
H  -5.1163588600 -4.4578809862 -0.1984059775
H  -5.7798767145 -2.6019351531 -1.7090158627
H  -4.4698241208 -0.5055982918 -1.7461694045
22
Scanning combination 28/73: [494.9984]  Energy = -463.1751112661
C  -2.2925704945  0.1195125246 -0.2416813695
C  -1.8912420223  0.7234315426 -1.4360861734
C  -1.2046707329  1.9315386675 -1.4276791282
C  -0.9478264320  2.5810114674 -0.2233122208
C  -1.3724586600  2.0055477098  0.9721382107
C  -2.0263771457  0.7785421826  0.9636710039
C  -3.0527972765 -1.1595137325 -0.2616961349
C  -2.7108229816 -2.2001214068  0.6058161340
C  -3.4323442916 -3.3876954751  0.6127775605
C  -4.5398277114 -3.5374202895 -0.2174900440
C  -4.9111188655 -2.4943522530 -1.0629054946
C  -4.1653389488 -1.3213160023 -1.0948372088
H  -2.0790924207  0.2070509429 -2.3747118760
H  -0.8645552979  2.3628541977 -2.3656278602
H  -0.4254387576  3.5336526987 -0.2179835243
H  -1.1826385095  2.5110269018  1.9157229475
H  -2.3684143994  0.3405459601  1.8997233698
H  -1.8362094423 -2.0872127053  1.2424126022
H  -3.1235236161 -4.2002591140  1.2653347114
H  -5.1137307212 -4.4597956599 -0.2001637708
H  -5.7796518613 -2.6010899199 -1.7080026558
H  -4.4685490773 -0.5042382893 -1.7471192378
22
Scanning combination 29/73: [499.9984]  Energy = -463.1754154733
C  -2.3005102112  0.1239665957 -0.2476257775
C  -1.9458679149  0.7578767107 -1.4432960966
C  -1.2675500847  1.9709781267 -1.4308958163
C  -0.9553227331  2.5870853641 -0.2220011304
C  -1.3102874562  1.9698610117  0.9748913522
C  -1.9651214906  0.7441913754  0.9593216842
C  -3.0551602494 -1.1578905038 -0.2511911407
C  -2.7494283833 -2.1798339797  0.6540127831
C  -3.4794428915 -3.3624679076  0.6643989079
C  -4.5474870265 -3.5346335847 -0.2121767806
C  -4.8667682372 -2.5211960787 -1.1124774842
C  -4.1182734547 -1.3506579861 -1.1381618815
H  -2.1719839241  0.2772570329 -2.3929959742
H  -0.9891490860  2.4410364976 -2.3708171595
H  -0.4308730947  3.5386860412 -0.2137093368
H  -1.0723773683  2.4410288229  1.9253701840
H  -2.2447670204  0.2672167265  1.8966087279
H  -1.9072226995 -2.0611183612  1.3327926306
H  -3.2176335308 -4.1499558340  1.3667035993
H  -5.1216452586 -4.4569764862 -0.1985628235
H  -5.6986458687 -2.6434703502 -1.8017818814
H  -4.3736816909 -0.5592832796 -1.8401067485
22
Scanning combination 30/73: [504.9984]  Energy = -463.1746378413
C  -2.2712290351  0.1071302357 -0.2497548272
C  -1.9584746392  0.7669367267 -1.4420072971
C  -1.2791481742  1.9797472220 -1.4304937443
C  -0.9532663676  2.5863165648 -0.2210534706
C  -1.3059443314  1.9657721134  0.9742089789
C  -1.9491354523  0.7329845556  0.9591390743
C  -3.0323235145 -1.1716977893 -0.2720118057
C  -2.7608236695 -2.1747519386  0.6632925823
C  -3.4898903944 -3.3583417534  0.6736563664
C  -4.5468027473 -3.5354295945 -0.2142871303
C  -4.8619714202 -2.5225292202 -1.1158462421
C  -4.1047877769 -1.3567107650 -1.1509046472
H  -2.1919301082  0.2868133224 -2.3897923184
H  -0.9959505547  2.4454705888 -2.3708445271
H  -0.4305655729  3.5389941625 -0.2115462064
H  -1.0716492574  2.4398256360  1.9238772499
H  -2.2435808898  0.2699779873  1.8987613586
H  -1.9223497855 -2.0500768757  1.3450046325
H  -3.2230428688 -4.1472146999  1.3721049225
H  -5.1230252485 -4.4566650906 -0.2002602046
H  -5.6966460916 -2.6438588229 -1.8014745871
H  -4.3766617752 -0.5609926125 -1.8414683198
22
Scanning combination 31/73: [509.9984]  Energy = -463.1745432413
C  -2.2779541452  0.1114803007 -0.2570553323
C  -2.0106224008  0.8021943946 -1.4451245495
C  -1.3458189133  2.0226796689 -1.4276486007
C  -0.9626927117  2.5952316459 -0.2183322394
C  -1.2378101576  1.9279571102  0.9717167890
C  -1.8797196247  0.6959503909  0.9490335004
C  -3.0334799103 -1.1713983603 -0.2612398251
C  -2.8016288467 -2.1554405257  0.7072803174
C  -3.5442718722 -3.3301101932  0.7240667559
C  -4.5580118328 -3.5322636381 -0.2079466895
C  -4.8112185857 -2.5545152664 -1.1656333189
C  -4.0499317497 -1.3927273500 -1.1954617384
H  -2.2854956076  0.3627409159 -2.4018171434
H  -1.1334188456  2.5326542624 -2.3640843892
H  -0.4485635378  3.5523912346 -0.2047327462
H  -0.9564382139  2.3673431170  1.9252071845
H  -2.1007502618  0.1895862680  1.8859174239
H  -2.0015138345 -2.0245180022  1.4329975617
H  -3.3347200978 -4.0880292710  1.4749196997
H  -5.1425408813 -4.4480111774 -0.1905738030
H  -5.6075043781 -2.6914405182 -1.8926802006
H  -4.2650932687 -0.6300550575 -1.9405087987
22
Scanning combination 32/73: [514.9984]  Energy = -463.1733879841
C  -2.2481988432  0.0946868649 -0.2606277248
C  -2.0236172823  0.8110303597 -1.4416484813
C  -1.3573009247  2.0307896712 -1.4254836599
C  -0.9618266416  2.5956290428 -0.2169669189
C  -1.2343709783  1.9251244357  0.9714750722
C  -1.8631385464  0.6854733464  0.9480108300
C  -3.0096997888 -1.1860799190 -0.2812184537
C  -2.8142383555 -2.1491811266  0.7150775867
C  -3.5551785639 -3.3251237629  0.7317243707
C  -4.5588091758 -3.5326509952 -0.2093293735
C  -4.8079093428 -2.5557044220 -1.1683632088
C  -4.0363439541 -1.3999226120 -1.2076953194
H  -2.3040622280  0.3697174550 -2.3956112704
H  -1.1408067882  2.5357695954 -2.3634833972
H  -0.4483475141  3.5532646737 -0.2026749309
H  -0.9519055577  2.3657788146  1.9241139715
H  -2.0992438923  0.1941646411  1.8890579360
H  -2.0159631621 -2.0121054815  1.4413040311
H  -3.3396573947 -4.0838979693  1.4797355497
H  -5.1443278051 -4.4479771678 -0.1919432373
H  -5.6043197634 -2.6944038091 -1.8949752043
H  -4.2699331748 -0.6326816872 -1.9421783088
22
Scanning combination 33/73: [519.9984]  Energy = -463.1730475224
C  -2.2601153219  0.1027410111 -0.2648639152
C  -2.0802177368  0.8484214826 -1.4374701659
C  -1.4304890685  2.0764817749 -1.4145090893
C  -0.9707759409  2.6057004227 -0.2126144984
C  -1.1566446611  1.8853448258  0.9628647480
C  -1.7865625508  0.6475881693  0.9335129281
C  -3.0170104382 -1.1828314276 -0.2685178335
C  -2.8621732487 -2.1251723265  0.7568709483
C  -3.6182957400 -3.2907266551  0.7807010142
C  -4.5716781526 -3.5299098252 -0.2040849804
C  -4.7492942462 -2.5960095325 -1.2197073183
C  -3.9761776010 -1.4423820969 -1.2533291169
H  -2.4050955045  0.4513294910 -2.3962602428
H  -1.2916024468  2.6269331034 -2.3418715100
H  -0.4713251189  3.5700657956 -0.1935839257
H  -0.8200255230  2.2894599963  1.9140673866
H  -1.9339251267  0.1097309606  1.8661435661
H  -2.1082108969 -1.9801697550  1.5269516913
H  -3.4668500593 -4.0117434792  1.5803757466
H  -5.1692233819 -4.4366457599 -0.1799997504
H  -5.5007293558 -2.7564243152 -1.9884814539
H  -4.1427775362 -0.7200819083 -2.0478943667
22
Scanning combination 34/73: [524.9984]  Energy = -463.1716813094
C  -2.2302854358  0.0858815431 -0.2708985983
C  -2.0933361954  0.8573173856 -1.4322796492
C  -1.4429032338  2.0845778281 -1.4107317963
C  -0.9707791956  2.6074048729 -0.2110731996
C  -1.1551925794  1.8836914566  0.9629722374
C  -1.7700661851  0.6384109003  0.9309529840
C  -2.9917313529 -1.1983509250 -0.2867245871
C  -2.8758600876 -2.1183180794  0.7634697368
C  -3.6303566202 -3.2844439232  0.7876846881
C  -4.5738574549 -3.5303367325 -0.2046708648
C  -4.7476565012 -2.5961740456 -1.2211779688
C  -3.9627489181 -1.4507851342 -1.2639341316
H  -2.4221142074  0.4564777370 -2.3884827960
H  -1.2968801588  2.6286447297 -2.3408853436
H  -0.4695998346  3.5705508314 -0.1919129452
H  -0.8139567752  2.2881826679  1.9127362944
H  -1.9339912315  0.1152102883  1.8690801932
H  -2.1216971163 -1.9673916392  1.5325948910
H  -3.4703074142 -4.0083263802  1.5832320386
H  -5.1700392015 -4.4376708061 -0.1820577115
H  -5.4971799878 -2.7607962185 -1.9913854765
H  -4.1486599688 -0.7220564038 -2.0482081346
22
Scanning combination 35/73: [529.9984]  Energy = -463.1713335014
C  -2.2503515432  0.0990568086 -0.2697002162
C  -2.1574850358  0.8974950768 -1.4190147198
C  -1.5238937578  2.1332726822 -1.3891900139
C  -0.9786804372  2.6162852883 -0.2048294615
C  -1.0676181855  1.8414766558  0.9452782525
C  -1.6867220728  0.5986546021  0.9098757398
C  -3.0084954366 -1.1898928521 -0.2717228703
C  -2.9333612098 -2.0870172718  0.8036991074
C  -3.7041504408 -3.2422127016  0.8342098461
C  -4.5865769083 -3.5270941783 -0.2018406437
C  -4.6790379581 -2.6457311366 -1.2721764751
C  -3.8953318044 -1.4995957915 -1.3091606830
H  -2.5397959289  0.5451732990 -2.3724278380
H  -1.4571550040  2.7213636115 -2.3017389915
H  -0.4894093264  3.5854459728 -0.1814475122
H  -0.6669680536  2.2088257357  1.8868165036
H  -1.7467308664  0.0251257704  1.8293087487
H  -2.2339028018 -1.9210284688  1.6176371707
H  -3.6115517816 -3.9239023800  1.6766886137
H  -5.1933574945 -4.4272263090 -0.1735487921
H  -5.3776737620 -2.8380024462 -2.0826625162
H  -4.0009498444 -0.8287719791 -2.1557534205
22
Scanning combination 36/73: [534.9984]  Energy = -463.1700562558
C  -2.2187000136  0.0814350240 -0.2797646445
C  -2.1687533272  0.9043778144 -1.4129248070
C  -1.5342522089  2.1401622364 -1.3847735774
C  -0.9793049289  2.6189689731 -0.2031688734
C  -1.0658899458  1.8412041183  0.9460010173
C  -1.6691525063  0.5905824817  0.9059157132
C  -2.9797865871 -1.2077253594 -0.2882068211
C  -2.9454810305 -2.0801782861  0.8078945121
C  -3.7150305157 -3.2366030472  0.8391414280
C  -4.5897719237 -3.5275493595 -0.2018257283
C  -4.6787174734 -2.6466440472 -1.2737997748
C  -3.8816411878 -1.5099045509 -1.3189529178
H  -2.5633970225  0.5511918921 -2.3617527028
H  -1.4650151766  2.7243594667 -2.2999099620
H  -0.4867919980  3.5870639018 -0.1785581643
H  -0.6564429515  2.2060225988  1.8852936006
H  -1.7470027070  0.0315194778  1.8332606035
H  -2.2516799090 -1.9027355944  1.6251649026
H  -3.6172490071 -3.9189356450  1.6808221487
H  -5.1954550598 -4.4291469612 -0.1766645612
H  -5.3715084297 -2.8450078176 -2.0884805663
H  -4.0081757439 -0.8307573278 -2.1564109954
22
Scanning combination 37/73: [539.9984]  Energy = -463.1702709145
C  -2.2563614456  0.1037964883 -0.2680950750
C  -2.2498496644  0.9512275115 -1.3853642388
C  -1.6249089441  2.1908388569 -1.3505579736
C  -0.9840844170  2.6256120625 -0.1952391384
C  -0.9594589686  1.7891388268  0.9154273966
C  -1.5735602092  0.5445596419  0.8733466724
C  -3.0149343743 -1.1875472566 -0.2678999249
C  -3.0211113903 -2.0344489579  0.8493271289
C  -3.8007695635 -3.1841771025  0.8823107156
C  -4.6005803236 -3.5245629902 -0.2028071918
C  -4.5897699611 -2.7099135228 -1.3291587821
C  -3.7989412947 -1.5681307971 -1.3646905907
H  -2.7318440548  0.6548711876 -2.3115865682
H  -1.6502124389  2.8251381844 -2.2335907751
H  -0.5003396307  3.5974821764 -0.1655504545
H  -0.4739395112  2.1117942459  1.8332800013
H  -1.5175785747 -0.0789081569  1.7602439327
H  -2.4101046989 -1.8144153055  1.7186912534
H  -3.7876335564 -3.8107426834  1.7708696197
H  -5.2149297107 -4.4203105420 -0.1751684395
H  -5.2150002804 -2.9499145242 -2.1855154523
H  -3.8132866696 -0.9696873499 -2.2699722580
22
Scanning combination 38/73: [544.9984]  Energy = -463.1700036324
C  -2.2392440827  0.0950011042 -0.2732295782
C  -2.2758092008  0.9654146007 -1.3717010390
C  -1.6416228819  2.2010955592 -1.3412106084
C  -0.9653520085  2.6182668810 -0.2003607686
C  -0.9238359860  1.7738354063  0.9033729181
C  -1.5442828444  0.5313505810  0.8642956645
C  -3.0001118790 -1.1973295560 -0.2767370717
C  -3.0477150302 -2.0182276711  0.8587781987
C  -3.8183916002 -3.1737988556  0.8882507137
C  -4.5863381495 -3.5370092952 -0.2122997287
C  -4.5599918420 -2.7325389848 -1.3459010897
C  -3.7750698583 -1.5865916312 -1.3791136330
H  -2.8098609211  0.6940794791 -2.2766055750
H  -1.7000137829  2.8501492353 -2.2115010823
H  -0.4954172394  3.5970171535 -0.1639968302
H  -0.4130884105  2.0854098279  1.8117013388
H  -1.4957493697 -0.0831981783  1.7576114902
H  -2.4830160023 -1.7649647662  1.7502266200
H  -3.8342876630 -3.7791982058  1.7912088436
H  -5.2141109840 -4.4230476451 -0.1792954613
H  -5.1642836047 -2.9890295937 -2.2131204271
H  -3.8016063481 -0.9849854486 -2.2820730388
22
Scanning combination 39/73: [549.9984]  Energy = -463.1710533596
C  -2.2982644790  0.1287499006 -0.2473893660
C  -2.3780092152  1.0205845639 -1.3255177348
C  -1.7302183496  2.2495188968 -1.2976822976
C  -0.9624754502  2.6158126619 -0.1971141481
C  -0.8306274521  1.7228983619  0.8616510246
C  -1.4751957018  0.4921048231  0.8281303790
C  -3.0583078117 -1.1622844094 -0.2511023455
C  -3.1469044392 -1.9549183904  0.9011694909
C  -3.9069745663 -3.1183027590  0.9225890182
C  -4.5853183992 -3.5366945708 -0.2171619929
C  -4.4695243306 -2.7896953813 -1.3849496826
C  -3.7037548391 -1.6296727937 -1.4046765284
H  -2.9921674575  0.7855120691 -2.1894921965
H  -1.8293573817  2.9239304803 -2.1449105894
H  -0.4690913707  3.5831452291 -0.1672799503
H  -0.2224227639  1.9838829778  1.7248872138
H  -1.3198066861 -0.1893774731  1.6598038680
H  -2.6577815388 -1.6465606262  1.8200512829
H  -3.9673921517 -3.6987470381  1.8400813915
H  -5.1932810841 -4.4369470085 -0.1966681178
H  -4.9799444927 -3.1078664087 -2.2911881272
H  -3.6123797474 -1.0933731352 -2.3449308340
22
Scanning combination 40/73: [554.9984]  Energy = -463.1721335149
C  -2.3405400117  0.1514510602 -0.2244599806
C  -2.4621689647  1.0647627163 -1.2780501495
C  -1.7808031258  2.2754653962 -1.2658367982
C  -0.9255915844  2.5909050921 -0.2154815347
C  -0.7611889788  1.6779290479  0.8210637570
C  -1.4494012616  0.4704231111  0.8093619140
C  -3.1012371002 -1.1347362613 -0.2365118995
C  -3.2327936786 -1.8994505970  0.9283912276
C  -3.9599603367 -3.0830709702  0.9363864557
C  -4.5451896142 -3.5573309633 -0.2328074422
C  -4.3910017998 -2.8313268422 -1.4093601872
C  -3.6686231132 -1.6440630715 -1.4127338298
H  -3.1298891957  0.8528859064 -2.1080925157
H  -1.9227831431  2.9770920235 -2.0838322785
H  -0.3921035175  3.5374554834 -0.2056159444
H  -0.1031793396  1.9125389044  1.6542554677
H  -1.2614815815 -0.2367273482  1.6120934662
H  -2.7967012886 -1.5514207536  1.8603185045
H  -4.0707558214 -3.6362928742  1.8654955541
H  -5.1134726049 -4.4833621473 -0.2272831323
H  -4.8491399357 -3.1834807711 -2.3304453143
H  -3.5311937060 -1.1279461922 -2.3585555789
22
Scanning combination 41/73: [559.9984]  Energy = -463.1726224071
C  -2.3134551162  0.1356377069 -0.2437386583
C  -2.4735375692  1.0724411184 -1.2727660810
C  -1.7903719635  2.2822726548 -1.2612177535
C  -0.9309001751  2.5943768917 -0.2130382617
C  -0.7589803945  1.6762454039  0.8176329821
C  -1.4363936607  0.4631023269  0.7987948283
C  -3.0701576625 -1.1531800988 -0.2428540130
C  -3.2452128549 -1.8930960935  0.9335996782
C  -3.9707268732 -3.0780396143  0.9407027932
C  -4.5505861227 -3.5543973309 -0.2304666410
C  -4.3871078271 -2.8333221417 -1.4086636129
C  -3.6531790950 -1.6533747985 -1.4146943006
H  -3.1512663693  0.8723421976 -2.0976454886
H  -1.9239996565  2.9788050512 -2.0854979938
H  -0.3910889659  3.5371993869 -0.2056631262
H  -0.0977008720  1.9046417950  1.6499866737
H  -1.2648510749 -0.2363804096  1.6117212787
H  -2.8239245347 -1.5423431826  1.8712966338
H  -4.0714750008 -3.6368822121  1.8680678339
H  -5.1129673239 -4.4839561707 -0.2279300855
H  -4.8390768035 -3.1846844176 -2.3330827466
H  -3.5322397871 -1.1257081127 -2.3562441772
22
Scanning combination 42/73: [564.9984]  Energy = -463.1737543887
C  -2.3337662955  0.1454713329 -0.2280629587
C  -2.5362860992  1.1007321084 -1.2294039844
C  -1.8525843192  2.3101086861 -1.2185730729
C  -0.9350130805  2.5875513101 -0.2099032547
C  -0.6974789132  1.6342879745  0.7753502193
C  -1.3794164087  0.4231249593  0.7591917379
C  -3.0927249765 -1.1378108320 -0.2396060271
C  -3.3104547262 -1.8462124035  0.9465399065
C  -4.0351074586 -3.0315553709  0.9536884396
C  -4.5483947786 -3.5464475795 -0.2327863742
C  -4.3125170643 -2.8712827525 -1.4262273978
C  -3.5829057966 -1.6880993173 -1.4310112834
H  -3.2706934120  0.9151385437 -2.0091372178
H  -2.0374679212  3.0350168067 -2.0069485892
H  -0.4013675052  3.5337783551 -0.1991865187
H   0.0145784873  1.8381114551  1.5713118231
H  -1.1403651130 -0.3218361516  1.5140988026
H  -2.9432913487 -1.4449147401  1.8877818658
H  -4.1933734344 -3.5548970810  1.8929767652
H  -5.1169715814 -4.4721796493 -0.2281390318
H  -4.7096336435 -3.2600793072 -2.3607068464
H  -3.3739642961 -1.2063063896 -2.3829472215
22
Scanning combination 43/73: [569.9984]  Energy = -463.1740166492
C  -2.3078147576  0.1305206231 -0.2489712249
C  -2.5471842393  1.1069269827 -1.2232288462
C  -1.8641594439  2.3171889361 -1.2103721598
C  -0.9347495267  2.5883289682 -0.2112361236
C  -0.6905219574  1.6313184072  0.7687366731
C  -1.3645205434  0.4158582440  0.7452674971
C  -3.0615774713 -1.1564171600 -0.2438264902
C  -3.3219792803 -1.8392175137  0.9502315239
C  -4.0486604063 -3.0238840573  0.9565544901
C  -4.5481166579 -3.5475346546 -0.2316762939
C  -4.3043693674 -2.8772018029 -1.4262626772
C  -3.5649414938 -1.7001377757 -1.4315509583
H  -3.2895394215  0.9320122606 -1.9977688752
H  -2.0481989020  3.0435420523 -1.9979218062
H  -0.3992366166  3.5334203963 -0.2009563619
H   0.0205129538  1.8328344721  1.5659014875
H  -1.1471610218 -0.3224322996  1.5124843047
H  -2.9682952224 -1.4360186761  1.8957011066
H  -4.2082671888 -3.5483564733  1.8952345026
H  -5.1150753464 -4.4741757223 -0.2281382158
H  -4.7007324894 -3.2635263971 -2.3618322508
H  -3.3746112822 -1.2013488541 -2.3780695216
22
Scanning combination 44/73: [574.9984]  Energy = -463.1750247574
C  -2.3240711113  0.1384281915 -0.2327950669
C  -2.6047173286  1.1320781300 -1.1748410452
C  -1.9281515047  2.3458343219 -1.1583567337
C  -0.9395933379  2.5821559029 -0.2071457929
C  -0.6295520591  1.5908212928  0.7194645299
C  -1.3122580149  0.3794899240  0.7039353541
C  -3.0816966965 -1.1429056306 -0.2440341202
C  -3.3861517367 -1.7929727891  0.9553268314
C  -4.1193963178 -2.9732413380  0.9638297111
C  -4.5472682628 -3.5391138946 -0.2340040341
C  -4.2269114723 -2.9179285695 -1.4378620770
C  -3.4978628601 -1.7340100201 -1.4427372678
H  -3.3879803501  0.9627062882 -1.9107158469
H  -2.1733344666  3.1059252847 -1.8955994056
H  -0.4080345193  3.5297049749 -0.1950176183
H   0.1399976579  1.7653137184  1.4672424857
H  -1.0358579630 -0.3967353648  1.4142768989
H  -3.0709252241 -1.3485460726  1.8970902743
H  -4.3518937357 -3.4528224357  1.9111559948
H  -5.1183519916 -4.4633277837 -0.2287521740
H  -4.5569054125 -3.3507398333 -2.3789592216
H  -3.2282829340 -1.2784143478 -2.3932018893
22
Scanning combination 45/73: [579.9984]  Energy = -463.1750086120
C  -2.3007592614  0.1249569805 -0.2548624009
C  -2.6152365407  1.1378468375 -1.1669800997
C  -1.9378689318  2.3512907527 -1.1498685894
C  -0.9396853568  2.5834426633 -0.2083043854
C  -0.6238269268  1.5886393258  0.7126238640
C  -1.2983366259  0.3733967081  0.6885356752
C  -3.0518233955 -1.1607367649 -0.2453563313
C  -3.3981098597 -1.7853973475  0.9573890086
C  -4.1314014078 -2.9660835712  0.9648535776
C  -4.5475698504 -3.5400464763 -0.2326704972
C  -4.2197067131 -2.9234887622 -1.4367140074
C  -3.4801998926 -1.7463296052 -1.4412082553
H  -3.4054730508  0.9781208405 -1.8973473189
H  -2.1796848361  3.1112136381 -1.8883065996
H  -0.4065804947  3.5298862903 -0.1961491095
H   0.1419199551  1.7620578433  1.4643124407
H  -1.0404176158 -0.3974561034  1.4110286314
H  -3.0956176551 -1.3391995915  1.9022570248
H  -4.3620221176 -3.4484146225  1.9110871920
H  -5.1173927233 -4.4649698341 -0.2286836020
H  -4.5521610503 -3.3513887511 -2.3789527698
H  -3.2272452905 -1.2756405003 -2.3883836605
22
Scanning combination 46/73: [584.9984]  Energy = -463.1750785730
C  -2.2879876026  0.1174580188 -0.2553530564
C  -2.6422219940  1.1458514618 -1.1334134561
C  -1.9649126300  2.3596022265 -1.1236447512
C  -0.9339211145  2.5766903583 -0.2136794161
C  -0.5908406806  1.5719446662  0.6870895275
C  -1.2573677930  0.3514042237  0.6615255591
C  -3.0419686310 -1.1664833691 -0.2547988891
C  -3.4315775024 -1.7579864350  0.9504009334
C  -4.1608216405 -2.9411406450  0.9634897856
C  -4.5376150363 -3.5426073405 -0.2342122122
C  -4.1824220900 -2.9479819850 -1.4420758362
C  -3.4357113528 -1.7746042919 -1.4517798301
H  -3.4750926838  0.9980770301 -1.8173994064
H  -2.2571094569  3.1430086270 -1.8180566666
H  -0.4162381792  3.5320486671 -0.1929966166
H   0.1886407553  1.7439336624  1.4250511634
H  -0.9661288392 -0.4358281603  1.3540612394
H  -3.1774965491 -1.2701623019  1.8889372091
H  -4.4497226206 -3.3832394128  1.9134494513
H  -5.1236907424 -4.4577419829 -0.2248106065
H  -4.5018765118 -3.3902458706 -2.3823823550
H  -3.1431167462 -1.3302972183 -2.4011019733
22
Scanning combination 47/73: [589.9984]  Energy = -463.1742609835
C  -2.2715397388  0.1079612083 -0.2735912189
C  -2.6580536043  1.1525788216 -1.1191832140
C  -1.9826493933  2.3681962752 -1.1064582737
C  -0.9413994403  2.5803740258 -0.2074378768
C  -0.5860552093  1.5695502806  0.6805915313
C  -1.2448940478  0.3455321636  0.6456867035
C  -3.0193698586 -1.1799397785 -0.2537384154
C  -3.4495918512 -1.7448131149  0.9510520809
C  -4.1825387328 -2.9265759641  0.9636472635
C  -4.5462440321 -3.5368106018 -0.2333701164
C  -4.1754387157 -2.9525062334 -1.4407565064
C  -3.4184261269 -1.7862097214 -1.4490370570
H  -3.4821482215  1.0027044329 -1.8136293885
H  -2.2584097918  3.1444055019 -1.8150736712
H  -0.4131442820  3.5300571217 -0.1948024600
H   0.1956599071  1.7381920526  1.4169439527
H  -0.9670480021 -0.4372414417  1.3478664062
H  -3.1852995627 -1.2660650413  1.8917032583
H  -4.4528818957 -3.3820155863  1.9124316032
H  -5.1202078981 -4.4596160868 -0.2258950827
H  -4.4907461792 -3.3951573708 -2.3822439242
H  -3.1387729639 -1.3309010153 -2.3964057978
22
Scanning combination 48/73: [594.9984]  Energy = -463.1750053859
C  -2.2855562770  0.1147797969 -0.2567083980
C  -2.7106059718  1.1742175315 -1.0624895718
C  -2.0560735379  2.4006079857 -1.0294777530
C  -0.9579833835  2.5815798155 -0.1918737913
C  -0.5206689070  1.5297451538  0.6091148068
C  -1.1820667878  0.3072199656  0.5801496559
C  -3.0384405606 -1.1673281210 -0.2560614522
C  -3.5142807750 -1.6975544397  0.9459058588
C  -4.2733320545 -2.8625445915  0.9588829956
C  -4.5610310990 -3.5195511460 -0.2351461026
C  -4.0845701034 -3.0045298192 -1.4379875386
C  -3.3328219788 -1.8350653087 -1.4487871270
H  -3.5722065370  1.0294259185 -1.7114453272
H  -2.4014446127  3.2136699006 -1.6629482565
H  -0.4425612150  3.5384413698 -0.1674652267
H   0.3305666510  1.6685433787  1.2704755709
H  -0.8356207355 -0.5134302324  1.2046880495
H  -3.2911255783 -1.1777120138  1.8756699547
H  -4.6356518368 -3.2598854716  1.9036013473
H  -5.1510893454 -4.4325879544 -0.2267189453
H  -4.3133413166 -3.5089776582 -2.3731264493
H  -2.9592936554 -1.4373641344 -2.3899525237
22
Scanning combination 49/73: [599.9984]  Energy = -463.1741710029
C  -2.2673008173  0.1051355315 -0.2786188496
C  -2.7210694444  1.1789235745 -1.0504758873
C  -2.0634193145  2.4042388712 -1.0208291293
C  -0.9569629154  2.5820526012 -0.1943023792
C  -0.5189890225  1.5312737480  0.6058551370
C  -1.1732600336  0.3049888059  0.5673449683
C  -3.0130664598 -1.1833157183 -0.2533362990
C  -3.5278704273 -1.6881216995  0.9444811705
C  -4.2832645351 -2.8560283934  0.9578335786
C  -4.5596893480 -3.5214179261 -0.2337541202
C  -4.0833795882 -3.0077464253 -1.4359939341
C  -3.3211641774 -1.8448537376 -1.4449868826
H  -3.5800053269  1.0389717438 -1.7034816468
H  -2.4033618485  3.2152679947 -1.6588122840
H  -0.4417879149  3.5386232130 -0.1682681647
H   0.3315439306  1.6663210156  1.2691373042
H  -0.8401962208 -0.5128156687  1.2022089544
H  -3.3053098337 -1.1743436864  1.8773768122
H  -4.6398102485 -3.2579104283  1.9021329282
H  -5.1505390500 -4.4335536501 -0.2265009918
H  -4.3105839254 -3.5089491818 -2.3734303461
H  -2.9597130975 -1.4350406595 -2.3852801611
22
Scanning combination 50/73: [604.9984]  Energy = -463.1739265940
C  -2.2693656506  0.1072652544 -0.2680761284
C  -2.7560643322  1.1958410776 -0.9956544771
C  -2.1045950148  2.4236349957 -0.9625374301
C  -0.9606127323  2.5844918388 -0.1859631058
C  -0.4732504031  1.5104406948  0.5545520533
C  -1.1261899711  0.2832313742  0.5192055157
C  -3.0213426795 -1.1793685461 -0.2593378656
C  -3.5826380886 -1.6523194393  0.9291402665
C  -4.3437480641 -2.8156999699  0.9442583298
C  -4.5674170036 -3.5171909332 -0.2370852019
C  -4.0244155662 -3.0484010515 -1.4307490355
C  -3.2629179253 -1.8849707170 -1.4431560286
H  -3.6517607743  1.0648992276 -1.5990416796
H  -2.4866508380  3.2535677462 -1.5511167762
H  -0.4460238065  3.5416198196 -0.1637051584
H   0.4077954381  1.6386671812  1.1776232398
H  -0.7441441005 -0.5527237420  1.1015977414
H  -3.4063584917 -1.0987660622  1.8489318697
H  -4.7556183407 -3.1792597271  1.8819975892
H  -5.1566883510 -4.4304415687 -0.2264891583
H  -4.2142782699 -3.5826563709 -2.3578100120
H  -2.8429146560 -1.5201611475 -2.3782847989
22
Scanning combination 51/73: [609.9984]  Energy = -463.1727127007
C  -2.2529127531  0.0979838913 -0.2920596938
C  -2.7651178551  1.1988278117 -0.9853358345
C  -2.1114322192  2.4260336342 -0.9544947863
C  -0.9595646795  2.5846842701 -0.1889924579
C  -0.4713926244  1.5110960253  0.5506089809
C  -1.1169210013  0.2802030928  0.5023330889
C  -2.9956052637 -1.1948727636 -0.2539150134
C  -3.5935367564 -1.6435839216  0.9276012305
C  -4.3522305375 -2.8091054571  0.9429449898
C  -4.5655221893 -3.5191068095 -0.2353445832
C  -4.0221007018 -3.0515109646 -1.4286442037
C  -3.2481755283 -1.8960424790 -1.4368380240
H  -3.6615445869  1.0760043217 -1.5898141802
H  -2.4920450088  3.2563459625 -1.5434291154
H  -0.4469269998  3.5427636828 -0.1627677943
H   0.4105296047  1.6334577770  1.1738450877
H  -0.7511059101 -0.5541656538  1.0967094732
H  -3.4230461074 -1.0943212946  1.8513456219
H  -4.7637525064 -3.1740908338  1.8802621334
H  -5.1583682656 -4.4300692399 -0.2262906395
H  -4.2073198609 -3.5831396815 -2.3582927148
H  -2.8411078722 -1.5156914349 -2.3711318183
22
Scanning combination 52/73: [614.9984]  Energy = -463.1725394822
C  -2.2580976008  0.1008246676 -0.2746701849
C  -2.8045614460  1.2128908657 -0.9184997466
C  -2.1610133186  2.4447239580 -0.8786064257
C  -0.9671997081  2.5840346594 -0.1769910069
C  -0.4218228218  1.4859710478  0.4827207249
C  -1.0656765071  0.2537299840  0.4397185017
C  -3.0092699335 -1.1866399704 -0.2630156804
C  -3.6543154448 -1.5987725788  0.9048437474
C  -4.4247629573 -2.7560604980  0.9207618334
C  -4.5741794901 -3.5088864595 -0.2401819391
C  -3.9492300482 -3.0983105507 -1.4146050874
C  -3.1767884141 -1.9416094768 -1.4281578983
H  -3.7411916210  1.0991691141 -1.4590269214
H  -2.5906019489  3.2950677835 -1.4009469540
H  -0.4596655463  3.5447461503 -0.1502024357
H   0.5000123391  1.5976736961  1.0472516751
H  -0.6419331236 -0.6022679786  0.9600660422
H  -3.5393902051 -1.0023528498  1.8067604189
H  -4.9043467003 -3.0723250155  1.8429577924
H  -5.1708941441 -4.4172106885 -0.2277484697
H  -4.0807710187 -3.6742627825 -2.3267076446
H  -2.6934999743 -1.6184331480 -2.3474206100
22
Scanning combination 53/73: [619.9984]  Energy = -463.1713080949
C  -2.2451759321  0.0938293622 -0.2985004896
C  -2.8130196310  1.2165988181 -0.9067733644
C  -2.1660983545  2.4472946048 -0.8711417287
C  -0.9656036651  2.5851623088 -0.1803053137
C  -0.4192387276  1.4867596788  0.4780138176
C  -1.0580764838  0.2521830294  0.4228267642
C  -2.9864285161 -1.2006530104 -0.2549133993
C  -3.6663881297 -1.5904203735  0.9021465923
C  -4.4325193653 -2.7510874214  0.9189447871
C  -4.5726658995 -3.5118404296 -0.2382349613
C  -3.9463673457 -3.1023005710 -1.4122942492
C  -3.1636694435 -1.9522336735 -1.4203786478
H  -3.7489355140  1.1087077164 -1.4502626840
H  -2.5943474422  3.2984608172 -1.3939910637
H  -0.4596377336  3.5467083589 -0.1487419797
H   0.5027669895  1.5927081238  1.0436952935
H  -0.6482457534 -0.6030362751  0.9554411582
H  -3.5540093459 -0.9987552145  1.8078307889
H  -4.9120382330 -3.0689997892  1.8410325508
H  -5.1732186009 -4.4178230483 -0.2281987841
H  -4.0741200352 -3.6748215515 -2.3272882655
H  -2.6921624678 -1.6147415309 -2.3406070913
22
Scanning combination 54/73: [624.9984]  Energy = -463.1710810608
C  -2.2538914579  0.0993617920 -0.2743353014
C  -2.8520838632  1.2331047077 -0.8263628199
C  -2.2111619014  2.4668907931 -0.7861285198
C  -0.9688401763  2.5847120367 -0.1704624897
C  -0.3716483933  1.4639797545  0.3998923721
C  -1.0105491751  0.2284245101  0.3511258133
C  -3.0070844600 -1.1889329154 -0.2661599327
C  -3.7366857906 -1.5426830246  0.8698329358
C  -4.5096048480 -2.6989320102  0.8876535324
C  -4.5789194299 -3.5058153799 -0.2439035970
C  -3.8700344310 -3.1523186355 -1.3886755573
C  -3.0902748552 -1.9995052790 -1.4018551940
H  -3.8280534396  1.1322890388 -1.2937820432
H  -2.6835544402  3.3359480944 -1.2359088211
H  -0.4653058886  3.5475431673 -0.1392342539
H   0.5899775543  1.5579770954  0.8976660473
H  -0.5432996014 -0.6466326414  0.7959695096
H  -3.6852220953 -0.8987818145  1.7438505101
H  -5.0578029918 -2.9684596838  1.7862925571
H  -5.1809900443 -4.4107642810 -0.2317946483
H  -3.9379532965 -3.7713065134 -2.2795051733
H  -2.5362165928 -1.7243988914 -2.2958751955
22
Scanning combination 55/73: [629.9984]  Energy = -463.1699969790
C  -2.2436829468  0.0938130370 -0.2979730363
C  -2.8599653853  1.2360238971 -0.8134877086
C  -2.2159762871  2.4684446839 -0.7775079629
C  -0.9679743688  2.5857441484 -0.1727564936
C  -0.3687243758  1.4642011392  0.3943263735
C  -1.0039980453  0.2273181209  0.3339428554
C  -2.9862701203 -1.2016066823 -0.2561644208
C  -3.7486403991 -1.5339519719  0.8656816173
C  -4.5171647659 -2.6932145697  0.8844759558
C  -4.5781368188 -3.5078174277 -0.2423356603
C  -3.8661427501 -3.1565409573 -1.3861055590
C  -3.0776432316 -2.0096696963 -1.3931123013
H  -3.8350319111  1.1392596975 -1.2840648409
H  -2.6864755072  3.3379666523 -1.2289701493
H  -0.4649959176  3.5488771412 -0.1382338219
H   0.5929263598  1.5526236135  0.8932587249
H  -0.5492818099 -0.6468131856  0.7939060353
H  -3.6981929968 -0.8940341177  1.7429076110
H  -5.0641875935 -2.9650111886  1.7834461121
H  -5.1824871305 -4.4113996928 -0.2322731519
H  -3.9304600870 -3.7720879910 -2.2796896835
H  -2.5366935314 -1.7204247291 -2.2909707669
22
Scanning combination 56/73: [634.9984]  Energy = -463.1703841186
C  -2.2540971560  0.0999821541 -0.2605553931
C  -2.8981829646  1.2542980918 -0.7091063153
C  -2.2586729646  2.4883377905 -0.6736574182
C  -0.9676845054  2.5843954750 -0.1632732938
C  -0.3218841209  1.4427842801  0.3027705654
C  -0.9576220350  0.2038712602  0.2514132471
C  -3.0154935780 -1.1844930603 -0.2761530367
C  -3.8337334860 -1.4797821258  0.8155385187
C  -4.6045396704 -2.6367066913  0.8378238572
C  -4.5824456345 -3.5041014295 -0.2500487278
C  -3.7833893142 -3.2112595929 -1.3515456434
C  -2.9986401957 -2.0598658489 -1.3657219803
H  -3.9145357980  1.1661128494 -1.0852967796
H  -2.7698749481  3.3720896828 -1.0463351056
H  -0.4634468808  3.5475999042 -0.1360127172
H   0.6818350740  1.5187001260  0.7136791576
H  -0.4408613401 -0.6827725245  0.6116925953
H  -3.8561836285 -0.7813736711  1.6485924753
H  -5.2196829771 -2.8587988710  1.7058761716
H  -5.1823191438 -4.4111352338 -0.2352507925
H  -3.7752117853 -3.8815923584 -2.2074882594
H  -2.3725325840 -1.8445902775 -2.2286414475
22
Scanning combination 57/73: [639.9984]  Energy = -463.1715782977
C  -2.3086117911  0.1339574366 -0.2367001256
C  -2.9422749304  1.3172407744 -0.6305297877
C  -2.2701278167  2.5348168113 -0.5869647655
C  -0.9420525210  2.5815179916 -0.1740002569
C  -0.2871346905  1.4045659322  0.1750542926
C  -0.9617270438  0.1865301359  0.1327299848
C  -3.0713974078 -1.1535875034 -0.2513730084
C  -3.9399341711 -1.4544551443  0.8030734427
C  -4.6929918320 -2.6244720466  0.7951195187
C  -4.5664882343 -3.5256683575 -0.2577045378
C  -3.6707277935 -3.2596241954 -1.2885932156
C  -2.9188492266 -2.0869838977 -1.2803947225
H  -3.9789162354  1.2798283936 -0.9575745260
H  -2.7858785565  3.4487002961 -0.8719461016
H  -0.4163986871  3.5321520132 -0.1320944998
H   0.7548321974  1.4386715814  0.4819497954
H  -0.4417767195 -0.7310562187  0.3954080684
H  -4.0353551990 -0.7520334997  1.6279908335
H  -5.3826773940 -2.8302614610  1.6101953775
H  -5.1586504827 -4.4372333701 -0.2702750023
H  -3.5597698489 -3.9710021890 -2.1026633749
H  -2.2122912724 -1.8899035582 -2.0824076790
22
Scanning combination 58/73: [644.9984]  Energy = -463.1722658000
C  -2.3084044632  0.1302593086 -0.2467936871
C  -2.9561596802  1.3175994272 -0.5961273859
C  -2.2726338349  2.5287183177 -0.5795923693
C  -0.9365300325  2.5698439429 -0.1898052638
C  -0.2813246918  1.3899236376  0.1552486216
C  -0.9602375558  0.1757895445  0.1126996259
C  -3.0628041148 -1.1550718361 -0.2452200820
C  -3.9640215561 -1.4325109851  0.7853939607
C  -4.6933673577 -2.6167065776  0.7889539146
C  -4.5468233721 -3.5287877673 -0.2529190067
C  -3.6465097352 -3.2626153022 -1.2820425048
C  -2.8986869675 -2.0889627295 -1.2698322400
H  -4.0070551116  1.2786897468 -0.8728466375
H  -2.7934988195  3.4424702192 -0.8550176173
H  -0.4126311115  3.5219442879 -0.1521857329
H   0.7564346347  1.4164996710  0.4775389593
H  -0.4537347202 -0.7489942322  0.3774302840
H  -4.0913525326 -0.7014557713  1.5802837679
H  -5.3898764196 -2.8153281350  1.5998239831
H  -5.1382577364 -4.4412068254 -0.2608212276
H  -3.5398131172 -3.9614862779 -2.1077157003
H  -2.1919113581 -1.8769117267 -2.0681539428
22
Scanning combination 59/73: [649.9984]  Energy = -463.1731264538
C  -2.3146288663  0.1369339214 -0.2262138337
C  -2.9699219520  1.3392085923 -0.5119476663
C  -2.2817060151  2.5481609689 -0.5083410304
C  -0.9255540658  2.5748662988 -0.1962855006
C  -0.2637055434  1.3870122846  0.1040226504
C  -0.9466558228  0.1733903521  0.0669735222
C  -3.0814913597 -1.1471157213 -0.2548296429
C  -4.0328070729 -1.4056067578  0.7374900570
C  -4.7516250077 -2.5965845241  0.7473662490
C  -4.5436604977 -3.5421122284 -0.2526249912
C  -3.6097237077 -3.2916807654 -1.2547630398
C  -2.8666413847 -2.1133788782 -1.2441792444
H  -4.0323271108  1.3187227324 -0.7454839811
H  -2.8068039128  3.4703513648 -0.7451223723
H  -0.3832316683  3.5175906844 -0.1854434098
H   0.7935830648  1.4097209078  0.3566086697
H  -0.4163186992 -0.7548748999  0.2690094276
H  -4.2023290068 -0.6614553689  1.5128323180
H  -5.4780040835 -2.7836204991  1.5345201686
H  -5.1070758035 -4.4724439033 -0.2541885402
H  -3.4543704837 -4.0267384310 -2.0407215224
H  -2.1142006609 -1.9386461815 -2.0103785788
22
Scanning combination 60/73: [654.9984]  Energy = -463.1732098407
C  -2.3118909714  0.1341249722 -0.2517185055
C  -2.9747822863  1.3390158492 -0.5030506439
C  -2.2844635049  2.5464939165 -0.4986552980
C  -0.9264890942  2.5731866906 -0.1940929970
C  -0.2624568988  1.3837629693  0.0909632628
C  -0.9459242804  0.1719485097  0.0431328196
C  -3.0639573361 -1.1562161682 -0.2382497129
C  -4.0392066149 -1.3988079565  0.7335481691
C  -4.7567327860 -2.5903036310  0.7411158067
C  -4.5439042099 -3.5397377669 -0.2542960368
C  -3.5994137152 -3.2952132970 -1.2468032048
C  -2.8516832630 -2.1211495652 -1.2272264232
H  -4.0375403170  1.3197702675 -0.7331385577
H  -2.8067750927  3.4688817810 -0.7376554559
H  -0.3865017068  3.5169456021 -0.1832595655
H   0.7924788248  1.3999753804  0.3513716191
H  -0.4272082226 -0.7563311772  0.2697775427
H  -4.2117469593 -0.6539057719  1.5069263926
H  -5.4811333536 -2.7803294637  1.5284284381
H  -5.1088161199 -4.4688547686 -0.2541675330
H  -3.4442503260 -4.0222796629 -2.0394326463
H  -2.1168014257 -1.9292767601 -2.0052177614
22
Scanning combination 61/73: [659.9984]  Energy = -463.1745619646
C  -2.3217407110  0.1359844876 -0.2248845481
C  -2.9960294946  1.3459983136 -0.4070831246
C  -2.3058640313  2.5515999218 -0.4030079009
C  -0.9295984537  2.5630987201 -0.1908543355
C  -0.2474792574  1.3629468656 -0.0065866365
C  -0.9362348192  0.1548448007 -0.0453812226
C  -3.0836734732 -1.1407077417 -0.2520788043
C  -4.1057717608 -1.3541954211  0.6761990450
C  -4.8217420895 -2.5446541387  0.6834716765
C  -4.5389911639 -3.5307038196 -0.2583480443
C  -3.5232414194 -3.3279503943 -1.1893152538
C  -2.7851102931 -2.1488428261 -1.1722653974
H  -4.0744643130  1.3304595492 -0.5536834997
H  -2.8438085517  3.4819789003 -0.5636299039
H  -0.3871215341  3.5044168526 -0.1798565677
H   0.8265224447  1.3675383405  0.1592121006
H  -0.4024080181 -0.7857500488  0.0764178744
H  -4.3335744751 -0.5713340414  1.3973034005
H  -5.6017333052 -2.7008237063  1.4237405167
H  -5.1014019866 -4.4603226813 -0.2605801369
H  -3.2993849949 -4.0949491871 -1.9259382917
H  -1.9763479481 -1.9969328295 -1.8845512271
22
Scanning combination 62/73: [664.9984]  Energy = -463.1745877958
C  -2.3194200791  0.1354732408 -0.2490278823
C  -2.9981962448  1.3480785722 -0.3967445326
C  -2.3051420179  2.5538144375 -0.3948468728
C  -0.9268400312  2.5646788567 -0.1959543935
C  -0.2456955132  1.3644269933 -0.0157034431
C  -0.9352316926  0.1572373866 -0.0639679368
C  -3.0687939920 -1.1503040410 -0.2355069609
C  -4.1139155604 -1.3502130307  0.6703955491
C  -4.8278816985 -2.5436908481  0.6776982537
C  -4.5364395902 -3.5353956405 -0.2555711612
C  -3.5186484794 -3.3331803585 -1.1830254325
C  -2.7760046783 -2.1571744880 -1.1581173722
H  -4.0759514809  1.3373605314 -0.5452305920
H  -2.8416970551  3.4847961131 -0.5518286904
H  -0.3857925249  3.5074765287 -0.1785156606
H   0.8272133416  1.3662891491  0.1558217727
H  -0.4053606254 -0.7824260641  0.0783694858
H  -4.3441248855 -0.5711677866  1.3941422099
H  -5.6099998281 -2.7000237362  1.4146369046
H  -5.1041000756 -4.4625759983 -0.2613145537
H  -3.2962850601 -4.0959211284 -1.9242128199
H  -1.9808918768 -1.9958587716 -1.8831961549
22
Scanning combination 63/73: [669.9984]  Energy = -463.1753941870
C  -2.3213830466  0.1374817919 -0.2285118129
C  -3.0012380127  1.3566731722 -0.3081457737
C  -2.3102279771  2.5626650987 -0.3044683846
C  -0.9227244579  2.5702701861 -0.1943188335
C  -0.2340913799  1.3637285338 -0.1041268739
C  -0.9262209130  0.1573323316 -0.1407043721
C  -3.0826522296 -1.1430160495 -0.2490925670
C  -4.1720502234 -1.3228834150  0.6087150969
C  -4.8878270371 -2.5143231139  0.6159133312
C  -4.5403997243 -3.5410860824 -0.2572395022
C  -3.4640978929 -3.3713342284 -1.1237505060
C  -2.7294959327 -2.1898926120 -1.1057678583
H  -4.0862694176  1.3534172909 -0.3838671261
H  -2.8570696316  3.4986800288 -0.3800015586
H  -0.3791394696  3.5112263588 -0.1873630960
H   0.8490948092  1.3611319854 -0.0146048929
H  -0.3800685849 -0.7821045422 -0.0854527500
H  -4.4517518433 -0.5179481310  1.2846431984
H  -5.7234535107 -2.6382336722  1.2994669918
H  -5.0998871912 -4.4727000156 -0.2572186753
H  -3.1883567170 -4.1670183595 -1.8108813416
H  -1.8798892641 -2.0703666596 -1.7749229845
22
Scanning combination 64/73: [674.9984]  Energy = -463.1751824564
C  -2.3215251956  0.1371591052 -0.2516490667
C  -3.0044496428  1.3565550502 -0.2975114294
C  -2.3111131350  2.5625065228 -0.2961774453
C  -0.9221861408  2.5685629325 -0.1975135027
C  -0.2334869506  1.3620510451 -0.1124771310
C  -0.9269417420  0.1568315442 -0.1576964344
C  -3.0691992265 -1.1505089157 -0.2317769233
C  -4.1790173268 -1.3167892700  0.6025423151
C  -4.8927169485 -2.5107808149  0.6101665804
C  -4.5371381561 -3.5416182506 -0.2557539704
C  -3.4578098950 -3.3737044309 -1.1183592410
C  -2.7196407921 -2.1947467384 -1.0928452848
H  -4.0895840572  1.3548464256 -0.3773819726
H  -2.8575332772  3.4983594034 -0.3734372102
H  -0.3796385814  3.5107582603 -0.1843693469
H   0.8493173351  1.3581661820 -0.0179688928
H  -0.3849445307 -0.7838070289 -0.0829885659
H  -4.4575376009 -0.5140201081  1.2821624499
H  -5.7270998933 -2.6354990598  1.2947226772
H  -5.1013958001 -4.4710615758 -0.2593304500
H  -3.1841054759 -4.1666801492 -1.8095033655
H  -1.8814526156 -2.0648802327 -1.7745540806
22
Scanning combination 65/73: [679.9984]  Energy = -463.1754708386
C  -2.3282893530  0.1393997680 -0.2392756275
C  -3.0084791989  1.3606850602 -0.2245206547
C  -2.3131072416  2.5634266847 -0.2178257140
C  -0.9214813393  2.5648235755 -0.1955806381
C  -0.2326074093  1.3548677146 -0.2010667773
C  -0.9309867206  0.1533772315 -0.2371364681
C  -3.0800120505 -1.1424199140 -0.2364225983
C  -4.2251187185 -1.2914805179  0.5515919871
C  -4.9388019869 -2.4834479013  0.5529690378
C  -4.5351780521 -3.5394488074 -0.2588604218
C  -3.4014129314 -3.4001559372 -1.0549694374
C  -2.6727960976 -2.2164458740 -1.0322175845
H  -4.0962190062  1.3655307236 -0.2380066111
H  -2.8625983896  3.5012351443 -0.2181688818
H  -0.3762187953  3.5043855956 -0.1804801304
H   0.8536608859  1.3447997604 -0.1757953030
H  -0.3855409091 -0.7881735706 -0.2427300955
H  -4.5473692054 -0.4680364333  1.1852138807
H  -5.8195887379 -2.5810691273  1.1823584144
H  -5.0977333335 -4.4688442964 -0.2663480137
H  -3.0823512568 -4.2156409813 -1.6983238988
H  -1.7869698171 -2.1156679974 -1.6561047707
22
Scanning combination 66/73: [684.9984]  Energy = -463.1748765430
C  -2.3292374409  0.1401070717 -0.2609417583
C  -3.0081355093  1.3612417604 -0.2126085423
C  -2.3121749086  2.5647933217 -0.2094214338
C  -0.9203369841  2.5663067564 -0.1983389720
C  -0.2317372877  1.3566686827 -0.2036715158
C  -0.9311751615  0.1557804788 -0.2503060525
C  -3.0684423572 -1.1493647201 -0.2194376814
C  -4.2322555779 -1.2880564524  0.5426783360
C  -4.9443685342 -2.4820767646  0.5465928731
C  -4.5343966886 -3.5420774215 -0.2569361274
C  -3.4010347569 -3.4026764943 -1.0529255947
C  -2.6671614446 -2.2220641264 -1.0214334672
H  -4.0959789910  1.3687797721 -0.2342935583
H  -2.8609028355  3.5029084970 -0.2132704879
H  -0.3746777932  3.5060215599 -0.1802347508
H   0.8546660506  1.3453086993 -0.1804124238
H  -0.3871444641 -0.7863113705 -0.2386783034
H  -4.5519041099 -0.4687635027  1.1833884535
H  -5.8231598150 -2.5816432802  1.1782841589
H  -5.0986570297 -4.4708379511 -0.2668638144
H  -3.0797988208 -4.2182379926 -1.6952708461
H  -1.7911852049 -2.1141066226 -1.6575987970
22
Scanning combination 67/73: [689.9984]  Energy = -463.1747101492
C  -2.3320404060  0.1442554067 -0.2467818389
C  -3.0008249606  1.3685846877 -0.1358028004
C  -2.3021266858  2.5701540429 -0.1299170531
C  -0.9126286373  2.5729144180 -0.1986872276
C  -0.2317216854  1.3623145318 -0.2858517743
C  -0.9345342707  0.1636128206 -0.3179747948
C  -3.0805774642 -1.1447427871 -0.2270214307
C  -4.2795459962 -1.2718907230  0.4834599735
C  -4.9909318340 -2.4660053099  0.4831507103
C  -4.5368944429 -3.5517206007 -0.2589023071
C  -3.3584031884 -3.4333884830 -0.9895005310
C  -2.6354384239 -2.2465633179 -0.9662213785
H  -4.0870025625  1.3875216334 -0.0918333344
H  -2.8474714774  3.5080828927 -0.0616268237
H  -0.3644140324  3.5109110098 -0.1889949861
H   0.8539565513  1.3496651647 -0.3345585881
H  -0.3832132579 -0.7721554917 -0.3780618242
H  -4.6449723818 -0.4381088505  1.0779062120
H  -5.9097762230 -2.5438111813  1.0588068750
H  -5.0942840467 -4.4843298531 -0.2645158535
H  -2.9952073289 -4.2718692889 -1.5780214588
H  -1.7211469341 -2.1717308363 -1.5507500789
22
Scanning combination 68/73: [694.9984]  Energy = -463.1736916101
C  -2.3347778568  0.1450413430 -0.2684635212
C  -3.0005461109  1.3675665228 -0.1255527149
C  -2.3018331506  2.5695657635 -0.1213202409
C  -0.9124632073  2.5723976868 -0.2010985966
C  -0.2320843669  1.3621139442 -0.2926700131
C  -0.9368481455  0.1645790542 -0.3347839929
C  -3.0696380579 -1.1503398897 -0.2089252858
C  -4.2845304900 -1.2681065796  0.4752602947
C  -4.9953372267 -2.4629863256  0.4763844326
C  -4.5350299326 -3.5524137931 -0.2573867069
C  -3.3544684733 -3.4352762060 -0.9842165037
C  -2.6272509882 -2.2509892870 -0.9520558530
H  -4.0871651253  1.3875104502 -0.0855110065
H  -2.8480637324  3.5069461981 -0.0564307273
H  -0.3644738256  3.5106743482 -0.1873033971
H   0.8541504248  1.3477728002 -0.3367024109
H  -0.3873209364 -0.7734168743 -0.3748368641
H  -4.6486367630 -0.4358421003  1.0732814666
H  -5.9120576459 -2.5409931813  1.0548785944
H  -5.0951121288 -4.4835783449 -0.2658319879
H  -2.9924695971 -4.2717140617 -1.5771793519
H  -1.7232423535 -2.1668115835 -1.5512359272
22
Scanning combination 69/73: [699.9984]  Energy = -463.1732683576
C  -2.3387299819  0.1485153436 -0.2509688790
C  -2.9914778807  1.3693913867 -0.0432010343
C  -2.2890123198  2.5683871741 -0.0358724177
C  -0.9074955351  2.5732704631 -0.1992409861
C  -0.2402386818  1.3661176266 -0.3827180719
C  -0.9481781080  0.1712641718 -0.4124954937
C  -3.0834158929 -1.1433572722 -0.2186353935
C  -4.3303963864 -1.2483697064  0.4090824826
C  -5.0393108057 -2.4434681873  0.4046541088
C  -4.5353522642 -3.5559671405 -0.2613085442
C  -3.3084811662 -3.4615654836 -0.9108236401
C  -2.5912961660 -2.2720890627 -0.8852348910
H  -4.0723229724  1.3966563648  0.0719743119
H  -2.8273575842  3.5025806233  0.1023058313
H  -0.3566702247  3.5094516961 -0.1903604563
H   0.8398988422  1.3507422847 -0.5031205925
H  -0.3987283222 -0.7576838454 -0.5435558097
H  -4.7411305279 -0.3993708551  0.9500265466
H  -5.9932770502 -2.5010829697  0.9228080112
H  -5.0901050127 -4.4899003865 -0.2684345786
H  -2.9038813737 -4.3183544880 -1.4434557494
H  -1.6422402752 -2.2234678362 -1.4131250529
22
Scanning combination 70/73: [704.9984]  Energy = -463.1720573402
C  -2.3423876250  0.1504413681 -0.2723947312
C  -2.9888382554  1.3688131763 -0.0339923881
C  -2.2872973797  2.5686037520 -0.0291614080
C  -0.9070227454  2.5747906754 -0.2030461877
C  -0.2405146413  1.3680459456 -0.3880802863
C  -0.9506289677  0.1744718505 -0.4287010978
C  -3.0737660922 -1.1488279046 -0.1998594696
C  -4.3343728966 -1.2470301544  0.4004906349
C  -5.0428064473 -2.4426307246  0.3986833254
C  -4.5341754982 -3.5584368681 -0.2581735871
C  -3.3069886944 -3.4641983066 -0.9060513847
C  -2.5852118714 -2.2774416214 -0.8705484548
H  -4.0694910862  1.3980031864  0.0782160730
H  -2.8260531154  3.5021766439  0.1100175040
H  -0.3558405268  3.5106189439 -0.1884085451
H   0.8400106850  1.3516714222 -0.5060973144
H  -0.4003872701 -0.7564297265 -0.5381387783
H  -4.7449086563 -0.4001500296  0.9441772442
H  -5.9969967046 -2.4992742256  0.9161600549
H  -5.0918677794 -4.4905198278 -0.2699805436
H  -2.9028564567 -4.3199415920 -1.4409801422
H  -1.6467976638 -2.2210560822 -1.4158308166
22
Scanning combination 71/73: [709.9984]  Energy = -463.1716496221
C  -2.3419803739  0.1533660137 -0.2478617502
C  -2.9689081587  1.3679164812  0.0620190551
C  -2.2637318022  2.5650012813  0.0678556726
C  -0.9002137927  2.5804332788 -0.2037366600
C  -0.2547513883  1.3816156370 -0.4858806182
C  -0.9657539336  0.1885730650 -0.5113605945
C  -3.0898693724 -1.1425699105 -0.2174163022
C  -4.3825517189 -1.2294486932  0.3170210961
C  -5.0885525831 -2.4260895972  0.3114641674
C  -4.5360100013 -3.5670458525 -0.2596075242
C  -3.2656832746 -3.4936492528 -0.8201233826
C  -2.5533232910 -2.3013816558 -0.7952523136
H  -4.0342575163  1.4022494293  0.2697086823
H  -2.7861922451  3.4918065006  0.2920289711
H  -0.3475704237  3.5153985024 -0.1994460380
H   0.8121592044  1.3702900059 -0.6932896261
H  -0.4200924758 -0.7253506633 -0.7270620423
H  -4.8471286541 -0.3650913001  0.7820796208
H  -6.0811767330 -2.4628490989  0.7535636956
H  -5.0867223831 -4.5031669873 -0.2648496169
H  -2.8184310451 -4.3717741405 -1.2787390889
H  -1.5684577720 -2.2865331439 -1.2528156882
22
Scanning combination 72/73: [714.9984]  Energy = -463.1705000869
C  -2.3471774240  0.1559084561 -0.2679933145
C  -2.9656085929  1.3662242731  0.0721340102
C  -2.2616460162  2.5640376063  0.0764906190
C  -0.8999702247  2.5812629481 -0.2060201007
C  -0.2563616307  1.3832593984 -0.4964084868
C  -0.9700981208  0.1916052231 -0.5290445000
C  -3.0818716667 -1.1467695410 -0.1985484381
C  -4.3860517741 -1.2275782628  0.3069246064
C  -5.0921606445 -2.4242886616  0.3034729565
C  -4.5352679315 -3.5684244406 -0.2578260448
C  -3.2614302866 -3.4968552038 -0.8107786024
C  -2.5468241250 -2.3056696709 -0.7784977730
H  -4.0320680737  1.4000136194  0.2754712702
H  -2.7863960476  3.4899007010  0.2987273426
H  -0.3469904537  3.5158008126 -0.1959775022
H   0.8125348809  1.3704953124 -0.6961128485
H  -0.4232049544 -0.7266301013 -0.7219619053
H  -4.8480224289 -0.3636125153  0.7757999497
H  -6.0835859431 -2.4594089462  0.7480675514
H  -5.0888295165 -4.5026724620 -0.2676118872
H  -2.8168496115 -4.3731395590 -1.2767577957
H  -1.5713191494 -2.2817590875 -1.2552493922
22
Scanning combination 73/73: [719.9984]  Energy = -463.1707665867
C  -2.3418203821  0.1546161605 -0.2280819442
C  -2.9321477401  1.3528420780  0.1972050947
C  -2.2232251838  2.5482240219  0.2025229811
C  -0.8939772193  2.5817433455 -0.2032019836
C  -0.2882312497  1.4027317105 -0.6213202398
C  -1.0032122104  0.2120063035 -0.6400793886
C  -3.1020398125 -1.1366876741 -0.2319408435
C  -4.4374009798 -1.2039054158  0.1896136818
C  -5.1405353249 -2.4023768021  0.1817993822
C  -4.5355766015 -3.5724220248 -0.2632592040
C  -3.2143015493 -3.5251176875 -0.6925663437
C  -2.5089138682 -2.3290689411 -0.6695997481
H  -3.9653300192  1.3775050432  0.5288573052
H  -2.7184511370  3.4605058944  0.5257445090
H  -0.3393309593  3.5157157510 -0.2009928156
H   0.7503196195  1.4035529389 -0.9424602914
H  -0.4902420601 -0.6770940471 -0.9914788853
H  -4.9556523827 -0.3170195763  0.5404118475
H  -6.1705518821 -2.4188403953  0.5294599459
H  -5.0836102601 -4.5100850222 -0.2683550928
H  -2.7199212191 -4.4266207701 -1.0456542874
H  -1.4750474178 -2.3485049801 -0.9983239833
