27
Scanning combination 1/73: [179.1184]  Energy = -652.9203159515
C  -3.4012325960 -1.5688712871  0.0546669985
C  -2.1132893454 -1.5196481802  0.5162953439
C  -1.3573683495 -0.3217394428  0.4278165217
C  -1.9492877765  0.8278009391 -0.1503231236
C  -3.2934614593  0.7540768889 -0.6111242554
C  -4.0002296756 -0.4156727405 -0.5128644920
H   0.4007688678 -1.1406712634  1.3674945615
H  -3.9716473855 -2.4919272543  0.1168403014
H  -1.6431322975 -2.3997667642  0.9504824402
C  -0.0162145567 -0.2547434506  0.8919492829
C  -1.1682999720  2.0117078822 -0.2477713597
H  -3.7501424352  1.6397570452 -1.0484356560
H  -5.0252172496 -0.4707568764 -0.8707864884
C   0.1294102850  2.0359222903  0.1884148093
C   0.7444806351  0.8809637020  0.7456089595
H  -1.6171919746  2.9030280739 -0.6807707342
H   0.6986475024  2.9617992898  0.1174641604
C   2.2073138386  0.9055116658  1.1401588277
C   3.1893317620  0.5766493350 -0.0103596617
H   2.3807776303  0.1932182493  1.9562615369
H   2.4675275965  1.8967427896  1.5281404091
H   4.2176180857  0.6336610311  0.3627622282
H   3.0695240433  1.2884459873 -0.8316886520
C   2.9690429558 -0.8013198875 -0.5828753679
O   2.2994028847 -1.0671346417 -1.5517533030
O   3.6031643555 -1.7563426187  0.1330575513
H   3.3702052789 -2.5971901874 -0.2945611582
27
Scanning combination 2/73: [184.1184]  Energy = -652.9199366573
C  -3.4027513302 -1.5692291181  0.0565520980
C  -2.1140593968 -1.5237072139  0.5175918800
C  -1.3529941900 -0.3287618533  0.4246612407
C  -1.9459040503  0.8239933212 -0.1478738378
C  -3.2892373564  0.7527808733 -0.6103628322
C  -3.9992231220 -0.4148998729 -0.5124428588
H   0.4124385857 -1.1535433358  1.3513544516
H  -3.9778001472 -2.4895333476  0.1218673791
H  -1.6494519039 -2.4054789406  0.9560561706
C  -0.0102510038 -0.2649307937  0.8864974604
C  -1.1660405086  2.0082315148 -0.2466506723
H  -3.7424842673  1.6411286284 -1.0463865254
H  -5.0242902170 -0.4667829085 -0.8713800312
C   0.1319116557  2.0274970333  0.1864302156
C   0.7447528049  0.8743503759  0.7496110585
H  -1.6181494039  2.9000286930 -0.6765703459
H   0.7057083855  2.9493354376  0.1107117801
C   2.2067062764  0.9197235160  1.1383323087
C   3.1906546246  0.5781230022 -0.0071557405
H   2.3831388264  0.2094578160  1.9555201779
H   2.4582955795  1.9114949610  1.5278543978
H   4.2099563096  0.5661395243  0.3895860939
H   3.1180720111  1.3088409454 -0.8152274536
C   2.9500747476 -0.7981075410 -0.5911023696
O   2.2896861346 -1.0671811932 -1.5649626004
O   3.5724551267 -1.7526793125  0.1396041237
H   3.3703992242 -2.6002423332 -0.2898123125
27
Scanning combination 3/73: [189.1184]  Energy = -652.9194535319
C  -3.4103768128 -1.5744386429  0.0692664101
C  -2.1181446445 -1.5386506548  0.5233257849
C  -1.3441682666 -0.3507557908  0.4222778520
C  -1.9366548099  0.8041374896 -0.1471807535
C  -3.2811557765  0.7432181772 -0.6043294450
C  -3.9992695026 -0.4182269285 -0.5030902752
H   0.4463103218 -1.1827124893  1.3014332550
H  -3.9948607509 -2.4888776437  0.1423129923
H  -1.6660602817 -2.4251421199  0.9647538291
C   0.0076167258 -0.2876349857  0.8641351118
C  -1.1606898130  1.9895598670 -0.2508486236
H  -3.7259135371  1.6355061256 -1.0412515572
H  -5.0236569043 -0.4637753172 -0.8627486495
C   0.1402879086  2.0108420840  0.1709489394
C   0.7584731458  0.8570111077  0.7245010940
H  -1.6196670935  2.8811283642 -0.6727071757
H   0.7156594507  2.9319293088  0.0905991555
C   2.2148383648  0.9385774374  1.1342272656
C   3.2374185286  0.5748149673  0.0326025191
H   2.3922134233  0.2708066113  1.9851253734
H   2.4406647194  1.9528330413  1.4788211827
H   4.2352637268  0.5095466748  0.4796736289
H   3.2312705813  1.3221962931 -0.7626475403
C   2.9471809596 -0.7709552989 -0.5897115740
O   2.3053545950 -0.9765820856 -1.5907501546
O   3.4782166294 -1.7758049377  0.1442575687
H   3.2411879699 -2.6000879933 -0.3114935333
27
Scanning combination 4/73: [194.1184]  Energy = -652.9206475917
C  -3.4136109484 -1.5835510987  0.1460256299
C  -2.1273784836 -1.5485916416  0.6152362578
C  -1.3331968792 -0.3780049632  0.4747162835
C  -1.8930024685  0.7538337078 -0.1690756854
C  -3.2349592914  0.6955877169 -0.6343057145
C  -3.9788054014 -0.4436566299 -0.4807333104
H   0.4117455348 -1.1854838967  1.4572605461
H  -4.0135617714 -2.4839348702  0.2514906391
H  -1.6909307323 -2.4231744823  1.0950717297
C   0.0048162300 -0.3119602842  0.9537794213
C  -1.0900481350  1.9139872622 -0.3288077715
H  -3.6565387179  1.5727252700 -1.1208223437
H  -5.0037982011 -0.4839757829 -0.8411265059
C   0.2000501069  1.9366023455  0.1232800574
C   0.7753758971  0.8118630545  0.7744553112
H  -1.5209458810  2.7844479282 -0.8199064495
H   0.8011586744  2.8346518898 -0.0072139966
C   2.2206942393  0.8942222138  1.2223641613
C   3.2574023168  0.6393667422  0.1103726860
H   2.3899259653  0.1577805137  2.0151665099
H   2.4194464152  1.8798602420  1.6557209865
H   4.2375419737  0.4707619472  0.5742441194
H   3.3342324835  1.4663555749 -0.5988528424
C   3.0103132682 -0.6212327362 -0.6869094710
O   2.9996634523 -0.7164356621 -1.8890512144
O   2.8564566569 -1.6973417828  0.1221744281
H   2.7254962022 -2.4567243299 -0.4698644589
27
Scanning combination 5/73: [199.1184]  Energy = -652.9194228504
C  -3.4142973017 -1.5841973583  0.1514749364
C  -2.1280374457 -1.5485402483  0.6201266944
C  -1.3336437058 -0.3793009590  0.4736003111
C  -1.8950486549  0.7516512616 -0.1706971468
C  -3.2367079052  0.6930244144 -0.6372543243
C  -3.9786655872 -0.4475766207 -0.4819719608
H   0.4107877403 -1.1924932521  1.4491670211
H  -4.0145963247 -2.4836795588  0.2627660157
H  -1.6923291110 -2.4184310194  1.1089321921
C   0.0050169251 -0.3158151645  0.9504680690
C  -1.0916736114  1.9109052691 -0.3322718100
H  -3.6608683756  1.5704957913 -1.1216669573
H  -5.0029857096 -0.4896303352 -0.8433164045
C   0.1981823534  1.9322137305  0.1199472435
C   0.7746015580  0.8082253446  0.7706162324
H  -1.5192589871  2.7838294907 -0.8214464952
H   0.8021453113  2.8282750629 -0.0091764531
C   2.2189820502  0.9024421433  1.2190309520
C   3.2771731715  0.6273721504  0.1273332629
H   2.3815409089  0.1727440679  2.0193375458
H   2.4110035616  1.8899996916  1.6507995292
H   4.2258440012  0.3867222569  0.6227733522
H   3.4186296631  1.4630949035 -0.5607226686
C   3.0022704669 -0.6151432667 -0.6947156306
O   2.9773959192 -0.7002112074 -1.8971516999
O   2.8396675253 -1.6960086352  0.1078509969
H   2.7239833816 -2.4569375976 -0.4848820072
27
Scanning combination 6/73: [204.1184]  Energy = -652.9180723582
C  -3.4173428680 -1.5868563913  0.1618441241
C  -2.1309158179 -1.5509023410  0.6285711335
C  -1.3344244505 -0.3828965762  0.4730978546
C  -1.8954101691  0.7459183491 -0.1745152535
C  -3.2375701137  0.6853203684 -0.6386516360
C  -3.9813075751 -0.4540564013 -0.4782744534
H   0.4151719234 -1.1925094456  1.4437347617
H  -4.0186651255 -2.4851430052  0.2762964847
H  -1.6977771718 -2.4192703827  1.1235061484
C   0.0067525765 -0.3178607283  0.9443007499
C  -1.0909773760  1.9042716413 -0.3409255850
H  -3.6604757778  1.5600881110 -1.1270070645
H  -5.0047046790 -0.4973820023 -0.8419570034
C   0.2001130057  1.9281919138  0.1090133842
C   0.7795184002  0.8042700572  0.7589891192
H  -1.5240645082  2.7757828850 -0.8280187602
H   0.8003763909  2.8269405636 -0.0208340917
C   2.2229858270  0.9104066311  1.2197645405
C   3.3128819264  0.6021554827  0.1620075694
H   2.3662977284  0.2110942216  2.0523908853
H   2.4050589020  1.9115857808  1.6205486763
H   4.2268462693  0.2917014483  0.6860743111
H   3.5269238335  1.4455886669 -0.5003656364
C   2.9947466002 -0.6049357958 -0.6965049384
O   2.9438914869 -0.6490829959 -1.8994289560
O   2.8303607838 -1.7081589930  0.0759381059
H   2.6790776736 -2.4479102184 -0.5354638447
27
Scanning combination 7/73: [209.1184]  Energy = -652.9160804156
C  -3.4182145529 -1.5872879306  0.1623139337
C  -2.1311260110 -1.5503030765  0.6291680965
C  -1.3326472697 -0.3848583799  0.4740107032
C  -1.8948324316  0.7443344248 -0.1737894988
C  -3.2369956181  0.6846671105 -0.6394445706
C  -3.9802707246 -0.4539363708 -0.4782860496
H   0.4157130850 -1.1989741219  1.4467682622
H  -4.0189256391 -2.4859250422  0.2784356472
H  -1.6975818097 -2.4173243599  1.1240608905
C   0.0099506529 -0.3233669093  0.9445173749
C  -1.0915916468  1.9019116805 -0.3410745506
H  -3.6612467342  1.5599384226 -1.1281586460
H  -5.0041115995 -0.4981674244 -0.8406635073
C   0.1991076958  1.9227804113  0.1067106728
C   0.7795990169  0.8000962353  0.7581612571
H  -1.5213898051  2.7745713633 -0.8284651555
H   0.7998876031  2.8208852115 -0.0206008433
C   2.2211496444  0.9254000608  1.2160894141
C   3.3127035969  0.5952553792  0.1687757154
H   2.3657717932  0.2246325586  2.0452971771
H   2.4043575478  1.9256682200  1.6221227536
H   4.2029852370  0.2167388044  0.6847357546
H   3.5538661519  1.4346007325 -0.4821928082
C   2.9852644340 -0.6008384435 -0.7012062303
O   2.9395430278 -0.6427521400 -1.9039203906
O   2.8274765672 -1.7057708626  0.0705885373
H   2.6744475164 -2.4437029802 -0.5411204973
27
Scanning combination 8/73: [214.1184]  Energy = -652.9157667164
C  -3.3825409672 -1.5990062481  0.2200942329
C  -2.0916547452 -1.5450265113  0.6710982095
C  -1.3060390108 -0.3777999756  0.4761781039
C  -1.8669679322  0.7276976509 -0.2112550680
C  -3.2133160749  0.6454071662 -0.6603305710
C  -3.9539538690 -0.4868223743 -0.4488591380
H   0.4389428573 -1.1484546729  1.4810454224
H  -3.9825320602 -2.4916907094  0.3742776244
H  -1.6488956508 -2.3940984640  1.1909896473
C   0.0246915757 -0.2891967122  0.9597271056
C  -1.0609623820  1.8789067059 -0.4237716284
H  -3.6452083826  1.5012283787 -1.1740713206
H  -4.9830689962 -0.5424902100 -0.7957905649
C   0.2260840497  1.9245030093  0.0425077212
C   0.7891637838  0.8327230247  0.7572551551
H  -1.4861540063  2.7285186191 -0.9560700016
H   0.8331507654  2.8125734714 -0.1225501464
C   2.2084583017  0.9217520152  1.2799634440
C   3.3394767976  0.4896731496  0.3067377554
H   2.2747000513  0.2883237229  2.1728266748
H   2.4182045067  1.9435537549  1.6108915213
H   4.1442412007  0.0219554907  0.8869643356
H   3.7251829961  1.3422623025 -0.2545644003
C   2.9398112816 -0.5600871001 -0.7088137212
O   2.8656010009 -0.3986871636 -1.9020300794
O   2.7012531341 -1.7606452854 -0.1298650914
H   2.4693576549 -2.3621872984 -0.8563550476
27
Scanning combination 9/73: [219.1184]  Energy = -652.9143717740
C  -3.3893445328 -1.5997756768  0.2210418404
C  -2.0996747411 -1.5462285949  0.6767091319
C  -1.3097227394 -0.3822245368  0.4819319725
C  -1.8685475579  0.7215290699 -0.2090317537
C  -3.2135837191  0.6435204026 -0.6639920219
C  -3.9560213060 -0.4881633650 -0.4532788337
H   0.4304447142 -1.1528741231  1.4989017913
H  -3.9889726994 -2.4933194540  0.3743715095
H  -1.6568894674 -2.3937197243  1.1971027957
C   0.0217343369 -0.2960082989  0.9691235983
C  -1.0600884747  1.8700243544 -0.4226340265
H  -3.6423009817  1.5001443050 -1.1806387465
H  -4.9844907127 -0.5428122455 -0.8011092142
C   0.2255350918  1.9146773469  0.0440484017
C   0.7877447390  0.8246022839  0.7615336966
H  -1.4811979038  2.7198312059 -0.9558665637
H   0.8352953747  2.8013511845 -0.1210687384
C   2.2104347001  0.9328956041  1.2722449457
C   3.3473046171  0.4875696566  0.3049461911
H   2.2810684269  0.3028790959  2.1694353716
H   2.4112042653  1.9551714397  1.6050691759
H   4.1143752627 -0.0402594033  0.8824241322
H   3.7897670184  1.3285089577 -0.2298452271
C   2.9358838019 -0.5447813364 -0.7274704913
O   2.8529570955 -0.3845752103 -1.9193682961
O   2.6939170287 -1.7425467809 -0.1413501685
H   2.4566669174 -2.3529091807 -0.8586141159
27
Scanning combination 10/73: [224.1184]  Energy = -652.9132950161
C  -3.3970790358 -1.6025172153  0.2351193063
C  -2.1119899454 -1.5491257617  0.7062003211
C  -1.3103262553 -0.3926868265  0.5013097976
C  -1.8629432949  0.7034137991 -0.2078390084
C  -3.2038996134  0.6259383647 -0.6737166952
C  -3.9537919741 -0.4995687101 -0.4601525858
H   0.4245557649 -1.1442868492  1.5494672507
H  -4.0025303614 -2.4914230885  0.3906408632
H  -1.6861055430 -2.3948190112  1.2439694671
C   0.0233867963 -0.3021530911  0.9899476000
C  -1.0521592073  1.8470772130 -0.4333610435
H  -3.6222471137  1.4778774358 -1.2050409584
H  -4.9777816093 -0.5550910372 -0.8214262973
C   0.2347418906  1.8919704648  0.0293919503
C   0.7988749427  0.8109214417  0.7591368482
H  -1.4748343034  2.6924901692 -0.9730084457
H   0.8403033458  2.7796636009 -0.1460584641
C   2.2222165028  0.9362674604  1.2757051547
C   3.3799654281  0.4257428044  0.3624230835
H   2.2833781672  0.3859021562  2.2220737242
H   2.4235115013  1.9832031956  1.5216198835
H   4.0930642396 -0.1467241609  0.9637426274
H   3.8959367465  1.2568911236 -0.1224158396
C   2.9366153790 -0.5228368447 -0.7281730144
O   2.8366346452 -0.2603789932 -1.9008208853
O   2.6662724760 -1.7539026982 -0.2351598184
H   2.3540704529 -2.2798224734 -0.9899844524
27
Scanning combination 11/73: [229.1184]  Energy = -652.9126981203
C  -3.3823920616 -1.6078850043  0.2665968685
C  -2.0993028377 -1.5410514504  0.7400326441
C  -1.3019589936 -0.3862128044  0.5155012064
C  -1.8486805648  0.6946779947 -0.2206706205
C  -3.1866493624  0.6019134302 -0.6939260395
C  -3.9354700991 -0.5202956117 -0.4558826521
H   0.4263374218 -1.1221584885  1.5814116619
H  -3.9877951668 -2.4938123615  0.4415587954
H  -1.6707290583 -2.3731641801  1.2959957197
C   0.0250517967 -0.2851615898  1.0134075894
C  -1.0366200130  1.8346363994 -0.4621608710
H  -3.6050366057  1.4392668345 -1.2487214395
H  -4.9580454795 -0.5859023319 -0.8193087225
C   0.2439948743  1.8936339973  0.0179057193
C   0.7977152318  0.8272181871  0.7746559351
H  -1.4499764361  2.6633826619 -1.0328346648
H   0.8529440938  2.7768098897 -0.1687470533
C   2.2141569725  0.9380637945  1.3036750071
C   3.3611331558  0.3427389805  0.4258603495
H   2.2577393819  0.4585798203  2.2881902844
H   2.4427031312  1.9940700891  1.4798013543
H   4.0060407850 -0.2952555286  1.0377319377
H   3.9708312625  1.1512085072  0.0173209442
C   2.9047890762 -0.4977769330 -0.7448978934
O   2.8295855706 -0.1304201691 -1.8914707627
O   2.5882940451 -1.7556442602 -0.3635141883
H   2.2930385463 -2.2143671203 -1.1672463587
27
Scanning combination 12/73: [234.1184]  Energy = -652.9119495306
C  -3.3834722342 -1.6079707773  0.2667997238
C  -2.1007195514 -1.5416390224  0.7411555959
C  -1.3022232176 -0.3883547315  0.5166432084
C  -1.8486129911  0.6921910500 -0.2212664093
C  -3.1860879720  0.6007689015 -0.6954184734
C  -3.9354257451 -0.5207925739 -0.4567190176
H   0.4241143824 -1.1261645669  1.5878781553
H  -3.9884608879 -2.4937958863  0.4428740351
H  -1.6714535626 -2.3716910443  1.2995056094
C   0.0245491768 -0.2891770294  1.0183020230
C  -1.0365552130  1.8317184603 -0.4623301947
H  -3.6035070742  1.4385177320 -1.2504795033
H  -4.9573704968 -0.5863829551 -0.8206518720
C   0.2429593518  1.8878377144  0.0198926504
C   0.7965822921  0.8226517539  0.7789964493
H  -1.4484591525  2.6624605698 -1.0320697925
H   0.8548093840  2.7690165241 -0.1673747164
C   2.2151585965  0.9504315176  1.2973840333
C   3.3598936549  0.3400437906  0.4266182361
H   2.2571228127  0.4687126227  2.2806661740
H   2.4395299327  2.0064307325  1.4804704857
H   3.9574879728 -0.3513553903  1.0289714309
H   4.0011208394  1.1298157729  0.0338800649
C   2.8994378456 -0.4889205184 -0.7531644225
O   2.8257827498 -0.1255736618 -1.9006680107
O   2.5886963034 -1.7488941300 -0.3696960986
H   2.2889466444 -2.2083211057 -1.1713048747
27
Scanning combination 13/73: [239.1184]  Energy = -652.9120702151
C  -3.3867023928 -1.6141876623  0.2790358219
C  -2.1075660664 -1.5444712475  0.7640481532
C  -1.3024491729 -0.3950837468  0.5330892737
C  -1.8442094628  0.6787442599 -0.2179111616
C  -3.1784049984  0.5847068180 -0.7017380321
C  -3.9313905121 -0.5338097243 -0.4599995393
H   0.4180682835 -1.1122008690  1.6295040912
H  -3.9953368466 -2.4979947862  0.4573238433
H  -1.6898253902 -2.3725511587  1.3336853656
C   0.0250027567 -0.2884853585  1.0359617592
C  -1.0321638474  1.8159710378 -0.4665882521
H  -3.5899223115  1.4172019163 -1.2689998913
H  -4.9501137037 -0.6024806612 -0.8328948280
C   0.2488984109  1.8766862288  0.0116045612
C   0.8021967804  0.8177189453  0.7804590410
H  -1.4482182700  2.6412684395 -1.0402501372
H   0.8625853121  2.7546203859 -0.1864242820
C   2.2220862036  0.9517782996  1.2995934707
C   3.3642424794  0.2503187430  0.4936810588
H   2.2689350442  0.5955106739  2.3349888647
H   2.4600804832  2.0191056122  1.3446823821
H   3.8896442686 -0.4716987406  1.1243851528
H   4.0901949744  1.0009745001  0.1717994412
C   2.9022988551 -0.4782294745 -0.7466790928
O   2.8270805271 -0.0069967930 -1.8545538441
O   2.5626269330 -1.7577303399 -0.4752084059
H   2.2251188934 -2.1294655428 -1.3066895356
27
Scanning combination 14/73: [244.1184]  Energy = -652.9117914740
C  -3.3856866131 -1.6140611803  0.2799441207
C  -2.1064787119 -1.5449516616  0.7652967724
C  -1.3015186761 -0.3962385479  0.5348551746
C  -1.8443449874  0.6764406595 -0.2181076176
C  -3.1779703372  0.5828053923 -0.7023136834
C  -3.9312471929 -0.5348656647 -0.4599718184
H   0.4159103203 -1.1201434883  1.6324058202
H  -3.9940282329 -2.4969244273  0.4591512447
H  -1.6873878806 -2.3714260750  1.3365481761
C   0.0252933930 -0.2922865617  1.0423584312
C  -1.0331547329  1.8139790079 -0.4667121733
H  -3.5881807987  1.4161424844 -1.2693722960
H  -4.9497936088 -0.6027678728 -0.8334516149
C   0.2453010482  1.8714432982  0.0158800642
C   0.8004693165  0.8152470290  0.7857242210
H  -1.4444599058  2.6407561854 -1.0421303779
H   0.8635644503  2.7450175312 -0.1834308486
C   2.2227566763  0.9669500616  1.2898902048
C   3.3602313748  0.2459251512  0.4953857344
H   2.2670262361  0.6118668197  2.3256755641
H   2.4577177198  2.0353904715  1.3394354860
H   3.8324922168 -0.5187721553  1.1171092683
H   4.1179595722  0.9727352650  0.1973158311
C   2.8977888784 -0.4681104402 -0.7553764514
O   2.8255928521 -0.0008315883 -1.8649639921
O   2.5566112592 -1.7475540302 -0.4802298417
H   2.2285094629 -2.1260444483 -1.3118730663
27
Scanning combination 15/73: [249.1184]  Energy = -652.9128496949
C  -3.3708252931 -1.6228289659  0.3022728273
C  -2.0935118752 -1.5447524871  0.7911520584
C  -1.2935333796 -0.3942296293  0.5503173974
C  -1.8374887473  0.6679092844 -0.2163208689
C  -3.1686041773  0.5628149043 -0.7041119461
C  -3.9189859560 -0.5547585696 -0.4517615594
H   0.4324143449 -1.1001162251  1.6484877244
H  -3.9781358427 -2.5046565900  0.4895656377
H  -1.6751341893 -2.3647691586  1.3731712804
C   0.0315396642 -0.2782324211  1.0570231041
C  -1.0321810093  1.8073978164 -0.4754420196
H  -3.5777032408  1.3891831992 -1.2808783102
H  -4.9361855008 -0.6292295277 -0.8290676713
C   0.2446669868  1.8771543081  0.0103928922
C   0.8014235658  0.8307140311  0.7905522860
H  -1.4458536468  2.6220109158 -1.0666262508
H   0.8623931776  2.7476465353 -0.2027576709
C   2.2241119774  0.9743904770  1.2927521123
C   3.3244780353  0.1322540406  0.5709131422
H   2.2693592605  0.7721744823  2.3684968622
H   2.4961907239  2.0300822358  1.1847812946
H   3.7073179757 -0.6539062013  1.2263816290
H   4.1706521155  0.7901878633  0.3462614800
C   2.8914981463 -0.4669337821 -0.7470949793
O   2.8804565071  0.1139819602 -1.8054489552
O   2.4958772612 -1.7525079089 -0.6232787573
H   2.2045441083 -2.0295609753 -1.5077283052
27
Scanning combination 16/73: [254.1184]  Energy = -652.9138990049
C  -3.3561097019 -1.6300211721  0.3269664039
C  -2.0807026653 -1.5328116550  0.8169459695
C  -1.2893679055 -0.3810284161  0.5597154454
C  -1.8374018694  0.6686445788 -0.2201674488
C  -3.1672489800  0.5454486734 -0.7100276839
C  -3.9080488029 -0.5757626724 -0.4439271782
H   0.4325046474 -1.0579173241  1.6780980982
H  -3.9558803408 -2.5144701275  0.5274574009
H  -1.6538017218 -2.3389379319  1.4108923712
C   0.0331141437 -0.2515885762  1.0647051294
C  -1.0342289403  1.8080667694 -0.4902229524
H  -3.5849160538  1.3587570399 -1.3002403327
H  -4.9243162998 -0.6649952699 -0.8194010214
C   0.2455323757  1.8898577618 -0.0096667596
C   0.8030408346  0.8525920670  0.7832180571
H  -1.4538704561  2.6148354896 -1.0874215060
H   0.8577819286  2.7619600941 -0.2353060055
C   2.2228581884  0.9732120788  1.2937683332
C   3.2874425710  0.0650883520  0.6061639060
H   2.2536477114  0.7944602346  2.3748900251
H   2.5318232195  2.0145290818  1.1494938768
H   3.5745449309 -0.7619260825  1.2588118043
H   4.1936986530  0.6602000138  0.4548235407
C   2.8948438001 -0.4519971481 -0.7582231971
O   2.9546169713  0.1821476377 -1.7839198638
O   2.4556748405 -1.7277182899 -0.7206718391
H   2.2007747251 -1.9500981910 -1.6319983759
27
Scanning combination 17/73: [259.1184]  Energy = -652.9145824615
C  -3.3575483807 -1.6295357751  0.3298827042
C  -2.0823745303 -1.5338974311  0.8197000884
C  -1.2913189319 -0.3829316857  0.5617062506
C  -1.8372456464  0.6670355700 -0.2210517240
C  -3.1667908257  0.5445700393 -0.7096208471
C  -3.9080177253 -0.5751897152 -0.4415936195
H   0.4264365311 -1.0662883792  1.6817066167
H  -3.9563471243 -2.5141199422  0.5289083776
H  -1.6542422122 -2.3388315361  1.4150733987
C   0.0301100209 -0.2555637131  1.0707417616
C  -1.0336124464  1.8050682521 -0.4935153919
H  -3.5825420338  1.3568425818 -1.3024078658
H  -4.9222236957 -0.6657952586 -0.8213531662
C   0.2433135073  1.8838018372 -0.0072189314
C   0.7994543507  0.8477740942  0.7888227009
H  -1.4486165400  2.6142226955 -1.0917595208
H   0.8600792399  2.7522477688 -0.2302875534
C   2.2246245905  0.9813564739  1.2813488589
C   3.2853194491  0.0627351819  0.6040799312
H   2.2596125419  0.8018462569  2.3616473858
H   2.5317758884  2.0236286268  1.1445115413
H   3.5144742446 -0.7970933036  1.2372028224
H   4.2118698126  0.6304852594  0.4827080377
C   2.8941504938 -0.4377430798 -0.7668778852
O   2.9558553110  0.1931691848 -1.7945877187
O   2.4500787431 -1.7121636057 -0.7220536598
H   2.2019270836 -1.9450663943 -1.6315789438
27
Scanning combination 18/73: [264.1184]  Energy = -652.9159269933
C  -3.3593176642 -1.6341816122  0.3430811305
C  -2.0848920855 -1.5361672518  0.8375219073
C  -1.2887009269 -0.3879414326  0.5756188206
C  -1.8349927794  0.6552291050 -0.2158014498
C  -3.1630018066  0.5311302759 -0.7090045343
C  -3.9072762934 -0.5853454182 -0.4377797238
H   0.4350835548 -1.0581787125  1.6959393046
H  -3.9617778130 -2.5164787220  0.5439380317
H  -1.6663741860 -2.3415070512  1.4385148376
C   0.0348471502 -0.2532329109  1.0809540045
C  -1.0345372859  1.7937265621 -0.4950578398
H  -3.5741635660  1.3415345654 -1.3081665888
H  -4.9205163392 -0.6764606705 -0.8215129750
C   0.2422412359  1.8811361938 -0.0107665026
C   0.8015550352  0.8522585871  0.7913942769
H  -1.4531441293  2.5937408687 -1.1024462622
H   0.8552072465  2.7505479284 -0.2441193209
C   2.2302924056  0.9898710782  1.2715638121
C   3.2448083951 -0.0094435339  0.6530684622
H   2.2934144702  0.9241365195  2.3629575034
H   2.5609867291  2.0004486697  1.0072609924
H   3.3949280648 -0.8787044290  1.2973922069
H   4.2156513782  0.4937640929  0.5913108309
C   2.8988284596 -0.4276219537 -0.7545303099
O   3.0078233809  0.2749872813 -1.7309158883
O   2.4273637535 -1.6897857369 -0.8178597391
H   2.1972004247 -1.8498023225 -1.7483656400
27
Scanning combination 19/73: [269.1184]  Energy = -652.9167762254
C  -3.3581125353 -1.6347209448  0.3442830596
C  -2.0845555316 -1.5358167357  0.8393694442
C  -1.2893577514 -0.3869771771  0.5777130297
C  -1.8367424200  0.6548462323 -0.2142936409
C  -3.1631943143  0.5302276868 -0.7097417616
C  -3.9069220263 -0.5875244850 -0.4379613799
H   0.4299464650 -1.0619849367  1.6995507386
H  -3.9598303275 -2.5171790037  0.5481756281
H  -1.6620429803 -2.3384027631  1.4415355613
C   0.0342800031 -0.2544080592  1.0845431104
C  -1.0369043746  1.7930878377 -0.4942835054
H  -3.5746873017  1.3394252748 -1.3095784694
H  -4.9202147391 -0.6786663104 -0.8198636628
C   0.2390424397  1.8784417739 -0.0084903948
C   0.8011195387  0.8498917333  0.7921266489
H  -1.4514470113  2.5930100451 -1.1039749094
H   0.8554295026  2.7448416108 -0.2415756515
C   2.2335291613  0.9968383746  1.2591774411
C   3.2422691355 -0.0140919249  0.6536095869
H   2.2902146693  0.9280275689  2.3517758858
H   2.5651440525  2.0067649562  0.9951202216
H   3.3234044051 -0.9060014403  1.2774964729
H   4.2320962657  0.4513684160  0.6300747285
C   2.9011690228 -0.4165239529 -0.7626606590
O   3.0108028177  0.2849167670 -1.7395387963
O   2.4244033527 -1.6780770638 -0.8223407905
H   2.2007615146 -1.8437346291 -1.7525443302
27
Scanning combination 20/73: [274.1184]  Energy = -652.9181146477
C  -3.3507934492 -1.6408017574  0.3634344891
C  -2.0770576164 -1.5320844737  0.8568759125
C  -1.2864802715 -0.3818712438  0.5845472616
C  -1.8385793489  0.6526838443 -0.2130816896
C  -3.1655823463  0.5178745807 -0.7058712662
C  -3.9035093816 -0.6013457231 -0.4266297204
H   0.4379639187 -1.0365690570  1.7056468564
H  -3.9489367709 -2.5248155675  0.5718387627
H  -1.6547387427 -2.3300897386  1.4648428650
C   0.0378116760 -0.2381470845  1.0833152689
C  -1.0438134162  1.7936738521 -0.5003386337
H  -3.5807219312  1.3199161510 -1.3133771864
H  -4.9153908108 -0.7018701422 -0.8109536673
C   0.2349307363  1.8897051789 -0.0218443948
C   0.8012377475  0.8666745466  0.7838604907
H  -1.4682295057  2.5887279488 -1.1099922230
H   0.8444523989  2.7597749866 -0.2635496611
C   2.2351472875  0.9990383410  1.2495182560
C   3.1857212973 -0.0921888387  0.7025575218
H   2.3079392896  1.0189484063  2.3436489256
H   2.6035305145  1.9677286845  0.8961524732
H   3.1719643086 -0.9895929256  1.3252123750
H   4.2094888176  0.2966173990  0.7398665369
C   2.9091667601 -0.4178515286 -0.7461294227
O   3.0842606220  0.3449327141 -1.6649370483
O   2.4113773285 -1.6595151966 -0.9175987563
H   2.2267400313 -1.7532758112 -1.8675799461
27
Scanning combination 21/73: [279.1184]  Energy = -652.9187878076
C  -3.3501968501 -1.6407893627  0.3639096657
C  -2.0769551957 -1.5317149615  0.8578350270
C  -1.2879451627 -0.3812533702  0.5860157426
C  -1.8400895898  0.6530475495 -0.2126549123
C  -3.1658428004  0.5168612612 -0.7070582793
C  -3.9032837304 -0.6023820968 -0.4269563412
H   0.4337294678 -1.0415932128  1.7093829621
H  -3.9471162276 -2.5244919633  0.5746252436
H  -1.6510005824 -2.3274057426  1.4667410996
C   0.0356379714 -0.2397850395  1.0886243508
C  -1.0457894005  1.7935822004 -0.4993390138
H  -3.5815503053  1.3189319841 -1.3136646628
H  -4.9156999106 -0.7028017108 -0.8094250139
C   0.2311738055  1.8870275668 -0.0171470097
C   0.7987318070  0.8647046242  0.7885122642
H  -1.4661518637  2.5884626759 -1.1120888476
H   0.8440006635  2.7532041186 -0.2609884281
C   2.2384479929  1.0048082494  1.2350386211
C   3.1843946395 -0.0952925918  0.7003286211
H   2.3036227416  1.0184184465  2.3291369607
H   2.6091701699  1.9756034270  0.8868004533
H   3.1107943200 -1.0108189360  1.2918751414
H   4.2164261525  0.2655755715  0.7706183268
C   2.9126097714 -0.4079762474 -0.7520780210
O   3.0884979111  0.3518511247 -1.6737795646
O   2.4097356743 -1.6494005878 -0.9166082644
H   2.2321898998 -1.7485299430 -1.8666615387
27
Scanning combination 22/73: [284.1184]  Energy = -652.9195550684
C  -3.3480281967 -1.6446719655  0.3784533164
C  -2.0753168950 -1.5291374291  0.8719897570
C  -1.2883526399 -0.3779267917  0.5920633009
C  -1.8436212690  0.6523807500 -0.2085576149
C  -3.1695058928  0.5097998871 -0.7011568143
C  -3.9032717927 -0.6111114274 -0.4175663741
H   0.4382633916 -1.0236809207  1.7142926340
H  -3.9418319011 -2.5309221468  0.5899884516
H  -1.6491275844 -2.3229695855  1.4833941490
C   0.0376777419 -0.2302819758  1.0859061516
C  -1.0506906967  1.7930370019 -0.5028753909
H  -3.5873805839  1.3054800352 -1.3144843888
H  -4.9140220256 -0.7186645988 -0.8025189013
C   0.2290837113  1.8930551649 -0.0276057085
C   0.7987954731  0.8744324426  0.7827118778
H  -1.4778586249  2.5850518253 -1.1143499020
H   0.8366346416  2.7637859304 -0.2730860198
C   2.2407652946  1.0072633522  1.2263241847
C   3.1419671969 -0.1428414000  0.7265980726
H   2.3225514702  1.0748114497  2.3201434663
H   2.6286840843  1.9492791550  0.8242768611
H   2.9760362501 -1.0585932071  1.3008205458
H   4.1894643823  0.1551068484  0.8482087052
C   2.9277809521 -0.4054083295 -0.7478438875
O   3.1625673241  0.3823372541 -1.6328230694
O   2.4073893487 -1.6280302394 -0.9806951660
H   2.2628875554 -1.6885041920 -1.9396265997
27
Scanning combination 23/73: [289.1184]  Energy = -652.9200910781
C  -3.3437387333 -1.6458388776  0.3967921221
C  -2.0705881576 -1.5233949760  0.8864151348
C  -1.2888263431 -0.3716853456  0.5964755433
C  -1.8488004471  0.6521088254 -0.2094931434
C  -3.1753959961  0.5019521658 -0.6980066094
C  -3.9042923451 -0.6198456374 -0.4053866691
H   0.4459435623 -1.0120360268  1.7101252877
H  -3.9335736654 -2.5327536318  0.6143422446
H  -1.6395754940 -2.3102717043  1.5033522708
C   0.0379020274 -0.2204462476  1.0838552586
C  -1.0602826438  1.7946241262 -0.5091421124
H  -3.5988136233  1.2928436613 -1.3138372853
H  -4.9148030565 -0.7340516032 -0.7893072800
C   0.2205277245  1.8986432362 -0.0379579639
C   0.7953418525  0.8842989723  0.7720687534
H  -1.4890046109  2.5850660056 -1.1216760910
H   0.8277170563  2.7660995671 -0.2916313232
C   2.2395460915  1.0076028953  1.2071342911
C   3.1050789933 -0.1799199516  0.7423733164
H   2.3196809744  1.0995935346  2.2977063799
H   2.6559637760  1.9267671462  0.7804663055
H   2.8608041298 -1.0949758368  1.2876895232
H   4.1594637437  0.0544297135  0.9244560675
C   2.9493745643 -0.3990024099 -0.7444520209
O   3.2492445821  0.4082446137 -1.5913579161
O   2.4025943147 -1.5952813042 -1.0396169985
H   2.3038904025 -1.6203753212 -2.0062739049
27
Scanning combination 24/73: [294.1184]  Energy = -652.9200159017
C  -3.3431825984 -1.6474283682  0.3954669194
C  -2.0706125655 -1.5237034593  0.8863361966
C  -1.2907462790 -0.3706926282  0.5996658511
C  -1.8505943888  0.6522565367 -0.2073176547
C  -3.1756505026  0.5007051222 -0.6990139737
C  -3.9041982795 -0.6213558912 -0.4063426874
H   0.4427676599 -1.0165422431  1.7112649387
H  -3.9340275850 -2.5322399320  0.6183257072
H  -1.6370376166 -2.3079792861  1.5046476401
C   0.0358181422 -0.2209979186  1.0888832096
C  -1.0624056806  1.7948130638 -0.5055709946
H  -3.5984751640  1.2928936280 -1.3137734739
H  -4.9162276016 -0.7335788749 -0.7865006187
C   0.2176249125  1.8977143841 -0.0328101394
C   0.7940016836  0.8820061919  0.7750143863
H  -1.4881853149  2.5817034080 -1.1245288993
H   0.8278980066  2.7617481657 -0.2904792350
C   2.2423403553  1.0101480652  1.1931862522
C   3.1031179273 -0.1840827886  0.7432870465
H   2.3160105976  1.1025365046  2.2844035932
H   2.6588533864  1.9283633098  0.7670085177
H   2.8008946604 -1.1041239901  1.2468033837
H   4.1566847105  0.0159453337  0.9623164602
C   2.9562627414 -0.3898141027 -0.7485775610
O   3.2541582370  0.4145259362 -1.5982308049
O   2.3986975229 -1.5838272282 -1.0387401279
H   2.3107208225 -1.6161772906 -2.0057394787
27
Scanning combination 25/73: [299.1184]  Energy = -652.9199364487
C  -3.3454410799 -1.6495110977  0.4110369298
C  -2.0720846477 -1.5219237371  0.8998769287
C  -1.2936014268 -0.3688773027  0.6072918707
C  -1.8561311946  0.6499670173 -0.2023024091
C  -3.1822502228  0.4953768776 -0.6902196660
C  -3.9084545333 -0.6268307872 -0.3937354902
H   0.4482182514 -1.0047625278  1.7121269798
H  -3.9341124898 -2.5360618624  0.6334996381
H  -1.6382786711 -2.3052463573  1.5186361749
C   0.0355558188 -0.2155580318  1.0866804855
C  -1.0699580278  1.7927482441 -0.5076014481
H  -3.6059020845  1.2832576776 -1.3101860190
H  -4.9191633578 -0.7439690072 -0.7765008287
C   0.2118901451  1.9009501875 -0.0418771203
C   0.7913167937  0.8886966529  0.7672532332
H  -1.5018436206  2.5776383405 -1.1247072533
H   0.8179589137  2.7679378832 -0.3026194368
C   2.2417736200  1.0102311251  1.1761750651
C   3.0566918586 -0.2247903924  0.7656445837
H   2.3359887027  1.1617139095  2.2591718539
H   2.6792050700  1.8895561466  0.6943382479
H   2.6783831422 -1.1326160143  1.2384177874
H   4.1083435344 -0.0884608226  1.0346636098
C   2.9788096310 -0.3906045317 -0.7360008196
O   3.3455258601  0.4330784572 -1.5392903115
O   2.4064698603 -1.5557165898 -1.1020137082
H   2.3627434620 -1.5435144100 -2.0734305405
27
Scanning combination 26/73: [304.1184]  Energy = -652.9191951458
C  -3.3454319437 -1.6496852563  0.4121375325
C  -2.0725517762 -1.5213474301  0.9012230687
C  -1.2962175855 -0.3673224181  0.6096774510
C  -1.8590553728  0.6508846114 -0.2009305495
C  -3.1835689767  0.4941945056 -0.6911719957
C  -3.9091025475 -0.6282423405 -0.3938887330
H   0.4433072719 -1.0085052412  1.7139851045
H  -3.9335958936 -2.5356673566  0.6370325344
H  -1.6348721432 -2.3025735183  1.5204299509
C   0.0325825124 -0.2157312690  1.0910343788
C  -1.0736387832  1.7937714806 -0.5059076989
H  -3.6077517967  1.2827889673 -1.3095966916
H  -4.9208917194 -0.7443003701 -0.7737669748
C   0.2072037237  1.8997567411 -0.0372866941
C   0.7885978457  0.8874388545  0.7710707441
H  -1.5016239870  2.5776550285 -1.1276333728
H   0.8168150643  2.7622988557 -0.3015062250
C   2.2445033337  1.0125393341  1.1617205766
C   3.0550449943 -0.2299481695  0.7661099404
H   2.3318281354  1.1613463579  2.2457107020
H   2.6827865069  1.8920126934  0.6804119971
H   2.6278976226 -1.1390987287  1.1897657427
H   4.0997509459 -0.1255806946  1.0713347033
C   2.9900710014 -0.3819102128 -0.7399692476
O   3.3568585812  0.4405900009 -1.5444367559
O   2.4067334598 -1.5437272338 -1.1024403397
H   2.3692660705 -1.5411376396 -2.0732562006
27
Scanning combination 27/73: [309.1184]  Energy = -652.9179389928
C  -3.3476090877 -1.6506303483  0.4148624386
C  -2.0753236749 -1.5208722001  0.9041759569
C  -1.2995081117 -0.3663420821  0.6144899393
C  -1.8621967037  0.6505246349 -0.1978437552
C  -3.1863184865  0.4933398163 -0.6887641289
C  -3.9117346525 -0.6294436252 -0.3912596212
H   0.4368263391 -1.0106370133  1.7194141504
H  -3.9351124847 -2.5374749912  0.6397075179
H  -1.6353153643 -2.3013101522  1.5225299971
C   0.0298003298 -0.2159897192  1.0959300545
C  -1.0763412857  1.7925478086 -0.5032188231
H  -3.6104688576  1.2803123288 -1.3094605712
H  -4.9227904937 -0.7468495760 -0.7721555888
C   0.2042046616  1.8982752913 -0.0339051302
C   0.7867971654  0.8854765865  0.7734065981
H  -1.5019314303  2.5758792624 -1.1266397887
H   0.8152071709  2.7595948752 -0.2990079345
C   2.2472069153  1.0156674870  1.1459774429
C   3.0453867937 -0.2376997863  0.7679502313
H   2.3410901134  1.1804950447  2.2270954166
H   2.6846400206  1.8878488302  0.6523859342
H   2.5703451546 -1.1434394061  1.1423454045
H   4.0797479346 -0.1757487258  1.1136538873
C   3.0073877165 -0.3726735974 -0.7431652144
O   3.3841500210  0.4510737874 -1.5420304756
O   2.4174673845 -1.5304286047 -1.1130040358
H   2.3787668073 -1.5284846316 -2.0832252785
27
Scanning combination 28/73: [314.1184]  Energy = -652.9172505442
C  -3.3586365706 -1.6511056124  0.4375148572
C  -2.0886393539 -1.5118327238  0.9288534262
C  -1.3188273161 -0.3549912626  0.6316482469
C  -1.8833504698  0.6547950847 -0.1870505729
C  -3.2076831605  0.4902167217 -0.6749249815
C  -3.9263595555 -0.6361183685 -0.3737134951
H   0.4239362146 -0.9855742990  1.7342108312
H  -3.9397935452 -2.5423714469  0.6602355018
H  -1.6438473867 -2.2866552463  1.5499954119
C   0.0121061359 -0.2009087324  1.1020035595
C  -1.0991419021  1.7967223701 -0.4995726506
H  -3.6348872130  1.2707436320 -1.3014431884
H  -4.9337451076 -0.7634353782 -0.7608468878
C   0.1856705706  1.9058183325 -0.0442155333
C   0.7725038083  0.8929061352  0.7597045186
H  -1.5326142048  2.5793334516 -1.1184886089
H   0.7910856631  2.7691196227 -0.3162349363
C   2.2383048328  0.9999362105  1.1155196734
C   2.9887392043 -0.2953227489  0.7850390804
H   2.3568657612  1.2294533009  2.1813717683
H   2.7057564048  1.8191618581  0.5617462799
H   2.4534682405 -1.1820820303  1.1222580311
H   4.0065307241 -0.2782986723  1.1805716408
C   3.0593551499 -0.3910873081 -0.7241071667
O   3.5578967312  0.4404854049 -1.4448665118
O   2.4521045649 -1.4928935072 -1.2082567693
H   2.5183744477 -1.4275016166 -2.1760421224
27
Scanning combination 29/73: [319.1184]  Energy = -652.9156458531
C  -3.3616431473 -1.6517480734  0.4385559911
C  -2.0922971942 -1.5107598086  0.9315865040
C  -1.3241973450 -0.3526209060  0.6360753057
C  -1.8889811880  0.6568013675 -0.1826372656
C  -3.2108345002  0.4888893271 -0.6754918305
C  -3.9290384281 -0.6379926095 -0.3749129205
H   0.4159546723 -0.9890037821  1.7367574184
H  -3.9432730074 -2.5417409594  0.6651286505
H  -1.6442841013 -2.2842308787  1.5526754884
C   0.0074896947 -0.2019388278  1.1064256102
C  -1.1033104652  1.7980449594 -0.4955655965
H  -3.6386391359  1.2703394180 -1.3004397543
H  -4.9387044810 -0.7632176762 -0.7572281944
C   0.1813727800  1.9031753882 -0.0395551867
C   0.7706007052  0.8896873200  0.7630691717
H  -1.5332553500  2.5783983691 -1.1205727203
H   0.7899050280  2.7634827080 -0.3146328399
C   2.2413158760  1.0005291603  1.1021968807
C   2.9908845464 -0.2975915442  0.7814832266
H   2.3549571008  1.2320805902  2.1694770157
H   2.7004930666  1.8230653864  0.5475710677
H   2.4154592801 -1.1790227380  1.0596159343
H   3.9874832274 -0.3190816086  1.2250608396
C   3.0861667125 -0.3795006034 -0.7326076972
O   3.5862133157  0.4471450727 -1.4573265187
O   2.4623058710 -1.4779775216 -1.2092195441
H   2.5227506061 -1.4313576284 -2.1772213617
27
Scanning combination 30/73: [324.1184]  Energy = -652.9156416360
C  -3.4383023105 -1.6270230043  0.5170392965
C  -2.1596474467 -1.4873004070  0.9837226067
C  -1.3824023491 -0.3487051088  0.6393610155
C  -1.9585338382  0.6594396638 -0.1729878186
C  -3.2935428179  0.4952203486 -0.6345720931
C  -4.0111015191 -0.6252807061 -0.3071862149
H   0.3790629539 -0.9911079733  1.6992698359
H  -4.0186184726 -2.5125093663  0.7640074347
H  -1.7087204905 -2.2465392311  1.6193452683
C  -0.0341853924 -0.2133927696  1.0605338394
C  -1.1668807269  1.7909732009 -0.5095276646
H  -3.7309382478  1.2662695006 -1.2657039316
H  -5.0209679672 -0.7611183211 -0.6854475159
C   0.1368733271  1.8799477041 -0.1012919464
C   0.7380277054  0.8572134151  0.6824986592
H  -1.6119757803  2.5874539786 -1.1038106221
H   0.7359444762  2.7435962044 -0.3848550889
C   2.2047899356  0.9517209616  1.0521571958
C   2.9734872035 -0.3494698346  0.7651309887
H   2.2852472638  1.1759187220  2.1248255458
H   2.6821109845  1.7809495180  0.5192792441
H   2.3642866291 -1.2330922718  0.9543227227
H   3.9007599663 -0.3835965100  1.3394252965
C   3.3183076742 -0.3970206820 -0.7067264185
O   4.1027307448  0.3291742976 -1.2704429374
O   2.6032723794 -1.3390261981 -1.3553353491
H   2.8526878857 -1.2831482180 -2.2922854793
27
Scanning combination 31/73: [329.1184]  Energy = -652.9141110335
C  -3.4439179566 -1.6271851818  0.5187336260
C  -2.1629425995 -1.4949356188  0.9817989570
C  -1.3832107185 -0.3558495650  0.6426541874
C  -1.9573052558  0.6535255644 -0.1701346709
C  -3.2912359941  0.4929846453 -0.6329984557
C  -4.0153524323 -0.6218372572 -0.3024946744
H   0.3809926813 -1.0064833174  1.6930113137
H  -4.0332455562 -2.5037509734  0.7752315285
H  -1.7147460024 -2.2611898702  1.6117665288
C  -0.0332331661 -0.2240822456  1.0606657066
C  -1.1653824628  1.7835133279 -0.5085713860
H  -3.7240959466  1.2703998062 -1.2593057901
H  -5.0335762321 -0.7422604437 -0.6639507043
C   0.1359827016  1.8725840942 -0.0977123492
C   0.7372488162  0.8506176817  0.6870854371
H  -1.6068754614  2.5673733621 -1.1217401873
H   0.7385230312  2.7324408936 -0.3852167169
C   2.2086644794  0.9558762919  1.0360873502
C   2.9687637206 -0.3560930642  0.7722062187
H   2.3073631625  1.2166884489  2.0988558634
H   2.6789178539  1.7666631077  0.4713294311
H   2.3262711035 -1.2248249356  0.9104946860
H   3.8759831174 -0.4224630064  1.3781395006
C   3.3295750700 -0.3836191119 -0.7005025996
O   4.1140434670  0.3500226799 -1.2510274413
O   2.6137218089 -1.3113681466 -1.3707571260
H   2.8837257864 -1.2500151544 -2.3020479221
27
Scanning combination 32/73: [334.1184]  Energy = -652.9122890983
C  -3.4538003517 -1.6238996529  0.5306646192
C  -2.1699732432 -1.4970944893  0.9864443270
C  -1.3887158221 -0.3595346172  0.6461923758
C  -1.9619938608  0.6497766876 -0.1679086553
C  -3.2981776269  0.4942350614 -0.6237255643
C  -4.0261256794 -0.6161143732 -0.2867019581
H   0.3774218712 -1.0109859549  1.6952520076
H  -4.0436854843 -2.5004384478  0.7863256287
H  -1.7184278993 -2.2685118718  1.6078829257
C  -0.0380607003 -0.2290121669  1.0631660709
C  -1.1689425795  1.7770244848 -0.5122907043
H  -3.7296076390  1.2708794937 -1.2517347737
H  -5.0458180817 -0.7331756494 -0.6442248133
C   0.1314219688  1.8660268978 -0.0996196748
C   0.7315200816  0.8442983446  0.6867667145
H  -1.6076700577  2.5604751903 -1.1275144027
H   0.7363487489  2.7244723883 -0.3864105613
C   2.2078725955  0.9535474956  1.0105934825
C   2.9564077115 -0.3688002831  0.7706800550
H   2.3286082202  1.2576359905  2.0593718236
H   2.6680882077  1.7428013216  0.4099301699
H   2.2947580800 -1.2287022116  0.8555974069
H   3.8362722596 -0.4635629663  1.4096081629
C   3.3679754343 -0.3779578043 -0.6885775134
O   4.1712834399  0.3646324142 -1.2008869064
O   2.6638864263 -1.2880143733 -1.3961414288
H   2.9330875658 -1.1948936345 -2.3246688942
27
Scanning combination 33/73: [339.1184]  Energy = -652.9124249075
C  -3.5443768649 -1.5904872920  0.6376967864
C  -2.2446216533 -1.4673604269  1.0449055105
C  -1.4638857041 -0.3479524419  0.6513701617
C  -2.0583591749  0.6612955535 -0.1473076767
C  -3.4168880121  0.5179023033 -0.5408198315
C  -4.1369475081 -0.5875386750 -0.1711008550
H   0.3337975881 -0.9990248667  1.6494260148
H  -4.1281816135 -2.4623111116  0.9230279630
H  -1.7772280605 -2.2309045553  1.6636285819
C  -0.0958352817 -0.2322691329  1.0077909146
C  -1.2610050050  1.7712414590 -0.5365171736
H  -3.8710132905  1.2916692632 -1.1570995285
H  -5.1693376224 -0.7042284908 -0.4907440412
C   0.0631441229  1.8391523425 -0.1944614006
C   0.6812708679  0.8124791093  0.5714961946
H  -1.7207908963  2.5677216196 -1.1179985204
H   0.6586552766  2.6924146714 -0.5146011738
C   2.1596502545  0.8963507924  0.9081094768
C   2.9444763916 -0.4129946228  0.6639393212
H   2.2607654131  1.1627743898  1.9680068545
H   2.6336959386  1.7106099982  0.3511910662
H   2.2873712524 -1.2824893936  0.6395924436
H   3.6932234504 -0.5481389034  1.4460210999
C   3.6869023543 -0.3658483908 -0.6529177345
O   4.6877635568  0.2770089627 -0.8623239894
O   3.0952287386 -1.1169135256 -1.6039905585
H   3.6356079736 -1.0211347242 -2.4052565898
27
Scanning combination 34/73: [344.1184]  Energy = -652.9118751440
C  -3.5529127866 -1.5851830438  0.6462255275
C  -2.2485633905 -1.4760989030  1.0452529291
C  -1.4608082617 -0.3595571703  0.6535673123
C  -2.0507022910  0.6520734573 -0.1460852251
C  -3.4092481598  0.5183454202 -0.5383706839
C  -4.1412460178 -0.5752764002 -0.1562321414
H   0.3426301046 -1.0212267885  1.6379898510
H  -4.1461515658 -2.4477244208  0.9401648838
H  -1.7861159309 -2.2475772191  1.6580329992
C  -0.0925150259 -0.2453522863  1.0117011743
C  -1.2509743030  1.7565504058 -0.5446402436
H  -3.8556643869  1.2957862710 -1.1543344866
H  -5.1772751413 -0.6779432376 -0.4659799982
C   0.0695250596  1.8272357444 -0.1927372389
C   0.6821265537  0.8066783625  0.5849283416
H  -1.7052814101  2.5419414120 -1.1453501633
H   0.6715133333  2.6745219218 -0.5162034300
C   2.1628007869  0.8995396775  0.9016709187
C   2.9206715786 -0.4264594263  0.6589997490
H   2.2877177055  1.2023602254  1.9510399803
H   2.6178453979  1.6973970987  0.3062862007
H   2.2331496469 -1.2688089008  0.5710585059
H   3.6373880303 -0.6077954641  1.4617443631
C   3.6879110847 -0.3481799177 -0.6437285610
O   4.6565605407  0.3449452111 -0.8409191894
O   3.1404966630 -1.1222668681 -1.6037366860
H   3.6711491184 -0.9808496703 -2.4047629056
27
Scanning combination 35/73: [349.1184]  Energy = -652.9177186791
C  -3.8006110465 -1.3965977100  0.8927760437
C  -2.4638859315 -1.4045007052  1.1834423028
C  -1.6048087340 -0.3949965639  0.6715960480
C  -2.1475169183  0.6145774576 -0.1632554690
C  -3.5395370568  0.5944249390 -0.4550052323
C  -4.3469052912 -0.3828391727  0.0647295396
H   0.1766422878 -1.1425907053  1.6317112643
H  -4.4540986637 -2.1658418308  1.2963981584
H  -2.0370377240 -2.1828539361  1.8135440843
C  -0.2212056602 -0.3628825035  0.9847636102
C  -1.2749201538  1.6173734015 -0.6663947434
H  -3.9547973928  1.3716595584 -1.0938672993
H  -5.4128243198 -0.3873686467 -0.1485052985
C   0.0547405241  1.6217157398 -0.3383179725
C   0.6073045487  0.6249375644  0.5097215316
H  -1.6847900086  2.3933096719 -1.3104753323
H   0.7116674373  2.3983044565 -0.7265337671
C   2.0739361364  0.6481727928  0.8906419311
C   2.8911737095 -0.5039440921  0.2756511361
H   2.1510881098  0.5984355055  1.9834286545
H   2.5235838710  1.5983726599  0.5899994931
H   2.2477381228 -1.2632473530 -0.1832352483
H   3.4767187715 -1.0317535847  1.0353550598
C   3.8622325707 -0.0454963427 -0.7894467169
O   3.9963081321  1.0822308440 -1.1998160926
O   4.6051700685 -1.0711586115 -1.2532648296
H   5.2071945822 -0.6878303614 -1.9139821452
27
Scanning combination 36/73: [354.1184]  Energy = -652.9174340222
C  -3.8030118357 -1.3980582558  0.8899174947
C  -2.4669298011 -1.4070412179  1.1846626917
C  -1.6057410727 -0.3950018654  0.6810861999
C  -2.1454541175  0.6147037764 -0.1559615438
C  -3.5356399987  0.5953636666 -0.4526281958
C  -4.3453528047 -0.3820319847  0.0632986849
H   0.1786910673 -1.1506698079  1.6348493355
H  -4.4576727456 -2.1674795351  1.2916482122
H  -2.0435191346 -2.1825884607  1.8198302745
C  -0.2230512535 -0.3626171539  0.9996947836
C  -1.2729943352  1.6158254480 -0.6614991753
H  -3.9477152616  1.3728352571 -1.0926070445
H  -5.4091621668 -0.3887375168 -0.1581098342
C   0.0553130561  1.6178372047 -0.3345439185
C   0.6047911288  0.6219562605  0.5169289613
H  -1.6801827716  2.3884963651 -1.3106322160
H   0.7166073946  2.3903531026 -0.7251356379
C   2.0753024431  0.6540102345  0.8765694591
C   2.8900405565 -0.5017245641  0.2724295420
H   2.1605377692  0.6114914273  1.9672104749
H   2.5175751866  1.6032307129  0.5656640195
H   2.2474882316 -1.2239352004 -0.2409928261
H   3.4531878378 -1.0625365555  1.0253759447
C   3.8710839116 -0.0338032809 -0.7779134457
O   4.0002586999  1.0918344671 -1.1946485897
O   4.6052360638 -1.0651036817 -1.2405271375
H   5.1941658733 -0.6918438525 -1.9169873634
27
Scanning combination 37/73: [359.1184]  Energy = -652.9171344046
C  -3.8059701843 -1.3985078214  0.8903014349
C  -2.4717917595 -1.4064281591  1.1950096270
C  -1.6069334444 -0.3966096152  0.6931765170
C  -2.1461672248  0.6116237160 -0.1468587512
C  -3.5344777408  0.5930309337 -0.4507354375
C  -4.3464213616 -0.3849872164  0.0590017674
H   0.1770191673 -1.1537574244  1.6485755279
H  -4.4619423225 -2.1711287532  1.2828149160
H  -2.0528498967 -2.1862006391  1.8285450721
C  -0.2227872046 -0.3657039392  1.0124480243
C  -1.2749845084  1.6127127732 -0.6530750845
H  -3.9414237915  1.3735654715 -1.0906700123
H  -5.4091008180 -0.3915666531 -0.1689450612
C   0.0520110539  1.6148538994 -0.3224438422
C   0.6019090011  0.6227097773  0.5329126916
H  -1.6806788936  2.3815582082 -1.3080303367
H   0.7175876257  2.3798743067 -0.7192326453
C   2.0779802808  0.6652355671  0.8663463914
C   2.8693771282 -0.5027971762  0.2488443133
H   2.2038256073  0.6611975451  1.9564089905
H   2.5026085331  1.6070023852  0.5126129476
H   2.2190253918 -1.1782320958 -0.3180612115
H   3.3708908591 -1.1188570320  1.0002353386
C   3.8907228029 -0.0359070331 -0.7655624909
O   4.0353223684  1.0952558861 -1.1655884807
O   4.6294322475 -1.0613707412 -1.2337457686
H   5.2065088768 -0.6844949870 -1.9193159228
27
Scanning combination 38/73: [364.1184]  Energy = -652.9171991054
C  -3.8103762593 -1.4068962385  0.8912633041
C  -2.4793351809 -1.4063958012  1.2118782596
C  -1.6148170397 -0.3903655846  0.7194290348
C  -2.1527230228  0.6142066404 -0.1265073666
C  -3.5367861638  0.5865650608 -0.4437605963
C  -4.3486663426 -0.3959222325  0.0554457265
H   0.1749744732 -1.1367027909  1.6780892669
H  -4.4675648815 -2.1822454193  1.2760745404
H  -2.0660496682 -2.1872931490  1.8486070704
C  -0.2298466251 -0.3529382914  1.0394434988
C  -1.2864327917  1.6169676419 -0.6365355629
H  -3.9378944412  1.3652602115 -1.0888886821
H  -5.4090706049 -0.4057702288 -0.1834455913
C   0.0403773043  1.6230201525 -0.3082414581
C   0.5911921315  0.6340025641  0.5493353681
H  -1.6942520257  2.3768420408 -1.2999669836
H   0.7043421974  2.3881235054 -0.7077043135
C   2.0762023619  0.6685034154  0.8320870746
C   2.8305884088 -0.5070714920  0.1841758189
H   2.2672785798  0.6981815682  1.9130281532
H   2.4842984632  1.5949560558  0.4203611067
H   2.1627351778 -1.1240433750 -0.4309613490
H   3.2756744915 -1.1825925642  0.9220231230
C   3.9221759517 -0.0358132989 -0.7508784931
O   4.1392810248  1.1043106236 -1.0864438106
O   4.6390670416 -1.0706159173 -1.2292476841
H   5.2733409131 -0.6852144223 -1.8561498195
27
Scanning combination 39/73: [369.1184]  Energy = -652.9180378620
C  -3.8123407526 -1.4191161193  0.9134584739
C  -2.4838025030 -1.3866615866  1.2436141061
C  -1.6347362208 -0.3630952231  0.7407496012
C  -2.1869847609  0.6279130964 -0.1114540600
C  -3.5710583484  0.5741704079 -0.4317703066
C  -4.3639079283 -0.4253116959  0.0656991293
H   0.1569014830 -1.0736017617  1.7159608257
H  -4.4547595159 -2.2084797798  1.2960823607
H  -2.0594662821 -2.1473534759  1.8962224749
C  -0.2485521375 -0.3101061427  1.0535009487
C  -1.3327415379  1.6413501273 -0.6212135056
H  -3.9865950510  1.3399258040 -1.0841427360
H  -5.4194180225 -0.4678712302 -0.1908633893
C   0.0010425049  1.6505013622 -0.3160926072
C   0.5720104041  0.6582690647  0.5239846010
H  -1.7560979411  2.4110381560 -1.2638834783
H   0.6508956771  2.4237028772 -0.7223955255
C   2.0653260149  0.6603352374  0.7685405320
C   2.7934342886 -0.4952696263  0.0535920857
H   2.2827732101  0.6317962823  1.8425941973
H   2.4793124028  1.6015611897  0.3928612822
H   2.1258844790 -1.0230125743 -0.6367104944
H   3.1184340451 -1.2692340609  0.7578066423
C   4.0088333288 -0.0539579756 -0.7281506535
O   4.3724077902  1.0834170179 -0.9130742876
O   4.6771294062 -1.1097715128 -1.2334858017
H   5.4170732249 -0.7387008504 -1.7427865925
27
Scanning combination 40/73: [374.1184]  Energy = -652.9184449468
C  -3.8117776885 -1.4172528812  0.9215930684
C  -2.4830166599 -1.3860371349  1.2490920945
C  -1.6350942872 -0.3642816471  0.7426696875
C  -2.1883591236  0.6280381389 -0.1076051629
C  -3.5717974881  0.5731894693 -0.4268832848
C  -4.3644817796 -0.4247851920  0.0728932238
H   0.1627172527 -1.0837328105  1.7023802881
H  -4.4530602105 -2.2050035652  1.3076758503
H  -2.0565012435 -2.1470397729  1.9007844490
C  -0.2475281031 -0.3152793736  1.0486360163
C  -1.3346658531  1.6387229767 -0.6230183661
H  -3.9867034230  1.3371960493 -1.0813133451
H  -5.4205074425 -0.4671009947 -0.1810126646
C  -0.0005545593  1.6477243359 -0.3201514596
C   0.5685273360  0.6593040626  0.5264570156
H  -1.7588389528  2.4029501913 -1.2707156613
H   0.6495031612  2.4202809896 -0.7280720193
C   2.0628237507  0.6643757054  0.7563880618
C   2.7745644542 -0.4911989627  0.0277164494
H   2.2948477991  0.6428549296  1.8294556047
H   2.4727975563  1.6021656779  0.3719115882
H   2.1185936357 -0.9568428905 -0.7187672259
H   3.0526641617 -1.2964280711  0.7140491553
C   4.0193118222 -0.0534179980 -0.7091552410
O   4.3996046760  1.0824693806 -0.8634388397
O   4.6778160515 -1.1083362095 -1.2289602278
H   5.4345880748 -0.7390061969 -1.7145529491
27
Scanning combination 41/73: [379.1184]  Energy = -652.9192017321
C  -3.8124784239 -1.4187963852  0.9478084642
C  -2.4812331178 -1.3827194329  1.2651142089
C  -1.6377875778 -0.3626145514  0.7464866662
C  -2.2023153145  0.6222444121 -0.1053395886
C  -3.5884238028  0.5654436100 -0.4105621045
C  -4.3760568986 -0.4312019938  0.0999578542
H   0.1709562156 -1.0718888946  1.6931191204
H  -4.4521468067 -2.2021310487  1.3462677517
H  -2.0498994056 -2.1423440780  1.9157257297
C  -0.2462009304 -0.3073034999  1.0391664456
C  -1.3581768702  1.6361209523 -0.6300683521
H  -4.0094033903  1.3254862144 -1.0659123035
H  -5.4347506996 -0.4733281811 -0.1423292166
C  -0.0211019895  1.6534738026 -0.3352729127
C   0.5620712414  0.6660298815  0.5021214070
H  -1.7897674460  2.3973886892 -1.2756085853
H   0.6203840834  2.4276860396 -0.7519711496
C   2.0598885294  0.6687010004  0.7084544922
C   2.7555333438 -0.4658283754 -0.0632717840
H   2.3126667367  0.6172942101  1.7749181159
H   2.4593456751  1.6207748912  0.3464275856
H   2.1127938237 -0.8473392673 -0.8670518416
H   2.9413169711 -1.3346088052  0.5772795195
C   4.0783727229 -0.0563444139 -0.6668135822
O   4.5517712400  1.0549485986 -0.6803552669
O   4.7056695936 -1.1116728142 -1.2227341865
H   5.5408356016 -0.7656984454 -1.5782293631
27
Scanning combination 42/73: [384.1184]  Energy = -652.9196183387
C  -3.8122106748 -1.4177057449  0.9529925221
C  -2.4801940223 -1.3809866704  1.2675503174
C  -1.6384106738 -0.3614629469  0.7458613297
C  -2.2045484162  0.6236384584 -0.1042464596
C  -3.5918035143  0.5649414120 -0.4089198684
C  -4.3773541581 -0.4326573797  0.1045736544
H   0.1682536651 -1.0741230159  1.6912682111
H  -4.4493574487 -2.2032362838  1.3517331493
H  -2.0454104393 -2.1388675393  1.9168906541
C  -0.2461812774 -0.3100385475  1.0355108658
C  -1.3600950526  1.6364788325 -0.6296290027
H  -4.0146881431  1.3245834668 -1.0630295840
H  -5.4365434799 -0.4760041571 -0.1365949079
C  -0.0233450528  1.6505230203 -0.3382918275
C   0.5623742997  0.6628351310  0.4982209681
H  -1.7926212872  2.3978467891 -1.2763320200
H   0.6180762550  2.4255335385 -0.7542689971
C   2.0607103183  0.6736490853  0.6995966208
C   2.7574555328 -0.4622665749 -0.0664775647
H   2.3122531897  0.6213622527  1.7664203783
H   2.4626400410  1.6236395741  0.3353743248
H   2.1493746789 -0.7896469603 -0.9187141630
H   2.8953296423 -1.3552267029  0.5529161508
C   4.0949593426 -0.0579007973 -0.6427543650
O   4.5660968719  1.0542264426 -0.6576880120
O   4.7238893852 -1.1121751512 -1.1996852864
H   5.5439302043 -0.7653059816 -1.5880265162
27
Scanning combination 43/73: [389.1184]  Energy = -652.9205543701
C  -3.8083005271 -1.4211235100  0.9839614249
C  -2.4729305592 -1.3745343753  1.2811357910
C  -1.6454065778 -0.3521089823  0.7454827040
C  -2.2275101679  0.6285179765 -0.0987943600
C  -3.6175613728  0.5583818405 -0.3880566090
C  -4.3885194421 -0.4437326414  0.1361223589
H   0.1788940746 -1.0504170656  1.6687581409
H  -4.4338816273 -2.2107142029  1.3922641966
H  -2.0241798770 -2.1244420790  1.9303382350
C  -0.2495937413 -0.2922853107  1.0139984415
C  -1.3966628222  1.6463378995 -0.6349956199
H  -4.0544343695  1.3124395779 -1.0403931898
H  -5.4500157281 -0.4972020772 -0.0920280826
C  -0.0554509270  1.6691711943 -0.3643634052
C   0.5463804442  0.6817496658  0.4590495619
H  -1.8429896857  2.4048788163 -1.2738822810
H   0.5723586169  2.4522809182 -0.7852280666
C   2.0460298503  0.6750115827  0.6382303647
C   2.7219119199 -0.4192977222 -0.2003052215
H   2.3084400435  0.5500887192  1.6947842038
H   2.4582704837  1.6420155842  0.3342511576
H   2.1475542175 -0.6381635539 -1.1080587413
H   2.7575050305 -1.3687072980  0.3439288626
C   4.1294834130 -0.0759821563 -0.6143253614
O   4.6774254343  0.9899161547 -0.4674677628
O   4.7379938673 -1.1288680243 -1.1964023189
H   5.6342074184 -0.8314412543 -1.4216887778
27
Scanning combination 44/73: [394.1184]  Energy = -652.9209688310
C  -3.8096500422 -1.4198583170  0.9898914214
C  -2.4727744903 -1.3748190548  1.2816790352
C  -1.6459903658 -0.3541501961  0.7407048557
C  -2.2298861692  0.6276399575 -0.1009967007
C  -3.6215684683  0.5585478064 -0.3843211840
C  -4.3924336738 -0.4420481679  0.1447382515
H   0.1785002840 -1.0612839997  1.6563585611
H  -4.4347261862 -2.2070591204  1.4029357373
H  -2.0220194003 -2.1241807504  1.9299492010
C  -0.2490441050 -0.2993412508  1.0056768249
C  -1.3969692187  1.6437063653 -0.6387993932
H  -4.0622466138  1.3130032190 -1.0330718832
H  -5.4551935092 -0.4944745849 -0.0790850287
C  -0.0548688416  1.6614722923 -0.3704591972
C   0.5479483478  0.6759516720  0.4563416039
H  -1.8419946371  2.4047723459 -1.2760449708
H   0.5728794913  2.4423944608 -0.7949053964
C   2.0494478535  0.6790967560  0.6337578627
C   2.7254154786 -0.4179152251 -0.2014972125
H   2.3146956935  0.5697454629  1.6932714860
H   2.4544879303  1.6439767906  0.3139037899
H   2.1849642515 -0.5698203983 -1.1448235527
H   2.7128594308 -1.3884632571  0.3066833721
C   4.1483457195 -0.0829773510 -0.5808776578
O   4.6948925279  0.9838590137 -0.4324127104
O   4.7599237835 -1.1310330008 -1.1687808265
H   5.6404983502 -0.8156354347 -1.4317516266
27
Scanning combination 45/73: [399.1184]  Energy = -652.9214598987
C  -3.8105761516 -1.4195792544  1.0069025827
C  -2.4712690055 -1.3811473558  1.2891291013
C  -1.6436620689 -0.3618508992  0.7445203953
C  -2.2321376890  0.6204838128 -0.0937041146
C  -3.6242482842  0.5571650516 -0.3682939625
C  -4.3958190406 -0.4396172480  0.1658121731
H   0.1935747708 -1.0684002075  1.6396662908
H  -4.4370841619 -2.2041571194  1.4236424447
H  -2.0213275540 -2.1361043982  1.9317665484
C  -0.2441913923 -0.3035571550  0.9987251880
C  -1.4067934644  1.6362731514 -0.6419908997
H  -4.0616973819  1.3132358577 -1.0171317374
H  -5.4601812668 -0.4850118371 -0.0493733244
C  -0.0649068641  1.6610657973 -0.3793048084
C   0.5435191263  0.6762610966  0.4433949537
H  -1.8578974662  2.3912247894 -1.2812662857
H   0.5605378853  2.4422068167 -0.8075120962
C   2.0460370762  0.6900117700  0.5932581256
C   2.7097440146 -0.3865311662 -0.2722322020
H   2.3468356646  0.5764635273  1.6427221535
H   2.4300869582  1.6619555950  0.2720276010
H   2.2048099049 -0.4650025637 -1.2440524123
H   2.6273714252 -1.3771649857  0.1878813030
C   4.1636891127 -0.0927009996 -0.5496626627
O   4.7382595667  0.9387216973 -0.2957102546
O   4.7754706698 -1.1287412983 -1.1581024974
H   5.6890783497 -0.8408167220 -1.3214459746
27
Scanning combination 46/73: [404.1184]  Energy = -652.9215566967
C  -3.8081872766 -1.4204758717  1.0128953595
C  -2.4683177515 -1.3776348307  1.2895235145
C  -1.6453492063 -0.3584454151  0.7398196737
C  -2.2399661901  0.6225091718 -0.0959955333
C  -3.6339848208  0.5558945513 -0.3639080952
C  -4.4001711235 -0.4435859518  0.1733348157
H   0.1933698295 -1.0643398834  1.6323483127
H  -4.4297673147 -2.2061882741  1.4337736064
H  -2.0118568768 -2.1283346226  1.9319305944
C  -0.2449754278 -0.2999459006  0.9907464723
C  -1.4166129671  1.6399072932 -0.6446384272
H  -4.0792002873  1.3103149292 -1.0096865613
H  -5.4653620005 -0.4928694282 -0.0365354630
C  -0.0732315819  1.6636147849 -0.3865039962
C   0.5411722402  0.6789740362  0.4332661578
H  -1.8694420508  2.3991290913 -1.2784946512
H   0.5489623817  2.4449109823 -0.8182334090
C   2.0455652135  0.6951720513  0.5803217394
C   2.7177713646 -0.3798792757 -0.2798797406
H   2.3321264929  0.5653297241  1.6310393010
H   2.4413596094  1.6676860894  0.2756838895
H   2.2722992846 -0.4021262793 -1.2827255537
H   2.5927104628 -1.3866807340  0.1332393192
C   4.1810203444 -0.1005044477 -0.5221828445
O   4.7616004448  0.9264446415 -0.2632157387
O   4.7821435913 -1.1340902872 -1.1448274705
H   5.6965231224 -0.8514641251 -1.3103048282
27
Scanning combination 47/73: [409.1184]  Energy = -652.9224250321
C  -3.7948689153 -1.4289033913  1.0484637443
C  -2.4505099828 -1.3786816842  1.3030863796
C  -1.6417675894 -0.3552541861  0.7360588778
C  -2.2559349822  0.6219468212 -0.0893967716
C  -3.6542243508  0.5485265640 -0.3311387431
C  -4.4067182849 -0.4539957007  0.2203948501
H   0.2225033365 -1.0436750646  1.5889086863
H  -4.4072491255 -2.2168981620  1.4802250886
H  -1.9828201334 -2.1276727647  1.9402080995
C  -0.2369585355 -0.2872062042  0.9534610299
C  -1.4503646406  1.6453396320 -0.6535869600
H  -4.1123384012  1.3015350353 -0.9689341863
H  -5.4746646638 -0.5101886962  0.0247248232
C  -0.1012165746  1.6769353807 -0.4285802427
C   0.5339896718  0.6928801525  0.3752286823
H  -1.9255900746  2.4020611366 -1.2736803563
H   0.5044586928  2.4665059812 -0.8689299390
C   2.0385535183  0.7110483083  0.5091593477
C   2.7118541048 -0.3061326990 -0.4173421575
H   2.3439407091  0.5208883288  1.5449340386
H   2.4165058156  1.7069715609  0.2573731314
H   2.3231060851 -0.2157368682 -1.4383908591
H   2.4911204949 -1.3363320308 -0.1130976095
C   4.2102346209 -0.1315561440 -0.4664513224
O   4.8316232335  0.7845369819  0.0174135892
O   4.8123844166 -1.1409867232 -1.1272365981
H   5.7653594008 -0.9588111086 -1.0773261197
27
Scanning combination 48/73: [414.1184]  Energy = -652.9224688713
C  -3.7936998337 -1.4284825230  1.0511511098
C  -2.4487482107 -1.3782936992  1.3027236976
C  -1.6409299951 -0.3549093062  0.7359882392
C  -2.2580641900  0.6218457921 -0.0883422802
C  -3.6556786087  0.5471126096 -0.3307768976
C  -4.4069880627 -0.4550552806  0.2220586229
H   0.2197961482 -1.0486559797  1.5897192786
H  -4.4046843903 -2.2173583023  1.4825903252
H  -1.9791942021 -2.1268352445  1.9388652851
C  -0.2358031473 -0.2889862917  0.9552851630
C  -1.4531511863  1.6457715084 -0.6524251193
H  -4.1157293641  1.3007528427 -0.9671611658
H  -5.4751250560 -0.5109979793  0.0289660603
C  -0.1046481807  1.6741852781 -0.4262912018
C   0.5340526377  0.6915986602  0.3767758279
H  -1.9247967310  2.4024109285 -1.2756181567
H   0.5024938440  2.4615103336 -0.8681605006
C   2.0399351693  0.7197240534  0.5003734766
C   2.7115731952 -0.3005747014 -0.4233396661
H   2.3416573361  0.5288806027  1.5383260448
H   2.4212476015  1.7132169336  0.2473586269
H   2.3812135613 -0.1626602667 -1.4602333349
H   2.4600437929 -1.3309986590 -0.1515429935
C   4.2136034656 -0.1397549076 -0.4459280888
O   4.8338960209  0.7797816931  0.0328837510
O   4.8135974631 -1.1517672599 -1.1041910481
H   5.7651743047 -0.9550901922 -1.0917436918
27
Scanning combination 49/73: [419.1184]  Energy = -652.9217689339
C  -3.7950965040 -1.4286236030  1.0501087026
C  -2.4499454286 -1.3790301486  1.3033076573
C  -1.6412064867 -0.3564164694  0.7377319581
C  -2.2575683914  0.6213068782 -0.0866935194
C  -3.6548775553  0.5467407697 -0.3309991539
C  -4.4067451409 -0.4547623132  0.2206093437
H   0.2192820934 -1.0535008956  1.5943822992
H  -4.4053875543 -2.2171219021  1.4814116503
H  -1.9804290360 -2.1273528749  1.9393638787
C  -0.2355723174 -0.2919627816  0.9608516821
C  -1.4520062217  1.6443563687 -0.6506893542
H  -4.1141644427  1.3007003234 -0.9677123393
H  -5.4749306795 -0.5106578630  0.0273242518
C  -0.1050937466  1.6716937471 -0.4205749937
C   0.5335455270  0.6913698296  0.3851006250
H  -1.9227055168  2.4012376335 -1.2743328310
H   0.5023079371  2.4576221742 -0.8639712239
C   2.0409646915  0.7296584790  0.4889563439
C   2.7097165929 -0.2981452387 -0.4274788288
H   2.3445770178  0.5363991376  1.5244245253
H   2.4238843834  1.7229820589  0.2369141336
H   2.4284010732 -0.1115860068 -1.4724167343
H   2.4422981925 -1.3296139671 -0.1777925403
C   4.2121467695 -0.1458314818 -0.4366348842
O   4.8289644608  0.7815533607  0.0312632376
O   4.8115689333 -1.1534635498 -1.1021104845
H   5.7624901244 -0.9535431353 -1.0922189853
27
Scanning combination 50/73: [424.1184]  Energy = -652.9227620218
C  -3.7544413645 -1.4420662007  1.0973244312
C  -2.4039743227 -1.3773401688  1.3062239220
C  -1.6274943521 -0.3465104524  0.7107191383
C  -2.2757898876  0.6248319868 -0.0943555036
C  -3.6799310490  0.5332148773 -0.2929379566
C  -4.4017726517 -0.4772726780  0.2849928632
H   0.2620208339 -1.0140658532  1.5140513907
H  -4.3411807704 -2.2363643782  1.5513493739
H  -1.9030483967 -2.1162972459  1.9293494884
C  -0.2200797407 -0.2626556779  0.8896385025
C  -1.4938353935  1.6540772922 -0.6831022102
H  -4.1707859154  1.2780436708 -0.9152062019
H  -5.4745464691 -0.5466126142  0.1275630485
C  -0.1387058211  1.7010075989 -0.4951891730
C   0.5264470634  0.7271046329  0.2980919657
H  -1.9915650286  2.4078941020 -1.2892707664
H   0.4455464367  2.4976053133 -0.9525147640
C   2.0313838244  0.7605830885  0.4324657437
C   2.7335005976 -0.1856267825 -0.5460158068
H   2.3202368755  0.4747424404  1.4502521403
H   2.4111474645  1.7762199269  0.2825135981
H   2.5631609991  0.1136687864 -1.5877816246
H   2.3591340563 -1.2113635546 -0.4563605514
C   4.2271977139 -0.2112906039 -0.3274258416
O   4.8475902329  0.5153488742  0.4118810243
O   4.8190258236 -1.1607276212 -1.0797256872
H   5.7684991250 -1.1175520494 -0.8805495420
27
Scanning combination 51/73: [429.1184]  Energy = -652.9223198448
C  -3.7549637104 -1.4420217911  1.0982268261
C  -2.4034460178 -1.3781815322  1.3058050457
C  -1.6257809779 -0.3480810449  0.7120889504
C  -2.2756215989  0.6218469742 -0.0942827555
C  -3.6804777712  0.5325043449 -0.2918691828
C  -4.4026657205 -0.4760203335  0.2873761432
H   0.2619831633 -1.0207474658  1.5172742119
H  -4.3418513842 -2.2361206661  1.5522420540
H  -1.9027503844 -2.1176185705  1.9280060531
C  -0.2174899639 -0.2658635628  0.8947789539
C  -1.4937834985  1.6504470105 -0.6827987898
H  -4.1711781832  1.2785052966 -0.9139853267
H  -5.4758731006 -0.5446999367  0.1301751530
C  -0.1399757443  1.6960571694 -0.4909078525
C   0.5283091665  0.7237594576  0.3028808820
H  -1.9882217098  2.4043907737 -1.2919838439
H   0.4450339384  2.4907348954 -0.9497096545
C   2.0341966533  0.7711862857  0.4247164350
C   2.7330536392 -0.1813935486 -0.5493892822
H   2.3263345771  0.4966484003  1.4452557254
H   2.4080753294  1.7866350184  0.2640092944
H   2.6158272469  0.1669023880 -1.5818476183
H   2.3314963691 -1.1984911549 -0.5059843012
C   4.2260913216 -0.2255039637 -0.3147198655
O   4.8481429279  0.4996965972  0.4255404399
O   4.8222240539 -1.1703435515 -1.0696610678
H   5.7727157173 -1.1072585838 -0.8792434136
27
Scanning combination 52/73: [434.1184]  Energy = -652.9215081636
C  -3.7553848748 -1.4456109112  1.1006379599
C  -2.4032374658 -1.3819838428  1.3084061258
C  -1.6238284642 -0.3504806701  0.7158575044
C  -2.2742463565  0.6183819712 -0.0915926048
C  -3.6794060496  0.5307791163 -0.2883642286
C  -4.4028114500 -0.4774006249  0.2910792644
H   0.2616049526 -1.0244812699  1.5216517131
H  -4.3452377009 -2.2384512124  1.5555103452
H  -1.9056809305 -2.1247821131  1.9298699420
C  -0.2144736967 -0.2673759954  0.8995488644
C  -1.4928996873  1.6464903353 -0.6811277107
H  -4.1676842037  1.2779935705 -0.9115128330
H  -5.4766057458 -0.5428914431  0.1346488082
C  -0.1401496864  1.6935113770 -0.4867770701
C   0.5305311572  0.7220908665  0.3053899600
H  -1.9878664582  2.3971170804 -1.2934141580
H   0.4464870831  2.4863230694 -0.9463853256
C   2.0370719775  0.7846816588  0.4083631643
C   2.7353793267 -0.1539627531 -0.5802593210
H   2.3482860019  0.5240708459  1.4274541712
H   2.3919955887  1.8042918377  0.2391668329
H   2.6756229416  0.2495683039 -1.5985951432
H   2.3041013782 -1.1584260777 -0.5910456992
C   4.2188366823 -0.2380630797 -0.3028536669
O   4.8314869730  0.4700826687  0.4606779760
O   4.8182214396 -1.1825887848 -1.0555316673
H   5.7689376305 -1.1113822488 -0.8689345996
27
Scanning combination 53/73: [439.1184]  Energy = -652.9218268696
C  -3.7123021772 -1.4581570695  1.1359964088
C  -2.3574594086 -1.3754448313  1.3118091557
C  -1.6090160324 -0.3374973752  0.6942755317
C  -2.2855079068  0.6187934898 -0.1043542337
C  -3.6940428025  0.5114929571 -0.2655367359
C  -4.3904121537 -0.5015663856  0.3381074550
H   0.3012810576 -0.9714519595  1.4724439547
H  -4.2798712965 -2.2541295134  1.6108168141
H  -1.8324411518 -2.1051754187  1.9257884589
C  -0.1997169488 -0.2338094571  0.8479362795
C  -1.5249081010  1.6512400756 -0.7163594480
H  -4.2078206378  1.2503032177 -0.8773566025
H  -5.4669073962 -0.5811523561  0.2094167186
C  -0.1670350328  1.7158211775 -0.5551526752
C   0.5254931770  0.7605298515  0.2378842404
H  -2.0442587854  2.3923955641 -1.3200765938
H   0.3946008083  2.5162949058 -1.0345931258
C   2.0299928308  0.8283886118  0.3736066010
C   2.7693655400 -0.0308682113 -0.6605735055
H   2.3209496694  0.4795451811  1.3717867771
H   2.3748737705  1.8656727932  0.3026854055
H   2.8190363602  0.4623012987 -1.6394265916
H   2.2808914776 -0.9988074640 -0.8161973643
C   4.1956962655 -0.3028566157 -0.2375012394
O   4.7442551130  0.1540577748  0.7362189910
O   4.8167662903 -1.1366888262 -1.0951259082
H   5.7144533497 -1.2680465564 -0.7448581017
27
Scanning combination 54/73: [444.1184]  Energy = -652.9210550044
C  -3.7127967919 -1.4565757936  1.1375597072
C  -2.3582286183 -1.3768808844  1.3123893838
C  -1.6066193161 -0.3405733063  0.6960671504
C  -2.2838186426  0.6146671835 -0.1046550331
C  -3.6924726387  0.5114833392 -0.2653906116
C  -4.3907059715 -0.4994904723  0.3404400433
H   0.3011483155 -0.9798675794  1.4793097155
H  -4.2813828867 -2.2531522650  1.6110287491
H  -1.8341631656 -2.1082641584  1.9254917678
C  -0.1966679863 -0.2383194879  0.8556262781
C  -1.5238215048  1.6457065693 -0.7178199636
H  -4.2063192029  1.2495998415 -0.8780518253
H  -5.4666727198 -0.5784384728  0.2108446923
C  -0.1674310954  1.7101208008 -0.5491665181
C   0.5265770558  0.7572289022  0.2461149944
H  -2.0382468616  2.3866218961 -1.3262008580
H   0.3976716244  2.5078089620 -1.0268828905
C   2.0315033355  0.8406593757  0.3658532320
C   2.7691595193 -0.0286561384 -0.6609841932
H   2.3257882300  0.5024286379  1.3661757975
H   2.3750600229  1.8768418162  0.2839296523
H   2.8760515805  0.4951237661 -1.6181124134
H   2.2661000416 -0.9795663168 -0.8590931734
C   4.1897285790 -0.3193561322 -0.2202744475
O   4.7420884908  0.1330328327  0.7541327746
O   4.8126053857 -1.1473699700 -1.0830695331
H   5.7181125562 -1.2551328116 -0.7498825138
27
Scanning combination 55/73: [449.1184]  Energy = -652.9201295231
C  -3.7136417443 -1.4597927872  1.1421618919
C  -2.3579504080 -1.3831616886  1.3183083340
C  -1.6029260215 -0.3472983881  0.7028994240
C  -2.2787805001  0.6077017304 -0.0996911885
C  -3.6873426012  0.5062034790 -0.2615831169
C  -4.3889371052 -0.5018198138  0.3443989340
H   0.3074229244 -0.9804277913  1.4894066635
H  -4.2852203866 -2.2543130923  1.6151483170
H  -1.8397072249 -2.1182799981  1.9315536804
C  -0.1918499036 -0.2435687601  0.8616681883
C  -1.5203377162  1.6376404924 -0.7164086415
H  -4.1967342953  1.2452651808 -0.8766168924
H  -5.4658186213 -0.5763661758  0.2151154541
C  -0.1653937966  1.7036334687 -0.5472665095
C   0.5291062796  0.7526629847  0.2490666468
H  -2.0372932179  2.3732202375 -1.3291782767
H   0.4016809852  2.5020407867 -1.0220922308
C   2.0337756457  0.8581662031  0.3539945957
C   2.7816316701  0.0026080796 -0.6826828382
H   2.3593262097  0.5494875790  1.3548195073
H   2.3449273702  1.9027081040  0.2479297392
H   2.9511105013  0.5634965993 -1.6112433980
H   2.2556844458 -0.9220307935 -0.9438878930
C   4.1746438396 -0.3485557896 -0.2014636912
O   4.7033096565  0.0596341370  0.8047429402
O   4.8087427503 -1.1614347558 -1.0701181337
H   5.7085887898 -1.2771168455 -0.7219641405
27
Scanning combination 56/73: [454.1184]  Energy = -652.9193249647
C  -3.7042249045 -1.4637356196  1.1516128615
C  -2.3473392026 -1.3862169574  1.3247545940
C  -1.5934730796 -0.3517271327  0.7046617700
C  -2.2757348309  0.6006071925 -0.0959101113
C  -3.6839263994  0.4970029463 -0.2560389756
C  -4.3832559315 -0.5108376806  0.3509452181
H   0.3222317327 -0.9743566126  1.4879166488
H  -4.2734414199 -2.2582474890  1.6266074019
H  -1.8287409340 -2.1198040993  1.9397931157
C  -0.1807113282 -0.2415316001  0.8580321643
C  -1.5247177842  1.6302759780 -0.7201660149
H  -4.1932978570  1.2354098811 -0.8717563033
H  -5.4609012667 -0.5853923922  0.2256446462
C  -0.1703274560  1.7016053417 -0.5576397262
C   0.5324292526  0.7590653253  0.2398444319
H  -2.0474220649  2.3633859421 -1.3302408120
H   0.3958723150  2.4976002873 -1.0366363438
C   2.0365567488  0.8894299930  0.3352296983
C   2.8032188094  0.0705276481 -0.7197987360
H   2.3759008997  0.5780297941  1.3302726469
H   2.3242207310  1.9418029478  0.2393108307
H   3.0386752874  0.6754647141 -1.6054922876
H   2.2576678051 -0.8151291519 -1.0600145914
C   4.1516577567 -0.3707723506 -0.1902081536
O   4.6379036108 -0.0493679627  0.8680531027
O   4.8002642561 -1.1579922775 -1.0707942109
H   5.6676320509 -1.3446232251 -0.6747516534
27
Scanning combination 57/73: [459.1184]  Energy = -652.9193981592
C  -3.6459508924 -1.4773513622  1.1807662178
C  -2.2884538941 -1.3775897204  1.3260341599
C  -1.5645070308 -0.3388144379  0.6809465947
C  -2.2710050905  0.5925551731 -0.1230244226
C  -3.6815474044  0.4687463725 -0.2508536053
C  -4.3531397659 -0.5403140011  0.3858251604
H   0.3767578183 -0.9226148202  1.4405082522
H  -4.1941308028 -2.2741511278  1.6765384761
H  -1.7444511237 -2.0938703031  1.9391276827
C  -0.1551897468 -0.2026596683  0.8197710228
C  -1.5399037767  1.6249772136 -0.7685317033
H  -4.2177140296  1.1912590930 -0.8629782869
H  -5.4308992917 -0.6346889287  0.2804958568
C  -0.1842350408  1.7249596126 -0.6152726206
C   0.5358532005  0.8088287497  0.1979363642
H  -2.0782488211  2.3430491700 -1.3837641845
H   0.3594284819  2.5245327179 -1.1142892700
C   2.0340590780  0.9490603999  0.3457143311
C   2.8343214877  0.1705234969 -0.7130959585
H   2.3387132123  0.5835914762  1.3314824302
H   2.3174236935  2.0074167921  0.3147570522
H   3.1639019185  0.8262748250 -1.5256092604
H   2.2522205011 -0.6319554707 -1.1759100961
C   4.0872802198 -0.4606586062 -0.1430251936
O   4.4759975106 -0.3816503083  0.9981864874
O   4.7642103759 -1.1531098855 -1.0809974114
H   5.5402508596 -1.5198260641 -0.6243607199
27
Scanning combination 58/73: [464.1184]  Energy = -652.9185159359
C  -3.6453465690 -1.4787374337  1.1804430325
C  -2.2876788637 -1.3782455819  1.3258220279
C  -1.5629640986 -0.3393774926  0.6824105142
C  -2.2693738976  0.5916513894 -0.1218989012
C  -3.6794980137  0.4668953159 -0.2520861770
C  -4.3518750722 -0.5424846598  0.3841010898
H   0.3741623707 -0.9263587989  1.4466188633
H  -4.1933026448 -2.2746300398  1.6785374086
H  -1.7422638660 -2.0930591019  1.9390550976
C  -0.1533267489 -0.2039059368  0.8251596919
C  -1.5380709794  1.6230513891 -0.7679230072
H  -4.2150208769  1.1894257767 -0.8649323663
H  -5.4300869931 -0.6347542310  0.2814964377
C  -0.1829595379  1.7226041586 -0.6115433188
C   0.5372278594  0.8083472397  0.2048637537
H  -2.0752174623  2.3385365617 -1.3866383690
H   0.3643125445  2.5196096474 -1.1111250694
C   2.0354958958  0.9601025055  0.3396837183
C   2.8327456711  0.1714819067 -0.7137814708
H   2.3393068672  0.5920845635  1.3253106129
H   2.3216150483  2.0178096488  0.3129202805
H   3.2283279667  0.8307536886 -1.4938844861
H   2.2449662489 -0.6102665183 -1.2046802076
C   4.0741719794 -0.4739706549 -0.1290370635
O   4.4675972256 -0.3887075369  1.0103594439
O   4.7530646183 -1.1546720841 -1.0750392112
H   5.5396155163 -1.5166196781 -0.6342953066
27
Scanning combination 59/73: [469.1184]  Energy = -652.9177676443
C  -3.6407974179 -1.4833584177  1.1861722659
C  -2.2826506008 -1.3832291463  1.3327269889
C  -1.5550575165 -0.3457282789  0.6884480061
C  -2.2610661670  0.5847305546 -0.1172242385
C  -3.6705973410  0.4585687808 -0.2502830385
C  -4.3453201349 -0.5487870298  0.3850244338
H   0.3825465102 -0.9200910713  1.4614637238
H  -4.1900057921 -2.2799191040  1.6823394411
H  -1.7410886795 -2.1003256923  1.9477322076
C  -0.1436257068 -0.2064518647  0.8293402058
C  -1.5323169367  1.6140486501 -0.7687147543
H  -4.2042811403  1.1794330913 -0.8669532911
H  -5.4238286575 -0.6410328399  0.2821008633
C  -0.1775086853  1.7163706377 -0.6138608788
C   0.5449197766  0.8052763198  0.2036834698
H  -2.0732160222  2.3251988168 -1.3881918063
H   0.3684141447  2.5168132844 -1.1088291771
C   2.0417010163  0.9852084054  0.3311693016
C   2.8630479914  0.2341627551 -0.7357186582
H   2.3791143523  0.6511225006  1.3185884542
H   2.2786791568  2.0529977063  0.2803518427
H   3.3110025498  0.9367128777 -1.4495856640
H   2.2691467447 -0.4889131299 -1.3018715123
C   4.0443333788 -0.4985890967 -0.1348939891
O   4.3882360695 -0.4715059752  1.0235187017
O   4.7368799398 -1.1781497720 -1.0711914655
H   5.5023465400 -1.5565466423 -0.6081063421
27
Scanning combination 60/73: [474.1184]  Energy = -652.9179651890
C  -3.5816503424 -1.4981696881  1.2023470504
C  -2.2239251487 -1.3770428749  1.3382786390
C  -1.5165898471 -0.3371419876  0.6756999122
C  -2.2420370980  0.5700917990 -0.1392875250
C  -3.6510737046  0.4248689257 -0.2597724689
C  -4.3055889354 -0.5833777230  0.3959392514
H   0.4341938279 -0.8679448249  1.4475860960
H  -4.1159834468 -2.2950507551  1.7145088645
H  -1.6667232143 -2.0756379032  1.9594221726
C  -0.1098999359 -0.1675730168  0.8155030116
C  -1.5326422314  1.6041211318 -0.8043380903
H  -4.1990820554  1.1327996570 -0.8793584428
H  -5.3831342038 -0.6910390628  0.3020259586
C  -0.1804210971  1.7372083414 -0.6478712813
C   0.5573641705  0.8563664760  0.1882508266
H  -2.0861752646  2.2988207072 -1.4327032653
H   0.3495506899  2.5378793905 -1.1586153978
C   2.0476181788  1.0575290597  0.3510801367
C   2.8912681057  0.3345244023 -0.7169649574
H   2.3600215443  0.6966595108  1.3361358335
H   2.2720952216  2.1295966154  0.3339104715
H   3.4183595971  1.0416461228 -1.3651334457
H   2.2816444078 -0.2945920652 -1.3728375297
C   3.9594858600 -0.5547459325 -0.1202883851
O   4.1755520847 -0.7308872793  1.0551311441
O   4.6861312399 -1.1624959602 -1.0788131935
H   5.3095682851 -1.7394577914 -0.6067746376
27
Scanning combination 61/73: [479.1184]  Energy = -652.9174809907
C  -3.5783487583 -1.4994964373  1.2020696581
C  -2.2211951520 -1.3762834698  1.3381559092
C  -1.5153519287 -0.3346896703  0.6780009077
C  -2.2410683270  0.5714084705 -0.1382893906
C  -3.6493448837  0.4214314293 -0.2608169019
C  -4.3034351454 -0.5871927498  0.3945287162
H   0.4297178863 -0.8687780951  1.4552418952
H  -4.1118103414 -2.2958193981  1.7150330602
H  -1.6623730051 -2.0736392387  1.9593217855
C  -0.1089282221 -0.1658312257  0.8211474759
C  -1.5309921876  1.6043163664 -0.8044584518
H  -4.1986686582  1.1260667295 -0.8824579955
H  -5.3811953122 -0.6954019727  0.3017158417
C  -0.1794343357  1.7377703414 -0.6437936654
C   0.5579861342  0.8581507971  0.1953893297
H  -2.0819320035  2.2959199497 -1.4385014750
H   0.3532858834  2.5372162735 -1.1538943670
C   2.0477967506  1.0689269543  0.3462140865
C   2.8894299524  0.3366480059 -0.7158497998
H   2.3694506493  0.7035092890  1.3262571659
H   2.2756999392  2.1403389224  0.3303871220
H   3.4754087848  1.0400423036 -1.3170224846
H   2.2862064397 -0.2584483884 -1.4073577828
C   3.9381865744 -0.5753708254 -0.1080898023
O   4.1651357321 -0.7430552063  1.0668029369
O   4.6563404474 -1.1834766978 -1.0736382488
H   5.3245455895 -1.7211849041 -0.6173881773
27
Scanning combination 62/73: [484.1184]  Energy = -652.9182012085
C  -3.4648786236 -1.5273030869  1.2154387807
C  -2.1129436545 -1.3608375645  1.3457727451
C  -1.4441854182 -0.3087608687  0.6654200070
C  -2.1933951372  0.5595355926 -0.1701927308
C  -3.5959394024  0.3591532075 -0.2909053722
C  -4.2174435690 -0.6548189972  0.3890315749
H   0.5205527474 -0.7663868747  1.4486542453
H  -3.9724323251 -2.3283336591  1.7461956039
H  -1.5285714848 -2.0274100403  1.9775599329
C  -0.0485810396 -0.0887970980  0.8144019893
C  -1.5095827876  1.6027955649 -0.8516141926
H  -4.1692915939  1.0300688331 -0.9272870207
H  -5.2911961974 -0.7987319417  0.3005730436
C  -0.1650528410  1.7928733186 -0.6748465475
C   0.5853840116  0.9582643042  0.1971502852
H  -2.0760866943  2.2576745392 -1.5109654312
H   0.3457620130  2.5960822929 -1.2015958203
C   2.0661719613  1.1851189331  0.4034272747
C   2.9245392432  0.4828332697 -0.6653550406
H   2.3623252972  0.8227008048  1.3928951109
H   2.2662984239  2.2619675388  0.3882921091
H   3.5875758303  1.1832047932 -1.1849375920
H   2.2979357742  0.0557467152 -1.4574962245
C   3.7548852092 -0.6570970445 -0.1213014721
O   3.7655994612 -1.0593573663  1.0180481563
O   4.5097851609 -1.2153978639 -1.0887525398
H   5.0050932210 -1.9355373366 -0.6641385711
27
Scanning combination 63/73: [489.1184]  Energy = -652.9189041261
C  -3.4657783796 -1.5356927694  1.2099447300
C  -2.1150607001 -1.3648916511  1.3567812863
C  -1.4378296049 -0.3119771784  0.6837332472
C  -2.1845197537  0.5538751204 -0.1576246168
C  -3.5850145317  0.3522334811 -0.2937467741
C  -4.2120790827 -0.6642523030  0.3765310461
H   0.5244713036 -0.7644931788  1.4803882929
H  -3.9778422246 -2.3400452696  1.7324953247
H  -1.5396527509 -2.0318372374  1.9962111140
C  -0.0400486806 -0.0907486598  0.8365530892
C  -1.5034548248  1.6018638447 -0.8319290443
H  -4.1505443622  1.0238447883 -0.9371753162
H  -5.2843334018 -0.8104190978  0.2750935280
C  -0.1612600174  1.7933084529 -0.6516277212
C   0.5939263679  0.9515480523  0.2082036783
H  -2.0705963936  2.2565729619 -1.4902184278
H   0.3502833512  2.6035718005 -1.1663466898
C   2.0761740691  1.1964779784  0.3812111392
C   2.9362341577  0.4922656821 -0.6822417710
H   2.4036187330  0.8706418931  1.3719983508
H   2.2529460729  2.2753771450  0.3309060988
H   3.6427820560  1.1824955427 -1.1558782895
H   2.3234289333  0.1090962602 -1.5058534890
C   3.7138361715 -0.6765672971 -0.1300754486
O   3.6719852584 -1.0829231001  1.0068208759
O   4.4970310291 -1.2368691762 -1.0729748797
H   4.9881230844 -1.9494089123 -0.6312537346
27
Scanning combination 64/73: [494.1184]  Energy = -652.9199987207
C  -3.4389238933 -1.5472634587  1.2118469944
C  -2.0890707056 -1.3665601701  1.3619007334
C  -1.4151887776 -0.3140113674  0.6846801159
C  -2.1695772576  0.5494663017 -0.1516566171
C  -3.5675603697  0.3369885295 -0.2925888207
C  -4.1889964886 -0.6850431142  0.3729545260
H   0.5527075706 -0.7651968921  1.4655895441
H  -3.9476831991 -2.3530113515  1.7353658292
H  -1.5141290468 -2.0277396809  2.0077492903
C  -0.0148409047 -0.0897119898  0.8268113535
C  -1.4984425812  1.6043432230 -0.8241340335
H  -4.1353098788  1.0055128702 -0.9369854593
H  -5.2591625535 -0.8413271396  0.2653192527
C  -0.1560463313  1.8000748252 -0.6536316099
C   0.6098908468  0.9602643761  0.1998232560
H  -2.0747143820  2.2616925346 -1.4716085638
H   0.3462715203  2.6177106479 -1.1671434089
C   2.0873091526  1.2405049007  0.3730580148
C   2.9653869477  0.5297806029 -0.6688700823
H   2.4164202020  0.9549230880  1.3763580674
H   2.2340548715  2.3218954634  0.2830027365
H   3.7176079751  1.2054393599 -1.0913080207
H   2.3660328740  0.2048188025 -1.5271203317
C   3.6487073925 -0.7044157398 -0.1293013094
O   3.4819542047 -1.1859538122  0.9665830555
O   4.4849194121 -1.2486600003 -1.0352061881
H   4.8815033156 -2.0247563083 -0.6041367077
27
Scanning combination 65/73: [499.1184]  Energy = -652.9204558138
C  -3.4377391908 -1.5475514098  1.2118655464
C  -2.0877539840 -1.3680754156  1.3620488305
C  -1.4141421497 -0.3156995380  0.6851618368
C  -2.1688902045  0.5469205010 -0.1521155613
C  -3.5670845263  0.3365318053 -0.2920229036
C  -4.1889076941 -0.6851480567  0.3740686887
H   0.5529066897 -0.7693068157  1.4681954723
H  -3.9464254653 -2.3531646574  1.7354000209
H  -1.5124070380 -2.0286062730  2.0086819566
C  -0.0142757522 -0.0917898577  0.8312525626
C  -1.4988832404  1.6022193599 -0.8238613893
H  -4.1342847759  1.0050971900 -0.9367657572
H  -5.2591145776 -0.8417628760  0.2650795279
C  -0.1576088902  1.7976954317 -0.6494896824
C   0.6086098982  0.9586432329  0.2051374199
H  -2.0726294076  2.2616246509 -1.4712463705
H   0.3474081806  2.6129341378 -1.1633385658
C   2.0853024939  1.2456758087  0.3671836892
C   2.9620499386  0.5247667418 -0.6683742424
H   2.4228864617  0.9663425573  1.3700454940
H   2.2316106464  2.3266083725  0.2748336383
H   3.7642149610  1.1732463876 -1.0366823812
H   2.3880972713  0.2337004780 -1.5555561913
C   3.6287510644 -0.7174439460 -0.1239995302
O   3.4736086207 -1.1929673121  0.9754441332
O   4.4744721208 -1.2485743174 -1.0299900104
H   4.8783713042 -2.0229394877 -0.6046448378
27
Scanning combination 66/73: [504.1184]  Energy = -652.9218587283
C  -3.3678418569 -1.5738895037  1.2161621456
C  -2.0215536928 -1.3679985783  1.3550011706
C  -1.3763498634 -0.3037005751  0.6699413390
C  -2.1460301243  0.5438183368 -0.1653113153
C  -3.5414209863  0.3049376826 -0.2950023990
C  -4.1383435539 -0.7267668474  0.3801129370
H   0.5970308700 -0.7225275638  1.4455587235
H  -3.8569238652 -2.3859912315  1.7482051117
H  -1.4252885784 -2.0131238883  1.9979685196
C   0.0165300690 -0.0551488489  0.8143541969
C  -1.4918616469  1.6078804132 -0.8425298345
H  -4.1274720156  0.9609509984 -0.9349398783
H  -5.2068894738 -0.9007150816  0.2848227835
C  -0.1520441651  1.8279897248 -0.6712986219
C   0.6257447147  1.0046243008  0.1880794244
H  -2.0806595155  2.2539644782 -1.4907274996
H   0.3335788635  2.6508197883 -1.1932606782
C   2.0985806647  1.2983649259  0.3814910800
C   3.0013251168  0.5763446075 -0.6283757799
H   2.4113988536  1.0206851036  1.3934615841
H   2.2471465160  2.3792941415  0.2842513161
H   3.8615489100  1.1919530569 -0.9185505379
H   2.4662588203  0.3768410097 -1.5646704010
C   3.5038983924 -0.7525142203 -0.1219485874
O   3.1962906667 -1.2819043320  0.9205425079
O   4.3683879401 -1.3156651664 -0.9874866777
H   4.6369231990 -2.1614892471 -0.5928005560
27
Scanning combination 67/73: [509.1184]  Energy = -652.9223203365
C  -3.3667949431 -1.5741024587  1.2157826362
C  -2.0208791319 -1.3686344305  1.3556793243
C  -1.3750127232 -0.3038274479  0.6734359098
C  -2.1456809759  0.5418318705 -0.1638874176
C  -3.5410370187  0.3041845712 -0.2948646130
C  -4.1385830324 -0.7268425642  0.3808425000
H   0.5966662070 -0.7254400915  1.4540011108
H  -3.8555829738 -2.3880581659  1.7451516207
H  -1.4238022998 -2.0141005421  1.9978248374
C   0.0179905452 -0.0560177925  0.8223917722
C  -1.4920617239  1.6055859609 -0.8405814439
H  -4.1265890567  0.9585764529 -0.9374421483
H  -5.2063412605 -0.9030465494  0.2814993806
C  -0.1534199752  1.8252767504 -0.6644492159
C   0.6257356494  1.0015802207  0.1938522922
H  -2.0748054236  2.2526607356 -1.4928641131
H   0.3342502653  2.6490041389 -1.1815924402
C   2.0972203674  1.3050740785  0.3723083813
C   3.0003365603  0.5742561383 -0.6288811495
H   2.4167027951  1.0376217141  1.3850021068
H   2.2430910454  2.3849181603  0.2693542794
H   3.8962883186  1.1645162505 -0.8567634280
H   2.4971373252  0.4164142993 -1.5898737807
C   3.4857142744 -0.7656231328 -0.1216166767
O   3.1949860084 -1.2905736174  0.9281171683
O   4.3462575691 -1.3298103594 -0.9909366885
H   4.6378627337 -2.1634628035 -0.5867762338
27
Scanning combination 68/73: [514.1184]  Energy = -652.9225510065
C  -3.3681455133 -1.5783407927  1.2162557121
C  -2.0216075426 -1.3714432145  1.3590589617
C  -1.3740004921 -0.3066250466  0.6785545975
C  -2.1440518074  0.5386681945 -0.1597030886
C  -3.5391289026  0.3002720244 -0.2937936305
C  -4.1374992360 -0.7304568122  0.3795888713
H   0.5944213145 -0.7285999299  1.4630644316
H  -3.8576277238 -2.3919224441  1.7451112648
H  -1.4264315918 -2.0183177536  2.0008681696
C   0.0197068502 -0.0598335001  0.8275082142
C  -1.4903727746  1.6021280577 -0.8363696818
H  -4.1226149815  0.9563335927 -0.9371717771
H  -5.2058969967 -0.9050910670  0.2805630289
C  -0.1524396765  1.8207074005 -0.6603585889
C   0.6292262596  0.9952921975  0.1946286347
H  -2.0735385408  2.2481969456 -1.4896311100
H   0.3358028367  2.6475247843 -1.1730504671
C   2.0987020487  1.3144811679  0.3645437915
C   3.0237464321  0.5904883668 -0.6186240529
H   2.4299572746  1.0661356227  1.3789010189
H   2.2288322922  2.3938545653  0.2392025643
H   3.9441426748  1.1678677217 -0.7648136373
H   2.5819327350  0.4778908067 -1.6143437334
C   3.4686913840 -0.7663766588 -0.1265610861
O   3.1669853908 -1.2854851672  0.9225270676
O   4.3196069840 -1.3438037862 -0.9972754915
H   4.6209352831 -2.1692376683 -0.5834728966
27
Scanning combination 69/73: [519.1184]  Energy = -652.9228027765
C  -3.3614248865 -1.5857534568  1.2191097209
C  -2.0151822383 -1.3767269885  1.3651334697
C  -1.3655190227 -0.3119669545  0.6821510488
C  -2.1372953588  0.5303295794 -0.1577707911
C  -3.5325854784  0.2911005190 -0.2915383628
C  -4.1312141928 -0.7402953562  0.3802941575
H   0.6076988855 -0.7173479832  1.4698914254
H  -3.8516354448 -2.4011413650  1.7452647315
H  -1.4250035282 -2.0244569864  2.0115814061
C   0.0288560480 -0.0596555267  0.8271047713
C  -1.4874924888  1.5951463655 -0.8351211261
H  -4.1147017592  0.9462632786 -0.9365352755
H  -5.1990765279 -0.9179256153  0.2771597208
C  -0.1493995252  1.8163797528 -0.6651909968
C   0.6394849692  0.9902961220  0.1823173825
H  -2.0791543131  2.2414166023 -1.4810360115
H   0.3276510868  2.6517131089 -1.1737755653
C   2.1073740762  1.3307764772  0.3549644770
C   3.0720294911  0.6124045586 -0.5966681495
H   2.4291959716  1.1276731166  1.3818870962
H   2.2151477422  2.4082828969  0.1933634391
H   4.0158188448  1.1736052589 -0.6585865292
H   2.6790525123  0.5526741734 -1.6172031077
C   3.4464180898 -0.7749808583 -0.1364218001
O   3.1050903739 -1.2954430517  0.8997957360
O   4.2797449090 -1.3825985021 -1.0041160818
H   4.5185358583 -2.2310849212 -0.5969131155
27
Scanning combination 70/73: [524.1184]  Energy = -652.9224437777
C  -3.3543583070 -1.5854337539  1.2179637762
C  -2.0088942031 -1.3744450856  1.3629409171
C  -1.3603487430 -0.3106941226  0.6803755368
C  -2.1362837373  0.5292885621 -0.1583510497
C  -3.5306084196  0.2887457687 -0.2936234899
C  -4.1276991280 -0.7429816365  0.3802709827
H   0.6131987926 -0.7209764026  1.4686119768
H  -3.8430210917 -2.3999806377  1.7462528623
H  -1.4158473965 -2.0181841697  2.0095194898
C   0.0345049900 -0.0603180479  0.8275532786
C  -1.4891736948  1.5944183146 -0.8362387174
H  -4.1152237963  0.9431099897 -0.9374906431
H  -5.1949859660 -0.9215094428  0.2777220507
C  -0.1515801576  1.8145113596 -0.6662743574
C   0.6387917689  0.9930577959  0.1857999611
H  -2.0757420684  2.2419151817 -1.4841063236
H   0.3272528269  2.6475907498 -1.1768399053
C   2.1032258111  1.3473511351  0.3491626287
C   3.0666121109  0.6146125427 -0.5906183591
H   2.4236868540  1.1251035138  1.3727527011
H   2.2210792046  2.4265186444  0.2036570391
H   4.0373069373  1.1303102058 -0.5980298438
H   2.7001366175  0.5679910995 -1.6214777227
C   3.4321415155 -0.7795795087 -0.1240942212
O   3.1063699501 -1.3084991752  0.9125913307
O   4.2660922199 -1.3768008218 -0.9995607658
H   4.4955401051 -2.2373822176 -0.6116527263
27
Scanning combination 71/73: [529.1184]  Energy = -652.9224702273
C  -3.3420290352 -1.5955337145  1.2238154998
C  -1.9970998211 -1.3775141164  1.3680863385
C  -1.3510730373 -0.3120514072  0.6823465778
C  -2.1312484543  0.5230467990 -0.1571430035
C  -3.5248644938  0.2764734610 -0.2905265263
C  -4.1183800853 -0.7568593221  0.3831544123
H   0.6253124640 -0.7093951589  1.4643409357
H  -3.8284020493 -2.4123010340  1.7528499278
H  -1.4030952862 -2.0217881121  2.0145937052
C   0.0441557724 -0.0550936441  0.8208497502
C  -1.4890310007  1.5879197089 -0.8402855745
H  -4.1124181445  0.9256929712 -0.9377247425
H  -5.1853810073 -0.9404333491  0.2822445454
C  -0.1514454325  1.8144507372 -0.6764172642
C   0.6479529481  0.9957248837  0.1693257048
H  -2.0820991468  2.2296964102 -1.4881626039
H   0.3176117507  2.6552844183 -1.1835368194
C   2.1095034307  1.3690346944  0.3523761613
C   3.1255827791  0.6469935555 -0.5413791301
H   2.4040099593  1.1922101021  1.3931196304
H   2.2038760705  2.4447299364  0.1695517060
H   4.1048743892  1.1413477550 -0.4491916669
H   2.8452405435  0.6742768609 -1.5987022506
C   3.3971127508 -0.7811555904 -0.1299222915
O   3.0327569352 -1.3107053628  0.8933243697
O   4.1907072513 -1.4115178735 -1.0195585768
H   4.3846062089 -2.2806851396 -0.6313704443
27
Scanning combination 72/73: [534.1184]  Energy = -652.9223538343
C  -3.3112206006 -1.6045485386  1.2292678840
C  -1.9667656799 -1.3770826881  1.3668651951
C  -1.3339717407 -0.3080353800  0.6749515955
C  -2.1198515102  0.5181692055 -0.1675426473
C  -3.5126797878  0.2605869158 -0.2947115341
C  -4.0944270559 -0.7736287404  0.3881706584
H   0.6485624671 -0.6882066415  1.4520437914
H  -3.7876601937 -2.4237599447  1.7628246838
H  -1.3634178102 -2.0125346297  2.0127960093
C   0.0559378220 -0.0373600764  0.8158847564
C  -1.4844081439  1.5840964994 -0.8561484386
H  -4.1067103902  0.9010321955 -0.9444238916
H  -5.1596070245 -0.9676014009  0.2896767167
C  -0.1490653567  1.8259926323 -0.6885813112
C   0.6516941700  1.0168837739  0.1656466405
H  -2.0830613345  2.2172722028 -1.5080074848
H   0.3149398745  2.6666832608 -1.2011713555
C   2.1095580373  1.3902479283  0.3623684150
C   3.1373155770  0.6520050800 -0.5036221117
H   2.3879314448  1.2354582436  1.4114386069
H   2.2143644273  2.4612001105  0.1655932832
H   4.1266539067  1.0996093762 -0.3273083262
H   2.9294002851  0.7219686788 -1.5757511630
C   3.3344377762 -0.7957436242 -0.1293613215
O   2.9567697005 -1.3229617093  0.8899997479
O   4.0805641025 -1.4493778048 -1.0436130879
H   4.2415101587 -2.3341085870 -0.6753458343
27
Scanning combination 73/73: [539.1184]  Energy = -652.9213873748
C  -3.3080358391 -1.6053258156  1.2279801489
C  -1.9647705196 -1.3772959232  1.3663489631
C  -1.3319528039 -0.3083783433  0.6754943769
C  -2.1187511971  0.5154144551 -0.1681880569
C  -3.5107308796  0.2576055538 -0.2964371473
C  -4.0933549952 -0.7767536368  0.3867820216
H   0.6499749410 -0.6918181989  1.4567823508
H  -3.7847175983 -2.4231534044  1.7631977424
H  -1.3598889634 -2.0103260534  2.0135952917
C   0.0587194458 -0.0388693674  0.8219938811
C  -1.4851126467  1.5828662085 -0.8559877239
H  -4.1054323315  0.8995515408 -0.9436111183
H  -5.1586660876 -0.9687717498  0.2898879730
C  -0.1507849405  1.8225404448 -0.6848441791
C   0.6508569794  1.0171825805  0.1715851731
H  -2.0800968247  2.2176908271 -1.5088239575
H   0.3162870823  2.6597990667 -1.1994474514
C   2.1065818294  1.4043500849  0.3512905890
C   3.1362203343  0.6524262764 -0.4989414101
H   2.3886432896  1.2384693684  1.3982555188
H   2.2153347757  2.4767203042  0.1609001014
H   4.1334157026  1.0522069219 -0.2698789593
H   2.9694554959  0.7439729820 -1.5754975392
C   3.3192674266 -0.8021424592 -0.1245643942
O   2.9500976959 -1.3353501560  0.8960872610
O   4.0688041682 -1.4485482798 -1.0411286522
H   4.2249181911 -2.3386287239 -0.6845806850
