27
Scanning combination 1/73: [92.8502]  Energy = -652.9203158919
C  -3.4012325960 -1.5688712871  0.0546669985
C  -2.1132893454 -1.5196481802  0.5162953439
C  -1.3573683495 -0.3217394428  0.4278165217
C  -1.9492877765  0.8278009391 -0.1503231236
C  -3.2934614593  0.7540768889 -0.6111242554
C  -4.0002296756 -0.4156727405 -0.5128644920
H   0.4007688678 -1.1406712634  1.3674945615
H  -3.9716473855 -2.4919272543  0.1168403014
H  -1.6431322975 -2.3997667642  0.9504824402
C  -0.0162126547 -0.2547456156  0.8919423655
C  -1.1682999720  2.0117078822 -0.2477713597
H  -3.7501424352  1.6397570452 -1.0484356560
H  -5.0252172496 -0.4707568764 -0.8707864884
C   0.1294102850  2.0359222903  0.1884148093
C   0.7444773030  0.8809560115  0.7456217931
H  -1.6171919746  2.9030280739 -0.6807707342
H   0.6986475024  2.9617992898  0.1174641604
C   2.2073156361  0.9055283722  1.1401512669
C   3.1893318019  0.5766535353 -0.0103608282
H   2.3807776303  0.1932182493  1.9562615369
H   2.4675275965  1.8967427896  1.5281404091
H   4.2176176784  0.6336499800  0.3627650394
H   3.0695240433  1.2884459873 -0.8316886520
C   2.9690429558 -0.8013198875 -0.5828753679
O   2.2994028847 -1.0671346417 -1.5517533030
O   3.6031643555 -1.7563426187  0.1330575513
H   3.3702052789 -2.5971901874 -0.2945611582
27
Scanning combination 2/73: [97.8502]  Energy = -652.9203946296
C  -3.4102285508 -1.5628431326  0.0687872486
C  -2.1240384897 -1.5191481202  0.5358066551
C  -1.3586252267 -0.3286325386  0.4331690985
C  -1.9426574025  0.8237260587 -0.1480039691
C  -3.2877246650  0.7585090679 -0.6038758448
C  -3.9992352631 -0.4080514462 -0.5066458712
H   0.4034034320 -1.1430557633  1.3817335776
H  -3.9831208510 -2.4846510660  0.1251660889
H  -1.6598191400 -2.3994198689  0.9764035661
C  -0.0166160827 -0.2665298953  0.8916822138
C  -1.1549135865  2.0023143989 -0.2596624437
H  -3.7349306112  1.6454775530 -1.0482921969
H  -5.0196789895 -0.4610512626 -0.8764595111
C   0.1507357044  2.0137720448  0.1511956906
C   0.7516096107  0.8587251796  0.7202536690
H  -1.6082464559  2.8992554637 -0.6761693286
H   0.7394791030  2.9244190763  0.0472477024
C   2.2023806055  0.8718364931  1.1463599134
C   3.1866420651  0.6081729430 -0.0140164058
H   2.3601508173  0.1095796199  1.9176314627
H   2.4433256928  1.8448641889  1.5904636026
H   4.2193302979  0.6941437078  0.3406061075
H   3.0286146412  1.3372201455 -0.8119808750
C   2.9792141600 -0.7722034793 -0.5908604624
O   2.3249359896 -1.0423102095 -1.5692454745
O   3.5855573730 -1.7262815730  0.1517056933
H   3.3649564711 -2.5743370058 -0.2689002317
27
Scanning combination 3/73: [102.8502]  Energy = -652.9202633355
C  -3.4343381135 -1.5537777878  0.0864126953
C  -2.1495999322 -1.5169904650  0.5578084133
C  -1.3738314049 -0.3331059749  0.4498474025
C  -1.9413500928  0.8169181549 -0.1509162080
C  -3.2879934547  0.7605258964 -0.6075054177
C  -4.0125985912 -0.3982118842 -0.4974926385
H   0.3688803899 -1.1655201582  1.4119740908
H  -4.0146057152 -2.4708848811  0.1473057657
H  -1.6933594410 -2.3960411701  1.0082127664
C  -0.0317648787 -0.2857299899  0.9127884776
C  -1.1299632720  1.9784998097 -0.2857463833
H  -3.7304480749  1.6479045009 -1.0552525945
H  -5.0325746973 -0.4455318553 -0.8702029047
C   0.1788000398  1.9694848409  0.1174769868
C   0.7559041615  0.8236850756  0.7281890213
H  -1.5616651705  2.8724788993 -0.7320095414
H   0.7906248976  2.8603535730 -0.0203059804
C   2.2054042486  0.8298848539  1.1599227421
C   3.1856620409  0.6566426774 -0.0190098091
H   2.3804840963  0.0184023408  1.8725373198
H   2.4321601126  1.7713925538  1.6731677526
H   4.2177375360  0.7633136058  0.3296202537
H   2.9931565711  1.3998114828 -0.7969267039
C   3.0058130655 -0.7187918048 -0.6115054466
O   2.3812055315 -0.9905430540 -1.6078090400
O   3.5837911915 -1.6705437846  0.1577028703
H   3.3549695951 -2.5201248561 -0.2541842137
27
Scanning combination 4/73: [107.8502]  Energy = -652.9204722349
C  -3.4824744293 -1.5321391358  0.1270388999
C  -2.1982679408 -1.5218719430  0.5988331949
C  -1.3874176415 -0.3625078137  0.4649190155
C  -1.9242158501  0.7856713906 -0.1684074547
C  -3.2694646303  0.7564879291 -0.6245310459
C  -4.0287138388 -0.3762530196 -0.4874981772
H   0.3381297214 -1.2025851930  1.4540194953
H  -4.0974865992 -2.4238804217  0.2244331284
H  -1.7775430505 -2.3999238436  1.0859123106
C  -0.0497837728 -0.3233368766  0.9421969504
C  -1.0874342194  1.9204588815 -0.3463205684
H  -3.6824790767  1.6483723596 -1.0900697299
H  -5.0544186545 -0.3965038645 -0.8465632657
C   0.2127161993  1.9060192897  0.0786828081
C   0.7506291596  0.7731799731  0.7476433622
H  -1.4990459903  2.8028563553 -0.8307368068
H   0.8561143194  2.7652394839 -0.1057587512
C   2.1939786512  0.7891126298  1.1976760847
C   3.1675520631  0.7097955455  0.0059382700
H   2.3932567409 -0.0509827719  1.8699380364
H   2.4016515083  1.7020283375  1.7669461359
H   4.1956682536  0.8474107445  0.3537606715
H   2.9395938687  1.4742184095 -0.7412973413
C   3.0440662878 -0.6414163997 -0.6519949461
O   2.5188003891 -0.8809441352 -1.7114097391
O   3.5679779086 -1.6148692810  0.1280317711
H   3.3991112418 -2.4501360467 -0.3372826423
27
Scanning combination 5/73: [112.8502]  Energy = -652.9195946310
C  -3.4859997422 -1.5295868463  0.1326071424
C  -2.2035498244 -1.5166432311  0.6111645022
C  -1.3958115387 -0.3555672393  0.4816737691
C  -1.9262229777  0.7868856855 -0.1669634186
C  -3.2703539396  0.7561828104 -0.6279567710
C  -4.0300949227 -0.3748186415 -0.4854955371
H   0.3323027706 -1.1958062597  1.4707183993
H  -4.0980133414 -2.4228825257  0.2267401485
H  -1.7774107641 -2.3988667312  1.0853191101
C  -0.0576453015 -0.3185999653  0.9581523427
C  -1.0835202870  1.9174839429 -0.3508085674
H  -3.6831758503  1.6467722412 -1.0972776751
H  -5.0550659231 -0.3970634178 -0.8467579167
C   0.2234363656  1.8911293905  0.0542281791
C   0.7631438273  0.7525908903  0.7131340941
H  -1.4954897144  2.8022679909 -0.8325012572
H   0.8544647358  2.7661340356 -0.1000903662
C   2.1957398141  0.7648666709  1.1933675518
C   3.1791507808  0.7195637749  0.0096643015
H   2.3899244040 -0.0712265034  1.8683897488
H   2.3793211738  1.6868314986  1.7579895821
H   4.2078170249  0.8584462523  0.3549401274
H   2.9358892330  1.4880982906 -0.7258251575
C   3.0535456259 -0.6318978910 -0.6541598352
O   2.5212653232 -0.8661858415 -1.7103812490
O   3.5663594699 -1.6112120066  0.1283230114
H   3.4004941976 -2.4433957912 -0.3440945953
27
Scanning combination 6/73: [117.8502]  Energy = -652.9207038138
C  -3.5966267016 -1.4695775054  0.2689222964
C  -2.3133442112 -1.4847096218  0.7468972659
C  -1.4388583705 -0.3893758964  0.5105113087
C  -1.9174065921  0.7247843408 -0.2247328836
C  -3.2604293638  0.7246528707 -0.6875520697
C  -4.0800285283 -0.3466567099 -0.4505610319
H   0.2683754782 -1.2430506415  1.5311029043
H  -4.2576421401 -2.3154354747  0.4419955517
H  -1.9384832577 -2.3420721796  1.3031720922
C  -0.0965666949 -0.3783992701  0.9790837040
C  -1.0333954234  1.8065071674 -0.4802233789
H  -3.6182020535  1.5885914150 -1.2441501831
H  -5.1007293378 -0.3499220139 -0.8245845110
C   0.2516897140  1.7856126470 -0.0146618222
C   0.7392365713  0.6829393476  0.7386209791
H  -1.3923924085  2.6458947786 -1.0720220136
H   0.9095151227  2.6308234599 -0.2117507296
C   2.1610077041  0.7031267813  1.2555812808
C   3.1992287137  0.7584322781  0.1216074621
H   2.3458639102 -0.1799921665  1.8762915017
H   2.3043594969  1.5807983093  1.8976589701
H   4.2061667047  0.8602637281  0.5377723099
H   3.0083462995  1.6148862972 -0.5275210057
C   3.1548593583 -0.4826423442 -0.7371147337
O   2.7595704723 -0.5522583848 -1.8743901246
O   3.6153788833 -1.5628197388 -0.0669832011
H   3.5610072710 -2.3069008540 -0.6888702630
27
Scanning combination 7/73: [122.8502]  Energy = -652.9201516960
C  -3.5981917549 -1.4682951317  0.2712525193
C  -2.3165451523 -1.4805956513  0.7516188175
C  -1.4469785119 -0.3807699353  0.5234626558
C  -1.9206932439  0.7277678175 -0.2232232169
C  -3.2606390411  0.7208768959 -0.6956557313
C  -4.0796729041 -0.3501107003 -0.4558544445
H   0.2517417840 -1.2305987003  1.5595462661
H  -4.2578908181 -2.3140031530  0.4467050032
H  -1.9385525475 -2.3379818723  1.3052042613
C  -0.1081555527 -0.3693576816  0.9987356719
C  -1.0297812335  1.8025656508 -0.4865033418
H  -3.6231439951  1.5846171740 -1.2493051565
H  -5.1038727042 -0.3509549520 -0.8194517745
C   0.2617882854  1.7689963876 -0.0384586056
C   0.7484966414  0.6614440516  0.7091940745
H  -1.3943473704  2.6557076962 -1.0551040503
H   0.9160730270  2.6205666435 -0.2213307003
C   2.1635243884  0.6764389460  1.2416326278
C   3.2120091529  0.7721225359  0.1225506931
H   2.3520998967 -0.2046308615  1.8601211900
H   2.2864838704  1.5512191540  1.8901634315
H   4.2150566597  0.8751303690  0.5481195719
H   3.0100822775  1.6311215581 -0.5186531136
C   3.1702693694 -0.4688424201 -0.7378471782
O   2.7689600789 -0.5375369236 -1.8735760112
O   3.6177494401 -1.5536570388 -0.0646342400
H   3.5446305736 -2.2977392397 -0.6846095524
27
Scanning combination 8/73: [127.8502]  Energy = -652.9194405083
C  -3.6155595161 -1.4607504471  0.2881481602
C  -2.3352772333 -1.4724010715  0.7724846004
C  -1.4591944635 -0.3805693329  0.5311742142
C  -1.9251001769  0.7226095564 -0.2289051145
C  -3.2671137182  0.7194524673 -0.6972494915
C  -4.0906583407 -0.3464628926 -0.4488603091
H   0.2051155771 -1.2037215150  1.6369689138
H  -4.2741399948 -2.3080678834  0.4593858642
H  -1.9620618045 -2.3211633701  1.3421708870
C  -0.1257727110 -0.3692166960  1.0207982547
C  -1.0264437138  1.7913109322 -0.4942762514
H  -3.6250648608  1.5760641934 -1.2648090545
H  -5.1097739431 -0.3529541028 -0.8265525202
C   0.2729251541  1.7344652552 -0.0702995127
C   0.7500504916  0.6360538189  0.6953502234
H  -1.3823894993  2.6515103984 -1.0583337707
H   0.9501468763  2.5559274962 -0.2968125653
C   2.1650736006  0.6445386439  1.2310618660
C   3.2228238197  0.8034192934  0.1287312533
H   2.3612653481 -0.2807322329  1.7780362818
H   2.2764629734  1.4746135533  1.9406788125
H   4.2157184919  0.9094480552  0.5760044511
H   3.0255861624  1.6767655087 -0.4963065574
C   3.2060911261 -0.4259105777 -0.7513595482
O   2.8294339196 -0.4803435774 -1.8954161731
O   3.6318521615 -1.5212906547 -0.0783246940
H   3.5265048934 -2.2690941972 -0.6893885631
27
Scanning combination 9/73: [132.8502]  Energy = -652.9177568857
C  -3.6178990916 -1.4595898873  0.2891552818
C  -2.3423207438 -1.4657695558  0.7856954466
C  -1.4689474654 -0.3704419471  0.5514045221
C  -1.9280867196  0.7260506293 -0.2221058439
C  -3.2671826337  0.7195586138 -0.6986914945
C  -4.0896809204 -0.3472725932 -0.4532605005
H   0.1992263954 -1.1932034956  1.6518027483
H  -4.2785554125 -2.3041508533  0.4653988043
H  -1.9678015470 -2.3186203595  1.3483228885
C  -0.1369085294 -0.3562026889  1.0415017218
C  -1.0187454795  1.7798465954 -0.5085245437
H  -3.6238927390  1.5753309450 -1.2687617703
H  -5.1112224752 -0.3510444104 -0.8248533440
C   0.2830156287  1.7181521004 -0.0925921401
C   0.7578240131  0.6136026235  0.6692467979
H  -1.3782346871  2.6439450998 -1.0642320399
H   0.9523241263  2.5511507760 -0.3036002583
C   2.1660287768  0.6151047972  1.2235395390
C   3.2285837526  0.8134576112  0.1349535373
H   2.3664849107 -0.3049947321  1.7751785549
H   2.2592373786  1.4436745248  1.9366502988
H   4.2214259266  0.9227118224  0.5824975552
H   3.0186113892  1.6877823603 -0.4805795562
C   3.2153792948 -0.4101682176 -0.7554563435
O   2.8417958449 -0.4635881243 -1.9011089082
O   3.6266878048 -1.5092077316 -0.0798800557
H   3.5333538201 -2.2526132799 -0.6976012397
27
Scanning combination 10/73: [137.8502]  Energy = -652.9194384817
C  -3.7358343223 -1.3695105996  0.4400176829
C  -2.4574518949 -1.4099722155  0.9255130072
C  -1.5174346217 -0.4016512818  0.5768207939
C  -1.9207282919  0.6457542812 -0.2916501038
C  -3.2564893457  0.6661648299 -0.7737847195
C  -4.1413334871 -0.3186755730 -0.4210920895
H   0.1139198113 -1.2316147856  1.7235874483
H  -4.4484617162 -2.1460637476  0.7063646027
H  -2.1377664858 -2.2148769776  1.5847910369
C  -0.1828137505 -0.4198569158  1.0603622323
C  -0.9702006286  1.6394169337 -0.6460776307
H  -3.5626750328  1.4807245584 -1.4265098204
H  -5.1628062398 -0.2952086631 -0.7892445738
C   0.3098903228  1.5872753381 -0.1666488895
C   0.7297724126  0.5364000870  0.6935010565
H  -1.2746434254  2.4470764798 -1.3089753228
H   1.0100369756  2.3793160968 -0.4236409819
C   2.1306513777  0.5334693534  1.2716953776
C   3.2363840943  0.8272566451  0.2498562500
H   2.3270774028 -0.4290532533  1.7544861402
H   2.1907188699  1.3005823406  2.0548728996
H   4.1991953117  0.8708588145  0.7702487645
H   3.0777752970  1.7872619059 -0.2437869035
C   3.3327797155 -0.2291762884 -0.8269551360
O   3.1438247762 -0.0624841132 -2.0064780128
O   3.6805630135 -1.4308805254 -0.3136616250
H   3.7265505185 -2.0390321010 -1.0695118403
27
Scanning combination 11/73: [142.8502]  Energy = -652.9187942747
C  -3.7440064431 -1.3624983418  0.4476320620
C  -2.4667015217 -1.4007973672  0.9386480839
C  -1.5226913245 -0.3984523287  0.5839468568
C  -1.9237540493  0.6434003696 -0.2910700170
C  -3.2605809385  0.6660082961 -0.7736165465
C  -4.1488702294 -0.3123747306 -0.4147488164
H   0.0908868295 -1.1990342762  1.7737139050
H  -4.4561670843 -2.1398502958  0.7117194974
H  -2.1515324168 -2.2029339682  1.6030180677
C  -0.1908076689 -0.4118378466  1.0764387884
C  -0.9664800980  1.6271119635 -0.6529993386
H  -3.5632817974  1.4737468129 -1.4366737148
H  -5.1658511139 -0.2992832109 -0.7983670650
C   0.3224343884  1.5545662082 -0.2002699582
C   0.7393391005  0.5156345917  0.6760630219
H  -1.2712736354  2.4411549765 -1.3069901564
H   1.0290697986  2.3265944762 -0.4942669923
C   2.1396026006  0.5007487596  1.2595926058
C   3.2465479907  0.8543381387  0.2609820835
H   2.3501957573 -0.4837042603  1.6868752970
H   2.1885524274  1.2230906992  2.0844162161
H   4.2073703499  0.9019484403  0.7847875654
H   3.0734951304  1.8239125263 -0.2090819288
C   3.3514946940 -0.1932229578 -0.8246200466
O   3.1587776191 -0.0231158622 -2.0030958774
O   3.6799435047 -1.4029141676 -0.3134848213
H   3.6947887896 -2.0187360249 -1.0644491333
27
Scanning combination 12/73: [147.8502]  Energy = -652.9181087021
C  -3.7634010994 -1.3467202064  0.4706419461
C  -2.4913665065 -1.3818568541  0.9737599634
C  -1.5398551584 -0.3909366426  0.6070576122
C  -1.9251684393  0.6321947520 -0.2964510853
C  -3.2607061122  0.6603106182 -0.7800776859
C  -4.1564954956 -0.3074646309 -0.4111727209
H   0.0528846268 -1.1692222456  1.8318491293
H  -4.4837275824 -2.1133022986  0.7453011412
H  -2.1889739290 -2.1665377194  1.6646629375
C  -0.2147057209 -0.3968022001  1.1126651542
C  -0.9515084379  1.5841231841 -0.6929915433
H  -3.5549896634  1.4638414720 -1.4520782121
H  -5.1722843004 -0.2910095991 -0.7975517297
C   0.3351664180  1.5116471712 -0.2338501133
C   0.7316695317  0.4998819503  0.6828835547
H  -1.2417982128  2.3798786320 -1.3750751925
H   1.0559014060  2.2505536123 -0.5736507014
C   2.1357261256  0.4540647449  1.2590496300
C   3.2402306377  0.8727326004  0.2834577936
H   2.3502766825 -0.5600310249  1.6101144164
H   2.1944983007  1.1050925058  2.1414521812
H   4.1934171967  0.9177240812  0.8203910325
H   3.0612667477  1.8582259068 -0.1506697091
C   3.3830325820 -0.1318483458 -0.8374067857
O   3.2422017833  0.0807322750 -2.0163606788
O   3.6889127820 -1.3594540177 -0.3568097745
H   3.7202964963 -1.9523171030 -1.1250409082
27
Scanning combination 13/73: [152.8502]  Energy = -652.9183919583
C  -3.8313810475 -1.2793358667  0.5556800037
C  -2.5623564375 -1.3212047844  1.0665224358
C  -1.5753365876 -0.3909014712  0.6385645965
C  -1.9295766858  0.5862464213 -0.3271391906
C  -3.2593248436  0.6148954422 -0.8305765208
C  -4.1884466211 -0.2940140160 -0.4000598648
H  -0.0030178848 -1.1592548903  1.8951914237
H  -4.5795069423 -1.9974438460  0.8828754446
H  -2.2871838701 -2.0778547310  1.7985505975
C  -0.2450624119 -0.4184100860  1.1338756162
C  -0.9299541347  1.4902944650 -0.7665821363
H  -3.5298816962  1.3849933988 -1.5504386251
H  -5.2063759806 -0.2653722215 -0.7825632532
C   0.3511876012  1.4159016837 -0.2913012326
C   0.7202593314  0.4508195023  0.6860003796
H  -1.1953467888  2.2436279639 -1.5056021119
H   1.0895146120  2.1143235351 -0.6756668448
C   2.1237228935  0.3807867413  1.2689851724
C   3.2539294296  0.8616023249  0.3545020424
H   2.3320375345 -0.6542374094  1.5658063793
H   2.1665782181  0.9853593793  2.1836143742
H   4.1925601817  0.8602432080  0.9222646546
H   3.0810008544  1.8869638759  0.0194625365
C   3.4566783337 -0.0097233921 -0.8607073862
O   3.4005725947  0.3494059217 -2.0103494163
O   3.7315988332 -1.2876068612 -0.5161843111
H   3.8636121474 -1.7666036903 -1.3506251149
27
Scanning combination 14/73: [157.8502]  Energy = -652.9177330289
C  -3.8317990470 -1.2769634788  0.5593199047
C  -2.5639081983 -1.3184703092  1.0715601195
C  -1.5808613961 -0.3810630790  0.6483388084
C  -1.9296533588  0.5881310593 -0.3259111063
C  -3.2602185077  0.6212021709 -0.8243599247
C  -4.1885322793 -0.2904951096 -0.3951113411
H  -0.0086973072 -1.1442243866  1.9089149688
H  -4.5784003784 -1.9971330447  0.8847051208
H  -2.2858665431 -2.0750270136  1.8025938576
C  -0.2528810307 -0.4040627543  1.1478285875
C  -0.9251463722  1.4833311639 -0.7742080211
H  -3.5258793458  1.3799915545 -1.5570301704
H  -5.2028376732 -0.2669076082 -0.7844304213
C   0.3609359510  1.3983667516 -0.3104057859
C   0.7288692602  0.4212625439  0.6563764823
H  -1.1914312863  2.2445072906 -1.5035022250
H   1.0933812978  2.1125501667 -0.6760442056
C   2.1254148665  0.3532214586  1.2539710605
C   3.2539505391  0.8724867110  0.3601492105
H   2.3493641201 -0.6724766704  1.5643399945
H   2.1394946552  0.9609639845  2.1679677118
H   4.1898993492  0.8691795137  0.9301679986
H   3.0785802766  1.8976913211  0.0319739914
C   3.4600955526  0.0029978883 -0.8609815453
O   3.3975747889  0.3588537422 -2.0114514749
O   3.7337015590 -1.2756726185 -0.5135746869
H   3.8553511405 -1.7587406548 -1.3470972562
27
Scanning combination 15/73: [162.8502]  Energy = -652.9183770571
C  -3.8827100834 -1.1983871610  0.6402504353
C  -2.6129702715 -1.2564778664  1.1462472629
C  -1.6025245001 -0.3766781877  0.6693441165
C  -1.9272424932  0.5523554612 -0.3513086558
C  -3.2595257853  0.6031639984 -0.8445241104
C  -4.2124480836 -0.2568606838 -0.3671190076
H  -0.0387357250 -1.1355804228  1.9447837631
H  -4.6449595849 -1.8873094648  0.9945545746
H  -2.3560459211 -1.9817211952  1.9152059093
C  -0.2715093836 -0.4196123569  1.1570481249
C  -0.8930935371  1.3740726743 -0.8635125866
H  -3.5008121562  1.3222290283 -1.6238192477
H  -5.2232760088 -0.2332766555 -0.7654016393
C   0.3873710448  1.2963836656 -0.3834359493
C   0.7213334709  0.3885136841  0.6610158438
H  -1.1283480264  2.0666460073 -1.6678735159
H   1.1479460020  1.9247507490 -0.8402830392
C   2.1128337444  0.2779737263  1.2669390967
C   3.2521091241  0.8742101263  0.4406333486
H   2.3384595220 -0.7775813789  1.4586663300
H   2.1194282709  0.7691502740  2.2470636081
H   4.1793539165  0.8336637157  1.0235814113
H   3.0625339238  1.9265454956  0.2162035044
C   3.4879374011  0.1315120291 -0.8537007234
O   3.4024987855  0.5982345252 -1.9640553398
O   3.8177528259 -1.1608714453 -0.6377161103
H   3.9651441422 -1.5515477690 -1.5146877681
27
Scanning combination 16/73: [167.8502]  Energy = -652.9180438522
C  -3.8842870921 -1.1975940704  0.6425213426
C  -2.6178021217 -1.2473905837  1.1566329555
C  -1.6049138114 -0.3755710158  0.6714313877
C  -1.9248852851  0.5474686938 -0.3570548333
C  -3.2560913419  0.5962785740 -0.8519115889
C  -4.2103734506 -0.2597016851 -0.3706095980
H  -0.0604572983 -1.1022582802  1.9859720567
H  -4.6499454091 -1.8795938964  1.0036008445
H  -2.3590703527 -1.9711739733  1.9272943171
C  -0.2777349582 -0.4162776767  1.1675452381
C  -0.8876114481  1.3656047317 -0.8717493258
H  -3.4997923492  1.3193487269 -1.6278673680
H  -5.2251415044 -0.2256333324 -0.7579269735
C   0.3951902936  1.2688099894 -0.4025304553
C   0.7290477242  0.3469050452  0.6291605920
H  -1.1256607386  2.0839734050 -1.6530335219
H   1.1576563896  1.9079917053 -0.8417423469
C   2.1151321317  0.2485345926  1.2450455690
C   3.2532424653  0.8836163119  0.4463363504
H   2.3611074420 -0.8015786639  1.4357162622
H   2.0892581698  0.7402683370  2.2262070788
H   4.1750303887  0.8415028739  1.0382328932
H   3.0518675791  1.9344218150  0.2319350564
C   3.5018370174  0.1548543283 -0.8551082524
O   3.4082095115  0.6141293646 -1.9686315352
O   3.8359042840 -1.1345797424 -0.6352241223
H   3.9507843786 -1.5388549972 -1.5101423950
27
Scanning combination 17/73: [172.8502]  Energy = -652.9178865556
C  -3.9086204972 -1.1658939700  0.6714322158
C  -2.6438824337 -1.2184920486  1.1901178253
C  -1.6199286191 -0.3706157001  0.6858869514
C  -1.9252839506  0.5273805958 -0.3693343794
C  -3.2560414528  0.5843989725 -0.8638844977
C  -4.2206515251 -0.2488290393 -0.3650923178
H  -0.0917553295 -1.0613917473  2.0380401048
H  -4.6853832582 -1.8229048091  1.0530541138
H  -2.4005677836 -1.9124065417  1.9926430669
C  -0.2975423792 -0.4037160693  1.1932952867
C  -0.8772915960  1.3198575039 -0.9011110393
H  -3.4889232263  1.2947522406 -1.6546355340
H  -5.2345220241 -0.2103962479 -0.7546025633
C   0.4062807051  1.2087126902 -0.4385363693
C   0.7208258424  0.3310667114  0.6373880863
H  -1.1081496413  2.0332223730 -1.6890333689
H   1.1874659426  1.7807375572 -0.9335976090
C   2.1130728315  0.1899693810  1.2313579386
C   3.2368440715  0.8959385954  0.4715029523
H   2.3644150809 -0.8737762336  1.3078597925
H   2.1058717201  0.5691269800  2.2609418876
H   4.1508116072  0.8726382953  1.0747324266
H   2.9998573552  1.9460505005  0.2887360990
C   3.5364734652  0.2220340054 -0.8492695448
O   3.4684248175  0.7253517231 -1.9451536079
O   3.8906248226 -1.0689601513 -0.6705463426
H   4.0180760725 -1.4403549956 -1.5580919455
27
Scanning combination 18/73: [177.8502]  Energy = -652.9184683565
C  -3.9595805829 -1.0902349854  0.7427881172
C  -2.6941753059 -1.1526527263  1.2591054501
C  -1.6450288897 -0.3742484716  0.6968750406
C  -1.9310711353  0.4823932521 -0.3968016684
C  -3.2622560411  0.5526161570 -0.8886883320
C  -4.2497366134 -0.2212608406 -0.3401374067
H  -0.1211801184 -1.0679708378  2.0530765768
H  -4.7538257636 -1.7023930229  1.1622852182
H  -2.4691516569 -1.8058070444  2.1003694580
C  -0.3167670699 -0.4351505656  1.1874525079
C  -0.8683654756  1.2311620575 -0.9618778909
H  -3.4807499310  1.2341049068 -1.7079975774
H  -5.2636166929 -0.1750561618 -0.7288044654
C   0.4116663401  1.1229933759 -0.4865629846
C   0.7103625363  0.2765830621  0.6172065912
H  -1.0793849590  1.8914086772 -1.8000130537
H   1.2000988422  1.6883771011 -0.9779402407
C   2.1008506222  0.1089638711  1.2083725430
C   3.2273769799  0.8785749901  0.5142304411
H   2.3591087560 -0.9578997495  1.2124135926
H   2.0768226673  0.4187835711  2.2615464678
H   4.1241606159  0.8335991355  1.1433539690
H   2.9646814676  1.9337064575  0.3991400991
C   3.6013220845  0.3228327242 -0.8426149947
O   3.5766559539  0.9234493083 -1.8907199940
O   3.9859110996 -0.9683188173 -0.7626077256
H   4.1963728639 -1.2450548626 -1.6693501307
27
Scanning combination 19/73: [182.8502]  Energy = -652.9179869298
C  -3.9610062279 -1.0848699851  0.7466182766
C  -2.6961629429 -1.1451621155  1.2644254846
C  -1.6487039158 -0.3595168538  0.7093945283
C  -1.9336312570  0.4886831231 -0.3914359413
C  -3.2635623715  0.5532896241 -0.8886760431
C  -4.2515591212 -0.2181724397 -0.3382974732
H  -0.1247273443 -1.0532600000  2.0653021049
H  -4.7552602444 -1.6973097864  1.1660404099
H  -2.4688765372 -1.8075105443  2.0978891493
C  -0.3196795505 -0.4185131842  1.2003768111
C  -0.8670423571  1.2232705492 -0.9666943229
H  -3.4798133324  1.2247917672 -1.7173131541
H  -5.2651090787 -0.1741781916 -0.7283431066
C   0.4154640189  1.1039722606 -0.5015983783
C   0.7180583664  0.2440739497  0.5911905338
H  -1.0797541038  1.8924819070 -1.7969190269
H   1.1996875636  1.6842601833 -0.9811680326
C   2.1087106792  0.0819317859  1.1842511102
C   3.2279113595  0.8864969939  0.5219860041
H   2.3883697530 -0.9774970351  1.2023995082
H   2.0631080842  0.3984293319  2.2342935463
H   4.1216368549  0.8421337893  1.1540922173
H   2.9579267395  1.9383295390  0.4169734885
C   3.6043731138  0.3361843806 -0.8371926597
O   3.5739248154  0.9327396948 -1.8869802375
O   3.9833953431 -0.9575145577 -0.7548709494
H   4.1928222875 -1.2340636191 -1.6616442445
27
Scanning combination 20/73: [187.8502]  Energy = -652.9184782658
C  -4.0101875873 -0.9842647016  0.8271632027
C  -2.7407181273 -1.0732518863  1.3296351908
C  -1.6697592650 -0.3689704997  0.7134191988
C  -1.9361219570  0.4361024941 -0.4232056356
C  -3.2696182143  0.5293986789 -0.9064158004
C  -4.2803171912 -0.1697194585 -0.3021139806
H  -0.1494786678 -1.0742987111  2.0676041112
H  -4.8211298785 -1.5415943409  1.2887324301
H  -2.5279206855 -1.6962747641  2.1965386200
C  -0.3375379605 -0.4580483391  1.1888864227
C  -0.8516354498  1.1087837854 -1.0403397355
H  -3.4678963741  1.1485339175 -1.7782158608
H  -5.2942146390 -0.1179623572 -0.6910152986
C   0.4261627294  0.9979511627 -0.5594793853
C   0.7071186507  0.1923411481  0.5791886622
H  -1.0462693952  1.7150446795 -1.9221036605
H   1.2236571839  1.5341554862 -1.0688960614
C   2.0988630747 -0.0041029707  1.1582272130
C   3.2063273361  0.8758286174  0.5743010950
H   2.4013691336 -1.0536785313  1.0475075162
H   2.0530934109  0.1828104326  2.2381697035
H   4.0848755619  0.8175970311  1.2268236473
H   2.9011726123  1.9244504680  0.5398715410
C   3.6543067203  0.4576443502 -0.8090704416
O   3.6460643778  1.1480767801 -1.8005334424
O   4.0877271354 -0.8198970912 -0.8271365646
H   4.3525680647 -1.0031548153 -1.7434431381
27
Scanning combination 21/73: [192.8502]  Energy = -652.9182781432
C  -4.0125091190 -0.9703620241  0.8387975605
C  -2.7417313427 -1.0623092363  1.3367975172
C  -1.6690877613 -0.3676396588  0.7137080283
C  -1.9342641240  0.4243949978 -0.4323635632
C  -3.2674301424  0.5164036057 -0.9160688444
C  -4.2804767759 -0.1696653017 -0.3008770620
H  -0.1555335144 -1.0330158152  2.0958463055
H  -4.8286759205 -1.5074579138  1.3154081474
H  -2.5322640490 -1.6704746447  2.2144257818
C  -0.3381858060 -0.4478711020  1.1949310997
C  -0.8486008086  1.0896108539 -1.0552859608
H  -3.4655525558  1.1360289685 -1.7881180954
H  -5.2976539023 -0.1015108914 -0.6774675557
C   0.4339226254  0.9544167781 -0.5931104737
C   0.7131175014  0.1589571007  0.5539644862
H  -1.0488342016  1.7275554438 -1.9131095189
H   1.2354192613  1.4662994921 -1.1210969592
C   2.1033299589 -0.0388718341  1.1358513443
C   3.1998978030  0.8813811148  0.5936223809
H   2.4169951133 -1.0806141608  0.9967137214
H   2.0450775258  0.1126296101  2.2210953375
H   4.0724441058  0.8286470498  1.2550240088
H   2.8709701629  1.9233928904  0.5729870003
C   3.6608671728  0.4889386562 -0.7927387026
O   3.6428496609  1.1890624476 -1.7774106679
O   4.1088389577 -0.7833058318 -0.8230103079
H   4.3575707713 -0.9611200228 -1.7444154521
27
Scanning combination 22/73: [197.8502]  Energy = -652.9180293832
C  -4.0256848304 -0.9348674178  0.8647977942
C  -2.7561937354 -1.0213276268  1.3682418230
C  -1.6792803867 -0.3496938557  0.7289260607
C  -1.9362578025  0.4146198457 -0.4375635064
C  -3.2707907269  0.5149041881 -0.9168863261
C  -4.2875576412 -0.1536086228 -0.2892432974
H  -0.1711883902 -1.0025246765  2.1236221793
H  -4.8435452554 -1.4623521065  1.3483961167
H  -2.5497217311 -1.6122145975  2.2580704501
C  -0.3479847105 -0.4381662957  1.2079937714
C  -0.8421599135  1.0396687532 -1.0865956851
H  -3.4656453444  1.1232268464 -1.7975575580
H  -5.3042492903 -0.0864684524 -0.6676205800
C   0.4397898362  0.8959053128 -0.6255220526
C   0.7095493064  0.1314157668  0.5451485708
H  -1.0331630199  1.6444763307 -1.9700920393
H   1.2488914129  1.3740739622 -1.1732228839
C   2.1028353146 -0.0934637124  1.1077791190
C   3.1825256926  0.8749333661  0.6171038827
H   2.4243209272 -1.1194691483  0.8919032624
H   2.0506567504 -0.0198433550  2.2014386648
H   4.0455162309  0.8315954348  1.2908374864
H   2.8198063412  1.9053698603  0.6208488011
C   3.6799812488  0.5434546562 -0.7732561402
O   3.6629405364  1.2766179706 -1.7334638044
O   4.1598137920 -0.7155560647 -0.8383830153
H   4.4272960011 -0.8572057975 -1.7616015354
27
Scanning combination 23/73: [202.8502]  Energy = -652.9170614783
C  -4.0274406070 -0.9305931936  0.8682120044
C  -2.7587056241 -1.0140300307  1.3735155172
C  -1.6819321718 -0.3356158393  0.7393915515
C  -1.9381690159  0.4183470280 -0.4341452374
C  -3.2710624320  0.5123391591 -0.9180308980
C  -4.2896448005 -0.1501486351 -0.2868962367
H  -0.1745444598 -0.9865491082  2.1338586270
H  -4.8456959409 -1.4592901928  1.3503215503
H  -2.5523153538 -1.6115092426  2.2595906037
C  -0.3499242620 -0.4189780244  1.2202204306
C  -0.8425475041  1.0357405832 -1.0887004845
H  -3.4646349156  1.1175184917 -1.8012449815
H  -5.3055227722 -0.0856530158 -0.6674021324
C   0.4410354477  0.8729984984 -0.6394958904
C   0.7141773991  0.0966771516  0.5222063620
H  -1.0343221530  1.6418019216 -1.9709714676
H   1.2477036017  1.3719266256 -1.1707294282
C   2.1107495156 -0.1146702623  1.0834709532
C   3.1805150596  0.8831779919  0.6248385016
H   2.4521159722 -1.1377624682  0.8836266131
H   2.0382453640 -0.0277457032  2.1756591842
H   4.0404067301  0.8300507279  1.3020562727
H   2.8138833169  1.9133131972  0.6339926187
C   3.6837089291  0.5536604461 -0.7667981553
O   3.6615259292  1.2831873767 -1.7295681396
O   4.1626385153 -0.7072336651 -0.8348280696
H   4.4302568443 -0.8474592527 -1.7580501127
27
Scanning combination 24/73: [207.8502]  Energy = -652.9183453623
C  -4.0865198332 -0.7852105276  0.9641565073
C  -2.8122300224 -0.9094762880  1.4482963508
C  -1.7103859848 -0.3519180738  0.7423907393
C  -1.9533986086  0.3434466414 -0.4700286494
C  -3.2884811219  0.4655600555 -0.9434296967
C  -4.3285463530 -0.0907585868 -0.2486536433
H  -0.2060473764 -1.0183220082  2.1341018212
H  -4.9240676320 -1.2266375766  1.4992604943
H  -2.6259845758 -1.4401971257  2.3801811194
C  -0.3710985861 -0.4840760046  1.1984638993
C  -0.8452484955  0.8850188893 -1.1687486932
H  -3.4660171425  1.0047825277 -1.8719554024
H  -5.3464142508 -0.0035723008 -0.6205757196
C   0.4343700651  0.7449916734 -0.6993855315
C   0.6969020536  0.0269760956  0.5009511648
H  -1.0259267225  1.4200205106 -2.0980581338
H   1.2509767714  1.1989478353 -1.2554620407
C   2.1030423734 -0.2247692118  1.0230516105
C   3.1585652411  0.8339820245  0.6656870679
H   2.4629228127 -1.2032430161  0.6788048771
H   2.0509474791 -0.2892731698  2.1166894588
H   3.9990836831  0.7396911804  1.3630161784
H   2.7543269472  1.8445232712  0.7680079907
C   3.7408471633  0.6920556400 -0.7239484763
O   3.6715269100  1.5079734945 -1.6132400739
O   4.3856812377 -0.4829463369 -0.8770179368
H   4.7216745607 -0.4940690235 -1.7884556987
27
Scanning combination 25/73: [212.8502]  Energy = -652.9181009684
C  -4.0807132911 -0.7766706592  0.9709111613
C  -2.8061668578 -0.8951242084  1.4563204030
C  -1.7056020548 -0.3431333373  0.7448333046
C  -1.9505283339  0.3461391577 -0.4704094202
C  -3.2860364241  0.4687878008 -0.9412959634
C  -4.3253202213 -0.0861874385 -0.2435776168
H  -0.2005503349 -0.9664569164  2.1553831253
H  -4.9159517154 -1.2197938372  1.5074134753
H  -2.6166846197 -1.4315533194  2.3841727523
C  -0.3664360064 -0.4696114625  1.1997052216
C  -0.8434120175  0.8810710271 -1.1766027551
H  -3.4631376597  0.9975705222 -1.8755733017
H  -5.3437870369 -0.0020518237 -0.6147327171
C   0.4392554598  0.7145929845 -0.7260740285
C   0.7027370959 -0.0070471229  0.4719784401
H  -1.0304768729  1.4352525813 -2.0932958627
H   1.2586250120  1.1512005310 -1.2926905628
C   2.1076462861 -0.2515439769  0.9981877381
C   3.1451883128  0.8377070163  0.6823654979
H   2.4987799258 -1.2094405607  0.6348149512
H   2.0392717407 -0.3399834262  2.0895920615
H   3.9750713301  0.7497783975  1.3935661057
H   2.7190115511  1.8375412775  0.7902968429
C   3.7366985378  0.7089632071 -0.7066722332
O   3.6567377266  1.5179273690 -1.6005481183
O   4.3885791561 -0.4629482103 -0.8584822656
H   4.7077019055 -0.4814849951 -1.7754866564
27
Scanning combination 26/73: [217.8502]  Energy = -652.9177206163
C  -4.0767560787 -0.7589050588  0.9845443458
C  -2.8020959391 -0.8710625277  1.4695221602
C  -1.7041426517 -0.3232876872  0.7517585545
C  -1.9486880035  0.3490571754 -0.4726649877
C  -3.2853078288  0.4715952157 -0.9396063864
C  -4.3236981626 -0.0744936187 -0.2324113770
H  -0.1961898828 -0.9165858818  2.1760051071
H  -4.9094565667 -1.2029454220  1.5244891488
H  -2.6077829760 -1.3958839726  2.4027699459
C  -0.3650747453 -0.4485744943  1.2067714745
C  -0.8398820045  0.8603483654 -1.1941062568
H  -3.4664171842  0.9967409965 -1.8746669936
H  -5.3419147198  0.0006803713 -0.6047804577
C   0.4436435577  0.6665702622 -0.7592003947
C   0.7043727278 -0.0268853432  0.4569612179
H  -1.0255666283  1.4062752535 -2.1164949385
H   1.2646793933  1.0689392782 -1.3475895454
C   2.1108489456 -0.2904461786  0.9659845994
C   3.1243727730  0.8368524674  0.7046225475
H   2.5097332254 -1.2205393232  0.5426715183
H   2.0460485971 -0.4487911123  2.0496745233
H   3.9437670726  0.7602868264  1.4279121894
H   2.6630292322  1.8219420811  0.8175996172
C   3.7392081839  0.7394345324 -0.6765777582
O   3.6487395977  1.5567430941 -1.5619247742
O   4.4119558242 -0.4203552766 -0.8385249389
H   4.7230748358 -0.4332094387 -1.7586385550
27
Scanning combination 27/73: [222.8502]  Energy = -652.9184984271
C  -4.1007139955 -0.6462886436  1.0591340787
C  -2.8193395535 -0.7868791787  1.5174384233
C  -1.7193679518 -0.3221151177  0.7475692759
C  -1.9635316216  0.2977071084 -0.5043037174
C  -3.3057748345  0.4450528928 -0.9482513493
C  -4.3471017858 -0.0225451879 -0.1905863872
H  -0.2102668046 -0.9652358189  2.1453330364
H  -4.9377084237 -1.0187123506  1.6449287584
H  -2.6214484337 -1.2623144050  2.4760929885
C  -0.3774614203 -0.4873964685  1.1803975358
C  -0.8511757634  0.7309325852 -1.2715293367
H  -3.4889349598  0.9333245355 -1.9033224462
H  -5.3706065901  0.0797609488 -0.5411502955
C   0.4320629611  0.5518342096 -0.8280646923
C   0.6892981397 -0.0762278928  0.4211487383
H  -1.0332905105  1.1987224012 -2.2356189972
H   1.2615278899  0.8901100476 -1.4431330907
C   2.0997253741 -0.3688134343  0.8964871466
C   3.1048106042  0.7888554424  0.7413208909
H   2.4936750547 -1.2491449649  0.3715797647
H   2.0474657848 -0.6386492315  1.9563372325
H   3.8979085933  0.6744326715  1.4887836576
H   2.6213953559  1.7534723619  0.9169287904
C   3.7767460858  0.8390259625 -0.6129913461
O   3.6515985801  1.7161461619 -1.4345204055
O   4.5640437422 -0.2359195364 -0.8303900191
H   4.9469650630 -0.1156345166 -1.7155186336
27
Scanning combination 28/73: [227.8502]  Energy = -652.9182694558
C  -4.0998221266 -0.6432643250  1.0589953986
C  -2.8184713048 -0.7786941105  1.5223427869
C  -1.7166290517 -0.3120635538  0.7548952851
C  -1.9640431666  0.2990586595 -0.5012310083
C  -3.3060874566  0.4447701848 -0.9477032793
C  -4.3478075346 -0.0195921539 -0.1902624062
H  -0.2039500774 -0.9358596210  2.1579853591
H  -4.9377230556 -1.0120616297  1.6451217170
H  -2.6236756277 -1.2614593472  2.4780756337
C  -0.3712878311 -0.4714492575  1.1858252403
C  -0.8538683144  0.7223404829 -1.2759051234
H  -3.4888678339  0.9264570791 -1.9062604525
H  -5.3716505506  0.0854782863 -0.5406136137
C   0.4306410479  0.5268461095 -0.8447140246
C   0.6945112272 -0.1143507510  0.3967245367
H  -1.0375873527  1.2099293324 -2.2298578185
H   1.2570744673  0.8861802889 -1.4511307997
C   2.1116434995 -0.3870140755  0.8715405985
C   3.0985890068  0.7924803188  0.7498866245
H   2.5344754604 -1.2604871283  0.3604284561
H   2.0477975141 -0.6529096329  1.9321550553
H   3.8905156705  0.6735060272  1.4975599268
H   2.6070712444  1.7495289801  0.9310612844
C   3.7723375128  0.8516865733 -0.6026281891
O   3.6406845736  1.7218624551 -1.4319093380
O   4.5623222816 -0.2226456857 -0.8128227318
H   4.9343083604 -0.1147729228 -1.7034595166
27
Scanning combination 29/73: [232.8502]  Energy = -652.9178598527
C  -4.0912536784 -0.6199835047  1.0726498758
C  -2.8087973233 -0.7570232394  1.5326604607
C  -1.7088790969 -0.3078644779  0.7532752504
C  -1.9577430177  0.2918282094 -0.5072529015
C  -3.3013827905  0.4484116997 -0.9448486465
C  -4.3424911179 -0.0058330455 -0.1803612117
H  -0.1809991857 -0.8627238852  2.1781932804
H  -4.9269124195 -0.9923491488  1.6591304420
H  -2.6136603581 -1.2280527233  2.4941818515
C  -0.3621543689 -0.4576226393  1.1837150015
C  -0.8496566420  0.7102499206 -1.2893672015
H  -3.4847485712  0.9171787338 -1.9093734735
H  -5.3670646085  0.0907405055 -0.5321306669
C   0.4366308688  0.4868998508 -0.8766453935
C   0.7002515740 -0.1447224726  0.3721540323
H  -1.0435945423  1.2017907665 -2.2399710332
H   1.2590618089  0.8070613918 -1.5125366451
C   2.1155340548 -0.4204401225  0.8447723843
C   3.0732578345  0.7867985448  0.7763121095
H   2.5615845994 -1.2477070074  0.2812752436
H   2.0588045303 -0.7552232386  1.8891800967
H   3.8586874059  0.6720088259  1.5309905365
H   2.5419235096  1.7235412594  0.9633835408
C   3.7596113791  0.8789210529 -0.5718098764
O   3.6113920213  1.7468220813 -1.3993730014
O   4.5745662826 -0.1783545378 -0.7824291183
H   4.9285324313 -0.0808522115 -1.6816753296
27
Scanning combination 30/73: [237.8502]  Energy = -652.9191861306
C  -4.0915892841 -0.4555948477  1.1533284991
C  -2.8042687070 -0.6515226496  1.5729164619
C  -1.7088908517 -0.3316912964  0.7269098593
C  -1.9647519602  0.2082280170 -0.5588083116
C  -3.3127222255  0.4048859016 -0.9673316455
C  -4.3500185679  0.0785524990 -0.1340877074
H  -0.1762262694 -0.9560859536  2.1140478728
H  -4.9255128275 -0.7058008609  1.8049054847
H  -2.5985842058 -1.0621467051  2.5593894265
C  -0.3609293435 -0.5385622501  1.1255718043
C  -0.8596249401  0.5354629590 -1.3871371575
H  -3.5078351150  0.8175463448 -1.9546556126
H  -5.3788768193  0.2300429523 -0.4499474901
C   0.4296633772  0.3319086782 -0.9692447711
C   0.6985710421 -0.2258081222  0.3107902795
H  -1.0568140904  0.9478577447 -2.3735980848
H   1.2537674627  0.5938262869 -1.6274568917
C   2.1134256069 -0.5116943163  0.7764932156
C   3.0505458361  0.7149906419  0.8283699334
H   2.5734506530 -1.2812864922  0.1446517349
H   2.0551159702 -0.9356466546  1.7843193623
H   3.8396834580  0.5332931062  1.5661865434
H   2.4962152138  1.6061204866  1.1309683447
C   3.7414846403  1.0046191715 -0.4831694033
O   3.5039912712  1.9231528315 -1.2303651697
O   4.6961568373  0.0875865088 -0.7528176795
H   5.0850744615  0.3412666538 -1.6061293021
27
Scanning combination 31/73: [242.8502]  Energy = -652.9191649560
C  -4.0849109018 -0.4465595489  1.1568331117
C  -2.7969403394 -0.6376669952  1.5793348352
C  -1.7010793219 -0.3149770647  0.7345962558
C  -1.9585908923  0.2156778124 -0.5549469554
C  -3.3064387559  0.4132316203 -0.9634983584
C  -4.3442875220  0.0855781872 -0.1316054315
H  -0.1667691464 -0.9032270631  2.1352792689
H  -4.9196920963 -0.7096947004  1.8016487057
H  -2.5940170839 -1.0557197850  2.5633994952
C  -0.3523981411 -0.5190602754  1.1336979076
C  -0.8551038184  0.5286216393 -1.3919269509
H  -3.4984996976  0.8160834655 -1.9556344200
H  -5.3729579060  0.2282347747 -0.4528951322
C   0.4334262508  0.3013031256 -0.9844366385
C   0.7033139784 -0.2577565475  0.2951524204
H  -1.0527107255  0.9522988756 -2.3738671977
H   1.2593535023  0.5543433351 -1.6443232102
C   2.1225105925 -0.5304233648  0.7525977558
C   3.0315481837  0.7153844670  0.8431687990
H   2.6097508446 -1.2663875273  0.1035633231
H   2.0707051211 -0.9827499466  1.7495637494
H   3.8119082287  0.5330146279  1.5898900919
H   2.4573964413  1.5939499844  1.1426228224
C   3.7254234390  1.0159623145 -0.4667911088
O   3.4773980696  1.9259351521 -1.2210640704
O   4.6841770376  0.1025505726 -0.7365993035
H   5.0579852874  0.3455535027 -1.5996601691
27
Scanning combination 32/73: [247.8502]  Energy = -652.9187642787
C  -4.0755096982 -0.4367602552  1.1612042182
C  -2.7865803640 -0.6147283531  1.5884182707
C  -1.6914598726 -0.2942445165  0.7417517147
C  -1.9525320442  0.2212049361 -0.5537255334
C  -3.3007233628  0.4187535349 -0.9611333565
C  -4.3375572330  0.0892362893 -0.1292194751
H  -0.1513728343 -0.8489545740  2.1522817111
H  -4.9095945128 -0.7026600909  1.8054781629
H  -2.5825761767 -1.0292738939  2.5738375888
C  -0.3411818360 -0.4954029910  1.1399691199
C  -0.8521374680  0.5092925217 -1.4034973049
H  -3.4927509450  0.8200443309 -1.9539663259
H  -5.3668248515  0.2303544373 -0.4506528255
C   0.4349773544  0.2626262762 -1.0050555806
C   0.7080341140 -0.2820321687  0.2799934968
H  -1.0502140701  0.9347763514 -2.3848837530
H   1.2607538688  0.4885942708 -1.6753730632
C   2.1310145430 -0.5540375643  0.7226843261
C   3.0114678550  0.7086097806  0.8615211646
H   2.6265179115 -1.2526158109  0.0403213529
H   2.0913457274 -1.0515703924  1.6986941305
H   3.7849945704  0.5364825156  1.6175475580
H   2.4117612597  1.5684369071  1.1627552598
C   3.7082269798  1.0339677986 -0.4399900507
O   3.4520708358  1.9448833105 -1.1904707619
O   4.6732745653  0.1282781040 -0.7137237895
H   5.0370763118  0.3702398840 -1.5806666592
27
Scanning combination 33/73: [252.8502]  Energy = -652.9182283882
C  -4.0636474500 -0.4120899897  1.1739161029
C  -2.7736390939 -0.5816848246  1.6005058336
C  -1.6818098956 -0.2741543673  0.7448895874
C  -1.9464912062  0.2209884106 -0.5578789971
C  -3.2955548380  0.4232467304 -0.9590899361
C  -4.3300012313  0.1019339534 -0.1206573587
H  -0.1361765544 -0.7992469679  2.1608102864
H  -4.8955459099 -0.6798459941  1.8200036652
H  -2.5662852302 -0.9855585445  2.5900501881
C  -0.3305507186 -0.4779504111  1.1386946727
C  -0.8502121444  0.4804494964 -1.4227093847
H  -3.4902675504  0.8146523677 -1.9552627595
H  -5.3603619206  0.2345240632 -0.4424348646
C   0.4362001858  0.2149214767 -1.0329019324
C   0.7112287185 -0.3103174896  0.2597666100
H  -1.0512535151  0.8911482183 -2.4095412706
H   1.2598092495  0.4093910435 -1.7156870129
C   2.1365062579 -0.5836386057  0.6893168137
C   2.9869646996  0.6930109647  0.8819791765
H   2.6448104802 -1.2373902519 -0.0267677956
H   2.1091577219 -1.1287833781  1.6406363794
H   3.7504718732  0.5171335435  1.6468838320
H   2.3619996059  1.5319926083  1.1914440177
C   3.6908208395  1.0592688476 -0.4050754438
O   3.4262926437  1.9807048550 -1.1394499165
O   4.6685870692  0.1707980174 -0.6920964867
H   5.0294485384  0.4299968695 -1.5552444144
27
Scanning combination 34/73: [257.8502]  Energy = -652.9194729183
C  -4.0207390348 -0.2250581768  1.2443525441
C  -2.7266500610 -0.4525076749  1.6256538718
C  -1.6594369097 -0.2839887063  0.7046790502
C  -1.9420863803  0.1400843268 -0.6182620500
C  -3.2961829777  0.3741833100 -0.9862763164
C  -4.3081021083  0.1892416619 -0.0814062638
H  -0.1142828038 -0.8964995305  2.0784491074
H  -4.8368387066 -0.3762463826  1.9478231728
H  -2.4934569014 -0.7736239817  2.6389696233
C  -0.3124320844 -0.5494140455  1.0658054943
C  -0.8609292183  0.2977555009 -1.5254834614
H  -3.5116867630  0.7039580002 -2.0009070996
H  -5.3421542133  0.3555262623 -0.3723499802
C   0.4321980827  0.0516750106 -1.1386748716
C   0.7233211628 -0.3880563969  0.1809235718
H  -1.0777599409  0.6137676242 -2.5430896548
H   1.2439668260  0.1819031691 -1.8499792630
C   2.1389883731 -0.6738124889  0.6286191163
C   2.9608308061  0.5956463672  0.9441499076
H   2.6727179983 -1.2672345562 -0.1226077716
H   2.0897064196 -1.2855803566  1.5356059491
H   3.7510716126  0.3432229456  1.6583763221
H   2.3224647990  1.3627999490  1.3890399280
C   3.6179049662  1.1772276612 -0.2831725046
O   3.2660753307  2.1649452623 -0.8797689063
O   4.6818897652  0.4407428158 -0.6743915359
H   5.0421026027  0.8828430916 -1.4619783454
27
Scanning combination 35/73: [262.8502]  Energy = -652.9193429057
C  -4.0188885643 -0.2220657404  1.2395900668
C  -2.7253730455 -0.4489376300  1.6269323839
C  -1.6534800526 -0.2812417927  0.7090970799
C  -1.9391305306  0.1364694096 -0.6154257991
C  -3.2916476065  0.3757788650 -0.9871907832
C  -4.3063667343  0.1944712093 -0.0848665878
H  -0.1025931945 -0.8376080373  2.0998235562
H  -4.8364021200 -0.3653492277  1.9418311003
H  -2.5005995435 -0.7733905106  2.6409035772
C  -0.3029827673 -0.5300026390  1.0748658004
C  -0.8580472801  0.2899661684 -1.5241007683
H  -3.5073894008  0.6949454178 -2.0047376920
H  -5.3389783256  0.3707505249 -0.3763004631
C   0.4315495938  0.0242990965 -1.1444902716
C   0.7277725814 -0.4235304806  0.1726736992
H  -1.0741773476  0.6289676354 -2.5355626600
H   1.2401197125  0.1506219809 -1.8622309852
C   2.1535501678 -0.6855920649  0.6092737088
C   2.9506063149  0.5921623325  0.9565990968
H   2.7048795861 -1.2523835645 -0.1478323102
H   2.1233122473 -1.3166963377  1.5054092856
H   3.7499503412  0.3422728003  1.6618680811
H   2.3022613266  1.3432236613  1.4109139103
C   3.5984337850  1.1896322307 -0.2692311857
O   3.2421585795  2.1755674948 -0.8675190408
O   4.6622399874  0.4525382456 -0.6631106315
H   5.0097229324  0.8786316136 -1.4630825306
27
Scanning combination 36/73: [267.8502]  Energy = -652.9187081460
C  -4.0079433255 -0.2076077525  1.2421278988
C  -2.7146551431 -0.4262403465  1.6332982032
C  -1.6424012050 -0.2599152040  0.7151972262
C  -1.9292887165  0.1377566060 -0.6153439785
C  -3.2804807260  0.3808251357 -0.9861104894
C  -4.2962039293  0.2047735360 -0.0836906257
H  -0.0847381864 -0.7758132622  2.1157551910
H  -4.8261977655 -0.3560317115  1.9421061539
H  -2.4909520908 -0.7524934722  2.6476380887
C  -0.2908895298 -0.5036126072  1.0821385490
C  -0.8529910373  0.2705202739 -1.5328411703
H  -3.4936074688  0.6922644024 -2.0063693101
H  -5.3291794416  0.3747908631 -0.3778298376
C   0.4329518908 -0.0193675660 -1.1593423370
C   0.7306691910 -0.4443622712  0.1643587846
H  -1.0708464460  0.6048026367 -2.5450294255
H   1.2404096335  0.0780668900 -1.8822544223
C   2.1623858940 -0.7011949055  0.5818264400
C   2.9318932240  0.5806403655  0.9778349763
H   2.7186392293 -1.2170854319 -0.2073240498
H   2.1549005256 -1.3755460967  1.4467878915
H   3.7266832765  0.3287851528  1.6874547151
H   2.2669847299  1.3141998843  1.4370072332
C   3.5736114258  1.2034292873 -0.2392199415
O   3.2084651421  2.1936395162 -0.8243550673
O   4.6345586694  0.4723784430 -0.6538941888
H   4.9687228229  0.9058982979 -1.4558268896
27
Scanning combination 37/73: [272.8502]  Energy = -652.9197976295
C  -3.9389866658 -0.0200827225  1.2752039018
C  -2.6473761571 -0.2876319111  1.6377021606
C  -1.6060549307 -0.2644922860  0.6719642342
C  -1.9161140901  0.0525388032 -0.6742768989
C  -3.2680973664  0.3289876388 -1.0223015878
C  -4.2535162709  0.2951458329 -0.0713685323
H  -0.0461998888 -0.8073337962  2.0539021072
H  -4.7311160122 -0.0396850486  2.0187752419
H  -2.3947085967 -0.5196648894  2.6707702451
C  -0.2601861492 -0.5529502446  1.0176214278
C  -0.8593840056  0.0733121254 -1.6249153586
H  -3.5091094330  0.5678123854 -2.0564244255
H  -5.2863738303  0.5016816725 -0.3402751040
C   0.4323578682 -0.1961176424 -1.2537855677
C   0.7552679217 -0.5176517764  0.0923736001
H  -1.0967104088  0.2925633178 -2.6642165421
H   1.2269519539 -0.1689646471 -1.9976999342
C   2.1788524649 -0.7924019618  0.5336772424
C   2.9278589731  0.4607202223  1.0376542116
H   2.7603962921 -1.2577538496 -0.2695471229
H   2.1490399958 -1.5136024086  1.3588774103
H   3.7897364532  0.1460763252  1.6358977853
H   2.2826755467  1.0766090400  1.6681345107
C   3.4553463177  1.3320257435 -0.0754807434
O   3.0627515084  2.4340455378 -0.3717983140
O   4.4736560882  0.7273225746 -0.7304702915
H   4.7595430259  1.3529925889 -1.4158940918
27
Scanning combination 38/73: [277.8502]  Energy = -652.9195990715
C  -3.9368788777 -0.0099967017  1.2731455284
C  -2.6460998342 -0.2754345823  1.6415897523
C  -1.5989703307 -0.2520033629  0.6803744655
C  -1.9077011508  0.0501125523 -0.6700111843
C  -3.2572606915  0.3292360031 -1.0220478838
C  -4.2477566805  0.2971513717 -0.0761222353
H  -0.0338742488 -0.7463832264  2.0771587570
H  -4.7353208482 -0.0392408427  2.0102423665
H  -2.4036782714 -0.5186858001  2.6747664340
C  -0.2509377754 -0.5263939409  1.0330066344
C  -0.8514941624  0.0656406434 -1.6203456053
H  -3.4906270060  0.5607678621 -2.0593318595
H  -5.2790638185  0.5036118990 -0.3520623144
C   0.4351455591 -0.2221719433 -1.2493612751
C   0.7563163705 -0.5426691239  0.0977630542
H  -1.0835006539  0.3151630828 -2.6536992264
H   1.2311916233 -0.2058837330 -1.9919933697
C   2.1901925025 -0.7985240956  0.5134861237
C   2.9152273185  0.4534543552  1.0510456347
H   2.7744570256 -1.2105972174 -0.3136822078
H   2.1946881491 -1.5525071012  1.3098219723
H   3.7782149359  0.1384430309  1.6478840750
H   2.2555351999  1.0504689077  1.6837777461
C   3.4327132607  1.3326465969 -0.0638637978
O   3.0343525122  2.4306510626 -0.3639136894
O   4.4458007562  0.7281998418 -0.7291677714
H   4.7198297435  1.3484450767 -1.4243605553
27
Scanning combination 39/73: [282.8502]  Energy = -652.9187979702
C  -3.9294961968 -0.0020168822  1.2718543701
C  -2.6373761256 -0.2539983454  1.6458585944
C  -1.5867558204 -0.2315695868  0.6867260412
C  -1.9000362088  0.0556908887 -0.6666055181
C  -3.2486256467  0.3346280544 -1.0215047561
C  -4.2415120207  0.2996339038 -0.0782466622
H  -0.0071090266 -0.6807625629  2.0879125691
H  -4.7302136611 -0.0350834399  2.0063011478
H  -2.3988287274 -0.4937637525  2.6808119728
C  -0.2356728614 -0.4977160682  1.0388121633
C  -0.8497831293  0.0489490063 -1.6232219133
H  -3.4797648735  0.5607803510 -2.0602462640
H  -5.2728052832  0.5014678746 -0.3572100706
C   0.4336067867 -0.2551790170 -1.2561455136
C   0.7604055248 -0.5614506412  0.0925157889
H  -1.0832599969  0.2947294658 -2.6573548927
H   1.2265881296 -0.2562767784 -2.0019303951
C   2.2024633851 -0.8079041856  0.4865361740
C   2.9012685411  0.4387857831  1.0677882752
H   2.7851950470 -1.1735012091 -0.3630020500
H   2.2345518771 -1.5962160696  1.2496611892
H   3.7637536696  0.1297402001  1.6681898321
H   2.2233137339  1.0136770763  1.7012946896
C   3.4103177278  1.3376058732 -0.0364098872
O   3.0019679809  2.4336228635 -0.3289458637
O   4.4215436143  0.7412374620 -0.7124408876
H   4.6767641611  1.3583903441 -1.4168985616
27
Scanning combination 40/73: [287.8502]  Energy = -652.9179458324
C  -3.9102175514  0.0241918316  1.2781158694
C  -2.6158174668 -0.2186542035  1.6498078005
C  -1.5699244338 -0.2099173932  0.6839375079
C  -1.8917223241  0.0475361511 -0.6737355265
C  -3.2400209820  0.3289578047 -1.0235219219
C  -4.2277337142  0.3114687572 -0.0734548840
H   0.0302109923 -0.5946100579  2.0849231169
H  -4.7081239374 -0.0094331229  2.0160701874
H  -2.3699927771 -0.4356486992  2.6879496231
C  -0.2156226628 -0.4610170992  1.0315261304
C  -0.8510981283  0.0151355029 -1.6397568017
H  -3.4748401037  0.5492774067 -2.0622580994
H  -5.2614590588  0.5014232458 -0.3512506890
C   0.4288223232 -0.3048983214 -1.2798182553
C   0.7662869762 -0.5707244517  0.0747932073
H  -1.0949273981  0.2359759401 -2.6773158307
H   1.2130287498 -0.3495910547 -2.0340216738
C   2.2109969517 -0.8228875202  0.4535712408
C   2.8824940081  0.4100397412  1.0919023193
H   2.7904196523 -1.1260035754 -0.4225084173
H   2.2622715845 -1.6557728023  1.1679683109
H   3.7444918687  0.0948561621  1.6884007574
H   2.1837245684  0.9514490033  1.7350345892
C   3.3794483828  1.3474023401  0.0136271898
O   2.9556050850  2.4451479702 -0.2474922090
O   4.3916840836  0.7816846243 -0.6878033263
H   4.6325159196  1.4181124296 -1.3805906394
27
Scanning combination 41/73: [292.8502]  Energy = -652.9191001658
C  -3.8231485064  0.2005578494  1.3054735543
C  -2.5209338539 -0.0526245623  1.6378270349
C  -1.5270057905 -0.1717541627  0.6294758196
C  -1.8984279261 -0.0339890394 -0.7315676112
C  -3.2561882519  0.2469161675 -1.0463452766
C  -4.1954187209  0.3538970707 -0.0547176530
H   0.1026190198 -0.5412845282  1.9939093261
H  -4.5823399151  0.2767298548  2.0798409174
H  -2.2254468212 -0.1763199002  2.6780705624
C  -0.1721419242 -0.4360453104  0.9457617153
C  -0.8962490096 -0.1801767186 -1.7274649259
H  -3.5374045435  0.3676838210 -2.0902963723
H  -5.2340665742  0.5590134805 -0.3009870519
C   0.4051111423 -0.4370374248 -1.3872147149
C   0.7864822167 -0.5743369316 -0.0265454890
H  -1.1847727535 -0.0911361336 -2.7724952782
H   1.1635895712 -0.5426300683 -2.1610528577
C   2.2149410342 -0.8740618708  0.3713645536
C   2.8917261611  0.2830060419  1.1243055783
H   2.8191785385 -1.1333355383 -0.5019848131
H   2.2172094584 -1.7487425593  1.0319600816
H   3.7950944966 -0.0882738462  1.6179758102
H   2.2286270904  0.6884549156  1.8913492112
C   3.2906865363  1.4137490578  0.2093406589
O   2.8366141530  2.5311425554  0.2102557406
O   4.2680498456  1.0375487113 -0.6470646083
H   4.4741158866  1.8265497033 -1.1750742542
27
Scanning combination 42/73: [297.8502]  Energy = -652.9188599739
C  -3.8246317540  0.2098550161  1.3003005042
C  -2.5228002630 -0.0419842549  1.6386539766
C  -1.5232658466 -0.1667581005  0.6352492149
C  -1.8941528680 -0.0337860821 -0.7273240713
C  -3.2526900332  0.2386820712 -1.0485211592
C  -4.1936249885  0.3579575360 -0.0611054516
H   0.1097060613 -0.4886175511  2.0071025614
H  -4.5853051581  0.2935306651  2.0722705754
H  -2.2326521040 -0.1556532428  2.6816648010
C  -0.1635821124 -0.4189918628  0.9552045543
C  -0.8897033835 -0.1765287664 -1.7207886965
H  -3.5326451931  0.3511364982 -2.0941422608
H  -5.2329907080  0.5568618529 -0.3110173855
C   0.4042885724 -0.4643821964 -1.3787379389
C   0.7886307870 -0.6062447550 -0.0177243460
H  -1.1709551726 -0.0662045624 -2.7662951074
H   1.1608190502 -0.5793140983 -2.1530528398
C   2.2329411696 -0.8809199974  0.3530958255
C   2.8853098419  0.2716094859  1.1353496863
H   2.8266410211 -1.0922999345 -0.5402603574
H   2.2773159037 -1.7803404981  0.9820573244
H   3.7997307391 -0.0853858091  1.6195612943
H   2.2115256756  0.6543924134  1.9049952329
C   3.2723641690  1.4152036827  0.2283314384
O   2.8294406762  2.5370255805  0.2483979017
O   4.2304009832  1.0357525674 -0.6503768337
H   4.4303855019  1.8189049696 -1.1887887801
27
Scanning combination 43/73: [302.8502]  Energy = -652.9176868651
C  -3.8222653086  0.2104744575  1.2995301166
C  -2.5183656175 -0.0284701639  1.6396314406
C  -1.5165330467 -0.1479583246  0.6369550753
C  -1.8916240243 -0.0262606315 -0.7253834593
C  -3.2499623349  0.2402692078 -1.0487273368
C  -4.1926990179  0.3538093848 -0.0619984613
H   0.1137974121 -0.4659322102  2.0095352745
H  -4.5835753762  0.2984132082  2.0706263228
H  -2.2304288118 -0.1487174259  2.6825406618
C  -0.1561207631 -0.4008178236  0.9559589370
C  -0.8934015661 -0.1938665255 -1.7208971576
H  -3.5284069037  0.3470607957 -2.0952817066
H  -5.2304083841  0.5570272058 -0.3137157102
C   0.3963055027 -0.4960125503 -1.3777788086
C   0.7853258674 -0.6324332026 -0.0175813350
H  -1.1678692611 -0.0688213851 -2.7661933025
H   1.1598937120 -0.5902986311 -2.1470469596
C   2.2410169238 -0.8730545293  0.3317553597
C   2.8801338893  0.2661483736  1.1419742511
H   2.8348997377 -1.0733016749 -0.5629371490
H   2.2972255389 -1.7770111493  0.9529492962
H   3.7903642470 -0.0992294246  1.6262145004
H   2.2089604597  0.6420525148  1.9142149210
C   3.2651370698  1.4159770082  0.2416654337
O   2.8250786177  2.5379899980  0.2662152630
O   4.2147161578  1.0354552393 -0.6458303235
H   4.4093058481  1.8210088885 -1.1822954798
27
Scanning combination 44/73: [307.8502]  Energy = -652.9193630818
C  -3.7248184125  0.4173414992  1.2889649785
C  -2.4121766243  0.1834860485  1.5950633834
C  -1.4656391627 -0.0868820350  0.5703709539
C  -1.8982754292 -0.1243384281 -0.7791685614
C  -3.2682158253  0.1287035359 -1.0697130053
C  -4.1586479962  0.3915598619 -0.0614342656
H   0.2024770365 -0.3004940604  1.9147936221
H  -4.4443427950  0.6221585312  2.0778502939
H  -2.0681745308  0.2035355683  2.6278627559
C  -0.1001910689 -0.3254355657  0.8697582728
C  -0.9356913465 -0.4091735770 -1.7867167791
H  -3.5992133090  0.1135635538 -2.1065481360
H  -5.2039679999  0.5889662762 -0.2875690232
C   0.3762686126 -0.6345440922 -1.4628744149
C   0.8184153726 -0.6038447852 -0.1115586099
H  -1.2595227097 -0.4450351960 -2.8258236756
H   1.1017031684 -0.8375277412 -2.2492517894
C   2.2597378588 -0.9254015950  0.2409726253
C   2.9331334806  0.1073466964  1.1558486904
H   2.8516659625 -1.0393780020 -0.6713101997
H   2.2916037515 -1.8930395277  0.7579047336
H   3.9176155820 -0.2690113831  1.4594969445
H   2.3519840924  0.2689002404  2.0655968158
C   3.1565766235  1.4532025900  0.5082695336
O   2.7643797068  2.5173783324  0.9195467172
O   3.9123652122  1.3466845608 -0.6083437271
H   4.0414513264  2.2547792100 -0.9278885191
27
Scanning combination 45/73: [312.8502]  Energy = -652.9191712294
C  -3.7251570914  0.4259332575  1.2849897107
C  -2.4125256888  0.2003812321  1.5985132041
C  -1.4599527163 -0.0744333434  0.5796873308
C  -1.8897349260 -0.1143691830 -0.7704381269
C  -3.2572736309  0.1334238815 -1.0692426718
C  -4.1540798986  0.3940215693 -0.0664627199
H   0.2103865094 -0.2645433531  1.9236567490
H  -4.4507220808  0.6256374998  2.0697213070
H  -2.0777948746  0.2145387375  2.6342869689
C  -0.0939741668 -0.3136176282  0.8800180284
C  -0.9311157117 -0.4079307904 -1.7777116430
H  -3.5815129656  0.1009354993 -2.1073408094
H  -5.2003103052  0.5757912297 -0.2986236056
C   0.3744963327 -0.6573994714 -1.4507079219
C   0.8144715579 -0.6343564285 -0.0988538586
H  -1.2530355886 -0.4236113175 -2.8176437860
H   1.1008562700 -0.8694956380 -2.2335088222
C   2.2685292722 -0.9227352836  0.2229646837
C   2.9231355411  0.0978039381  1.1601838833
H   2.8497684449 -0.9838855527 -0.7000836172
H   2.3468148783 -1.9035670447  0.7086147611
H   3.9035548637 -0.2859657361  1.4646411458
H   2.3345267146  0.2483410909  2.0658941457
C   3.1462077127  1.4467676168  0.5165815975
O   2.7558204784  2.5109993009  0.9290684392
O   3.8934046036  1.3395463892 -0.6062823388
H   4.0057170448  2.2452900456 -0.9378224210
27
Scanning combination 46/73: [317.8502]  Energy = -652.9183963988
C  -3.7231933743  0.4342035937  1.2826558177
C  -2.4089713086  0.2176050484  1.5974336813
C  -1.4551321944 -0.0616456830  0.5810537570
C  -1.8870319871 -0.1181952452 -0.7680204101
C  -3.2535531489  0.1319649133 -1.0689659277
C  -4.1514533703  0.3960185578 -0.0688635779
H   0.2180861387 -0.2178001605  1.9247257096
H  -4.4496965531  0.6352317307  2.0659221396
H  -2.0746304366  0.2440834992  2.6332148772
C  -0.0857233193 -0.2906737876  0.8820798215
C  -0.9306980470 -0.4243063711 -1.7731007814
H  -3.5755539955  0.1009926336 -2.1080447774
H  -5.1983281011  0.5741063262 -0.3020853667
C   0.3700613872 -0.6889884365 -1.4423232820
C   0.8155537204 -0.6465114195 -0.0925384006
H  -1.2496869237 -0.4402780285 -2.8134346187
H   1.0932404722 -0.9219132884 -2.2216263261
C   2.2816689556 -0.9131941437  0.1991848167
C   2.9216657888  0.0816886095  1.1718624655
H   2.8487774095 -0.9136975832 -0.7345143714
H   2.3904683566 -1.9181569868  0.6290283823
H   3.9047482569 -0.2929094500  1.4795701499
H   2.3230851249  0.2117018458  2.0738864143
C   3.1353340817  1.4392767615  0.5399715957
O   2.7440065216  2.4995247254  0.9609843648
O   3.8679357357  1.3399715143 -0.5943421603
H   3.9695213922  2.2454013434 -0.9296143664
27
Scanning combination 47/73: [322.8502]  Energy = -652.9191011045
C  -3.6624038051  0.5660908298  1.2644898364
C  -2.3413826358  0.3551646550  1.5546715752
C  -1.4241951116 -0.0104765288  0.5324884268
C  -1.9009764217 -0.1799892868 -0.7910498415
C  -3.2756244310  0.0544470169 -1.0667446263
C  -4.1349874800  0.4205292321 -0.0648863322
H   0.2854920571 -0.0787040461  1.8355789515
H  -4.3596257687  0.8485002765  2.0492513759
H  -1.9729441326  0.4678513041  2.5729952672
C  -0.0463547925 -0.2211514191  0.8097320555
C  -0.9806473252 -0.5885178707 -1.7943647146
H  -3.6324164069 -0.0630261236 -2.0881929936
H  -5.1849215546  0.6029162662 -0.2813368301
C   0.3366689635 -0.7955301670 -1.4911065443
C   0.8324874272 -0.6178047384 -0.1679983173
H  -1.3457195840 -0.7458903909 -2.8083376012
H   1.0291169913 -1.0984371908 -2.2740406329
C   2.2953178707 -0.9142636317  0.1141302840
C   2.9673175230 -0.0043271287  1.1494748319
H   2.8618271863 -0.8635879763 -0.8204774132
H   2.3847067647 -1.9473220650  0.4760150476
H   3.9879884737 -0.3664393923  1.3237117634
H   2.4507276344 -0.0336406208  2.1101580119
C   3.0743881512  1.4413437912  0.7184317774
O   2.6442982157  2.3961809690  1.3169038710
O   3.7558493808  1.5636826582 -0.4433293247
H   3.7965133710  2.5159020265 -0.6320683466
27
Scanning combination 48/73: [327.8502]  Energy = -652.9187562321
C  -3.6589414144  0.5781342338  1.2616347505
C  -2.3364798505  0.3761253670  1.5518173005
C  -1.4195658856 -0.0035438591  0.5342638016
C  -1.8984183675 -0.1808901121 -0.7869839396
C  -3.2723864063  0.0526317310 -1.0658492238
C  -4.1335237701  0.4200430811 -0.0653401428
H   0.2909749088 -0.0415359719  1.8338032762
H  -4.3579628035  0.8552583590  2.0470426632
H  -1.9683355862  0.4880962441  2.5701060550
C  -0.0401675649 -0.2108086181  0.8118815852
C  -0.9790761681 -0.5968590193 -1.7880659256
H  -3.6297518891 -0.0739698402 -2.0858157449
H  -5.1853800198  0.5906278589 -0.2805700118
C   0.3339754192 -0.8212557560 -1.4792666484
C   0.8309934095 -0.6444780689 -0.1569002542
H  -1.3350254601 -0.7174555380 -2.8097588497
H   1.0262490850 -1.1356628508 -2.2580885813
C   2.3050401957 -0.9077291666  0.0974398522
C   2.9582704654 -0.0145652313  1.1542009190
H   2.8572091339 -0.8083100630 -0.8404533352
H   2.4360204014 -1.9476128616  0.4245254705
H   3.9783202406 -0.3745640285  1.3335740691
H   2.4286422614 -0.0594943774  2.1058940557
C   3.0624153514  1.4325326860  0.7293930929
O   2.6343528140  2.3887846689  1.3275592182
O   3.7401563326  1.5544855636 -0.4348165998
H   3.7728957344  2.5055160230 -0.6271272969
27
Scanning combination 49/73: [332.8502]  Energy = -652.9180803899
C  -3.6521885402  0.5898014315  1.2603005477
C  -2.3275336152  0.3981929808  1.5480404059
C  -1.4126213843  0.0120564779  0.5308478004
C  -1.8960048461 -0.1837398472 -0.7856783549
C  -3.2694644013  0.0497384131 -1.0641668314
C  -4.1298257341  0.4198854688 -0.0642156087
H   0.3026513718  0.0031384108  1.8224225843
H  -4.3499053095  0.8729407009  2.0444802629
H  -1.9573981126  0.5245228242  2.5640651540
C  -0.0318424728 -0.1903638564  0.8066456136
C  -0.9814325210 -0.6175213946 -1.7842496872
H  -3.6277864363 -0.0856810239 -2.0826307309
H  -5.1828466141  0.5845566775 -0.2784094433
C   0.3275059129 -0.8547133131 -1.4727485231
C   0.8323539083 -0.6525681212 -0.1572865257
H  -1.3381555302 -0.7445388487 -2.8046570769
H   1.0125429633 -1.1958222649 -2.2470263500
C   2.3148474807 -0.8914872593  0.0716107150
C   2.9532535820 -0.0311532389  1.1634270055
H   2.8543498984 -0.7259786800 -0.8647748780
H   2.4750441423 -1.9450799187  0.3365931394
H   3.9729929651 -0.3886897939  1.3498829098
H   2.4128063354 -0.0995088940  2.1077797391
C   3.0522291820  1.4233498714  0.7579089618
O   2.6181904397  2.3724208478  1.3622983636
O   3.7238913941  1.5547889003 -0.4099066188
H   3.7448465173  2.5049538880 -0.6064530183
27
Scanning combination 50/73: [337.8502]  Energy = -652.9192198817
C  -3.5972073873  0.7197996389  1.2311550691
C  -2.2643815600  0.5427755709  1.4872391536
C  -1.3897851660  0.0606755648  0.4769634457
C  -1.9218108339 -0.2617880025 -0.7945491332
C  -3.3051075086 -0.0536783154 -1.0404959001
C  -4.1226328067  0.4308822971 -0.0541842216
H   0.3742346080  0.1804486518  1.6977325366
H  -4.2603069954  1.0905859962  2.0081175970
H  -1.8557663211  0.7513067336  2.4748768067
C   0.0016958171 -0.1102419675  0.7196189633
C  -1.0430448967 -0.7856199357 -1.7828334206
H  -3.7048214717 -0.2899376155 -2.0247271261
H  -5.1802464074  0.5926838861 -0.2457735210
C   0.2890628206 -0.9388859737 -1.5167581226
C   0.8442232218 -0.5965743929 -0.2502838062
H  -1.4533003970 -1.0775360608 -2.7476565739
H   0.9469651688 -1.3421293320 -2.2848437115
C   2.3253060668 -0.8605760811 -0.0356907199
C   2.9913378515 -0.1012046395  1.1153183593
H   2.8663844751 -0.6392310670 -0.9624415253
H   2.4669522618 -1.9317129301  0.1528942685
H   4.0306108881 -0.4403214944  1.1961924546
H   2.5087931611 -0.3263293754  2.0687158290
C   3.0151954677  1.3980023477  0.9319664625
O   2.5004520748  2.2101347097  1.6625551144
O   3.7058441539  1.7560059369 -0.1722047598
H   3.6718542217  2.7259662582 -0.2068039296
27
Scanning combination 51/73: [342.8502]  Energy = -652.9192918096
C  -3.5957863790  0.7278318278  1.2292345435
C  -2.2618156906  0.5558988963  1.4840542190
C  -1.3870487828  0.0659288091  0.4775339785
C  -1.9212857053 -0.2650550831 -0.7910500323
C  -3.3056354532 -0.0597539983 -1.0374161702
C  -4.1243204739  0.4241154483 -0.0510271137
H   0.3804966314  0.2252639668  1.6877939403
H  -4.2604019357  1.0983995094  2.0057452836
H  -1.8511839734  0.7835324844  2.4662769229
C   0.0064808620 -0.0970158849  0.7195529573
C  -1.0415431982 -0.7894835308 -1.7778458149
H  -3.7051911389 -0.2982278086 -2.0211414967
H  -5.1836616371  0.5768263515 -0.2412017577
C   0.2852689176 -0.9663702608 -1.5017552299
C   0.8422116108 -0.6223737149 -0.2361255852
H  -1.4409334221 -1.0392894318 -2.7590497091
H   0.9425245962 -1.3771444249 -2.2664312499
C   2.3327046077 -0.8560929329 -0.0478140877
C   2.9904297880 -0.1155928875  1.1208610739
H   2.8531703186 -0.5858218673 -0.9729690182
H   2.5105316041 -1.9289924561  0.0982291378
H   4.0318826305 -0.4476882484  1.2064835777
H   2.4988827641 -0.3491654794  2.0678667681
C   3.0074198275  1.3854235493  0.9410574647
O   2.4774062100  2.1949836172  1.6637881873
O   3.7038846380  1.7472047238 -0.1582578735
H   3.6560132963  2.7161592577 -0.2022933331
27
Scanning combination 52/73: [347.8502]  Energy = -652.9190242741
C  -3.5900231520  0.7411028361  1.2261280030
C  -2.2543357307  0.5798448090  1.4777956723
C  -1.3808978435  0.0836949430  0.4724899020
C  -1.9192388999 -0.2668375511 -0.7891647479
C  -3.3039679316 -0.0665259937 -1.0338000675
C  -4.1218121447  0.4232319688 -0.0492566742
H   0.3953627644  0.2766581585  1.6664587455
H  -4.2550054764  1.1116910983  2.0026206920
H  -1.8407518517  0.8206814169  2.4559759284
C   0.0142509124 -0.0714980426  0.7096435220
C  -1.0436482531 -0.8067653626 -1.7713797680
H  -3.7044613128 -0.3161541812 -2.0140505145
H  -5.1837313793  0.5608440530 -0.2352094639
C   0.2801101291 -0.9942444708 -1.4921148680
C   0.8434456821 -0.6224967540 -0.2375348157
H  -1.4462461233 -1.0683065491 -2.7484334234
H   0.9325128174 -1.4310198489 -2.2466066797
C   2.3394433271 -0.8334232066 -0.0716980176
C   2.9860102333 -0.1352506669  1.1270520254
H   2.8464471990 -0.4979922511 -0.9832621104
H   2.5420926601 -1.9082250114  0.0134546974
H   4.0267315915 -0.4691225794  1.2108269433
H   2.4828562177 -0.3944220741  2.0617304498
C   2.9989341005  1.3684172584  0.9665261877
O   2.4511910216  2.1712471901  1.6841265947
O   3.7049936196  1.7404601964 -0.1236660229
H   3.6402383406  2.7079110399 -0.1745526023
27
Scanning combination 53/73: [352.8502]  Energy = -652.9197372351
C  -3.5551082357  0.8371004776  1.1922650163
C  -2.2106927308  0.7004389964  1.4098504969
C  -1.3716041821  0.1221667421  0.4209710793
C  -1.9475386947 -0.3348908606 -0.7885008993
C  -3.3451450597 -0.1793030787 -0.9914204130
C  -4.1301256980  0.3937255332 -0.0254071151
H   0.4325691405  0.3924244906  1.5561965965
H  -4.1915224467  1.2868154676  1.9500573609
H  -1.7586083929  1.0400794237  2.3405205113
C   0.0310708749 -0.0046710951  0.6270836229
C  -1.0936970565 -0.9267181387 -1.7607236998
H  -3.7819167029 -0.5255554010 -1.9257957155
H  -5.1978572322  0.5169652571 -0.1867142047
C   0.2496777754 -1.0352615447 -1.5314094940
C   0.8458410731 -0.5693776414 -0.3230641824
H  -1.5287011471 -1.2969116447 -2.6873509688
H   0.8875822540 -1.4909687283 -2.2871678134
C   2.3428113909 -0.7836321885 -0.1663070895
C   2.9893237850 -0.1758669500  1.0829098656
H   2.8516795859 -0.3950688364 -1.0563611132
H   2.5439566731 -1.8618226370 -0.1517503415
H   4.0319869158 -0.5096088406  1.1364762699
H   2.4909080141 -0.5275633391  1.9897567658
C   3.0031466034  1.3356563789  1.1036091996
O   2.4622495127  2.0386873595  1.9243641523
O   3.7156033816  1.8454715596  0.0774818796
H   3.6746111557  2.8111897105  0.1745298139
27
Scanning combination 54/73: [357.8502]  Energy = -652.9196002040
C  -3.5552812834  0.8395072264  1.1911222437
C  -2.2088826383  0.7125863655  1.4049967218
C  -1.3697471680  0.1333989420  0.4168545205
C  -1.9463500284 -0.3301863690 -0.7894938535
C  -3.3448630580 -0.1811218505 -0.9910130308
C  -4.1301178954  0.3917076316 -0.0251472161
H   0.4351074060  0.4122044212  1.5485942131
H  -4.1925685393  1.2854624136  1.9504953095
H  -1.7582654361  1.0457019354  2.3385986809
C   0.0324411666  0.0056505663  0.6245825116
C  -1.0938829093 -0.9327211215 -1.7562086816
H  -3.7808042958 -0.5284952230 -1.9256711787
H  -5.1989043047  0.5094019417 -0.1845140164
C   0.2458547694 -1.0588121376 -1.5177350753
C   0.8425964175 -0.5925533864 -0.3099616449
H  -1.5253697458 -1.2841914579 -2.6915399246
H   0.8863771262 -1.5032355190 -2.2782235703
C   2.3459474472 -0.7679698646 -0.1736363672
C   2.9895389103 -0.1837017358  1.0880044256
H   2.8450774575 -0.3604769713 -1.0597207754
H   2.5623193563 -1.8435037027 -0.1740188282
H   4.0308518540 -0.5212435435  1.1379330708
H   2.4879487596 -0.5450246918  1.9888811616
C   3.0032533057  1.3290043689  1.1114916376
O   2.4582557187  2.0359430059  1.9261694855
O   3.7140774467  1.8350843556  0.0819792381
H   3.6658907168  2.8010848579  0.1712805163
27
Scanning combination 55/73: [362.8502]  Energy = -652.9192985747
C  -3.5551226425  0.8472427468  1.1871542895
C  -2.2076486763  0.7295912400  1.3983372200
C  -1.3681001778  0.1409470888  0.4153520807
C  -1.9458417186 -0.3327501979 -0.7868271903
C  -3.3437472956 -0.1813942708 -0.9912232968
C  -4.1307691918  0.3904356340 -0.0253700447
H   0.4427500794  0.4631834883  1.5274178237
H  -4.1943096386  1.2889129009  1.9476285870
H  -1.7556296270  1.0758746650  2.3265052844
C   0.0363454026  0.0277485301  0.6175170620
C  -1.0948478850 -0.9487686443 -1.7468000995
H  -3.7801633234 -0.5352153128 -1.9229249797
H  -5.2011475290  0.4972490713 -0.1811772724
C   0.2433820865 -1.0810509145 -1.5035001772
C   0.8415807466 -0.5967526204 -0.3044387296
H  -1.5233281998 -1.2976876091 -2.6842503222
H   0.8791532877 -1.5662734950 -2.2422822515
C   2.3495753053 -0.7460528260 -0.1903314901
C   2.9867735733 -0.2038596587  1.0919403565
H   2.8229974038 -0.2605013654 -1.0514431598
H   2.6028859947 -1.8107526894 -0.2654593765
H   4.0276590067 -0.5437549913  1.1447602298
H   2.4744624083 -0.5780389400  1.9815391785
C   3.0044169369  1.3089180672  1.1310380875
O   2.4587762205  2.0123112866  1.9479364642
O   3.7157494259  1.8188287396  0.1032261885
H   3.6546485889  2.7851105230  0.1797751139
27
Scanning combination 56/73: [367.8502]  Energy = -652.9189787958
C  -3.5532002364  0.8646092648  1.1772991731
C  -2.2036002933  0.7572602910  1.3839051051
C  -1.3659881972  0.1582627279  0.4052629217
C  -1.9493956383 -0.3466722297 -0.7815921881
C  -3.3467229059 -0.1933822419 -0.9874866791
C  -4.1311216935  0.3927374230 -0.0282500167
H   0.4511768624  0.5117892690  1.4999564414
H  -4.1914808657  1.3070247974  1.9376845686
H  -1.7488899462  1.1167856984  2.3054722692
C   0.0402580858  0.0587063364  0.5997542142
C  -1.1035627662 -0.9875971974 -1.7299758064
H  -3.7841560028 -0.5590305396 -1.9139836084
H  -5.2032830686  0.4891875058 -0.1792799811
C   0.2348319046 -1.1127580466 -1.4895758830
C   0.8411514008 -0.5820378281 -0.3148378988
H  -1.5382125285 -1.3706325294 -2.6512323751
H   0.8675929989 -1.6238267285 -2.2138184688
C   2.3524258516 -0.7072833470 -0.2221337833
C   2.9859531935 -0.2237954264  1.0852709039
H   2.8034660585 -0.1529323868 -1.0528154526
H   2.6278223529 -1.7592886053 -0.3670967439
H   4.0218585443 -0.5793203755  1.1332444361
H   2.4591704795 -0.6221756877  1.9567023674
C   3.0162991744  1.2882765605  1.1657304177
O   2.4708026416  1.9735050495  1.9969893303
O   3.7284595354  1.8207374980  0.1490046420
H   3.6588456339  2.7853511745  0.2399016535
27
Scanning combination 57/73: [372.8502]  Energy = -652.9194680754
C  -3.5459666226  0.9212257322  1.1448336890
C  -2.1932570979  0.8274737954  1.3351125686
C  -1.3690875885  0.1820596625  0.3748129517
C  -1.9711314085 -0.3956434114 -0.7684759548
C  -3.3737022467 -0.2678158030 -0.9536515702
C  -4.1433829747  0.3763866912 -0.0202478623
H   0.4637144724  0.5748702616  1.4318195856
H  -4.1711266477  1.4223286041  1.8798433980
H  -1.7238818723  1.2491138036  2.2230198824
C   0.0440247551  0.1110561739  0.5419926465
C  -1.1390393936 -1.0797717256 -1.6981003968
H  -3.8249939455 -0.6905582300 -1.8491421611
H  -5.2162496502  0.4724726017 -0.1650002547
C   0.2115920694 -1.1479818737 -1.4982032752
C   0.8384252788 -0.5302406274 -0.3777427213
H  -1.5981954399 -1.5522995871 -2.5643411573
H   0.8319811775 -1.6978815899 -2.2045574362
C   2.3523555274 -0.6351457034 -0.3013987389
C   2.9912906574 -0.2420626093  1.0361714119
H   2.8049096342 -0.0258124196 -1.0937375009
H   2.6279880992 -1.6743424096 -0.5199170553
H   4.0257521024 -0.6043807056  1.0507134151
H   2.4692752499 -0.7006160895  1.8805017805
C   3.0393218448  1.2539633935  1.2536900421
O   2.4949938109  1.8634847572  2.1453233268
O   3.7764035867  1.8725026993  0.3079487663
H   3.7384871962  2.8211150164  0.5128321549
27
Scanning combination 58/73: [377.8502]  Energy = -652.9191068564
C  -3.5449513742  0.9286135553  1.1407727492
C  -2.1912044307  0.8416542985  1.3264595585
C  -1.3689090359  0.1907973756  0.3689750145
C  -1.9711715969 -0.3924261391 -0.7713740295
C  -3.3750637675 -0.2706432059 -0.9521732927
C  -4.1436628746  0.3740558430 -0.0188295573
H   0.4653007446  0.6025193858  1.4146384719
H  -4.1702747658  1.4238058479  1.8793917608
H  -1.7219142879  1.2589196459  2.2163694250
C   0.0435466930  0.1156935387  0.5390672945
C  -1.1395848156 -1.0890943803 -1.6916326925
H  -3.8294212325 -0.7018974793 -1.8421787219
H  -5.2177635143  0.4647267395 -0.1592154600
C   0.2089589752 -1.1698150902 -1.4835198317
C   0.8341394170 -0.5611186464 -0.3580775314
H  -1.5925570805 -1.5437020434 -2.5704722698
H   0.8329830998 -1.6937556788 -2.2059573723
C   2.3518436562 -0.6245701393 -0.3048852406
C   2.9947557345 -0.2491595629  1.0361741160
H   2.7784279289 -0.0004841350 -1.0983488678
H   2.6516940254 -1.6545604841 -0.5329000401
H   4.0288166422 -0.6127631699  1.0512569417
H   2.4679166627 -0.7182149604  1.8700175321
C   3.0409278598  1.2468408965  1.2627429762
O   2.4906072237  1.8547809636  2.1502426811
O   3.7805286385  1.8668304791  0.3192621598
H   3.7365320485  2.8164669652  0.5182937622
27
Scanning combination 59/73: [382.8502]  Energy = -652.9184564505
C  -3.5441371588  0.9388709260  1.1337733705
C  -2.1894157382  0.8607745920  1.3147470806
C  -1.3688251164  0.1980263421  0.3635931319
C  -1.9730444395 -0.4024588708 -0.7664886606
C  -3.3771758378 -0.2810166708 -0.9480478404
C  -4.1451417662  0.3688431452 -0.0168249637
H   0.4714625353  0.6498730478  1.3841836685
H  -4.1686872531  1.4375312281  1.8710630243
H  -1.7166638118  1.2950921711  2.1942707915
C   0.0441691856  0.1345800372  0.5271203294
C  -1.1421308378 -1.1078025051 -1.6815658026
H  -3.8335238378 -0.7218986223 -1.8320077031
H  -5.2201574555  0.4516706476 -0.1527118657
C   0.2050337702 -1.1948069983 -1.4678657652
C   0.8316011101 -0.5672121320 -0.3537632438
H  -1.5919604372 -1.5567163426 -2.5647361890
H   0.8288720129 -1.7415364698 -2.1738211162
C   2.3496202299 -0.5984328952 -0.3186203168
C   2.9966420685 -0.2668274434  1.0330501123
H   2.7456166764  0.0843892753 -1.0795802269
H   2.6768229985 -1.6048736117 -0.6084440406
H   4.0289981721 -0.6347708628  1.0398505700
H   2.4669119819 -0.7479257066  1.8590590589
C   3.0466756034  1.2256550661  1.2809646394
O   2.4876023997  1.8255414837  2.1689184810
O   3.7947764252  1.8549236634  0.3503950957
H   3.7365590877  2.8040079148  0.5475879043
27
Scanning combination 60/73: [387.8502]  Energy = -652.9192152325
C  -3.5404418298  1.0215672036  1.0748985662
C  -2.1808316407  0.9720277245  1.2311641569
C  -1.3730873100  0.2404025326  0.3198363742
C  -1.9964878350 -0.4651590654 -0.7368932894
C  -3.4101824207 -0.4056311552 -0.8715412392
C  -4.1635562976  0.3268542982  0.0084242224
H   0.4846210554  0.7577602353  1.2777123660
H  -4.1524775852  1.5911477312  1.7695927849
H  -1.6941141204  1.5046289250  2.0463818275
C   0.0449729044  0.2138496469  0.4454073692
C  -1.1768239952 -1.2072908942 -1.6316357189
H  -3.8823484611 -0.9435912967 -1.6903742285
H  -5.2435305303  0.3798390164 -0.1048578694
C   0.1824698642 -1.2101150254 -1.4853628321
C   0.8260637362 -0.4844339565 -0.4432450995
H  -1.6493403390 -1.7687259383 -2.4355894249
H   0.7990237382 -1.7697838387 -2.1874226286
C   2.3442472354 -0.5047410218 -0.4171888697
C   2.9970984025 -0.2859633643  0.9575793752
H   2.7362941536  0.2354284521 -1.1260929096
H   2.6737251222 -1.4819594199 -0.7890696036
H   4.0275275073 -0.6575131922  0.9236176986
H   2.4677890240 -0.8457605458  1.7327526221
C   3.0714397114  1.1625248584  1.3879035972
O   2.4924176039  1.6563972674  2.3264779693
O   3.8869702232  1.8815575120  0.5893610310
H   3.8690626206  2.7901836908  0.9322633274
27
Scanning combination 61/73: [392.8502]  Energy = -652.9185785357
C  -3.5403997449  1.0198946151  1.0767333058
C  -2.1805069689  0.9762170546  1.2278019979
C  -1.3732299387  0.2458923508  0.3155717913
C  -1.9972416606 -0.4657990736 -0.7371140467
C  -3.4102502570 -0.4050205820 -0.8720827465
C  -4.1635835369  0.3252254597  0.0089926731
H   0.4849303104  0.7620896306  1.2723512081
H  -4.1525209513  1.5912281480  1.7700251971
H  -1.6936280404  1.5053228360  2.0461479501
C   0.0452400354  0.2243462214  0.4364851919
C  -1.1766982006 -1.2068488447 -1.6318175397
H  -3.8826170036 -0.9445964876 -1.6906232586
H  -5.2433111270  0.3783522976 -0.1037213273
C   0.1823724596 -1.2188381650 -1.4783594333
C   0.8255066744 -0.5089259704 -0.4253949757
H  -1.6490975992 -1.7663071065 -2.4369012443
H   0.7980071637 -1.7713878576 -2.1863260635
C   2.3446032537 -0.4893145439 -0.4177480656
C   2.9996784947 -0.2927065795  0.9594805049
H   2.7373219024  0.2489291155 -1.1294156399
H   2.6733702247 -1.4682375834 -0.7895832062
H   4.0299543980 -0.6629085259  0.9229163951
H   2.4654198901 -0.8522898528  1.7323008586
C   3.0730230328  1.1580852301  1.3893874450
O   2.4905425816  1.6547710204  2.3244648496
O   3.8859897224  1.8784863973  0.5891073213
H   3.8676254244  2.7878411777  0.9314204331
27
Scanning combination 62/73: [397.8502]  Energy = -652.9181876037
C  -3.5418069216  1.0268579049  1.0699168876
C  -2.1807508697  0.9956680935  1.2133351024
C  -1.3738732786  0.2574483828  0.3074724424
C  -1.9972114193 -0.4671180681 -0.7371095148
C  -3.4105054026 -0.4048371390 -0.8746699265
C  -4.1645028212  0.3232478627  0.0078836322
H   0.4866948429  0.8292888626  1.2280915908
H  -4.1552096558  1.5857296486  1.7720006906
H  -1.6919391934  1.5324925904  2.0251992627
C   0.0440157990  0.2435664736  0.4259472124
C  -1.1753222541 -1.2224667035 -1.6186233952
H  -3.8839339471 -0.9500641310 -1.6887944621
H  -5.2463061071  0.3594819091 -0.0927103114
C   0.1817605788 -1.2496420396 -1.4497246723
C   0.8239563157 -0.5110866905 -0.4166334131
H  -1.6413874569 -1.7712028960 -2.4348363456
H   0.7973769342 -1.8352063674 -2.1302234250
C   2.3420802152 -0.4610255595 -0.4218563055
C   3.0053158551 -0.3173038203  0.9602325536
H   2.6866201982  0.3503732599 -1.0736021607
H   2.7074856065 -1.3940440097 -0.8701955532
H   4.0317746288 -0.6962602495  0.9111002074
H   2.4696163733 -0.8911568980  1.7205145061
C   3.0826170025  1.1286275637  1.4033613941
O   2.4862771994  1.6253432619  2.3293414477
O   3.9015670269  1.8503664314  0.6089730352
H   3.8560912934  2.7664227159  0.9297090831
27
Scanning combination 63/73: [402.8502]  Energy = -652.9185502980
C  -3.5606497617  1.0643914776  1.0265761458
C  -2.1967668442  1.0718859800  1.1539206940
C  -1.3813800287  0.3101055618  0.2742398556
C  -2.0065732493 -0.4975475929 -0.7075695483
C  -3.4228909583 -0.4745638646 -0.8304384221
C  -4.1822678943  0.2929986163  0.0121333802
H   0.4867969329  0.9511331487  1.1402678969
H  -4.1783065288  1.6500493398  1.7025540946
H  -1.7160947358  1.6644859012  1.9306850584
C   0.0406352590  0.3398466350  0.3592076723
C  -1.1869952238 -1.3083519560 -1.5378402197
H  -3.8906287857 -1.0652287546 -1.6157362997
H  -5.2650565396  0.3108807266 -0.0858902120
C   0.1750795381 -1.2626130774 -1.4262166272
C   0.8212218411 -0.4092046287 -0.4887987989
H  -1.6644824947 -1.9651876124 -2.2627585110
H   0.7872704290 -1.8872122263 -2.0737675053
C   2.3396323379 -0.3561532873 -0.5005572070
C   3.0059742638 -0.3376569584  0.8882114778
H   2.6947226914  0.5088763859 -1.0730184440
H   2.6960389124 -1.2467588772 -1.0302865719
H   4.0249618375 -0.7317074693  0.8035055785
H   2.4593355178 -0.9700220568  1.5916775278
C   3.1153992966  1.0537470166  1.4704515314
O   2.5249106549  1.4692901037  2.4396367732
O   3.9626521458  1.8269950204  0.7592935507
H   3.9579619431  2.7010228016  1.1846166347
27
Scanning combination 64/73: [407.8502]  Energy = -652.9182015363
C  -3.5585380024  1.0716435531  1.0230027197
C  -2.1949229811  1.0847117511  1.1426062674
C  -1.3835571038  0.3123778290  0.2690829348
C  -2.0065069424 -0.5002507506 -0.7093641417
C  -3.4227676299 -0.4792385975 -0.8274089170
C  -4.1803417768  0.2881745255  0.0175817015
H   0.4829789585  0.9952480231  1.1015711916
H  -4.1748753270  1.6597530328  1.6984493099
H  -1.7091586021  1.6822127133  1.9128634568
C   0.0364295634  0.3439296052  0.3541010093
C  -1.1855722704 -1.3112677959 -1.5392721956
H  -3.8942098140 -1.0865144894 -1.5975900332
H  -5.2634202865  0.2999961607 -0.0732173266
C   0.1760306231 -1.2810620591 -1.4109798618
C   0.8171278785 -0.4381613091 -0.4620172609
H  -1.6567751492 -1.9466976166 -2.2865532926
H   0.7938729117 -1.8972370460 -2.0620485981
C   2.3319789273 -0.3459970049 -0.4940133281
C   3.0153582926 -0.3503712636  0.8883392030
H   2.6460488964  0.5437536589 -1.0554526662
H   2.7064623926 -1.2102070461 -1.0539841146
H   4.0337111454 -0.7439083311  0.7937600867
H   2.4706121534 -0.9846904499  1.5913068534
C   3.1200995797  1.0383030437  1.4777754698
O   2.5161388650  1.4549888321  2.4366279383
O   3.9736184545  1.8135418280  0.7757717268
H   3.9506778017  2.6904695717  1.1931613772
27
Scanning combination 65/73: [412.8502]  Energy = -652.9173227553
C  -3.5606987408  1.0751863428  1.0181761338
C  -2.1969246285  1.1007900680  1.1267690213
C  -1.3872871421  0.3249239736  0.2556903704
C  -2.0086069253 -0.5003026202 -0.7122179316
C  -3.4260607500 -0.4894999178 -0.8221618445
C  -4.1830942660  0.2788691866  0.0232074522
H   0.4804049794  1.0304401051  1.0682082970
H  -4.1751624632  1.6692355255  1.6898224379
H  -1.7086722889  1.7019594696  1.8924385459
C   0.0315800200  0.3616299854  0.3386222734
C  -1.1841429841 -1.3253381690 -1.5251454976
H  -3.8993897175 -1.1020261589 -1.5870633022
H  -5.2661960046  0.2902774908 -0.0656037240
C   0.1773038538 -1.3018660242 -1.3876375443
C   0.8159343019 -0.4420995166 -0.4513487405
H  -1.6532162741 -1.9494391653 -2.2830877766
H   0.7932839010 -1.9229516826 -2.0363714802
C   2.3279895540 -0.3153801100 -0.4925257537
C   3.0274974446 -0.3665551399  0.8828462858
H   2.6269708638  0.5965689993 -1.0227194361
H   2.7074320548 -1.1551197338 -1.0833520511
H   4.0445424225 -0.7604451860  0.7725629980
H   2.4825379452 -1.0110434032  1.5746572440
C   3.1295454107  1.0151301371  1.4879820596
O   2.5097442359  1.4299117730  2.4386691220
O   3.9839321866  1.7967891916  0.7938262937
H   3.9512535647  2.6738549424  1.2098560557
27
Scanning combination 66/73: [417.8502]  Energy = -652.9183597718
C  -3.5951225984  1.1285604985  0.9532359332
C  -2.2296701741  1.2081940004  1.0380340318
C  -1.4010139561  0.3927539243  0.2201499266
C  -2.0143999632 -0.5327999115 -0.6600454745
C  -3.4336844885 -0.5752584720 -0.7533581419
C  -4.2060407386  0.2402959766  0.0307821245
H   0.4644661587  1.1985892895  0.9541393629
H  -4.2218341905  1.7582574423  1.5807477761
H  -1.7587810760  1.8914490126  1.7434028551
C   0.0220142914  0.4828708857  0.2651072933
C  -1.1825654489 -1.3953453398 -1.4212543282
H  -3.8928260114 -1.2630269584 -1.4619979235
H  -5.2909194836  0.2047921515 -0.0395168352
C   0.1801420272 -1.2896544933 -1.3504249232
C   0.8125540012 -0.3143587667 -0.5292288442
H  -1.6523185421 -2.1433537365 -2.0568031674
H   0.7997039208 -1.9613482691 -1.9418890477
C   2.3271533846 -0.2042418506 -0.5766425231
C   3.0404753195 -0.3952917679  0.7785734485
H   2.6386307427  0.7627519331 -0.9941487396
H   2.6990361748 -0.9697873318 -1.2652015288
H   4.0607061046 -0.7483073353  0.5977884966
H   2.5240926934 -1.1387696919  1.3889423658
C   3.1479225186  0.8943755913  1.5549793393
O   2.5201500806  1.1966520529  2.5421286870
O   4.0414374621  1.7326135208  0.9859050412
H   4.0411923749  2.5428880567  1.5206942689
27
Scanning combination 67/73: [422.8502]  Energy = -652.9180739824
C  -3.5917298822  1.1343815947  0.9488813828
C  -2.2273579057  1.2132459632  1.0326679318
C  -1.4018691167  0.3976246220  0.2134011149
C  -2.0129770953 -0.5333746767 -0.6620311720
C  -3.4312903243 -0.5790786268 -0.7468599153
C  -4.2026921008  0.2374615008  0.0363358430
H   0.4634007195  1.2167041991  0.9293271916
H  -4.2181408843  1.7612395320  1.5780964104
H  -1.7551224592  1.8988225632  1.7345603874
C   0.0183409133  0.4891048546  0.2557816026
C  -1.1800391233 -1.3983287398 -1.4207262972
H  -3.8915694631 -1.2698651379 -1.4500640252
H  -5.2869110939  0.2025787635 -0.0339645370
C   0.1823096088 -1.3041775815 -1.3355646864
C   0.8111537860 -0.3381623723 -0.5021516311
H  -1.6450145374 -2.1349057544 -2.0733508239
H   0.8067716819 -1.9584668041 -1.9413289164
C   2.3202211400 -0.1900164467 -0.5674272092
C   3.0506865761 -0.4053890915  0.7772818908
H   2.6076997620  0.7792432313 -0.9912201336
H   2.6889663373 -0.9473856290 -1.2660361145
H   4.0701167564 -0.7607310905  0.5927745552
H   2.5248694098 -1.1429819317  1.3867252244
C   3.1524193701  0.8846472451  1.5552014026
O   2.5132564405  1.1851458955  2.5348309126
O   4.0443211854  1.7283955000  0.9913262412
H   4.0306808819  2.5377688311  1.5276328440
27
Scanning combination 68/73: [427.8502]  Energy = -652.9190448228
C  -3.5964613161  1.2124649820  0.8722320034
C  -2.2341828850  1.3484643301  0.9019992808
C  -1.3991013697  0.4650140279  0.1656885566
C  -1.9988588929 -0.5654113454 -0.6010415263
C  -3.4160778432 -0.6768172406 -0.6257128177
C  -4.1959492230  0.1904224946  0.0930731354
H   0.4586993511  1.3752799663  0.7886441646
H  -4.2292733734  1.8923869883  1.4381168651
H  -1.7705880046  2.1349077227  1.4955683959
C   0.0194116957  0.5937447948  0.1732346279
C  -1.1587842914 -1.4526085367 -1.3252870186
H  -3.8682272903 -1.4666449325 -1.2219811743
H  -5.2787480172  0.0987884074  0.0749186642
C   0.1988091903 -1.2839151045 -1.3188090132
C   0.8132652167 -0.2317939421 -0.5859966360
H  -1.6131351653 -2.2704173195 -1.8815444724
H   0.8350516888 -1.9631662941 -1.8832952042
C   2.3206404149 -0.0904669165 -0.6498650657
C   3.0523851036 -0.4339947705  0.6673001180
H   2.5972945421  0.9280111592 -0.9517554241
H   2.6933980178 -0.7544074470 -1.4362867251
H   4.0825847512 -0.7282329472  0.4433773229
H   2.5579871302 -1.2664235770  1.1722481972
C   3.1143047121  0.7358325812  1.6172630484
O   2.4461126634  0.8893356248  2.6112627143
O   4.0217794066  1.6505974478  1.2111071376
H   3.9881643660  2.3725502934  1.8596402913
27
Scanning combination 69/73: [432.8502]  Energy = -652.9190171216
C  -3.5949435980  1.2158252873  0.8681467819
C  -2.2329218690  1.3527949716  0.8962573059
C  -1.3991721011  0.4703580220  0.1597571563
C  -1.9987720253 -0.5676482672 -0.5965424937
C  -3.4158805524 -0.6822421468 -0.6176255984
C  -4.1949580363  0.1876954881  0.0975605820
H   0.4560072001  1.4153393577  0.7398766284
H  -4.2262427913  1.8929378600  1.4377695519
H  -1.7670939872  2.1403724290  1.4858466373
C   0.0173401297  0.6110946376  0.1530921850
C  -1.1575004828 -1.4544778502 -1.3192142792
H  -3.8693727595 -1.4744640815 -1.2102750297
H  -5.2778923431  0.0965215975  0.0814130192
C   0.2008814477 -1.2968299878 -1.2982937985
C   0.8156702219 -0.2473676379 -0.5625330287
H  -1.6111949141 -2.2539026887 -1.9019761719
H   0.8349493621 -1.9762011191 -1.8652325516
C   2.3190634870 -0.0792012903 -0.6387517749
C   3.0654386012 -0.4496055810  0.6632374834
H   2.5794969490  0.9483747119 -0.9200772505
H   2.6922664560 -0.7272889840 -1.4394792972
H   4.0955801215 -0.7362878545  0.4290409852
H   2.5727666698 -1.2871796739  1.1612488624
C   3.1159496828  0.7202487901  1.6168833475
O   2.4344878623  0.8717598593  2.6014261400
O   4.0203057778  1.6431644315  1.2199763247
H   3.9662420641  2.3697101669  1.8625677235
27
Scanning combination 70/73: [437.8502]  Energy = -652.9183927778
C  -3.5973007372  1.2201297458  0.8640873725
C  -2.2370874673  1.3674752345  0.8793185368
C  -1.4030685975  0.4852588087  0.1434512942
C  -1.9982305523 -0.5638461772 -0.6010365799
C  -3.4152504178 -0.6833130565 -0.6165507470
C  -4.1951769922  0.1847859648  0.1014199224
H   0.4470571669  1.4596887876  0.6900960851
H  -4.2285367416  1.8947417022  1.4374243427
H  -1.7701905087  2.1549772659  1.4683158759
C   0.0114089146  0.6335763301  0.1321309598
C  -1.1513723477 -1.4628729883 -1.3023100547
H  -3.8695701939 -1.4822695385 -1.1994679878
H  -5.2778055166  0.0891398869  0.0911585188
C   0.2076287741 -1.3107297117 -1.2686973358
C   0.8161541058 -0.2495871965 -0.5440586881
H  -1.6021288375 -2.2600262931 -1.8901883375
H   0.8443196587 -1.9973948689 -1.8243260633
C   2.3158603007 -0.0579049278 -0.6297477218
C   3.0802727866 -0.4677597561  0.6510518712
H   2.5580129302  0.9828215266 -0.8771503516
H   2.6875741437 -0.6735427869 -1.4561474057
H   4.1113945557 -0.7416204708  0.4052670525
H   2.5955550749 -1.3174528264  1.1350528229
C   3.1197603193  0.6898420828  1.6184482076
O   2.4268824897  0.8340648822  2.5964272617
O   4.0177843028  1.6231313302  1.2311862232
H   3.9465539677  2.3521875001  1.8689443668
27
Scanning combination 71/73: [442.8502]  Energy = -652.9192426656
C  -3.6238746621  1.2688919013  0.7947613617
C  -2.2667107596  1.4571124169  0.7960786901
C  -1.4062669340  0.5549372623  0.1123681129
C  -1.9808711174 -0.5671921503 -0.5359715635
C  -3.3932412445 -0.7309273142 -0.5350343389
C  -4.1984204675  0.1663815620  0.1135746246
H   0.4281494524  1.6050265847  0.5728380396
H  -4.2742441511  1.9605985419  1.3236142525
H  -1.8319005336  2.3098167137  1.3144418465
C   0.0069861956  0.7422233686  0.0611688479
C  -1.1190229648 -1.5020234078 -1.1666170162
H  -3.8218143930 -1.5748667553 -1.0712031341
H  -5.2780764490  0.0363384736  0.1146632097
C   0.2321802871 -1.2957761118 -1.1948393197
C   0.8221643489 -0.1443388788 -0.6027628087
H  -1.5538984903 -2.3905313566 -1.6206606523
H   0.8755642718 -2.0202196236 -1.6912911562
C   2.3241243179  0.0346360020 -0.7046771531
C   3.0950492304 -0.4764909423  0.5319491591
H   2.5928322494  1.0840417862 -0.8776051384
H   2.6781805260 -0.5225770919 -1.5783981432
H   4.1399178807 -0.6592363647  0.2588269247
H   2.6560917366 -1.4088074689  0.8951878276
C   3.0902610417  0.5401248046  1.6455684568
O   2.4260676699  0.5049204687  2.6520973261
O   3.9397785120  1.5583249008  1.3736396007
H   3.8814950302  2.1731131307  2.1223815737
27
Scanning combination 72/73: [447.8502]  Energy = -652.9190997187
C  -3.6183633342  1.2785769285  0.7905070304
C  -2.2626850595  1.4689273083  0.7788242928
C  -1.4075686493  0.5551625618  0.1066302649
C  -1.9785766721 -0.5754161259 -0.5304058523
C  -3.3906801616 -0.7371051712 -0.5230990181
C  -4.1919958710  0.1682812630  0.1207595419
H   0.4170566340  1.6408753198  0.5125873548
H  -4.2663331437  1.9772009762  1.3137773844
H  -1.8183740445  2.3221698374  1.2885932129
C   0.0019888471  0.7479010429  0.0499929010
C  -1.1154557441 -1.5065279744 -1.1670061081
H  -3.8219733336 -1.5934974958 -1.0371883444
H  -5.2706569171  0.0371328962  0.1302002943
C   0.2381874553 -1.3092503716 -1.1724352408
C   0.8224352187 -0.1619677507 -0.5695647591
H  -1.5474009270 -2.3785128722 -1.6547815029
H   0.8867123700 -2.0246726732 -1.6744572702
C   2.3159368864  0.0453965826 -0.6868958418
C   3.1142398338 -0.4911551463  0.5224907721
H   2.5503194343  1.1058366947 -0.8305670714
H   2.6596928999 -0.4778533053 -1.5856294844
H   4.1547499852 -0.6690216445  0.2325053993
H   2.6846302053 -1.4264426218  0.8878039494
C   3.0983920805  0.5174572102  1.6429327557
O   2.4121263547  0.4752199634  2.6352996258
O   3.9383438920  1.5481875878  1.3907707085
H   3.8357523602  2.1665974236  2.1324544243
27
Scanning combination 73/73: [452.8502]  Energy = -652.9184736911
C  -3.6226796052  1.2920330680  0.7729482895
C  -2.2684582900  1.4912245357  0.7471313990
C  -1.4124849392  0.5716814849  0.0859732870
C  -1.9787953271 -0.5749051147 -0.5266818143
C  -3.3910521962 -0.7437075540 -0.5087797519
C  -4.1932901757  0.1652549686  0.1282211069
H   0.4043203592  1.6825450499  0.4557106839
H  -4.2698994588  1.9913462108  1.2961228021
H  -1.8243165892  2.3536751756  1.2406723434
C  -0.0045886424  0.7724222140  0.0212419965
C  -1.1077089474 -1.5126288856 -1.1424381945
H  -3.8232157928 -1.6121536113 -1.0029428144
H  -5.2710612104  0.0244631140  0.1551517510
C   0.2463318975 -1.3173674285 -1.1370684851
C   0.8257112600 -0.1532959348 -0.5595857751
H  -1.5339322351 -2.3919515215 -1.6225130979
H   0.8972297478 -2.0526629431 -1.6069315529
C   2.3176029132  0.0743874629 -0.6802863107
C   3.1308196696 -0.5087846754  0.4965490407
H   2.5369451926  1.1456251456 -0.7595860581
H   2.6647487689 -0.3911963733 -1.6099141570
H   4.1739774309 -0.6535378101  0.1975487155
H   2.7195168741 -1.4670407847  0.8230229401
C   3.0959964277  0.4691487684  1.6440766660
O   2.4058199821  0.4008492553  2.6305143733
O   3.9228261030  1.5166084022  1.4123379363
H   3.8001373750  2.1314682325  2.1536040941
