27
Scanning combination 1/37: [95.0926]  Energy = -652.9203162495
C  -3.4012377987 -1.5688673736  0.0546637946
C  -2.1133057437 -1.5196533041  0.5163022816
C  -1.3573847446 -0.3217410790  0.4278291909
C  -1.9492913835  0.8277933776 -0.1503279634
C  -3.2934568237  0.7540839859 -0.6111251766
C  -4.0002441971 -0.4156675972 -0.5128589315
H   0.4007532674 -1.1406668863  1.3675210699
H  -3.9716626034 -2.4919184684  0.1168423152
H  -1.6431544661 -2.3997694979  0.9505091969
C  -0.0162196658 -0.2547557967  0.8919476141
C  -1.1683109322  2.0117091946 -0.2477616114
H  -3.7501361367  1.6397611511 -1.0484316485
H  -5.0252182193 -0.4707506681 -0.8708029801
C   0.1294175339  2.0359108777  0.1884113598
C   0.7444792988  0.8809382095  0.7455961350
H  -1.6172046314  2.9030272971 -0.6807538151
H   0.6986529498  2.9617916382  0.1174628406
C   2.2073221924  0.9054985837  1.1401525793
C   3.1893418114  0.5766751955 -0.0103807686
H   2.3807961747  0.1931667700  1.9562347831
H   2.4675175634  1.8967238071  1.5281460176
H   4.2176259319  0.6337035947  0.3627434161
H   3.0695340186  1.2884655863 -0.8317059263
C   2.9690613014 -0.8013088797 -0.5828917173
O   2.2994823208 -1.0671255817 -1.5518039028
O   3.6031036194 -1.7563336029  0.1331146989
H   3.3702380969 -2.5971906137 -0.2945328954
27
Scanning combination 2/37: [105.0926]  Energy = -652.9208640162
C  -3.4003653072 -1.5664757680  0.0608518632
C  -2.1121500659 -1.5242721069  0.5222854302
C  -1.3498633346 -0.3296094971  0.4299606874
C  -1.9386238843  0.8249292839 -0.1420832873
C  -3.2797231809  0.7553191864 -0.6088698063
C  -3.9923400737 -0.4109282254 -0.5112359826
H   0.4330130117 -1.1613252456  1.3241748511
H  -3.9794428449 -2.4842851771  0.1287279654
H  -1.6503535205 -2.4073879412  0.9608674829
C  -0.0044368001 -0.2692768739  0.8808846954
C  -1.1597255585  2.0103180437 -0.2377302349
H  -3.7284484076  1.6454242881 -1.0455133956
H  -5.0176362013 -0.4591237629 -0.8698070996
C   0.1380792330  2.0303807253  0.1951255467
C   0.7463554822  0.8729687778  0.7541758822
H  -1.6104865518  2.8980881456 -0.6770414019
H   0.7170314823  2.9488818770  0.1134765637
C   2.2051864239  0.8927345571  1.1505116894
C   3.1596675084  0.5915748829 -0.0252488409
H   2.3847688072  0.1674557177  1.9543225307
H   2.4627127125  1.8836148101  1.5404433014
H   4.1968007482  0.6933030411  0.3092272990
H   2.9875080399  1.3039427939 -0.8353117474
C   2.9771210607 -0.7915041305 -0.6026170611
O   2.4362843877 -1.0556223320 -1.6478378169
O   3.4754655278 -1.7482549875  0.2139607583
H   3.3253508349 -2.5986241498 -0.2329748106
27
Scanning combination 3/37: [115.0926]  Energy = -652.9213047181
C  -3.4054929893 -1.5643867148  0.0653860927
C  -2.1168963700 -1.5277240056  0.5246700388
C  -1.3494168500 -0.3369184206  0.4305324206
C  -1.9356648081  0.8207726104 -0.1373275990
C  -3.2767345080  0.7560045772 -0.6045156782
C  -3.9930931544 -0.4075998996 -0.5073584948
H   0.4357308636 -1.1814367549  1.3073033380
H  -3.9872083997 -2.4797749811  0.1359403783
H  -1.6569102507 -2.4112748744  0.9635020591
C  -0.0009420965 -0.2827012544  0.8762064696
C  -1.1537074815  2.0040919662 -0.2306319573
H  -3.7218929469  1.6462668654 -1.0438324699
H  -5.0179672771 -0.4533824835 -0.8658720251
C   0.1434274885  2.0216782746  0.2039135494
C   0.7482711986  0.8613922387  0.7613202245
H  -1.6017658917  2.8942690710 -0.6673401392
H   0.7269270559  2.9380887493  0.1254847186
C   2.2100115597  0.8856094139  1.1475980360
C   3.1465658154  0.6101150262 -0.0453878609
H   2.4059242144  0.1480832808  1.9346072394
H   2.4617704629  1.8712943180  1.5541478958
H   4.1877599217  0.7416935007  0.2667362381
H   2.9491675621  1.3159838467 -0.8552610512
C   3.0003317203 -0.7800847294 -0.6184766021
O   2.6025606769 -1.0542677273 -1.7234014504
O   3.3564970467 -1.7311426713  0.2768720320
H   3.2465473538 -2.5841020252 -0.1755173013
27
Scanning combination 4/37: [125.0926]  Energy = -652.9216517512
C  -3.4099699115 -1.5636654670  0.0691521285
C  -2.1214098256 -1.5297421307  0.5282671657
C  -1.3522775280 -0.3394829327  0.4361338760
C  -1.9358521921  0.8191323980 -0.1319440300
C  -3.2763198149  0.7568661609 -0.6005956798
C  -3.9954441995 -0.4055237063 -0.5033689899
H   0.4292065735 -1.1913192699  1.3105005388
H  -3.9944574553 -2.4777083794  0.1395866640
H  -1.6630302331 -2.4149161416  0.9659296598
C  -0.0028790759 -0.2899218196  0.8811935364
C  -1.1530519821  2.0020401593 -0.2223780585
H  -3.7188011876  1.6485236492 -1.0395204114
H  -5.0203349470 -0.4483180690 -0.8622242138
C   0.1445468226  2.0151120770  0.2112650923
C   0.7480130381  0.8529254400  0.7657681423
H  -1.5989762920  2.8931468683 -0.6592353207
H   0.7320077108  2.9285409587  0.1320023057
C   2.2121178823  0.8800611106  1.1437096066
C   3.1356777358  0.6212008852 -0.0603376888
H   2.4189914247  0.1350510803  1.9206695996
H   2.4604296428  1.8648074664  1.5552310725
H   4.1795460204  0.7756863044  0.2352279134
H   2.9196256755  1.3199816239 -0.8721557249
C   3.0286779362 -0.7732182986 -0.6333256431
O   2.7897104666 -1.0533539621 -1.7813881076
O   3.2394359935 -1.7207390047  0.3116313831
H   3.1918633542 -2.5767554895 -0.1459826175
27
Scanning combination 5/37: [135.0926]  Energy = -652.9220873121
C  -3.4190803050 -1.5615052788  0.0762605831
C  -2.1298732100 -1.5314241199  0.5346389064
C  -1.3549398882 -0.3453731546  0.4392263692
C  -1.9382933731  0.8152033527 -0.1258173239
C  -3.2804519529  0.7582431499 -0.5909692631
C  -4.0022243073 -0.4023399362 -0.4957483105
H   0.4261228774 -1.2011516387  1.3096430801
H  -4.0040643871 -2.4751323584  0.1436766001
H  -1.6749367486 -2.4175613055  0.9734657722
C  -0.0039567976 -0.2990437761  0.8806673247
C  -1.1538441560  1.9964836558 -0.2180900574
H  -3.7205759976  1.6504649657 -1.0315396811
H  -5.0255262613 -0.4443142059 -0.8590687110
C   0.1439872970  2.0078484155  0.2133554609
C   0.7475964311  0.8436337430  0.7616566682
H  -1.6015013775  2.8914344181 -0.6444094693
H   0.7328265997  2.9206060984  0.1350290596
C   2.2122045682  0.8766365532  1.1320643219
C   3.1353664138  0.6314566622 -0.0711756502
H   2.4284980244  0.1346059708  1.9055467977
H   2.4553141788  1.8570155169  1.5525530740
H   4.1792561327  0.8142705347  0.2179018266
H   2.9049664025  1.3181295676 -0.8897072540
C   3.0700999374 -0.7673447139 -0.6400889844
O   3.0062886174 -1.0521453292 -1.8104216077
O   3.1260227084 -1.7145299613  0.3266592689
H   3.1118347660 -2.5673137615 -0.1402731675
27
Scanning combination 6/37: [145.0926]  Energy = -652.9220034484
C  -3.4227265460 -1.5617737277  0.0795893426
C  -2.1328117097 -1.5327240749  0.5371453096
C  -1.3573838987 -0.3464899450  0.4425096285
C  -1.9404129883  0.8151348025 -0.1210735039
C  -3.2815619609  0.7577851874 -0.5881232742
C  -4.0043381322 -0.4016160283 -0.4922142290
H   0.4229337551 -1.2056481236  1.3079476731
H  -4.0099208518 -2.4736616269  0.1503836371
H  -1.6789173018 -2.4199330476  0.9752167623
C  -0.0060108253 -0.3014541749  0.8836020486
C  -1.1554562232  1.9965352406 -0.2113637964
H  -3.7210868847  1.6520065769 -1.0252465347
H  -5.0295430352 -0.4407792467 -0.8507089105
C   0.1435195379  2.0045017281  0.2172106811
C   0.7469305080  0.8409211478  0.7688426428
H  -1.6012924408  2.8906615829 -0.6424805938
H   0.7351119870  2.9156990200  0.1360961241
C   2.2154428835  0.8738710259  1.1331189089
C   3.1217486111  0.6354936385 -0.0820197092
H   2.4377387605  0.1256338168  1.9006030854
H   2.4564502874  1.8585278914  1.5494987849
H   4.1669388682  0.8335366722  0.1880526286
H   2.8791349518  1.3176061561 -0.9006432146
C   3.0948707874 -0.7653057696 -0.6470251588
O   3.1953385457 -1.0491425428 -1.8146342557
O   3.0089820240 -1.7097580047  0.3192487257
H   3.0733321233 -2.5651341070 -0.1385912737
27
Scanning combination 7/37: [155.0926]  Energy = -652.9216035012
C  -3.4299834417 -1.5593111089  0.0863971398
C  -2.1406474729 -1.5317010666  0.5426641249
C  -1.3630236520 -0.3467915523  0.4478303412
C  -1.9448026797  0.8151797923 -0.1159850886
C  -3.2874785556  0.7608408482 -0.5796803222
C  -4.0119048717 -0.3988254949 -0.4842111792
H   0.4133211762 -1.2074037812  1.3164098296
H  -4.0172572958 -2.4719452762  0.1548099459
H  -1.6860993153 -2.4193690720  0.9798125709
C  -0.0125515999 -0.3037561769  0.8891248052
C  -1.1573324133  1.9943083625 -0.2083843565
H  -3.7265747280  1.6538390635 -1.0190291117
H  -5.0361150515 -0.4380226367 -0.8449862853
C   0.1424755421  2.0007830936  0.2188007590
C   0.7446813889  0.8345944702  0.7662087635
H  -1.6032097258  2.8903209588 -0.6336130021
H   0.7339541309  2.9113217473  0.1375565048
C   2.2141353574  0.8675159727  1.1255444566
C   3.1172027477  0.6400027008 -0.0930314023
H   2.4421275769  0.1236545729  1.8935563890
H   2.4535176741  1.8491198583  1.5460472560
H   4.1591301465  0.8812189866  0.1622849403
H   2.8490005530  1.3029147851 -0.9200499369
C   3.1453492627 -0.7659264117 -0.6471805154
O   3.4209321336 -1.0530865132 -1.7864225728
O   2.9185727050 -1.7123792231  0.2935240127
H   3.0074765510 -2.5639194597 -0.1667828619
27
Scanning combination 8/37: [165.0926]  Energy = -652.9208989892
C  -3.4377272412 -1.5573737603  0.0922775869
C  -2.1483303292 -1.5307509924  0.5492033602
C  -1.3700427673 -0.3461180801  0.4551859394
C  -1.9508342822  0.8166382678 -0.1084943819
C  -3.2928475686  0.7628775751 -0.5728642463
C  -4.0178856279 -0.3961891180 -0.4783314752
H   0.4056873575 -1.2087622970  1.3209127099
H  -4.0253297678 -2.4692600701  0.1607374515
H  -1.6931303420 -2.4188189468  0.9847698243
C  -0.0194010863 -0.3051169718  0.8943094442
C  -1.1607652449  1.9944600637 -0.2026265463
H  -3.7307590704  1.6564269920 -1.0122232128
H  -5.0424831692 -0.4339756081 -0.8376966197
C   0.1400234941  1.9979110465  0.2208897344
C   0.7417351069  0.8303799316  0.7663252880
H  -1.6053184015  2.8908223331 -0.6293379429
H   0.7347105091  2.9064146510  0.1365221899
C   2.2143899335  0.8601954345  1.1178405307
C   3.1134285998  0.6428486689 -0.1046017236
H   2.4448026811  0.1129146275  1.8810413651
H   2.4518988098  1.8402887928  1.5420717802
H   4.1489357144  0.9293750897  0.1305360218
H   2.8144357153  1.2838300440 -0.9384194130
C   3.1964766864 -0.7672215806 -0.6446834351
O   3.6409424276 -1.0535467290 -1.7293728309
O   2.8148231882 -1.7110189693  0.2453700313
H   2.9676687801 -2.5660476535 -0.1928765034
27
Scanning combination 9/37: [175.0926]  Energy = -652.9200952802
C  -3.4454491350 -1.5545755490  0.1001393858
C  -2.1547554175 -1.5291025948  0.5555423730
C  -1.3749430725 -0.3460380576  0.4598350639
C  -1.9548075526  0.8176747203 -0.1033316029
C  -3.2985077014  0.7658186348 -0.5644406786
C  -4.0250046892 -0.3923577113 -0.4695973606
H   0.4016880705 -1.2112771060  1.3210868393
H  -4.0343434246 -2.4659588800  0.1678804876
H  -1.7011907406 -2.4177010304  0.9910364378
C  -0.0235193099 -0.3080345994  0.8946691035
C  -1.1631295497  1.9935939365 -0.1985369960
H  -3.7364941312  1.6598581054 -1.0039532861
H  -5.0501713845 -0.4296069699 -0.8300491824
C   0.1389670568  1.9941097526  0.2196858277
C   0.7399645304  0.8248002847  0.7620041772
H  -1.6077549771  2.8908422300 -0.6217908908
H   0.7352096682  2.9012965282  0.1337389147
C   2.2136219127  0.8524397845  1.1107499511
C   3.1099144777  0.6470780800 -0.1168732484
H   2.4468771207  0.1015643611  1.8708269795
H   2.4499256583  1.8299904071  1.5423686297
H   4.1330979478  0.9852714835  0.0968811420
H   2.7747241143  1.2579201937 -0.9620541426
C   3.2554756050 -0.7682802178 -0.6331664646
O   3.8580382378 -1.0626870154 -1.6372470650
O   2.7188731993 -1.7053725682  0.1784628923
H   2.9228181227 -2.5613527500 -0.2346873082
27
Scanning combination 10/37: [185.0926]  Energy = -652.9192424271
C  -3.4526113066 -1.5515371637  0.1079813037
C  -2.1603283286 -1.5287083130  0.5604140885
C  -1.3782874650 -0.3470891864  0.4624917957
C  -1.9583646301  0.8179571134 -0.0985773014
C  -3.3031890479  0.7683638314 -0.5563335481
C  -4.0310567891 -0.3887328904 -0.4601845504
H   0.4005630015 -1.2151967261  1.3159169402
H  -4.0422240965 -2.4619849038  0.1769238010
H  -1.7065125585 -2.4178196364  0.9944873263
C  -0.0254845809 -0.3114635560  0.8925320605
C  -1.1641280611  1.9923298777 -0.1959885204
H  -3.7403457225  1.6629872054 -0.9947854884
H  -5.0565221742 -0.4242552749 -0.8186458997
C   0.1395396726  1.9901992027  0.2178351879
C   0.7401883586  0.8196895090  0.7586880411
H  -1.6091417702  2.8911047039 -0.6169268444
H   0.7376029197  2.8961049185  0.1299032546
C   2.2142708059  0.8458654620  1.1040981505
C   3.1082103910  0.6514929642 -0.1289747063
H   2.4479796584  0.0912321043  1.8606264836
H   2.4471170940  1.8202597813  1.5443954315
H   4.1155141002  1.0431042255  0.0605128951
H   2.7315580156  1.2239345366 -0.9843674915
C   3.3090929632 -0.7678210787 -0.6156195270
O   4.0535114024 -1.0748325177 -1.5150320925
O   2.6292871882 -1.6932437869  0.0931481911
H   2.8800544613 -2.5535408789 -0.2830524480
27
Scanning combination 11/37: [195.0926]  Energy = -652.9185421471
C  -3.4596765453 -1.5482264771  0.1171674856
C  -2.1655690950 -1.5282763070  0.5650876350
C  -1.3822301046 -0.3481318780  0.4649884648
C  -1.9613659206  0.8182786613 -0.0947896489
C  -3.3079161631  0.7712886290 -0.5473198187
C  -4.0375555331 -0.3840544273 -0.4485247206
H   0.4000203684 -1.2192563978  1.3098889144
H  -4.0505264116 -2.4576796456  0.1874641120
H  -1.7116588980 -2.4183563484  0.9972265778
C  -0.0284970507 -0.3145196956  0.8915437613
C  -1.1657353577  1.9914074723 -0.1944519624
H  -3.7448580632  1.6669426559 -0.9841535891
H  -5.0641098294 -0.4177907633 -0.8042103830
C   0.1386909907  1.9867597208  0.2156413952
C   0.7379649832  0.8154084357  0.7543062783
H  -1.6096265537  2.8911552474 -0.6136920148
H   0.7406135217  2.8899794162  0.1242516606
C   2.2128796668  0.8407362649  1.0945010195
C   3.1088410500  0.6547841300 -0.1398514033
H   2.4483641445  0.0827441712  1.8473780681
H   2.4447848138  1.8106440158  1.5454819447
H   4.0960519068  1.1029152708  0.0181703860
H   2.6846337947  1.1781529928 -1.0067779257
C   3.3704575400 -0.7681029262 -0.5832650593
O   4.2434140550 -1.0867877272 -1.3534858469
O   2.5519126645 -1.6786691332 -0.0168579296
H   2.8409925596 -2.5426340539 -0.3539700454
27
Scanning combination 12/37: [205.0926]  Energy = -652.9179784212
C  -3.4635851177 -1.5461522282  0.1225384496
C  -2.1694470831 -1.5272209605  0.5700698441
C  -1.3853498417 -0.3471795897  0.4697077432
C  -1.9647545459  0.8199663824 -0.0891207048
C  -3.3109090133  0.7734821419 -0.5418921299
C  -4.0407659968 -0.3820553070 -0.4431137791
H   0.3972828604 -1.2185266916  1.3138541353
H  -4.0550320609 -2.4551156962  0.1936203500
H  -1.7163206329 -2.4168946064  1.0044466510
C  -0.0308900103 -0.3134165831  0.8955469462
C  -1.1687495344  1.9930073172 -0.1886686538
H  -3.7479792791  1.6703139974 -0.9753713500
H  -5.0673849247 -0.4142514051 -0.7969182958
C   0.1376652332  1.9863828014  0.2169354584
C   0.7375901222  0.8147425117  0.7555682615
H  -1.6126766326  2.8938669298 -0.6066899668
H   0.7415361667  2.8875633721  0.1218789228
C   2.2143383308  0.8384947797  1.0883641030
C   3.1035221274  0.6534137585 -0.1531147900
H   2.4527998503  0.0777204193  1.8379838647
H   2.4481834743  1.8074505688  1.5401785176
H   4.0683747448  1.1546275180 -0.0350971377
H   2.6336336019  1.1183157338 -1.0295849257
C   3.4188029355 -0.7723720169 -0.5466791453
O   4.3932855526 -1.1079075721 -1.1752006964
O   2.4987467303 -1.6659098222 -0.1296655923
H   2.8117712571 -2.5325810800 -0.4387601479
27
Scanning combination 13/37: [215.0926]  Energy = -652.9175930027
C  -3.4686143470 -1.5438126238  0.1306754974
C  -2.1731684483 -1.5259547197  0.5761890665
C  -1.3889661009 -0.3468200513  0.4750322376
C  -1.9674059228  0.8210379124 -0.0832716312
C  -3.3145134042  0.7756408485 -0.5332043419
C  -4.0453994617 -0.3783138374 -0.4329409660
H   0.3947682934 -1.2200568598  1.3148120967
H  -4.0608736964 -2.4518779819  0.2030787843
H  -1.7194628405 -2.4168201090  1.0067400238
C  -0.0336787040 -0.3145348971  0.8970253673
C  -1.1706668776  1.9930904217 -0.1865239684
H  -3.7503181098  1.6730119318 -0.9676240750
H  -5.0733492599 -0.4094667385 -0.7849757754
C   0.1355562133  1.9857302381  0.2164918053
C   0.7348849429  0.8131314859  0.7519948726
H  -1.6134657749  2.8931082667 -0.6066831013
H   0.7424718174  2.8851479912  0.1205839594
C   2.2128191727  0.8366762711  1.0772986130
C   3.1020068527  0.6533794528 -0.1673307782
H   2.4523662888  0.0757632362  1.8260746373
H   2.4467844989  1.8035963670  1.5329324303
H   4.0516123483  1.1867050547 -0.0698074205
H   2.6011705714  1.0758716422 -1.0477211602
C   3.4541921334 -0.7741402343 -0.5171751499
O   4.5085493017 -1.1274425130 -0.9860929803
O   2.4596960176 -1.6496121585 -0.2617175150
H   2.8054154317 -2.5211737463 -0.5151703743
27
Scanning combination 14/37: [225.0926]  Energy = -652.9172706906
C  -3.4718648442 -1.5418113739  0.1387200930
C  -2.1760477192 -1.5250829171  0.5812214903
C  -1.3898868464 -0.3465933573  0.4776492721
C  -1.9697764879  0.8210842811 -0.0789399658
C  -3.3175208136  0.7774365884 -0.5257542083
C  -4.0500155752 -0.3765170986 -0.4239526689
H   0.3936420064 -1.2192429107  1.3185765905
H  -4.0660198928 -2.4492092327  0.2129794018
H  -1.7234828716 -2.4167116699  1.0121130454
C  -0.0335016529 -0.3144041677  0.8976825430
C  -1.1728735026  1.9933898953 -0.1844902271
H  -3.7533992606  1.6752888445 -0.9583746303
H  -5.0784806019 -0.4058016116 -0.7729910535
C   0.1346975901  1.9854358819  0.2148985484
C   0.7338652589  0.8140653438  0.7507439641
H  -1.6173486895  2.8932306290 -0.6025976253
H   0.7420294912  2.8843714780  0.1167631648
C   2.2125667823  0.8373697635  1.0683430367
C   3.0959374988  0.6515695925 -0.1852323143
H   2.4544869104  0.0775421038  1.8192294036
H   2.4489215459  1.8037579375  1.5246368034
H   4.0311752254  1.2089832213 -0.1072833911
H   2.5686553227  1.0379468752 -1.0681420648
C   3.4825045854 -0.7767156559 -0.4868402580
O   4.5896746826 -1.1500952067 -0.7915230543
O   2.4444712966 -1.6327956247 -0.3961710012
H   2.8096182339 -2.5106356644 -0.5932339432
27
Scanning combination 15/37: [235.0926]  Energy = -652.9170184139
C  -3.4755425383 -1.5398808356  0.1489097889
C  -2.1778537417 -1.5238741844  0.5868770961
C  -1.3919164151 -0.3461910085  0.4802880088
C  -1.9731666939  0.8215827593 -0.0756871731
C  -3.3228055165  0.7784319479 -0.5172891287
C  -4.0550791951 -0.3744581273 -0.4119265113
H   0.3964738647 -1.2170212320  1.3171151904
H  -4.0688994671 -2.4471072028  0.2253164000
H  -1.7251436542 -2.4154027450  1.0171162368
C  -0.0341904704 -0.3123740882  0.8964336264
C  -1.1782503519  1.9941933337 -0.1838248593
H  -3.7598984480  1.6763743712 -0.9488159428
H  -5.0846687047 -0.4045332455 -0.7586944871
C   0.1303658138  1.9879523426  0.2111991639
C   0.7318931149  0.8159928028  0.7446630823
H  -1.6242632324  2.8938139697 -0.6009083485
H   0.7373651331  2.8866314097  0.1107856219
C   2.2117708934  0.8406944612  1.0574380676
C   3.0964407196  0.6454535214 -0.1981546053
H   2.4553870407  0.0876751584  1.8154251536
H   2.4498832603  1.8103612828  1.5063548664
H   4.0226275952  1.2191312902 -0.1255981992
H   2.5615194444  1.0055926545 -1.0855499513
C   3.5016548644 -0.7863161289 -0.4552326744
O   4.6359540227 -1.1795817001 -0.5823087591
O   2.4436265390 -1.6196160855 -0.5352760969
H   2.8143450321 -2.5028005551 -0.6949322382
27
Scanning combination 16/37: [245.0926]  Energy = -652.9167935107
C  -3.4768403112 -1.5393135481  0.1603444112
C  -2.1777627796 -1.5236706519  0.5913204862
C  -1.3913227515 -0.3469585910  0.4800910429
C  -1.9754385256  0.8209830835 -0.0730205135
C  -3.3271415672  0.7785730777 -0.5078015720
C  -4.0596808015 -0.3743707628 -0.3984584653
H   0.4046647135 -1.2163883904  1.3057881345
H  -4.0706411737 -2.4463927604  0.2400116808
H  -1.7243732018 -2.4157308687  1.0212386516
C  -0.0313099002 -0.3121479178  0.8895181611
C  -1.1834322786  1.9946098575 -0.1844917148
H  -3.7658877626  1.6761255084 -0.9375123816
H  -5.0902697919 -0.4044942868 -0.7411705873
C   0.1268497080  1.9910963678  0.2058736483
C   0.7318451196  0.8191676422  0.7356845679
H  -1.6322402624  2.8938859106 -0.5987446757
H   0.7321098598  2.8900900968  0.1046504072
C   2.2108208041  0.8478477715  1.0462504714
C   3.0981734637  0.6418051216 -0.2078038692
H   2.4582140328  0.1003063874  1.8078336071
H   2.4481181147  1.8196724582  1.4903018883
H   4.0246809370  1.2144440922 -0.1328074512
H   2.5675811480  0.9888005401 -1.1010649258
C   3.5037921176 -0.7958026838 -0.4235184171
O   4.6340402720 -1.2166092409 -0.3670147150
O   2.4525931690 -1.6019179704 -0.6792520310
H   2.8257008826 -2.4904821663 -0.7972310442
27
Scanning combination 17/37: [255.0926]  Energy = -652.9178638909
C  -3.4785577460 -1.5560109338  0.2244723413
C  -2.1553575390 -1.5335855571  0.5779045660
C  -1.3815797971 -0.3526610085  0.4219849517
C  -2.0021809662  0.8096817232 -0.1020035370
C  -3.3767173482  0.7590336996 -0.4629893998
C  -4.0980346842 -0.3946393723 -0.3035898912
H   0.4525088491 -1.2112598185  1.1702743751
H  -4.0655601071 -2.4630915079  0.3462947468
H  -1.6784291088 -2.4216526189  0.9898411876
C  -0.0060123408 -0.3057265449  0.7792651205
C  -1.2237288018  1.9893032417 -0.2404440016
H  -3.8458266560  1.6549076295 -0.8654191378
H  -5.1477372865 -0.4297887640 -0.5858229989
C   0.0964785230  2.0013366549  0.1161794829
C   0.7370700643  0.8397662783  0.6288267400
H  -1.6981231709  2.8871807441 -0.6312821178
H   0.6701177200  2.9214945459  0.0220515128
C   2.1979692902  0.9130565346  1.0199843000
C   3.2211581990  0.6051122739 -0.0990252100
H   2.3967184742  0.2541131270  1.8745563944
H   2.4009706770  1.9314880891  1.3683974608
H   4.1919213437  1.0147617422  0.1914408822
H   2.9113999215  1.0850466555 -1.0335525939
C   3.4704275575 -0.8653239492 -0.3449065749
O   4.4641060537 -1.4556047449  0.0082393603
O   2.4829627555 -1.4803648371 -1.0275344118
H   2.7757306547 -2.4027253359 -1.1280211347
27
Scanning combination 18/37: [265.0926]  Energy = -652.9183415774
C  -3.4726035578 -1.5573308090  0.2241428845
C  -2.1491193837 -1.5374282696  0.5786685335
C  -1.3731192802 -0.3574137043  0.4232784253
C  -1.9933561691  0.8062436581 -0.0977975569
C  -3.3674177566  0.7579567661 -0.4607774731
C  -4.0895655729 -0.3952058330 -0.3043921967
H   0.4600189781 -1.2138793811  1.1795505441
H  -4.0606592030 -2.4637279589  0.3454467937
H  -1.6734552983 -2.4275854033  0.9865895101
C   0.0035586129 -0.3098739162  0.7824261679
C  -1.2139643080  1.9852883877 -0.2397460357
H  -3.8342575244  1.6549214496 -0.8635289466
H  -5.1407558036 -0.4266692895 -0.5807598726
C   0.1057427509  1.9965145878  0.1198078717
C   0.7455712887  0.8378503114  0.6396870674
H  -1.6855761275  2.8827094658 -0.6358018339
H   0.6817976780  2.9149390447  0.0229582439
C   2.2098172753  0.9131472724  1.0236205764
C   3.2052950709  0.6212219501 -0.1265336499
H   2.4222940143  0.2290281205  1.8556574842
H   2.4124838433  1.9262748238  1.3907109645
H   4.1808383473  1.0432885931  0.1307335294
H   2.8553457761  1.0754452405 -1.0590680953
C   3.4403016978 -0.8560798793 -0.3287171602
O   4.3545910248 -1.4755706513  0.1606568693
O   2.5173997693 -1.4460761539 -1.1151938946
H   2.7724703951 -2.3838255702 -1.1500151295
27
Scanning combination 19/37: [275.0926]  Energy = -652.9186884765
C  -3.4624476356 -1.5589444094  0.2249072489
C  -2.1394836300 -1.5407180773  0.5789265542
C  -1.3620533501 -0.3613078658  0.4260970615
C  -1.9814795412  0.8028083858 -0.0953374483
C  -3.3553187500  0.7565543823 -0.4575666567
C  -4.0793204798 -0.3959359895 -0.3018471618
H   0.4717396271 -1.2169750279  1.1850217696
H  -4.0516148011 -2.4647269844  0.3450227509
H  -1.6647328139 -2.4323556880  0.9854808179
C   0.0142264014 -0.3134386912  0.7882759460
C  -1.2026973633  1.9820739575 -0.2373543446
H  -3.8205324309  1.6539195590 -0.8603886556
H  -5.1302685974 -0.4259765833 -0.5783348354
C   0.1155318750  1.9954814757  0.1268595686
C   0.7529791871  0.8373846694  0.6508406902
H  -1.6739284160  2.8780344555 -0.6365466075
H   0.6941572966  2.9115709366  0.0256301327
C   2.2166984935  0.9188262475  1.0237487412
C   3.1827003476  0.6313956925 -0.1500072485
H   2.4492265191  0.2255813222  1.8420355218
H   2.4205943416  1.9253692508  1.4031644679
H   4.1640640676  1.0588551786  0.0741942942
H   2.8078186879  1.0649198277 -1.0822611860
C   3.3948389611 -0.8535566454 -0.3057862179
O   4.2078312941 -1.4969123881  0.3155168571
O   2.5643705484 -1.4205927009 -1.2024174159
H   2.7845021621 -2.3680202737 -1.2000139661
27
Scanning combination 20/37: [285.0926]  Energy = -652.9191110734
C  -3.4447900163 -1.5618198029  0.2267655863
C  -2.1215359227 -1.5437223702  0.5801392266
C  -1.3453131866 -0.3633309230  0.4296824477
C  -1.9665146026  0.8000993887 -0.0911302338
C  -3.3399285036  0.7529538840 -0.4528847299
C  -4.0632021812 -0.3992275181 -0.2980343712
H   0.4949868017 -1.2118414331  1.1895247140
H  -4.0324375858 -2.4682390833  0.3456564569
H  -1.6467441828 -2.4356586559  0.9849685158
C   0.0309978343 -0.3103420406  0.7937223894
C  -1.1932529278  1.9828829246 -0.2334152351
H  -3.8043449550  1.6506386274 -0.8555773158
H  -5.1136870215 -0.4304004499 -0.5754109181
C   0.1225846296  2.0031129064  0.1354958839
C   0.7593879368  0.8468922576  0.6633746587
H  -1.6681063802  2.8757425283 -0.6341217611
H   0.7020168118  2.9193331562  0.0320919374
C   2.2234429081  0.9371073574  1.0241208211
C   3.1604029408  0.6270986513 -0.1642616080
H   2.4707145917  0.2516027578  1.8436211650
H   2.4280965351  1.9461135731  1.3947756592
H   4.1542771036  1.0386731979  0.0298914236
H   2.7793613384  1.0498054164 -1.0984477032
C   3.3224981630 -0.8664369830 -0.2822005615
O   4.0004427365 -1.5361145621  0.4611717823
O   2.6190787294 -1.4037530739 -1.2954632350
H   2.8059404107 -2.3575716900 -1.2711319061
27
Scanning combination 21/37: [295.0926]  Energy = -652.9203683738
C  -3.3981213457 -1.5822934480  0.2283995126
C  -2.0781643528 -1.5368464625  0.5895159383
C  -1.3277232368 -0.3381785808  0.4466614738
C  -1.9695755585  0.8111971050 -0.0808553356
C  -3.3400165597  0.7361934800 -0.4490653123
C  -4.0389948762 -0.4319304655 -0.2981037366
H   0.5181477782 -1.1469816632  1.2321067321
H  -3.9678581846 -2.5011924573  0.3417218300
H  -1.5848542362 -2.4202908790  0.9925209704
C   0.0428695230 -0.2574262513  0.8217689976
C  -1.2187450237  2.0076782358 -0.2202506524
H  -3.8209783723  1.6261306324 -0.8496618024
H  -5.0886313614 -0.4817043620 -0.5749332080
C   0.0969342386  2.0514847252  0.1511395758
C   0.7566548501  0.9063298943  0.6768971817
H  -1.7102060809  2.8914416607 -0.6234093213
H   0.6528224272  2.9803153339  0.0454826664
C   2.2261712000  0.9979915041  1.0221052724
C   3.1579876878  0.5548966125 -0.1224340808
H   2.4585067168  0.3918577391  1.9047329491
H   2.4656331009  2.0372899066  1.2761916169
H   4.1815655473  0.8625606669  0.1214083955
H   2.8646687018  1.0163822990 -1.0679548639
C   3.2026593079 -0.9483909408 -0.2783685918
O   3.6450040738 -1.7027932939  0.5556388128
O   2.7404022086 -1.3827486530 -1.4663241266
H   2.8837217269 -2.3451193894 -1.4774538530
27
Scanning combination 22/37: [305.0926]  Energy = -652.9211473767
C  -3.3954995659 -1.5821732080  0.2286866434
C  -2.0756446567 -1.5361813296  0.5903467172
C  -1.3257452567 -0.3379720112  0.4504461469
C  -1.9654260964  0.8113535555 -0.0777116796
C  -3.3365077110  0.7362150334 -0.4471508944
C  -4.0361763724 -0.4313527805 -0.2961068421
H   0.5238814990 -1.1517134925  1.2272972503
H  -3.9637020147 -2.5015986824  0.3424561532
H  -1.5824711943 -2.4185187712  0.9939202036
C   0.0454012313 -0.2592351084  0.8272917582
C  -1.2117712107  2.0063780148 -0.2151029476
H  -3.8203420812  1.6237765921 -0.8496738977
H  -5.0852599397 -0.4846081499 -0.5757975310
C   0.1035313917  2.0507683846  0.1584843360
C   0.7606809637  0.9053962184  0.6895483858
H  -1.7013819157  2.8889392611 -0.6210576742
H   0.6601660698  2.9797725723  0.0490517236
C   2.2341111544  0.9918865528  1.0258804349
C   3.1448336700  0.5601503619 -0.1387095562
H   2.4791845661  0.3762936008  1.8990372169
H   2.4791713777  2.0259985983  1.2870915339
H   4.1664637094  0.8957529765  0.0744842748
H   2.8312091946  1.0093638588 -1.0830948388
C   3.1949881560 -0.9421677087 -0.2754159195
O   3.4989673450 -1.6969418360  0.6178755272
O   2.8573604623 -1.3763776422 -1.5053300977
H   2.8797385952 -2.3476622884 -1.4690176729
27
Scanning combination 23/37: [315.0926]  Energy = -652.9218461964
C  -3.3877599584 -1.5846492073  0.2333736072
C  -2.0698026367 -1.5352381427  0.6021398508
C  -1.3236598518 -0.3333844033  0.4660095502
C  -1.9619908877  0.8156264745 -0.0639645210
C  -3.3298788447  0.7364743593 -0.4412055078
C  -4.0268812354 -0.4335561406 -0.2940065800
H   0.5272990393 -1.1563941660  1.2243479930
H  -3.9556181061 -2.5056045726  0.3422722587
H  -1.5734784674 -2.4177575865  1.0026528747
C   0.0493237187 -0.2591743340  0.8358712562
C  -1.2092419073  2.0117416477 -0.2048073962
H  -3.8103449733  1.6238958783 -0.8479713396
H  -5.0742897473 -0.4866571557 -0.5789409645
C   0.1066359101  2.0506892536  0.1659635294
C   0.7644644930  0.9063521443  0.6920824697
H  -1.6924851965  2.8953654384 -0.6163423185
H   0.6716567678  2.9746944448  0.0642243285
C   2.2401544795  1.0031694768  1.0209294666
C   3.1318342806  0.5648700900 -0.1543682365
H   2.4789766561  0.3651831919  1.8779040126
H   2.4722983752  2.0370940695  1.3009610929
H   4.1730810245  0.8764289618  0.0087595356
H   2.7951935828  1.0020100190 -1.0976948028
C   3.1413415484 -0.9389929527 -0.2695411346
O   3.2662458226 -1.6967668423  0.6658926778
O   2.9834086194 -1.3746621307 -1.5330036132
H   2.9818602773 -2.3447087278 -1.4827840771
27
Scanning combination 24/37: [325.0926]  Energy = -652.9230375294
C  -3.3849821899 -1.5817605023  0.2449056260
C  -2.0711393379 -1.5209476839  0.6226375517
C  -1.3331531591 -0.3148005493  0.4846279858
C  -1.9760309115  0.8284544466 -0.0515909034
C  -3.3421154427  0.7389608057 -0.4329368153
C  -4.0295870745 -0.4364716985 -0.2890026993
H   0.5217559312 -1.1210174666  1.2526200596
H  -3.9435859916 -2.5088473767  0.3462160580
H  -1.5704948255 -2.3970345140  1.0328712518
C   0.0343572942 -0.2305247093  0.8635808147
C  -1.2288599365  2.0285837758 -0.1903915089
H  -3.8286583065  1.6212684503 -0.8444499132
H  -5.0720221351 -0.5022208564 -0.5890070920
C   0.0872161030  2.0753477273  0.1799053874
C   0.7481662975  0.9338425092  0.7092581747
H  -1.7208507490  2.9102184639 -0.5956238742
H   0.6459200225  3.0029628649  0.0681714849
C   2.2296780156  1.0080921684  1.0120537384
C   3.1007495314  0.5228347609 -0.1551168867
H   2.4720354154  0.4016381455  1.8915587185
H   2.4946414283  2.0441056732  1.2485779570
H   4.1486152437  0.7935260485  0.0309674256
H   2.8043893567  0.9802963652 -1.1033852283
C   3.0920457496 -0.9799008872 -0.3019593213
O   3.0325343680 -1.7677978103  0.6143170539
O   3.2164276443 -1.3807712821 -1.5804872704
H   3.2490652553 -2.3526207361 -1.5509335598
27
Scanning combination 25/37: [335.0926]  Energy = -652.9233484719
C  -3.3927959509 -1.5774812589  0.2538405861
C  -2.0794445181 -1.5151194762  0.6335069340
C  -1.3394175414 -0.3103001156  0.4910864488
C  -1.9822555418  0.8335184785 -0.0445214569
C  -3.3483534481  0.7420592144 -0.4282277218
C  -4.0361493820 -0.4340963536 -0.2851622027
H   0.5175468305 -1.1210587275  1.2489787098
H  -3.9518828866 -2.5039658955  0.3579465135
H  -1.5783885069 -2.3894972818  1.0462098991
C   0.0293161163 -0.2305019508  0.8626988163
C  -1.2318507003  2.0321032729 -0.1828986514
H  -3.8365274278  1.6230671123 -0.8399878921
H  -5.0788954099 -0.5002379672 -0.5846858088
C   0.0865311585  2.0752094303  0.1811355971
C   0.7471869378  0.9307295617  0.7052684656
H  -1.7231777551  2.9161827399 -0.5839366011
H   0.6462676515  3.0023128918  0.0714860886
C   2.2298927636  1.0005455313  1.0085517043
C   3.0943982893  0.5198986793 -0.1649858175
H   2.4693123835  0.3846531961  1.8825485606
H   2.4945032231  2.0345110279  1.2542495840
H   4.1427990222  0.8128274855 -0.0141673388
H   2.7765387885  0.9659516371 -1.1131664911
C   3.0914707974 -0.9842694477 -0.3064689438
O   2.8733249512 -1.7730793852  0.5847739697
O   3.3903929587 -1.3812613506 -1.5577803273
H   3.3680946453 -2.3527921876 -1.5426524550
27
Scanning combination 26/37: [345.0926]  Energy = -652.9233832065
C  -3.4043250763 -1.5692474793  0.2624824603
C  -2.0921352301 -1.5068987113  0.6445384816
C  -1.3545326560 -0.3005193191  0.5038922594
C  -1.9944036905  0.8434857183 -0.0345398802
C  -3.3590660320  0.7513311102 -0.4202519400
C  -4.0464561111 -0.4254447029 -0.2765559375
H   0.4984772405 -1.1114399263  1.2652613567
H  -3.9631691740 -2.4959851515  0.3668403155
H  -1.5892982983 -2.3799826989  1.0587312800
C   0.0121561629 -0.2208198101  0.8786358868
C  -1.2436306984  2.0422490458 -0.1719712886
H  -3.8461162998  1.6322043275 -0.8328004338
H  -5.0881472764 -0.4916261380 -0.5773965215
C   0.0753026878  2.0834098249  0.1922871835
C   0.7337336636  0.9362825678  0.7144352471
H  -1.7330368346  2.9265325440 -0.5760119927
H   0.6382907306  3.0080891338  0.0784557287
C   2.2211192605  0.9867464970  0.9980556932
C   3.0685453703  0.5028957462 -0.1860288153
H   2.4617515948  0.3682566121  1.8698106137
H   2.5018415654  2.0163480460  1.2411967462
H   4.1170250746  0.8045163627 -0.0527037594
H   2.7299876548  0.9392292512 -1.1324135611
C   3.0952992732 -1.0009459799 -0.3321532274
O   2.7485029390 -1.8030677560  0.5034556057
O   3.5922745991 -1.3814335566 -1.5250250332
H   3.5999081772 -2.3527254335 -1.5140554976
27
Scanning combination 27/37: [355.0926]  Energy = -652.9230701778
C  -3.4220300407 -1.5591261363  0.2716050644
C  -2.1094565493 -1.5000900474  0.6549955738
C  -1.3683763386 -0.2963657171  0.5137082710
C  -2.0052408883  0.8497677987 -0.0236767201
C  -3.3706181763  0.7614181456 -0.4096305878
C  -4.0604727924 -0.4138149101 -0.2679329555
H   0.4822866685 -1.1144513645  1.2726950563
H  -3.9825165988 -2.4845886595  0.3746403442
H  -1.6089614456 -2.3738517482  1.0700813632
C  -0.0005355235 -0.2228043212  0.8851223763
C  -1.2489244840  2.0446813209 -0.1630191528
H  -3.8549209520  1.6427770209 -0.8245834421
H  -5.1015163358 -0.4783844421 -0.5720776016
C   0.0717093205  2.0799981221  0.1958964450
C   0.7265942768  0.9300236604  0.7157326877
H  -1.7360466443  2.9315384985 -0.5635464180
H   0.6380087904  3.0024272837  0.0804550300
C   2.2158698431  0.9714525030  0.9873796443
C   3.0510742396  0.4950054760 -0.2089353517
H   2.4621477824  0.3466356718  1.8531141514
H   2.5031314500  1.9983334832  1.2360489523
H   4.0911159425  0.8304285860 -0.1050445109
H   2.6844102898  0.9170518182 -1.1518488406
C   3.1106322978 -1.0094108924 -0.3506673874
O   2.6486779403 -1.8247639525  0.4131559175
O   3.7817525323 -1.3743834166 -1.4607914219
H   3.7821275840 -2.3461534263 -1.4634722231
27
Scanning combination 28/37: [365.0926]  Energy = -652.9222956006
C  -3.4356333789 -1.5504827149  0.2795690216
C  -2.1226173742 -1.4946036086  0.6629235836
C  -1.3775719197 -0.2938275580  0.5213058529
C  -2.0111814307  0.8543023742 -0.0145189296
C  -3.3770616226  0.7693950912 -0.4007930855
C  -4.0706007974 -0.4039667662 -0.2609248696
H   0.4717870532 -1.1197490604  1.2715258554
H  -3.9978661586 -2.4746750148  0.3827427359
H  -1.6225855554 -2.3696995100  1.0747281093
C  -0.0078467942 -0.2261409303  0.8859065394
C  -1.2502286732  2.0460289089 -0.1549683647
H  -3.8596080226  1.6510219828 -0.8170064106
H  -5.1128016075 -0.4661014770 -0.5631314337
C   0.0717537284  2.0772462003  0.1984163363
C   0.7234146424  0.9235728303  0.7123763536
H  -1.7346670188  2.9329325360 -0.5568207742
H   0.6401070246  2.9990376655  0.0842861319
C   2.2129298907  0.9602692956  0.9820363835
C   3.0359306566  0.4866977342 -0.2246998919
H   2.4559625643  0.3349044829  1.8470618381
H   2.5016092076  1.9861762502  1.2346987127
H   4.0661296474  0.8564894097 -0.1666290135
H   2.6325400465  0.8922943037 -1.1577599888
C   3.1276888350 -1.0165848051 -0.3625875605
O   2.5607076407 -1.8436728721  0.3137833441
O   3.9333230136 -1.3665965477 -1.3857330722
H   3.9230464033 -2.3379342261 -1.4104076496
27
Scanning combination 29/37: [375.0926]  Energy = -652.9211670611
C  -3.4472060629 -1.5427354277  0.2879129413
C  -2.1329844348 -1.4903580987  0.6686829171
C  -1.3849498772 -0.2914440058  0.5252474606
C  -2.0171032954  0.8588434326 -0.0084977128
C  -3.3843007246  0.7780774839 -0.3914232622
C  -4.0803023957 -0.3937578041 -0.2505786369
H   0.4631529475 -1.1241326985  1.2686060084
H  -4.0118627211 -2.4660998174  0.3889882686
H  -1.6353428177 -2.3675646905  1.0795053852
C  -0.0145341549 -0.2280285733  0.8876768251
C  -1.2532944146  2.0487520346 -0.1497541501
H  -3.8646848577  1.6606871882 -0.8094340846
H  -5.1219798855 -0.4540890278 -0.5559216066
C   0.0688234701  2.0752506900  0.2029765475
C   0.7183294733  0.9212627913  0.7181515821
H  -1.7361723206  2.9381156208 -0.5481996449
H   0.6401702770  2.9945861245  0.0879381162
C   2.2102605225  0.9494495647  0.9760308326
C   3.0143052430  0.4808735577 -0.2477519177
H   2.4586353169  0.3187427758  1.8375199050
H   2.5075674436  1.9731580992  1.2306112100
H   4.0375923139  0.8710817691 -0.2112124808
H   2.5798829462  0.8653698666 -1.1787482461
C   3.1398644892 -1.0215089546 -0.3792466382
O   2.4909454546 -1.8631987248  0.1975467104
O   4.0712678984 -1.3561339186 -1.2967926446
H   4.0574519594 -2.3265828679 -1.3411042469
27
Scanning combination 30/37: [385.0926]  Energy = -652.9197709862
C  -3.4557198299 -1.5368626206  0.2929393830
C  -2.1413964694 -1.4870331307  0.6734527932
C  -1.3918835025 -0.2886535865  0.5327317294
C  -2.0223801072  0.8633919371  0.0003321831
C  -3.3883932091  0.7839933550 -0.3856589671
C  -4.0863346696 -0.3864036718 -0.2449507742
H   0.4592923192 -1.1260035670  1.2637254620
H  -4.0224574062 -2.4587410595  0.3959366053
H  -1.6431224896 -2.3657772102  1.0811283253
C  -0.0195773415 -0.2274442237  0.8905506683
C  -1.2563049366  2.0526323671 -0.1394466517
H  -3.8668826256  1.6692695155 -0.8000865547
H  -5.1288089780 -0.4429673223 -0.5456798576
C   0.0676165396  2.0757483536  0.2103781764
C   0.7162290002  0.9182994360  0.7195381722
H  -1.7374175810  2.9415645165 -0.5420433722
H   0.6408709971  2.9937754373  0.0936177208
C   2.2102036044  0.9388006324  0.9695180378
C   3.0043930014  0.4727764940 -0.2650210236
H   2.4553777147  0.3098380279  1.8348602092
H   2.5080314563  1.9630639548  1.2196253151
H   4.0168487462  0.8952561309 -0.2697479329
H   2.5195524143  0.8306304784 -1.1820376529
C   3.1435373184 -1.0301316841 -0.3985029438
O   2.4093029411 -1.8777301605  0.0522996726
O   4.1946239491 -1.3508068014 -1.1840677360
H   4.1803587666 -2.3186789946 -1.2685612707
27
Scanning combination 31/37: [395.0926]  Energy = -652.9185012881
C  -3.4651140221 -1.5300382141  0.2989946737
C  -2.1505737637 -1.4844553432  0.6780447276
C  -1.3983060629 -0.2880661350  0.5385826688
C  -2.0277828300  0.8668635584  0.0102336648
C  -3.3943643706  0.7915579113 -0.3739007005
C  -4.0944065416 -0.3780681852 -0.2357392554
H   0.4530032977 -1.1311784739  1.2622705295
H  -4.0331383437 -2.4507638205  0.4017437318
H  -1.6529295293 -2.3641486856  1.0841932086
C  -0.0250770584 -0.2295391559  0.8931534484
C  -1.2597821984  2.0545427928 -0.1296739471
H  -3.8708256303  1.6772427274 -0.7887062213
H  -5.1366765644 -0.4323015240 -0.5362659314
C   0.0646518242  2.0754564937  0.2176208299
C   0.7120914957  0.9144431476  0.7213271961
H  -1.7396063581  2.9463625450 -0.5279681218
H   0.6403031262  2.9921193944  0.1022794463
C   2.2072514312  0.9288181211  0.9540374939
C   2.9880920208  0.4644882017 -0.2909462436
H   2.4591207944  0.3033416421  1.8196143758
H   2.5130223025  1.9506933160  1.2043472806
H   3.9911089710  0.9009789506 -0.3143570832
H   2.4769576200  0.8121629145 -1.1974646505
C   3.1439635825 -1.0337218377 -0.4374734657
O   2.3439554361 -1.8854324464 -0.1283474730
O   4.3057772364 -1.3448512018 -1.0529448673
H   4.3042688104 -2.3113853946 -1.1522054881
27
Scanning combination 32/37: [405.0926]  Energy = -652.9173585329
C  -3.4717562195 -1.5273106845  0.3045551786
C  -2.1556659318 -1.4839869909  0.6816110815
C  -1.4021253600 -0.2883735024  0.5423534206
C  -2.0304716535  0.8686754485  0.0176825365
C  -3.3973713606  0.7960197386 -0.3662464149
C  -4.0992131508 -0.3725346878 -0.2275998341
H   0.4529339533 -1.1368832978  1.2554228857
H  -4.0428043757 -2.4466704994  0.4081489161
H  -1.6612241681 -2.3659539236  1.0857006829
C  -0.0268851261 -0.2342284991  0.8908054324
C  -1.2630299408  2.0567610947 -0.1174308911
H  -3.8734678161  1.6849584393 -0.7755217939
H  -5.1433541554 -0.4236037557 -0.5255619238
C   0.0623073193  2.0736311246  0.2227398394
C   0.7106482595  0.9100344820  0.7195400415
H  -1.7426364665  2.9483828759 -0.5151625105
H   0.6393890804  2.9894689254  0.1081612286
C   2.2081566420  0.9218004986  0.9432130639
C   2.9806237935  0.4630345089 -0.3128446579
H   2.4679855792  0.2965578586  1.8089404618
H   2.5150073437  1.9466549422  1.1836780882
H   3.9764516122  0.9127718763 -0.3510754424
H   2.4446612237  0.7996070920 -1.2075429054
C   3.1422294574 -1.0332567417 -0.4698456357
O   2.2882023695 -1.8720815566 -0.3145195084
O   4.3812075119 -1.3518928696 -0.9055536093
H   4.3836612571 -2.3133965175 -1.0486732030
27
Scanning combination 33/37: [415.0926]  Energy = -652.9167021815
C  -3.4791761829 -1.5237342924  0.3115363041
C  -2.1618214730 -1.4851648783  0.6845930588
C  -1.4040687956 -0.2927474760  0.5443731113
C  -2.0334050997  0.8671899164  0.0280113526
C  -3.4023732797  0.8000671429 -0.3498260268
C  -4.1070795693 -0.3671237643 -0.2155933867
H   0.4462675086 -1.1477964050  1.2557374347
H  -4.0518193421 -2.4415468753  0.4155214702
H  -1.6680971101 -2.3691248682  1.0844883607
C  -0.0260385571 -0.2435426647  0.8838153308
C  -1.2638954014  2.0539752773 -0.1068514317
H  -3.8766676699  1.6900320223 -0.7582167275
H  -5.1524415965 -0.4152943579 -0.5107350247
C   0.0624073817  2.0683836581  0.2268424221
C   0.7118691677  0.9003517332  0.7092862396
H  -1.7445565205  2.9493226818 -0.4934520908
H   0.6388957859  2.9860691502  0.1197421035
C   2.2089318307  0.9139162468  0.9186238185
C   2.9771880386  0.4684889879 -0.3475296376
H   2.4779691080  0.2902047922  1.7810358559
H   2.5167419913  1.9376869103  1.1626562123
H   3.9695663678  0.9233655458 -0.3824781310
H   2.4291980379  0.8237325248 -1.2265327056
C   3.1370713244 -1.0252118037 -0.5295843198
O   2.2525126984 -1.8474588839 -0.5502133981
O   4.4294490090 -1.3654996952 -0.7317679627
H   4.4409099431 -2.3269929585 -0.8740830263
27
Scanning combination 34/37: [425.0926]  Energy = -652.9173220847
C  -3.5022283605 -1.5260030094  0.3302166810
C  -2.1792329344 -1.4981408222  0.6849260042
C  -1.4127118419 -0.3116979547  0.5344982832
C  -2.0452399819  0.8566411520  0.0390466485
C  -3.4198391619  0.8011943636 -0.3188410116
C  -4.1284612834 -0.3629695881 -0.1842461808
H   0.4386138299 -1.1752937742  1.2321791268
H  -4.0792464667 -2.4407275978  0.4373752213
H  -1.6920099618 -2.3879359115  1.0796207533
C  -0.0268798369 -0.2695386715  0.8520778361
C  -1.2737990817  2.0419311460 -0.0968239274
H  -3.8964849478  1.6988860584 -0.7082983884
H  -5.1779118467 -0.4027560945 -0.4628041957
C   0.0596438306  2.0444635798  0.2068419573
C   0.7182237061  0.8686988080  0.6611482070
H  -1.7609422868  2.9478370456 -0.4519624806
H   0.6374034571  2.9612325899  0.0985692705
C   2.2204078807  0.8966515004  0.8545727218
C   3.0277603522  0.5218434242 -0.4119557851
H   2.5175439521  0.2316180098  1.6756403613
H   2.5082335107  1.9100739158  1.1545929907
H   4.0356927524  0.9400904835 -0.3559518921
H   2.5373713067  0.9361647720 -1.2988961961
C   3.1436536044 -0.9718240227 -0.6050695597
O   2.2377169359 -1.7369783557 -0.8302583198
O   4.4193025379 -1.3926168195 -0.4661079464
H   4.4010297506 -2.3557808074 -0.5874913217
27
Scanning combination 35/37: [435.0926]  Energy = -652.9177076224
C  -3.4962399175 -1.5256916702  0.3360436626
C  -2.1710097258 -1.4996270590  0.6817020954
C  -1.4057999937 -0.3119447884  0.5329319985
C  -2.0396983510  0.8558787990  0.0384181824
C  -3.4162123748  0.8016760768 -0.3122771447
C  -4.1268752503 -0.3610030999 -0.1698455150
H   0.4556984277 -1.1780618891  1.2110593374
H  -4.0751266440 -2.4392543257  0.4471895443
H  -1.6833820555 -2.3915237943  1.0718239957
C  -0.0189814230 -0.2705650508  0.8455112232
C  -1.2704146223  2.0423358526 -0.0970742934
H  -3.8930662755  1.7006791239 -0.6977788798
H  -5.1778691097 -0.3991492142 -0.4452605013
C   0.0636055510  2.0463342879  0.2050049565
C   0.7208132063  0.8714135166  0.6637088574
H  -1.7575242594  2.9434792589 -0.4631788372
H   0.6398949378  2.9626513949  0.0911421528
C   2.2195644433  0.8985834381  0.8676828738
C   3.0094047150  0.5160521582 -0.4077819384
H   2.5154416514  0.2464835268  1.7010458009
H   2.5104585908  1.9179923055  1.1446947179
H   4.0135114049  0.9431135895 -0.3750429462
H   2.4947059801  0.9287182307 -1.2807413460
C   3.1382430674 -0.9734686812 -0.6282614599
O   2.2672710097 -1.7115190020 -1.0190779073
O   4.3804948032 -1.4172659268 -0.3345721035
H   4.3928579700 -2.3679945215 -0.5344541815
27
Scanning combination 36/37: [445.0926]  Energy = -652.9188061211
C  -3.4940642132 -1.5333434027  0.3533608869
C  -2.1623244965 -1.5142032635  0.6723805304
C  -1.3947958423 -0.3291855172  0.5113442709
C  -2.0349532077  0.8435966064  0.0364111295
C  -3.4178720397  0.7961855179 -0.2875319452
C  -4.1292305073 -0.3647314023 -0.1372326850
H   0.4715214669 -1.2026184558  1.1626943188
H  -4.0729350283 -2.4464641661  0.4664373934
H  -1.6722545920 -2.4097999255  1.0508870588
C  -0.0023827761 -0.2911387406  0.8048079042
C  -1.2675149689  2.0314616002 -0.0994516294
H  -3.8987100016  1.6983639475 -0.6603127454
H  -5.1839502346 -0.3990643755 -0.3967701668
C   0.0685026838  2.0334926120  0.1927555793
C   0.7346986771  0.8552120040  0.6301669537
H  -1.7602271013  2.9391015810 -0.4433915053
H   0.6424099215  2.9529550900  0.0913113572
C   2.2347693558  0.8984026758  0.8298797681
C   3.0398475453  0.5636172152 -0.4528800858
H   2.5442356540  0.2226081018  1.6380133591
H   2.5105007910  1.9072135403  1.1532440299
H   4.0550525295  0.9600458179 -0.3708227519
H   2.5561738815  1.0108273549 -1.3270565740
C   3.1337821025 -0.9245106249 -0.6783498597
O   2.3159207785 -1.6156574062 -1.2364704459
O   4.2538179787 -1.4466731258 -0.1330085965
H   4.1962548294 -2.4035210655 -0.2902366015
27
Scanning combination 37/37: [455.0926]  Energy = -652.9200732712
C  -3.4617670939 -1.5554887905  0.3594345700
C  -2.1200119002 -1.5351788800  0.6313220592
C  -1.3638806036 -0.3431510778  0.4685871593
C  -2.0245569161  0.8316840746  0.0297416596
C  -3.4178347748  0.7821157310 -0.2480500104
C  -4.1204773780 -0.3830540082 -0.0899309548
H   0.5256660286 -1.2148925311  1.0520918068
H  -4.0347943089 -2.4698256987  0.4901656776
H  -1.6142112184 -2.4336579438  0.9821395857
C   0.0343350224 -0.2974241882  0.7334953684
C  -1.2681133185  2.0256676571 -0.1067248088
H  -3.9156706788  1.6868241401 -0.5900259907
H  -5.1856021800 -0.4165897579 -0.3044994629
C   0.0728014909  2.0382624659  0.1644006352
C   0.7563029722  0.8618863393  0.5792776818
H  -1.7744426487  2.9326411105 -0.4287235538
H   0.6328835849  2.9663169728  0.0648818371
C   2.2526174796  0.9299039488  0.8026923499
C   3.0886483850  0.5949934386 -0.4551991140
H   2.5596267159  0.2532225027  1.6092044201
H   2.5107989058  1.9405799276  1.1359063056
H   4.1202875272  0.9352977119 -0.3200279395
H   2.6642717721  1.0870667380 -1.3343743071
C   3.0921078563 -0.8922456502 -0.6999549558
O   2.3508981655 -1.4971983392 -1.4360554967
O   3.9964981365 -1.5212664829  0.0838995019
H   3.8874123284 -2.4704724006 -0.0898221823
