27
Scanning combination 1/37: [92.8528]  Energy = -652.9203162495
C  -3.4012377989 -1.5688673737  0.0546637947
C  -2.1133057434 -1.5196533040  0.5163022815
C  -1.3573847453 -0.3217410791  0.4278291908
C  -1.9492913836  0.8277933769 -0.1503279636
C  -3.2934568238  0.7540839858 -0.6111251766
C  -4.0002441971 -0.4156675969 -0.5128589316
H   0.4007532673 -1.1406668861  1.3675210699
H  -3.9716626033 -2.4919184685  0.1168423153
H  -1.6431544662 -2.3997694978  0.9505091968
C  -0.0162177566 -0.2547579700  0.8919406709
C  -1.1683109318  2.0117091950 -0.2477616112
H  -3.7501361366  1.6397611510 -1.0484316484
H  -5.0252182190 -0.4707506681 -0.8708029799
C   0.1294175347  2.0359108771  0.1884113599
C   0.7444763624  0.8809388246  0.7456069835
H  -1.6172046315  2.9030272970 -0.6807538151
H   0.6986529499  2.9617916383  0.1174628406
C   2.2073234291  0.9055062822  1.1401470983
C   3.1893415613  0.5766690251 -0.0103791020
H   2.3807961747  0.1931667700  1.9562347832
H   2.4675175635  1.8967238070  1.5281460175
H   4.2176259320  0.6337035947  0.3627434161
H   3.0695340185  1.2884655861 -0.8317059264
C   2.9690615021 -0.8013088251 -0.5828919249
O   2.2994821604 -1.0671256048 -1.5518037860
O   3.6031036195 -1.7563336031  0.1331146990
H   3.3702380969 -2.5971906137 -0.2945328955
27
Scanning combination 2/37: [102.8528]  Energy = -652.9208502028
C  -3.4667506266 -1.5367051604  0.1199846132
C  -2.1767283584 -1.5251200852  0.5790783071
C  -1.3716397383 -0.3619981968  0.4451438021
C  -1.9195988906  0.7921667858 -0.1679272524
C  -3.2661294559  0.7577025368 -0.6213962099
C  -4.0207519300 -0.3778575196 -0.4824115997
H   0.3836338340 -1.2225117635  1.3675887732
H  -4.0763954322 -2.4329259378  0.2124384100
H  -1.7461665759 -2.4075044147  1.0493600265
C  -0.0269655397 -0.3276127719  0.9034566093
C  -1.0932801154  1.9386034520 -0.3269961888
H  -3.6833492136  1.6495016666 -1.0844364317
H  -5.0453525808 -0.4030502815 -0.8446943797
C   0.2004378278  1.9330118532  0.1148502225
C   0.7538131048  0.7903750244  0.7516725933
H  -1.5049070574  2.8165130587 -0.8199387066
H   0.8247311620  2.8168743414 -0.0125067641
C   2.1967475854  0.8202070191  1.1967603445
C   3.1573778835  0.6833560173 -0.0008786529
H   2.3937373463  0.0168709322  1.9149436214
H   2.4024307899  1.7668976736  1.7089278390
H   4.1936814224  0.8227599731  0.3211799919
H   2.9216234650  1.4321930036 -0.7616666291
C   3.0138691360 -0.6795672929 -0.6307548831
O   2.4653340882 -0.9327063537 -1.6745359066
O   3.5479559065 -1.6434129522  0.1538164981
H   3.3831406932 -2.4825607314 -0.3069580856
27
Scanning combination 3/37: [112.8528]  Energy = -652.9197106663
C  -3.4954001581 -1.5291852837  0.1379445515
C  -2.2121900624 -1.5176706986  0.6144457576
C  -1.3996467919 -0.3606241872  0.4767816962
C  -1.9280762244  0.7832143299 -0.1716992564
C  -3.2740133871  0.7542415553 -0.6292087293
C  -4.0344435204 -0.3763963125 -0.4876254740
H   0.3131185611 -1.1938721898  1.4938623223
H  -4.1120751370 -2.4184228454  0.2417491798
H  -1.7912655872 -2.3947230121  1.1017638056
C  -0.0642543305 -0.3226986404  0.9605615154
C  -1.0816487138  1.9102018563 -0.3587150420
H  -3.6841823967  1.6414899853 -1.1066219309
H  -5.0614415775 -0.3959123221 -0.8439142475
C   0.2228611986  1.8848765189  0.0518224200
C   0.7570509483  0.7504928840  0.7224091975
H  -1.4909671512  2.7997224256 -0.8327844703
H   0.8714417684  2.7395689170 -0.1390395516
C   2.1955545608  0.7622673380  1.1921694990
C   3.1854873024  0.7314205681  0.0113502477
H   2.3959058447 -0.0972824098  1.8374606621
H   2.3885844178  1.6594041638  1.7931919284
H   4.2083584492  0.8690439121  0.3749258970
H   2.9599616228  1.5053602663 -0.7258060094
C   3.0652556006 -0.6137811973 -0.6619907362
O   2.5338929172 -0.8455675283 -1.7199978898
O   3.5830030649 -1.5937891745  0.1143630176
H   3.3896275145 -2.4278790512 -0.3432984031
27
Scanning combination 4/37: [122.8528]  Energy = -652.9204543088
C  -3.6395669748 -1.4434243444  0.3129726782
C  -2.3565396947 -1.4692128329  0.7903969155
C  -1.4646346248 -0.3932077898  0.5328915037
C  -1.9206581374  0.7077062027 -0.2370946279
C  -3.2602867220  0.7139811762 -0.7093068311
C  -4.0979306092 -0.3368976854 -0.4459776402
H   0.2158247566 -1.2417544152  1.5998377347
H  -4.3123917006 -2.2767578941  0.4996360646
H  -1.9980732143 -2.3153172131  1.3736691771
C  -0.1249495231 -0.3928676761  1.0084238245
C  -1.0162434020  1.7652203423 -0.5210400325
H  -3.6029144276  1.5695378575 -1.2878816229
H  -5.1188231624 -0.3301069535 -0.8178767135
C   0.2660078804  1.7341647031 -0.0483097311
C   0.7324565089  0.6428563396  0.7341758548
H  -1.3570399240  2.5979905476 -1.1330795428
H   0.9377620807  2.5658670900 -0.2549887203
C   2.1509360062  0.6605392989  1.2608375233
C   3.2039884514  0.7774040908  0.1465491518
H   2.3405846404 -0.2421191365  1.8515424810
H   2.2706450189  1.5150437348  1.9383742107
H   4.1999002680  0.8794490298  0.5893096262
H   3.0137096997  1.6575108282 -0.4711385829
C   3.2079393700 -0.4259094909 -0.7657449574
O   2.8711148503 -0.4431212701 -1.9243802203
O   3.6581992969 -1.5300609860 -0.1290598173
H   3.6414819941 -2.2430136922 -0.7886377899
27
Scanning combination 5/37: [132.8528]  Energy = -652.9190074507
C  -3.6559081473 -1.4361588600  0.3266856467
C  -2.3790339458 -1.4552487937  0.8196932706
C  -1.4827683574 -0.3848112821  0.5521079250
C  -1.9268130494  0.7025857191 -0.2423330635
C  -3.2663206837  0.7090572772 -0.7177085361
C  -4.1078794066 -0.3379398229 -0.4471784718
H   0.1657077210 -1.2020181140  1.6837125829
H  -4.3338513712 -2.2617057484  0.5281246643
H  -2.0271371801 -2.2915205751  1.4197179868
C  -0.1506885205 -0.3793256068  1.0443868715
C  -1.0075191513  1.7429134151 -0.5421933368
H  -3.6072956319  1.5558428553 -1.3089757401
H  -5.1285558102 -0.3325774244 -0.8209825104
C   0.2882163443  1.6817390997 -0.1091044007
C   0.7437384587  0.5998985264  0.6926699907
H  -1.3509832311  2.5966248011 -1.1224365047
H   0.9784846993  2.4847929365 -0.3615497765
C   2.1581257550  0.5981920136  1.2377990401
C   3.2279409404  0.8252530123  0.1603756515
H   2.3629270948 -0.3502747980  1.7419864793
H   2.2571163080  1.3864656178  1.9946395562
H   4.2098425553  0.9309059826  0.6326275971
H   3.0309380760  1.7224338744 -0.4286827489
C   3.2526012001 -0.3600975395 -0.7744754854
O   2.9183631665 -0.3666188592 -1.9332890201
O   3.6721012438 -1.4775533420 -0.1370268860
H   3.5991496233 -2.1973544972 -0.7844908554
27
Scanning combination 6/37: [142.8528]  Energy = -652.9187393192
C  -3.7646805637 -1.3480161810  0.4607696480
C  -2.4931561854 -1.3829049538  0.9671514979
C  -1.5409290375 -0.3893761385  0.6064485597
C  -1.9321196050  0.6415410770 -0.2859373185
C  -3.2693024554  0.6736811831 -0.7668570691
C  -4.1636993759 -0.2993217867 -0.4072402563
H   0.0830905949 -1.1938867964  1.7860634527
H  -4.4800183874 -2.1240290158  0.7229185542
H  -2.1842185531 -2.1870936949  1.6323519592
C  -0.2064128474 -0.4056055067  1.0931927390
C  -0.9633607147  1.6005564043 -0.6791168745
H  -3.5601544870  1.4717409521 -1.4469842988
H  -5.1756942875 -0.2907221771 -0.8047311492
C   0.3182918019  1.5460214171 -0.2026278874
C   0.7245906629  0.5219592389  0.6967000594
H  -1.2513607068  2.3720026259 -1.3897148078
H   1.0248752515  2.3140294856 -0.5084597816
C   2.1298438017  0.4816021549  1.2724671519
C   3.2377073646  0.8390343291  0.2755882295
H   2.3296506236 -0.5142771473  1.6813881081
H   2.1967210295  1.1844569514  2.1135548548
H   4.1989846423  0.8856807661  0.7987922699
H   3.0617613014  1.8179932789 -0.1706683333
C   3.3675801375 -0.1773971199 -0.8372993554
O   3.1827127638  0.0189567363 -2.0128534945
O   3.7378287013 -1.3873214359 -0.3583820249
H   3.8319671695 -1.9658048355 -1.1324144947
27
Scanning combination 7/37: [152.8528]  Energy = -652.9166580145
C  -3.7749673087 -1.3350885911  0.4789877447
C  -2.5055046266 -1.3686855842  0.9865805782
C  -1.5518061168 -0.3826462677  0.6143003054
C  -1.9306824870  0.6355199040 -0.2983677926
C  -3.2669633894  0.6661657092 -0.7800372407
C  -4.1647611055 -0.2989152725 -0.4073762487
H   0.0195903749 -1.1392492198  1.8801375753
H  -4.4897446291 -2.1107181160  0.7413215845
H  -2.1979467429 -2.1571284721  1.6709747730
C  -0.2270509503 -0.3966142579  1.1211494947
C  -0.9517421038  1.5840784651 -0.6914961852
H  -3.5587392605  1.4626648528 -1.4612332339
H  -5.1775087303 -0.2881021800 -0.8012592465
C   0.3400949364  1.4850717779 -0.2518209624
C   0.7374216397  0.4574139640  0.6480995168
H  -1.2377622680  2.3909004977 -1.3636329694
H   1.0583027461  2.2345462715 -0.5712391364
C   2.1353048304  0.4203562631  1.2379680623
C   3.2458814646  0.8774136859  0.2888669603
H   2.3638238300 -0.5896947602  1.5882022568
H   2.1537167952  1.0814688712  2.1159540366
H   4.1917784658  0.9296506186  0.8379998909
H   3.0453317694  1.8625289215 -0.1344302270
C   3.4054971197 -0.1224681227 -0.8387249398
O   3.2115274024  0.0779603229 -2.0118003320
O   3.7735252041 -1.3375326792 -0.3649465386
H   3.7938817727 -1.9353967621 -1.1300778088
27
Scanning combination 8/37: [162.8528]  Energy = -652.9184769545
C  -3.9042857037 -1.1847330946  0.6509735380
C  -2.6336604343 -1.2461990263  1.1529566772
C  -1.6148534899 -0.3893375199  0.6525817803
C  -1.9328708577  0.5372976217 -0.3731611522
C  -3.2671475010  0.5926062180 -0.8592815278
C  -4.2260039465 -0.2524395741 -0.3675994665
H  -0.0684272859 -1.1421758549  1.9465676484
H  -4.6755120364 -1.8543778469  1.0236346553
H  -2.3818413377 -1.9529638215  1.9411528521
C  -0.2856053226 -0.4405948782  1.1414461578
C  -0.8978501891  1.3668509442 -0.8742189673
H  -3.5138033224  1.3200432506 -1.6288708623
H  -5.2422458199 -0.2116650592 -0.7492438540
C   0.3792764456  1.2839818420 -0.3872145863
C   0.7095551182  0.3655694777  0.6458779625
H  -1.1301543072  2.0751733441 -1.6662012450
H   1.1446554959  1.9259157690 -0.8155584420
C   2.0954380319  0.2640068720  1.2586480956
C   3.2533160892  0.8527660387  0.4467752377
H   2.3130675583 -0.7883139992  1.4735730528
H   2.0877631106  0.7697828818  2.2326021684
H   4.1662512951  0.7790323516  1.0463315903
H   3.0822164616  1.9105056214  0.2323179599
C   3.5200507886  0.1386608486 -0.8584928334
O   3.3647200490  0.5966230762 -1.9651657957
O   3.9776215649 -1.1157188460 -0.6571789558
H   4.1208281775 -1.4967967607 -1.5391518268
27
Scanning combination 9/37: [172.8528]  Energy = -652.9177793864
C  -3.9122892658 -1.1650951389  0.6658364752
C  -2.6436040118 -1.2270744307  1.1738456713
C  -1.6204684335 -0.3774057118  0.6700249628
C  -1.9320883919  0.5354308475 -0.3694770932
C  -3.2641899795  0.5941258783 -0.8614012327
C  -4.2295269312 -0.2369520588 -0.3590926787
H  -0.0893247290 -1.0716844289  2.0165550790
H  -4.6859546894 -1.8319487965  1.0387372443
H  -2.3975178353 -1.9282374941  1.9689756773
C  -0.2965299706 -0.4123254590  1.1744504707
C  -0.8888436995  1.3431215220 -0.8870842070
H  -3.4995379144  1.3069325130 -1.6489785635
H  -5.2410135074 -0.2062274734 -0.7554379055
C   0.3981075537  1.2228635376 -0.4341864322
C   0.7218737914  0.3198177218  0.6161484712
H  -1.1232641328  2.0679112147 -1.6630453969
H   1.1721475007  1.8241250391 -0.9039317034
C   2.1092174917  0.1928431266  1.2244319244
C   3.2410104022  0.8918581593  0.4683371489
H   2.3654772609 -0.8665828695  1.3378878163
H   2.0815247159  0.6093546161  2.2409006272
H   4.1508545435  0.8504708637  1.0756187141
H   3.0118065905  1.9434917664  0.2777579344
C   3.5399029614  0.1956961716 -0.8438141684
O   3.3995401861  0.6582988405 -1.9497745181
O   3.9767168016 -1.0681326803 -0.6441770049
H   4.0964723295 -1.4611753870 -1.5250074216
27
Scanning combination 10/37: [182.8528]  Energy = -652.9185649906
C  -3.9995371964 -1.0253862386  0.7890141621
C  -2.7293652352 -1.1167681060  1.2878645305
C  -1.6624907923 -0.3887578944  0.6911664161
C  -1.9386235251  0.4476401609 -0.4210858862
C  -3.2710214754  0.5338559406 -0.9076296530
C  -4.2768667051 -0.1870293129 -0.3212285065
H  -0.1394891768 -1.0972849053  2.0407013980
H  -4.8091296131 -1.5923989795  1.2417471826
H  -2.5150754420 -1.7549821676  2.1433557864
C  -0.3298805384 -0.4709044991  1.1691331722
C  -0.8664883193  1.1706167011 -1.0014757087
H  -3.4787256441  1.1859636103 -1.7533225211
H  -5.2941112796 -0.1215635327 -0.6980612519
C   0.4127441652  1.0589206402 -0.5240598319
C   0.7067345211  0.2132744375  0.5810845487
H  -1.0726551859  1.8216315287 -1.8478854743
H   1.2002157739  1.6333086452 -1.0055049183
C   2.0960035206  0.0476026947  1.1762840856
C   3.2215381970  0.8716579826  0.5459107315
H   2.3802228014 -1.0118973119  1.1541343905
H   2.0472039163  0.3232392217  2.2370759634
H   4.1048839581  0.8073160230  1.1916069359
H   2.9450581762  1.9270769111  0.4785680677
C   3.6488242094  0.3906082210 -0.8227458895
O   3.6231756664  1.0342251560 -1.8440906174
O   4.0924122662 -0.8837866283 -0.7833304217
H   4.3449415853 -1.1126784563 -1.6931267880
27
Scanning combination 11/37: [192.8528]  Energy = -652.9176757191
C  -3.9989597971 -1.0030261681  0.8073879723
C  -2.7312867372 -1.0815185501  1.3147328294
C  -1.6675933258 -0.3535662833  0.7153965105
C  -1.9369031266  0.4559516085 -0.4181319977
C  -3.2702668143  0.5439228999 -0.9020629375
C  -4.2739706258 -0.1776115091 -0.3126370489
H  -0.1538421519 -1.0121018071  2.1017874736
H  -4.8066159685 -1.5722347867  1.2602106284
H  -2.5145299250 -1.7106934501  2.1759508633
C  -0.3383272371 -0.4258164423  1.2013799937
C  -0.8548932881  1.1369536595 -1.0295678267
H  -3.4735927565  1.1810496036 -1.7602637291
H  -5.2893713137 -0.1199748123 -0.6960102271
C   0.4308709790  0.9868545940 -0.5804459885
C   0.7127729476  0.1744376305  0.5554245428
H  -1.0587701068  1.7930780548 -1.8733284720
H   1.2320512111  1.4954761920 -1.1115434734
C   2.1028079781 -0.0284258684  1.1348256331
C   3.1968773504  0.8877947034  0.5833229301
H   2.4134136695 -1.0703082109  0.9946190857
H   2.0479669812  0.1240902903  2.2207264492
H   4.0673204834  0.8584650173  1.2485951074
H   2.8594218432  1.9249612041  0.5302147506
C   3.6578939745  0.4500660430 -0.7915938882
O   3.6293807274  1.1079989228 -1.8042679065
O   4.1126046281 -0.8209370350 -0.7722497248
H   4.3460390158 -1.0413856871 -1.6883716357
27
Scanning combination 12/37: [202.8528]  Energy = -652.9183560018
C  -4.0775567775 -0.8316451623  0.9254003109
C  -2.8052630918 -0.9522541619  1.4139775386
C  -1.7060281786 -0.3673639188  0.7268874861
C  -1.9515895826  0.3601118069 -0.4657389338
C  -3.2852085348  0.4796828285 -0.9424414159
C  -4.3231012515 -0.1040741926 -0.2671796370
H  -0.2002510698 -1.0374198155  2.1150054463
H  -4.9126065046 -1.2901114947  1.4490900177
H  -2.6166860445 -1.5045997513  2.3326649603
C  -0.3690006066 -0.4861938798  1.1903226213
C  -0.8484803314  0.9448346593 -1.1363937431
H  -3.4663960769  1.0451176625 -1.8542326765
H  -5.3410529974 -0.0158715657 -0.6379375450
C   0.4309813191  0.8082383508 -0.6661490359
C   0.6956810092  0.0630729631  0.5166907267
H  -1.0327244505  1.5082748685 -2.0478002920
H   1.2438117228  1.2834442061 -1.2103923844
C   2.0970588535 -0.1784794971  1.0567448563
C   3.1744062968  0.8373535763  0.6496528115
H   2.4378702345 -1.1825790924  0.7730206594
H   2.0435992531 -0.1780905467  2.1520797787
H   4.0220292546  0.7458678617  1.3383896868
H   2.7979337952  1.8605026194  0.7291198771
C   3.7345626101  0.6358446754 -0.7411326723
O   3.6711309630  1.4232931636 -1.6557242441
O   4.3509557503 -0.5581004171 -0.8628703699
H   4.6764230708 -0.6053559044 -1.7769538641
27
Scanning combination 13/37: [212.8528]  Energy = -652.9176605944
C  -4.0673089133 -0.8116016607  0.9431239716
C  -2.7939274588 -0.9198724586  1.4326225916
C  -1.6999863368 -0.3327447226  0.7408283636
C  -1.9467714409  0.3718888691 -0.4647797370
C  -3.2812594227  0.4892035574 -0.9380587245
C  -4.3155655655 -0.0946788218 -0.2554966923
H  -0.1973274565 -0.9452732183  2.1605546191
H  -4.8988888128 -1.2740045685  1.4686819372
H  -2.5993435012 -1.4601150243  2.3569699835
C  -0.3659442310 -0.4402110829  1.2099444722
C  -0.8393532181  0.9182042350 -1.1630705019
H  -3.4641534562  1.0423123162 -1.8570033110
H  -5.3328468738 -0.0172563408 -0.6294602470
C   0.4428514989  0.7385120989 -0.7178322326
C   0.7034757501  0.0171737815  0.4813952177
H  -1.0250968386  1.4979371311 -2.0637868713
H   1.2626574975  1.1590099983 -1.2954915273
C   2.1043262873 -0.2443655164  1.0035172029
C   3.1405244631  0.8437454059  0.6857484141
H   2.4762126371 -1.2067974451  0.6337400162
H   2.0423587293 -0.3475047510  2.0942420495
H   3.9695161218  0.7806571393  1.3991857171
H   2.7072865919  1.8436354040  0.7662368540
C   3.7305752629  0.6793922323 -0.6984909351
O   3.6546417733  1.4721512872 -1.6078461883
O   4.3653666284 -0.5043410098 -0.8299736043
H   4.6684789070 -0.5515569706 -1.7514008610
27
Scanning combination 14/37: [222.8528]  Energy = -652.9186002318
C  -4.1077896186 -0.6425399855  1.0486642014
C  -2.8277999155 -0.7891247090  1.5104716358
C  -1.7223307658 -0.3368768128  0.7398984211
C  -1.9666211977  0.2899601443 -0.5083583323
C  -3.3074472984  0.4426318662 -0.9556149693
C  -4.3526359875 -0.0162708319 -0.1993122886
H  -0.2074332853 -0.9706520005  2.1380698146
H  -4.9478615699 -1.0036385538  1.6363758127
H  -2.6374139795 -1.2671424590  2.4691503198
C  -0.3782201667 -0.5001707215  1.1705727546
C  -0.8551875229  0.7397389218 -1.2664273361
H  -3.4894745019  0.9302706873 -1.9106521499
H  -5.3761172553  0.0948257260 -0.5483605483
C   0.4295338355  0.5600215277 -0.8270563806
C   0.6904125057 -0.0890879009  0.4117108748
H  -1.0405286051  1.2278931698 -2.2199316293
H   1.2542143739  0.9243522367 -1.4343778809
C   2.1018022596 -0.3749383523  0.8969391688
C   3.1104122339  0.7806720147  0.7429460879
H   2.5067359540 -1.2627586195  0.3938966747
H   2.0429614723 -0.6269898147  1.9610804083
H   3.9113466681  0.6572698795  1.4809054993
H   2.6315437376  1.7437029655  0.9320485588
C   3.7818153587  0.8378227116 -0.6105594102
O   3.6536431478  1.7097229627 -1.4367345056
O   4.5793570080 -0.2323269243 -0.8130827839
H   4.9635817254 -0.1228672321 -1.6981620123
27
Scanning combination 15/37: [232.8528]  Energy = -652.9179731909
C  -4.0909041268 -0.6196462310  1.0661502257
C  -2.8088513826 -0.7578807903  1.5252428137
C  -1.7081269111 -0.3048065684  0.7494931182
C  -1.9573007000  0.2989817848 -0.5095526547
C  -3.2994372289  0.4524955513 -0.9510787758
C  -4.3401981277 -0.0030650865 -0.1861480547
H  -0.1838179328 -0.8724563097  2.1717479217
H  -4.9285909259 -0.9825437396  1.6569766985
H  -2.6130695590 -1.2223880637  2.4894780095
C  -0.3627693261 -0.4531018413  1.1824093715
C  -0.8489570182  0.7104511321 -1.2934625150
H  -3.4827950281  0.9269121974 -1.9132807016
H  -5.3636695676  0.0992458762 -0.5361321903
C   0.4370426136  0.4899420771 -0.8772333415
C   0.6988910743 -0.1357514775  0.3739591006
H  -1.0373586056  1.2086399370 -2.2413878499
H   1.2606513514  0.7965454163 -1.5159603907
C   2.1114882447 -0.4277460475  0.8402937608
C   3.0722880367  0.7788495644  0.7852448309
H   2.5407168221 -1.2547454238  0.2646657807
H   2.0553386445 -0.7797392394  1.8767630418
H   3.8547527241  0.6679762178  1.5442970343
H   2.5406000720  1.7146128888  0.9736810479
C   3.7617459677  0.8748491211 -0.5574255423
O   3.6057054411  1.7425331993 -1.3838214581
O   4.5850091948 -0.1753501273 -0.7669936843
H   4.9421148586 -0.0693141253 -1.6638256065
27
Scanning combination 16/37: [242.8528]  Energy = -652.9190684561
C  -4.0863361921 -0.4224367305  1.1684139999
C  -2.7958556006 -0.6098774451  1.5834808313
C  -1.7061867557 -0.3018540455  0.7252212583
C  -1.9691674012  0.2161331429 -0.5688404841
C  -3.3210407492  0.4132813067 -0.9685131225
C  -4.3532257810  0.0934029994 -0.1254221587
H  -0.1727173533 -0.9240517926  2.1115677231
H  -4.9176261504 -0.6760129221  1.8222306045
H  -2.5841612552 -1.0008825758  2.5771426180
C  -0.3582113313 -0.5236793364  1.1160126686
C  -0.8658361908  0.5056305880 -1.4162140748
H  -3.5237990503  0.8149623019 -1.9593107554
H  -5.3845245301  0.2312352091 -0.4416482722
C   0.4240512601  0.2887258678 -1.0050771424
C   0.6977895870 -0.2516237942  0.2810893874
H  -1.0632934976  0.8879131586 -2.4153401688
H   1.2495997123  0.5260474504 -1.6718076199
C   2.1135123089 -0.5514926630  0.7322189315
C   3.0342822292  0.6842934627  0.8533326950
H   2.5852133893 -1.2779584684  0.0591154895
H   2.0575648899 -1.0337619624  1.7141380976
H   3.8079425123  0.4788279803  1.6013346131
H   2.4651541001  1.5593302355  1.1741178211
C   3.7477504928  1.0332357275 -0.4316918263
O   3.5166674067  1.9775307377 -1.1477668713
O   4.7181659816  0.1369420531 -0.7158651010
H   5.1247865978  0.4296393743 -1.5478190737
27
Scanning combination 17/37: [252.8528]  Energy = -652.9183147554
C  -4.0723637314 -0.4039803740  1.1737462267
C  -2.7824666928 -0.5857154409  1.5936050422
C  -1.6902656252 -0.2820455990  0.7362238973
C  -1.9554161720  0.2156414331 -0.5653461561
C  -3.3044688105  0.4126319317 -0.9674080293
C  -4.3381643968  0.1084214084 -0.1214458495
H  -0.1392486421 -0.8111225200  2.1480636113
H  -4.9035317700 -0.6605748806  1.8262609786
H  -2.5744165278 -0.9789520340  2.5873823575
C  -0.3364137948 -0.4799250924  1.1289862160
C  -0.8600647333  0.4896911428 -1.4250137210
H  -3.5026836720  0.8019534684 -1.9637054168
H  -5.3687782045  0.2401823259 -0.4406092380
C   0.4282445610  0.2257336126 -1.0384498890
C   0.7060673568 -0.3065948240  0.2512564058
H  -1.0651887751  0.9012417452 -2.4092950115
H   1.2496549865  0.4337103265 -1.7187578016
C   2.1334546992 -0.5855453545  0.6807045965
C   2.9947452322  0.6819369964  0.8868498891
H   2.6374285136 -1.2442050963 -0.0355818550
H   2.0973678263 -1.1346879998  1.6312077930
H   3.7591049275  0.4813117355  1.6430452716
H   2.3801125248  1.5249049858  1.2100906753
C   3.7138413027  1.0563824615 -0.3898928914
O   3.4633852311  1.9900316100 -1.1133631895
O   4.6940687355  0.1690451371 -0.6773256371
H   5.0764942886  0.4440287481 -1.5271282196
27
Scanning combination 18/37: [262.8528]  Energy = -652.9193504457
C  -3.9999406819 -0.1577332582  1.2592645079
C  -2.7059742420 -0.4065847562  1.6261560430
C  -1.6515433324 -0.2946707285  0.6822724537
C  -1.9458938053  0.1024209916 -0.6455787623
C  -3.3004826602  0.3580540837 -0.9985756921
C  -4.3009401320  0.2286271355 -0.0711392091
H  -0.0977191980 -0.8983239491  2.0485872691
H  -4.8022928913 -0.2486229610  1.9868597043
H  -2.4605995140 -0.7036429503  2.6434698121
C  -0.3035149119 -0.5668024908  1.0330325979
C  -0.8711768199  0.2376324241 -1.5655136952
H  -3.5319940093  0.6639497258 -2.0162566913
H  -5.3348323458  0.4242402658 -0.3430859978
C   0.4227880277 -0.0175968204 -1.1891423013
C   0.7267146851 -0.4381466909  0.1347662223
H  -1.0948642010  0.5525476005 -2.5825627764
H   1.2261950619  0.0988930145 -1.9134314332
C   2.1463430915 -0.7169506364  0.5847123172
C   2.9462117915  0.5471135647  0.9743265184
H   2.7002523313 -1.2756628521 -0.1776870876
H   2.0952701438 -1.3636628380  1.4674462035
H   3.7533403829  0.2722700054  1.6613486669
H   2.2978806340  1.2680018123  1.4771855310
C   3.5905051402  1.2244227525 -0.2096803828
O   3.2294717664  2.2483450701 -0.7339300761
O   4.6713550237  0.5325088974 -0.6402507187
H   5.0359392549  1.0328733849 -1.3884929300
27
Scanning combination 19/37: [272.8528]  Energy = -652.9183847163
C  -3.9915872912 -0.1436458552  1.2587214114
C  -2.6986223184 -0.3855673122  1.6342716193
C  -1.6353571368 -0.2601918791  0.6985014020
C  -1.9327141061  0.1168754449 -0.6355983001
C  -3.2847379456  0.3701063423 -0.9954339954
C  -4.2898064311  0.2440939872 -0.0722706031
H  -0.0711457774 -0.7756550193  2.0916262245
H  -4.8018031024 -0.2574798435  1.9753014235
H  -2.4660659751 -0.6889601919  2.6538198381
C  -0.2822411816 -0.5148212499  1.0550818761
C  -0.8645742313  0.2225122032 -1.5654558077
H  -3.5101087548  0.6607864931 -2.0191967614
H  -5.3239088840  0.4229071619 -0.3551746418
C   0.4212943395 -0.0788676128 -1.2008138989
C   0.7315415725 -0.4846550659  0.1269050207
H  -1.0890801790  0.5373118063 -2.5815189852
H   1.2237886090  0.0034084907 -1.9309552749
C   2.1702636335 -0.7344141119  0.5357695620
C   2.9148874818  0.5371744553  1.0051483262
H   2.7402841074 -1.1994523500 -0.2752157054
H   2.1730752243 -1.4535764290  1.3664088106
H   3.7133946460  0.2523731688  1.6960843223
H   2.2398951167  1.2352879706  1.5048399245
C   3.5581299514  1.2375194768 -0.1693636640
O   3.1867956064  2.2576532914 -0.6953920412
O   4.6353242802  0.5482173275 -0.6160381179
H   4.9735773421  1.0345590916 -1.3859518662
27
Scanning combination 20/37: [282.8528]  Energy = -652.9193065468
C  -3.8836164504  0.1214498523  1.2942155891
C  -2.5924318310 -0.1687104008  1.6396756078
C  -1.5761141439 -0.2389216562  0.6490023950
C  -1.9136345936  0.0033512842 -0.7068610590
C  -3.2703299247  0.2682543057 -1.0418441159
C  -4.2284844061  0.3359260383 -0.0649389443
H   0.0097304373 -0.7130957901  2.0288163983
H  -4.6514602530  0.2009227741  2.0598912169
H  -2.3213531604 -0.3510768155  2.6780357812
C  -0.2285416542 -0.5307372593  0.9813948144
C  -0.8783941069 -0.0307214358 -1.6789494069
H  -3.5364685211  0.4097720249 -2.0874938889
H  -5.2603160718  0.5601667507 -0.3217227974
C   0.4146997228 -0.3053130095 -1.3223536122
C   0.7619801517 -0.5620916551  0.0305649905
H  -1.1259620720  0.1739161845 -2.7184662916
H   1.1968517842 -0.3399150278 -2.0783690882
C   2.1922929331 -0.8526716842  0.4314972793
C   2.9149685484  0.3441823220  1.0823839584
H   2.7754278407 -1.1836086404 -0.4328349219
H   2.1950885038 -1.6763923715  1.1543626119
H   3.8000089111 -0.0259931773  1.6103715842
H   2.2727631001  0.8434364274  1.8110387740
C   3.3883269526  1.3841313332  0.0948872491
O   3.0058443020  2.5244437871  0.0122749416
O   4.3540157814  0.8891342200 -0.7130838173
H   4.6256068993  1.6236613710 -1.2873950948
27
Scanning combination 21/37: [292.8528]  Energy = -652.9186924551
C  -3.8714265672  0.1193008779  1.2917342533
C  -2.5736208171 -0.1304659946  1.6470841968
C  -1.5503088118 -0.1892017410  0.6604396903
C  -1.8967265308  0.0145030042 -0.7005464688
C  -3.2490049867  0.2939496704 -1.0360384973
C  -4.2149585637  0.3378269957 -0.0670789684
H   0.0661429833 -0.5786769512  2.0400063852
H  -4.6500798219  0.1606313593  2.0488806262
H  -2.3081082664 -0.2911836661  2.6910353636
C  -0.1939998906 -0.4533135908  0.9891629021
C  -0.8780126678 -0.0717590621 -1.6847275366
H  -3.5025633982  0.4644231268 -2.0803025579
H  -5.2488589308  0.5471776105 -0.3306384416
C   0.4100759963 -0.3731884679 -1.3369390576
C   0.7717726477 -0.5841817854  0.0197927037
H  -1.1418193331  0.0960965645 -2.7265177011
H   1.1802199604 -0.4495258089 -2.1016085295
C   2.2165874526 -0.8583982103  0.3818066518
C   2.8892663212  0.3166623819  1.1154544067
H   2.7956451770 -1.1024031882 -0.5127819676
H   2.2574770577 -1.7411678116  1.0314732926
H   3.7695813328 -0.0355670221  1.6635022628
H   2.2073238974  0.7801307675  1.8312606127
C   3.3515089613  1.3808951679  0.1482155147
O   2.9746542104  2.5252961665  0.0956387087
O   4.2914497072  0.8942947089 -0.6961796251
H   4.5382815651  1.6313446593 -1.2780280857
27
Scanning combination 22/37: [302.8528]  Energy = -652.9194101248
C  -3.7570321493  0.3542959386  1.3015028798
C  -2.4500705181  0.0996076557  1.6142240750
C  -1.4916381545 -0.1267660620  0.5899369352
C  -1.9032494383 -0.0889865476 -0.7666267570
C  -3.2726968880  0.1626340327 -1.0617811997
C  -4.1755858600  0.3811648773 -0.0539563125
H   0.1611892606 -0.4035012853  1.9425671443
H  -4.4837038655  0.5364733675  2.0891214078
H  -2.1182469830  0.0753734917  2.6511514939
C  -0.1309228764 -0.3798825618  0.8942048123
C  -0.9219755021 -0.2958923574 -1.7754212000
H  -3.5928333420  0.1811956166 -2.1019838103
H  -5.2185231597  0.5863362589 -0.2848240180
C   0.3846472112 -0.5445679671 -1.4459944242
C   0.8008716639 -0.6009550670 -0.0889878784
H  -1.2266808822 -0.2546215778 -2.8198649051
H   1.1258509060 -0.7125702661 -2.2264849211
C   2.2377072094 -0.9204038852  0.2712641503
C   2.9185903843  0.1419585487  1.1455006900
H   2.8316821960 -1.0688791606 -0.6343752055
H   2.2499382347 -1.8665274205  0.8271372695
H   3.8716651041 -0.2552994164  1.5160243429
H   2.3110083780  0.3904282805  2.0175784453
C   3.2203130501  1.4321444687  0.4206161568
O   2.8668381972  2.5350584672  0.7584128488
O   4.0036394142  1.2298413017 -0.6638198588
H   4.1997171287  2.1158409505 -1.0110220592
27
Scanning combination 23/37: [312.8528]  Energy = -652.9183671180
C  -3.7559666659  0.3620601238  1.2969396737
C  -2.4448627743  0.1339625337  1.6166778777
C  -1.4762044044 -0.0906141268  0.6001183926
C  -1.8910284075 -0.0733834850 -0.7557469732
C  -3.2564277538  0.1767777073 -1.0605550475
C  -4.1674478997  0.3859206699 -0.0599670867
H   0.1888589602 -0.3100822053  1.9488269621
H  -4.4924936537  0.5276197445  2.0795719564
H  -2.1241425233  0.1188209887  2.6567086756
C  -0.1091554210 -0.3288800491  0.9021408428
C  -0.9233519719 -0.3250734070 -1.7646180940
H  -3.5652656062  0.1959653873 -2.1040423611
H  -5.2110151043  0.5743288972 -0.2977020928
C   0.3746846850 -0.6032061933 -1.4343540261
C   0.8031974325 -0.6330288481 -0.0801955047
H  -1.2341418208 -0.2977094965 -2.8072095523
H   1.1063862728 -0.8001385113 -2.2160720805
C   2.2623317335 -0.9078612184  0.2266521934
C   2.9055271116  0.1165541651  1.1665259308
H   2.8376869598 -0.9562687242 -0.7003576924
H   2.3434942925 -1.8967301553  0.6961710060
H   3.8589888263 -0.2709469945  1.5428029615
H   2.2765388127  0.3315143430  2.0313477659
C   3.1991766554  1.4211673171  0.4618355424
O   2.8398810723  2.5194736347  0.8068377701
O   3.9690510463  1.2263323109 -0.6353858408
H   4.1261988650  2.1069252807 -1.0128510927
27
Scanning combination 24/37: [322.8528]  Energy = -652.9186843340
C  -3.6788743717  0.5490147343  1.2792422011
C  -2.3569620727  0.3366852642  1.5626377226
C  -1.4426235989 -0.0239008649  0.5365443713
C  -1.9236197451 -0.1838119442 -0.7863806515
C  -3.2974116143  0.0637594919 -1.0585523517
C  -4.1537130619  0.4242140294 -0.0511063298
H   0.2712178551 -0.0882353970  1.8342342290
H  -4.3725349870  0.8209092610  2.0710447543
H  -1.9851677379  0.4251187251  2.5817180049
C  -0.0612758689 -0.2254111197  0.8079006355
C  -1.0005718997 -0.5713500162 -1.7962469772
H  -3.6585126019 -0.0288334960 -2.0810187792
H  -5.2028215202  0.6170777531 -0.2614365738
C   0.3189260396 -0.7744553145 -1.4975086783
C   0.8189657231 -0.6068514138 -0.1751425408
H  -1.3608428994 -0.7020954243 -2.8151293430
H   1.0087328620 -1.0734175647 -2.2846456179
C   2.2854068417 -0.9033205555  0.0945455883
C   2.9637360261 -0.0075221678  1.1376203481
H   2.8454109827 -0.8466136265 -0.8436863856
H   2.3786354175 -1.9411550107  0.4413026902
H   3.9728106005 -0.3903838888  1.3313501652
H   2.4287333208 -0.0213883783  2.0885199367
C   3.1236915149  1.4325990315  0.7080634894
O   2.6899368133  2.3990343167  1.2852413508
O   3.8711418118  1.5362345714 -0.4149906792
H   3.9580849358  2.4875986945 -0.5900205178
27
Scanning combination 25/37: [332.8528]  Energy = -652.9177795503
C  -3.6674338435  0.5696226671  1.2767028522
C  -2.3416568481  0.3748114667  1.5600243341
C  -1.4269188362  0.0064274202  0.5364954843
C  -1.9118385017 -0.1690549940 -0.7825753426
C  -3.2871507493  0.0604971642 -1.0546731778
C  -4.1456176700  0.4171931919 -0.0495729950
H   0.2944481438 -0.0078377433  1.8204876137
H  -4.3637760220  0.8449626879  2.0647780433
H  -1.9700765892  0.4923017726  2.5762727783
C  -0.0427663754 -0.1899664314  0.8030292923
C  -1.0006619956 -0.5910230066 -1.7883556322
H  -3.6449350856 -0.0554294777 -2.0759613810
H  -5.1978338510  0.5897547251 -0.2613380124
C   0.3097930375 -0.8296120456 -1.4837501159
C   0.8204694585 -0.6313372945 -0.1701053478
H  -1.3622295805 -0.7165511264 -2.8070185345
H   0.9892480455 -1.1778784047 -2.2593711440
C   2.3032861368 -0.8749245412  0.0496087868
C   2.9502933313 -0.0402368213  1.1568227396
H   2.8435152240 -0.6925132369 -0.8835593263
H   2.4523732457 -1.9357044224  0.2872245260
H   3.9551765436 -0.4271469466  1.3630973024
H   2.3899132882 -0.0867936424  2.0911763469
C   3.1034002659  1.4090369065  0.7527668572
O   2.6581462989  2.3689405295  1.3308324290
O   3.8404940196  1.5232755071 -0.3771976297
H   3.8928376688  2.4726857859 -0.5717406814
27
Scanning combination 26/37: [342.8528]  Energy = -652.9194738124
C  -3.5816234393  0.7671032014  1.2353861914
C  -2.2418807747  0.6061821581  1.4687742898
C  -1.3870955325  0.0898019055  0.4586394427
C  -1.9432237212 -0.2760098100 -0.7908828370
C  -3.3365559946 -0.1003225154 -1.0082981497
C  -4.1362790794  0.4114589287 -0.0204794294
H   0.4037349224  0.2881526241  1.6312957466
H  -4.2300453090  1.1663521109  2.0109164657
H  -1.8072001295  0.8812203556  2.4286897979
C   0.0117788321 -0.0590781660  0.6787413359
C  -1.0754388600 -0.8027717706 -1.7884184335
H  -3.7555484617 -0.3770091296 -1.9739388345
H  -5.2006877977  0.5496487549 -0.1921557133
C   0.2608373676 -0.9479292220 -1.5392589669
C   0.8377363211 -0.5746588094 -0.2908283014
H  -1.4941423466 -1.0902063171 -2.7515402041
H   0.9080685798 -1.3701313708 -2.3070109390
C   2.3217105781 -0.8470042453 -0.1041527243
C   3.0013978768 -0.1608763632  1.0860514264
H   2.8516718848 -0.5642048261 -1.0214511448
H   2.4658051373 -1.9287577342  0.0129122630
H   4.0417343235 -0.5031068355  1.1319318230
H   2.5226791700 -0.4472040771  2.0256525869
C   3.0203002712  1.3482112755  0.9992160528
O   2.4418234033  2.1107618930  1.7363778502
O   3.7874841274  1.7817743954 -0.0228518848
H   3.7534573389  2.7521032702  0.0107822835
27
Scanning combination 27/37: [352.8528]  Energy = -652.9193500731
C  -3.5774616659  0.7769023478  1.2321242028
C  -2.2343328449  0.6366811718  1.4585079209
C  -1.3798116035  0.1125080701  0.4516911392
C  -1.9398526786 -0.2737959056 -0.7894161718
C  -3.3330187066 -0.1007228139 -1.0070143637
C  -4.1343016898  0.4064616038 -0.0178783791
H   0.4179630296  0.3433356835  1.6076872362
H  -4.2270176674  1.1772673437  2.0068403750
H  -1.7993060101  0.9243778906  2.4140544942
C   0.0207347175 -0.0288916371  0.6664858111
C  -1.0799034640 -0.8342259013 -1.7741601369
H  -3.7528684790 -0.3837365071 -1.9700878933
H  -5.2001049453  0.5364264708 -0.1873718477
C   0.2525683970 -0.9978321029 -1.5193037921
C   0.8363139575 -0.5914738709 -0.2848873116
H  -1.4989884049 -1.1265257484 -2.7346816727
H   0.8922648575 -1.4543502980 -2.2729203800
C   2.3353384814 -0.7994755957 -0.1397346239
C   2.9896144977 -0.1873268939  1.1023080647
H   2.8436213759 -0.4063283683 -1.0276043796
H   2.5321991516 -1.8790644275 -0.1314364865
H   4.0265508509 -0.5370229064  1.1673327081
H   2.4823063911 -0.4952502189  2.0198180152
C   3.0206145119  1.3229333667  1.0370128810
O   2.4542692989  2.0856887908  1.7829590206
O   3.7706880810  1.7536739469 -0.0003394631
H   3.7224192393  2.7232661855  0.0141150085
27
Scanning combination 28/37: [362.8528]  Energy = -652.9195874486
C  -3.5499840044  0.8713597701  1.1928914944
C  -2.2015418907  0.7460905317  1.3932819836
C  -1.3722318633  0.1531775816  0.4037969361
C  -1.9665162065 -0.3452544947 -0.7804920860
C  -3.3680753712 -0.1995180346 -0.9671891778
C  -4.1402848159  0.4017423013 -0.0080499232
H   0.4523522780  0.4760432085  1.4956623075
H  -4.1796717910  1.3329957618  1.9502583405
H  -1.7394115280  1.1116349353  2.3094773651
C   0.0375870310  0.0515883980  0.5840019879
C  -1.1299804302 -0.9802483894 -1.7397350435
H  -3.8156630676 -0.5643051099 -1.8900668800
H  -5.2107632548  0.5192669037 -0.1587445315
C   0.2174756966 -1.0720072022 -1.5326378272
C   0.8356939255 -0.5438643688 -0.3614987220
H  -1.5821571283 -1.4039466283 -2.6354231864
H   0.8459631377 -1.5544680793 -2.2793644878
C   2.3416701966 -0.7125320088 -0.2533413627
C   2.9841606213 -0.2270390871  1.0507427909
H   2.8195615070 -0.2034946036 -1.0995148814
H   2.5785594875 -1.7772938318 -0.3704113575
H   4.0166674774 -0.5922886341  1.0956236221
H   2.4582015284 -0.6288682633  1.9210727691
C   3.0440618953  1.2781915674  1.1818658580
O   2.5166857068  1.9378334748  2.0458955307
O   3.7828498194  1.8351281055  0.1993343132
H   3.7652897465  2.7935758349  0.3566641053
27
Scanning combination 29/37: [372.8528]  Energy = -652.9187863473
C  -3.5487301691  0.8841373258  1.1855083331
C  -2.1978192984  0.7738129273  1.3794479941
C  -1.3717524093  0.1669147203  0.3970668778
C  -1.9682517273 -0.3515661936 -0.7771239824
C  -3.3684329761 -0.2016437803 -0.9674679351
C  -4.1409942869  0.3990660759 -0.0080805486
H   0.4576923622  0.5411088344  1.4641141938
H  -4.1777378507  1.3370755552  1.9475817403
H  -1.7323135846  1.1403774405  2.2930294716
C   0.0383272722  0.0752489799  0.5748034006
C  -1.1311716398 -0.9966258581 -1.7298862710
H  -3.8178657683 -0.5809288404 -1.8831751176
H  -5.2142613813  0.4989765634 -0.1495340018
C   0.2110176439 -1.1184146724 -1.5025181588
C   0.8288977913 -0.5847189079 -0.3347268434
H  -1.5741992219 -1.3803912740 -2.6466840242
H   0.8379539819 -1.6160018380 -2.2408649176
C   2.3442569210 -0.6800514026 -0.2669003266
C   2.9871751196 -0.2502387141  1.0563116667
H   2.7811416736 -0.0950356708 -1.0849010923
H   2.6327642699 -1.7239052537 -0.4474856000
H   4.0172848009 -0.6228098991  1.0874236775
H   2.4548613790 -0.6756552782  1.9111143790
C   3.0473007610  1.2558273814  1.2018974722
O   2.5052268220  1.9157144939  2.0565967072
O   3.7895712525  1.8166270009  0.2230880514
H   3.7505569809  2.7765999231  0.3654647733
27
Scanning combination 30/37: [382.8528]  Energy = -652.9190400098
C  -3.5464260464  0.9691122421  1.1319407926
C  -2.1890938911  0.8965059523  1.3023549412
C  -1.3749375594  0.2158764391  0.3568250003
C  -1.9932594804 -0.4138070311 -0.7506214999
C  -3.3995329305 -0.3021117773 -0.9189680790
C  -4.1579028220  0.3779141547 -0.0029166090
H   0.4771885538  0.6539279995  1.3650496643
H  -4.1652851911  1.4870320836  1.8608040449
H  -1.7132572482  1.3480190276  2.1722063142
C   0.0423409252  0.1578354791  0.5002396662
C  -1.1758516209 -1.1418796362 -1.6583782016
H  -3.8605565228 -0.7651830066 -1.7893418083
H  -5.2338121573  0.4597236184 -0.1338347910
C   0.1804853786 -1.1761084211 -1.4929263230
C   0.8249241129 -0.5051673884 -0.4152472635
H  -1.6504185640 -1.6831704319 -2.4748590625
H   0.7946032951 -1.7251984845 -2.2044787527
C   2.3439109980 -0.5481268618 -0.3915613931
C   2.9973403941 -0.2845057397  0.9721057556
H   2.7521227749  0.1532874952 -1.1306328148
H   2.6566521036 -1.5458784910 -0.7215355214
H   4.0218334851 -0.6720575823  0.9572109117
H   2.4584613701 -0.8072038261  1.7660014692
C   3.0835808814  1.1833539835  1.3277322911
O   2.5226010549  1.7302379748  2.2480556054
O   3.8790814280  1.8565333203  0.4709836242
H   3.8657059893  2.7845384909  0.7578919554
27
Scanning combination 31/37: [392.8528]  Energy = -652.9177408222
C  -3.5433394390  0.9786670487  1.1251168342
C  -2.1857013130  0.9131332217  1.2878721530
C  -1.3755385492  0.2256407472  0.3458233160
C  -1.9948608854 -0.4228943862 -0.7496162322
C  -3.4019666465 -0.3123609363 -0.9152842222
C  -4.1584595603  0.3692180293  0.0022020503
H   0.4805632102  0.7249195517  1.3170414052
H  -4.1594848706  1.4970499786  1.8558784828
H  -1.7033132632  1.3722936402  2.1495110853
C   0.0406527722  0.1825696133  0.4831841168
C  -1.1750324952 -1.1607828149 -1.6482506823
H  -3.8698715464 -0.7852880223 -1.7766668529
H  -5.2353632995  0.4469942706 -0.1222812842
C   0.1780630932 -1.2231388733 -1.4599883129
C   0.8185910422 -0.5466320585 -0.3830270046
H  -1.6371479089 -1.6488225014 -2.5041341884
H   0.7950894572 -1.7731154339 -2.1696877378
C   2.3365697722 -0.5155040690 -0.3929940580
C   3.0060515425 -0.3085850057  0.9752541175
H   2.6901187598  0.2491630626 -1.0953789782
H   2.6868171861 -1.4801750686 -0.7821127829
H   4.0292104317 -0.7003341147  0.9464726458
H   2.4646553630 -0.8407772785  1.7608159830
C   3.0915305243  1.1575196352  1.3422643373
O   2.5160863349  1.7035151289  2.2543023441
O   3.8907018525  1.8350833046  0.4916140450
H   3.8558771557  2.7661429152  0.7661693407
27
Scanning combination 32/37: [402.8528]  Energy = -652.9186773304
C  -3.5574580452  1.0826811061  1.0353705651
C  -2.1942166251  1.0805344405  1.1577232691
C  -1.3898803341  0.2974294268  0.2881344521
C  -2.0208663516 -0.5084012526 -0.6903890811
C  -3.4376753422 -0.4902671574 -0.7954431372
C  -4.1878873741  0.2955422923  0.0388674828
H   0.4831243538  0.9583911495  1.1259187923
H  -4.1665183296  1.6962866223  1.6941257547
H  -1.7037965916  1.6838701662  1.9204408278
C   0.0314258708  0.3294521964  0.3638596723
C  -1.2060453076 -1.2919100542 -1.5510949945
H  -3.9137756873 -1.0970474547 -1.5623708438
H  -5.2698540418  0.3244440007 -0.0596771271
C   0.1563279360 -1.2375636817 -1.4520528982
C   0.8057446561 -0.4079271663 -0.4971255709
H  -1.6828809148 -1.9221646397 -2.2994819461
H   0.7700582776 -1.8323879077 -2.1256307414
C   2.3220157334 -0.3530030821 -0.5212076740
C   3.0186380068 -0.3479875148  0.8533887122
H   2.6601091549  0.5163757139 -1.0993682880
H   2.6725770246 -1.2334643052 -1.0686792720
H   4.0367917448 -0.7351749673  0.7342778836
H   2.4914106020 -0.9970977902  1.5564084673
C   3.1384067058  1.0220491091  1.4815845460
O   2.5363104646  1.4099085005  2.4548721975
O   4.0170213747  1.8064473656  0.8234641903
H   4.0313917464  2.6544843590  1.2981846777
27
Scanning combination 33/37: [412.8528]  Energy = -652.9179223780
C  -3.5616884251  1.0889982167  1.0302914659
C  -2.1968515676  1.1128085410  1.1340377860
C  -1.3917240522  0.3312253468  0.2627875471
C  -2.0184612226 -0.4935395688 -0.7019588309
C  -3.4368223206 -0.4908335480 -0.7970841981
C  -4.1897695187  0.2833639247  0.0467424283
H   0.4802978097  1.0338317288  1.0672150451
H  -4.1735993403  1.6916835563  1.6968437367
H  -1.7064119030  1.7323542686  1.8831916713
C   0.0279120056  0.3736184261  0.3319767241
C  -1.2001309458 -1.3053785255 -1.5342491364
H  -3.9130119325 -1.1080677673 -1.5559894751
H  -5.2736809267  0.2873840801 -0.0327970111
C   0.1629294231 -1.2730370175 -1.4118070297
C   0.8078958017 -0.4132015513 -0.4803353666
H  -1.6747058584 -1.9440591852 -2.2761672842
H   0.7771187280 -1.9090352204 -2.0471457683
C   2.3206797967 -0.2981079667 -0.5196981781
C   3.0322289464 -0.3923781370  0.8488721367
H   2.6274755633  0.6322437432 -1.0125954675
H   2.6944157051 -1.1081975904 -1.1553352359
H   4.0496262026 -0.7709634229  0.7055464547
H   2.5057106198 -1.0616419059  1.5341143427
C   3.1440403959  0.9681918875  1.4986408627
O   2.5134314196  1.3645798912  2.4503216644
O   4.0300111875  1.7533212322  0.8489711278
H   4.0035831105  2.6183360395  1.2897099030
27
Scanning combination 34/37: [422.8528]  Energy = -652.9187084440
C  -3.5895799267  1.1703178468  0.9408742069
C  -2.2256804092  1.2691148741  1.0023127358
C  -1.4006068269  0.4205084736  0.2165831542
C  -2.0127767832 -0.5475724589 -0.6191023316
C  -3.4304684074 -0.6162590633 -0.6787507086
C  -4.2015256140  0.2260249584  0.0773907198
H   0.4684929084  1.2846548083  0.8760869082
H  -4.2149268108  1.8287545947  1.5383219322
H  -1.7532869248  1.9974704060  1.6603101173
C   0.0185782790  0.5352873607  0.2293830760
C  -1.1850330163 -1.4047436978 -1.3922743610
H  -3.8919201627 -1.3452194597 -1.3421786359
H  -5.2858776444  0.1779416907  0.0206469034
C   0.1741256420 -1.2653177907 -1.3590349534
C   0.8006900216 -0.2747254074 -0.5568476800
H  -1.6478679188 -2.1654794672 -2.0174008292
H   0.8049070266 -1.9207697013 -1.9565800435
C   2.3085004990 -0.1525819643 -0.6268036903
C   3.0482954802 -0.4251243699  0.7019818403
H   2.5953950483  0.8386784568 -0.9999108267
H   2.6631197755 -0.8757082308 -1.3688480705
H   4.0651287205 -0.7662009679  0.4819963852
H   2.5362753049 -1.2022283082  1.2739943930
C   3.1571769836  0.7978707618  1.5801784895
O   2.5146810395  1.0119548697  2.5810094148
O   4.0672684388  1.6786315629  1.1114684305
H   4.0574139624  2.4282197530  1.7292934191
27
Scanning combination 35/37: [432.8528]  Energy = -652.9180071805
C  -3.5937341854  1.1840381109  0.9285233924
C  -2.2306357174  1.3008530817  0.9679835078
C  -1.4066445491  0.4523240632  0.1822709769
C  -2.0145630680 -0.5389005695 -0.6276556394
C  -3.4333600598 -0.6227351286 -0.6706700139
C  -4.2034908459  0.2144814252  0.0925870276
H   0.4570070563  1.3563499909  0.7972064384
H  -4.2182622284  1.8399599283  1.5297718835
H  -1.7563550424  2.0461208823  1.6043399024
C   0.0107210876  0.5760141074  0.1861877796
C  -1.1786725403 -1.4169790978 -1.3691530925
H  -3.8963686214 -1.3671548704 -1.3153387029
H  -5.2875218043  0.1498562036  0.0559055594
C   0.1838230599 -1.2983416018 -1.3104036503
C   0.8059772482 -0.2785452214 -0.5373613715
H  -1.6404650989 -2.1795223802 -1.9941245918
H   0.8145177603 -1.9883663626 -1.8687339674
C   2.3092885123 -0.0988331187 -0.6113152437
C   3.0708344832 -0.4690950654  0.6847156417
H   2.5679810266  0.9325115649 -0.8821883642
H   2.6831865363 -0.7300682473 -1.4244974566
H   4.0931201128 -0.7694836083  0.4346078378
H   2.5815462019 -1.2844564805  1.2221675250
C   3.1531829321  0.7347510596  1.5907522160
O   2.4827722190  0.9475745323  2.5723814478
O   4.0663314425  1.6219993271  1.1365543113
H   4.0202827588  2.3891470030  1.7295866389
27
Scanning combination 36/37: [442.8528]  Energy = -652.9190132026
C  -3.6308091491  1.2764838366  0.8058960780
C  -2.2729044171  1.4530321026  0.8244693015
C  -1.4139378088  0.5460781112  0.1471282888
C  -1.9853999132 -0.5695058648 -0.5167646121
C  -3.3972481460 -0.7259748943 -0.5229524219
C  -4.2018427274  0.1767218793  0.1183258336
H   0.4174964282  1.5969845017  0.6129036999
H  -4.2823301849  1.9777801739  1.3200587972
H  -1.8341631959  2.3000564712  1.3489638389
C  -0.0025540079  0.7345096159  0.0993619111
C  -1.1262629022 -1.4928550925 -1.1694180891
H  -3.8246519857 -1.5721659188 -1.0561880597
H  -5.2818005481  0.0605622846  0.0980754172
C   0.2219285288 -1.2738724226 -1.2098110494
C   0.8052422859 -0.1350853085 -0.5914685938
H  -1.5580415341 -2.3698591813 -1.6482639938
H   0.8727374132 -1.9710030547 -1.7351200137
C   2.2996461258  0.0494244115 -0.7161459457
C   3.0993750443 -0.4777722524  0.4948436128
H   2.5499962221  1.1022877835 -0.8872178829
H   2.6277520245 -0.4954227777 -1.6065938204
H   4.1324724225 -0.6768883173  0.1915373581
H   2.6574125424 -1.4021075279  0.8720211056
C   3.1341605896  0.5102912011  1.6323669231
O   2.4796301802  0.4559103890  2.6455760877
O   3.9991866267  1.5204981239  1.3890433040
H   3.9554088160  2.1053912503  2.1634729050
27
Scanning combination 37/37: [452.8528]  Energy = -652.9181714658
C  -3.6342720431  1.2852619319  0.7991656223
C  -2.2780973279  1.4735601214  0.7922040388
C  -1.4226633212  0.5628194596  0.1165417363
C  -1.9913428820 -0.5661314396 -0.5253388153
C  -3.4039562328 -0.7300122190 -0.5151895180
C  -4.2068162027  0.1762140949  0.1253606981
H   0.3965935696  1.6564999964  0.5161496171
H  -4.2837078798  1.9828421310  1.3218313701
H  -1.8345398765  2.3262074653  1.3041160991
C  -0.0151076491  0.7623175703  0.0532750996
C  -1.1227130002 -1.4936622394 -1.1601795311
H  -3.8357536915 -1.5853329523 -1.0310565740
H  -5.2860682188  0.0442378119  0.1344598915
C   0.2316943098 -1.2986015064 -1.1544254441
C   0.8131753648 -0.1501769257 -0.5502574940
H  -1.5526891452 -2.3606966455 -1.6579570720
H   0.8811420513 -2.0180576440 -1.6481351853
C   2.3023602067  0.0834034099 -0.6815872559
C   3.1322710048 -0.5161412047  0.4770712440
H   2.5245305661  1.1523354308 -0.7630768419
H   2.6386125683 -0.3746076694 -1.6183191000
H   4.1653973340 -0.6764746955  0.1538221487
H   2.7115376406 -1.4645288098  0.8174438708
C   3.1447218282  0.4565248914  1.6305495104
O   2.4627544804  0.4042674045  2.6247967743
O   3.9972378582  1.4814917157  1.3956494823
H   3.9061974045  2.0899400254  2.1471856118
