22
Scanning combination 1/37: [359.9984]  Energy = -463.1707730091
C  -2.3402439286  0.1513301403 -0.2351341096
C  -1.0082635586  0.2131916043 -0.6623349087
C  -0.3059134349  1.4105788971 -0.6688556086
C  -0.9150446301  2.5862957332 -0.2473497180
C  -2.2365732538  2.5448640583  0.1802426003
C  -2.9366792805  1.3461607700  0.1857729037
C  -3.0951401957 -1.1384457940 -0.2286515894
C  -2.4987069521 -2.3332691067 -0.6495666766
C  -3.1987944618 -3.5319798236 -0.6440312774
C  -4.5203391798 -3.5734210922 -0.2164374060
C  -5.1294609992 -2.3977060787  0.2050515032
C  -4.4271283947 -1.2003154208  0.1985628470
H  -0.4933212286 -0.6795408345 -0.9996581248
H   0.7266694749  1.4232530888 -1.0066487945
H  -0.3670262168  3.5226122468 -0.2520592767
H  -2.7296768629  3.4538919760  0.5134361646
H  -3.9657283856  1.3605266728  0.5274924760
H  -1.4696547694 -2.3476547267 -0.9912983020
H  -2.7057042533 -4.4410050975 -0.9772293092
H  -5.0683700020 -4.5097328237 -0.2117394425
H  -6.1620395626 -2.4103631831  0.5428645027
H  -4.9420601335 -0.3075708498  0.5358714493
22
Scanning combination 2/37: [369.9984]  Energy = -463.1716071910
C  -2.3438589863  0.1536031904 -0.2559035501
C  -1.0550492317  0.2433243349 -0.7967459860
C  -0.3516982571  1.4415960370 -0.7919200551
C  -0.9197704760  2.5902526674 -0.2489430623
C  -2.1932073584  2.5167814499  0.3057425615
C  -2.8876223756  1.3141565700  0.3104988632
C  -3.0862779621 -1.1439228204 -0.2102371225
C  -2.4587300941 -2.3591697716 -0.5121102155
C  -3.1661293605 -3.5555922831 -0.5152881962
C  -4.5236375680 -3.5724197829 -0.2112604960
C  -5.1669082370 -2.3733358498  0.0769304768
C  -4.4590711681 -1.1781168549  0.0663493576
H  -0.5892837717 -0.6239844917 -1.2568120680
H   0.6476157199  1.4707566024 -1.2189644314
H  -0.3740727406  3.5297439431 -0.2541471021
H  -2.6574011199  3.3996937596  0.7393745522
H  -3.8573638728  1.2835490843  0.7984073880
H  -1.3939205085 -2.3913567829 -0.7252678606
H  -2.6443019355 -4.4781275193 -0.7571617686
H  -5.0747606958 -4.5090216186 -0.2037206772
H  -6.2280897022 -2.3598068124  0.3142188258
H  -5.0056604782 -0.2569026111  0.2452604781
22
Scanning combination 3/37: [379.9984]  Energy = -463.1715133286
C  -2.3261072918  0.1435537976 -0.2149581456
C  -1.0613877940  0.2480084318 -0.8090665535
C  -0.3575373258  1.4454719926 -0.8049438061
C  -0.9195613219  2.5901091411 -0.2495592930
C  -2.1895171247  2.5145317789  0.3115674701
C  -2.8768564872  1.3074122595  0.3368670510
C  -3.0965694700 -1.1381784767 -0.2544267607
C  -2.4572782821 -2.3611318799 -0.4976673831
C  -3.1632234777 -3.5575563860 -0.5009346547
C  -4.5232691550 -3.5727735736 -0.2109380900
C  -5.1673136144 -2.3728542193  0.0696733518
C  -4.4659059402 -1.1738459150  0.0382374327
H  -0.5950835707 -0.6197024683 -1.2675742036
H   0.6442438536  1.4763704321 -1.2263680419
H  -0.3731492980  3.5284887566 -0.2521625386
H  -2.6533338225  3.4003827262  0.7382854374
H  -3.8593799982  1.2872823452  0.7971828518
H  -1.3927315563 -2.3929018860 -0.7124602989
H  -2.6453714004 -4.4811372479 -0.7478102492
H  -5.0746368028 -4.5083425930 -0.2061672209
H  -6.2268112818 -2.3636589148  0.3129384863
H  -5.0084190157 -0.2578276596  0.2485850715
22
Scanning combination 4/37: [389.9984]  Energy = -463.1742523557
C  -2.3338476243  0.1453157887 -0.2505862980
C  -1.1363389102  0.2868976060 -0.9602039395
C  -0.4399900251  1.4910589669 -0.9537652150
C  -0.9341557553  2.5850495064 -0.2501409277
C  -2.1241634043  2.4598241121  0.4597578895
C  -2.8026633657  1.2470057354  0.4745298206
C  -3.0798042639 -1.1452242788 -0.2227559139
C  -2.4230852589 -2.3761272914 -0.3288640326
C  -3.1376515830 -3.5696813940 -0.3272416418
C  -4.5234848042 -3.5590602108 -0.2038684383
C  -5.1906183103 -2.3428324211 -0.0968829853
C  -4.4762374557 -1.1509696249 -0.1275068038
H  -0.7587548032 -0.5390442675 -1.5575336645
H   0.5004115962  1.5721193039 -1.4925005552
H  -0.3852580303  3.5223784577 -0.2356775136
H  -2.5309843111  3.3094174570  1.0028574782
H  -3.6926037096  1.1451958436  1.0911888924
H  -1.3376636333 -2.4097540259 -0.3751383885
H  -2.6094955671 -4.5134777851 -0.4343259158
H  -5.0830193294 -4.4902296723 -0.2134092477
H  -6.2718800885 -2.3180487312  0.0147195517
H  -5.0179115219 -0.2081126183 -0.1143522332
22
Scanning combination 5/37: [399.9984]  Energy = -463.1754663757
C  -2.3339982082  0.1437061551 -0.2349724302
C  -1.1868793591  0.3030476329 -1.0182226346
C  -0.5006363010  1.5119936491 -1.0367228250
C  -0.9339163325  2.5751922160 -0.2493992705
C  -2.0605971769  2.4215063457  0.5536383357
C  -2.7608649063  1.2207080819  0.5486981781
C  -3.0875841698 -1.1389150142 -0.2348356065
C  -2.4175051248 -2.3660000281 -0.2508990499
C  -3.1243519369 -3.5626480503 -0.2234600413
C  -4.5163640170 -3.5536087684 -0.2080353240
C  -5.1959465007 -2.3386164414 -0.2162915008
C  -4.4860998849 -1.1435767563 -0.2157558065
H  -0.8398997942 -0.5218973505 -1.6370333120
H   0.3815611571  1.6190898042 -1.6625375807
H  -0.3914108972  3.5166261051 -0.2557458787
H  -2.4014097501  3.2401650388  1.1830340204
H  -3.6438652265  1.1092808959  1.1749294400
H  -1.3296796144 -2.3838933395 -0.2633453552
H  -2.5837877399 -4.5056773542 -0.2234552010
H  -5.0689543673 -4.4890022221 -0.1967714772
H  -6.2831743076 -2.3183656885 -0.2175700519
H  -5.0238356843 -0.1974144553 -0.2169467293
22
Scanning combination 6/37: [409.9984]  Energy = -463.1752133018
C  -2.3208087130  0.1362086737 -0.2331079881
C  -1.2308578461  0.3352681456 -1.0859897266
C  -0.5359827179  1.5394571980 -1.0825509971
C  -0.9378040996  2.5773085893 -0.2462362874
C  -2.0358348407  2.3992457489  0.5911034189
C  -2.7161292558  1.1865408396  0.6006744693
C  -3.0788892313 -1.1443203372 -0.2463347640
C  -2.4165027654 -2.3728105469 -0.1643203367
C  -3.1297069185 -3.5663353010 -0.1596660576
C  -4.5209811197 -3.5506350310 -0.2072975417
C  -5.1929458245 -2.3327962024 -0.2660624687
C  -4.4762909508 -1.1413117023 -0.2916522960
H  -0.9278159880 -0.4629736992 -1.7601394342
H   0.3308141663  1.6641108718 -1.7257181098
H  -0.3899378560  3.5158494101 -0.2385271797
H  -2.3686102794  3.2089846480  1.2348395698
H  -3.5547011305  1.0377528009  1.2779813065
H  -1.3305769608 -2.3906455184 -0.1011903894
H  -2.5972818603 -4.5129748748 -0.1318978952
H  -5.0778139512 -4.4839607504 -0.2109893271
H  -6.2791597877 -2.3087918938 -0.2855185947
H  -5.0013822228 -0.1914706039 -0.3690994693
22
Scanning combination 7/37: [419.9984]  Energy = -463.1746774561
C  -2.3007984738  0.1250019605 -0.2394864733
C  -1.2754085217  0.3718883056 -1.1567720969
C  -0.6049857282  1.5907247881 -1.1572437227
C  -0.9495156945  2.5804345695 -0.2406234934
C  -1.9753039099  2.3482401726  0.6715101397
C  -2.6516325140  1.1339691641  0.6621302544
C  -3.0607534516 -1.1554764346 -0.2567467315
C  -2.4173520424 -2.3828487985 -0.0735304266
C  -3.1468464411 -3.5669249368 -0.0471637211
C  -4.5300415894 -3.5416345802 -0.2037240309
C  -5.1818269830 -2.3237704557 -0.3779580065
C  -4.4519453108 -1.1410191432 -0.3920788358
H  -1.0064382708 -0.3973327892 -1.8778273324
H   0.1903196914  1.7696768769 -1.8757835720
H  -0.4193653945  3.5291045248 -0.2363921839
H  -2.2572114306  3.1175100101  1.3856496936
H  -3.4599873865  0.9521867314  1.3674095244
H  -1.3370165052 -2.4063100314  0.0540254145
H  -2.6341922518 -4.5143431105  0.0960437479
H  -5.0979945875 -4.4680698269 -0.1913516453
H  -6.2621308475 -2.2927689734 -0.4928770334
H  -4.9587724786 -0.1865375701 -0.5189095564
22
Scanning combination 8/37: [429.9984]  Energy = -463.1733147374
C  -2.2892573086  0.1196570284 -0.2408072341
C  -1.3332544711  0.4106847196 -1.2178679439
C  -0.6643185274  1.6307574412 -1.2110183480
C  -0.9570693954  2.5856021097 -0.2407053828
C  -1.9237754273  2.3139760860  0.7243951220
C  -2.5840836412  1.0903934117  0.7216678721
C  -3.0523628525 -1.1618970136 -0.2641625422
C  -2.4293839560 -2.3804398259  0.0182453922
C  -3.1644664377 -3.5618756310  0.0405401166
C  -4.5362423867 -3.5385903476 -0.1976343264
C  -5.1704190123 -2.3266452185 -0.4584747845
C  -4.4324589046 -1.1484607715 -0.4899614220
H  -1.1120473760 -0.3293274814 -1.9839258367
H   0.0971831809  1.8346760155 -1.9588318221
H  -0.4313720151  3.5368617357 -0.2346797998
H  -2.1709018859  3.0598147438  1.4761860725
H  -3.3365010769  0.8701632480  1.4770533318
H  -1.3599178052 -2.3988409325  0.2165664299
H  -2.6643118604 -4.5069073691  0.2333891630
H  -5.1085007624 -4.4626297506 -0.1831718694
H  -6.2439576942 -2.2964488389 -0.6294134065
H  -4.9217805150 -0.1988229129 -0.6990888523
22
Scanning combination 9/37: [439.9984]  Energy = -463.1718301049
C  -2.2726852296  0.1103866809 -0.2496351050
C  -1.3923177116  0.4525172588 -1.2793954914
C  -0.7338371239  1.6794996480 -1.2653420186
C  -0.9642290195  2.5876629307 -0.2361331399
C  -1.8616261071  2.2671159373  0.7780767297
C  -2.5146328359  1.0399134020  0.7654402307
C  -3.0354023718 -1.1722494071 -0.2701907270
C  -2.4438533320 -2.3793019198  0.1121724787
C  -3.1914711510 -3.5537118247  0.1372240470
C  -4.5425120169 -3.5329560132 -0.1962137076
C  -5.1467186781 -2.3299462466 -0.5499698954
C  -4.3981080877 -1.1591670828 -0.5793073707
H  -1.2202928873 -0.2493710359 -2.0916055008
H  -0.0382277574  1.9307854015 -2.0613865631
H  -0.4433516967  3.5418660528 -0.2223146415
H  -2.0621080677  2.9761987448  1.5768669302
H  -3.2234859173  0.7853364065  1.5499717089
H  -1.3919059554 -2.3963919859  0.3860092404
H  -2.7196251233 -4.4910041853  0.4197989857
H  -5.1229447360 -4.4520477856 -0.1839730470
H  -6.2050466600 -2.2996163318 -0.7949520965
H  -4.8648176555 -0.2138182200 -0.8468411298
22
Scanning combination 10/37: [449.9984]  Energy = -463.1705720222
C  -2.2648736301  0.1071793663 -0.2606744556
C  -1.4669732528  0.5028464878 -1.3375553010
C  -0.8133909353  1.7324810560 -1.3136524366
C  -0.9770579190  2.5945518125 -0.2337013401
C  -1.7936073584  2.2210866983  0.8292137007
C  -2.4279477364  0.9835388406  0.8144363789
C  -3.0242694896 -1.1802400007 -0.2675291835
C  -2.4713830177 -2.3695140583  0.2153209316
C  -3.2281766690 -3.5384730187  0.2367273546
C  -4.5529826361 -3.5260434776 -0.1883683744
C  -5.1203889782 -2.3394801260 -0.6427258664
C  -4.3570674490 -1.1777564800 -0.6844344366
H  -1.3503273120 -0.1538081913 -2.1961925880
H  -0.1743176723  2.0215155826 -2.1438617073
H  -0.4655915817  3.5535716120 -0.2208932787
H  -1.9361511894  2.8916159283  1.6725264283
H  -3.0574857762  0.6737385048  1.6445859615
H  -1.4440163032 -2.3849832789  0.5706040334
H  -2.7825981881 -4.4648198482  0.5898437203
H  -5.1394465705 -4.4409744047 -0.1681481646
H  -6.1573322686 -2.3170518120 -0.9671504280
H  -4.7838141990 -0.2472807978 -1.0500710163
22
Scanning combination 11/37: [459.9984]  Energy = -463.1713444537
C  -2.2913128279  0.1214829415 -0.2456195317
C  -1.5795780373  0.5517173380 -1.3666614078
C  -0.9366125267  1.7864436022 -1.3617218570
C  -0.9799157901  2.5936197431 -0.2287608138
C  -1.6495066671  2.1509869153  0.9085926085
C  -2.2966326071  0.9193546808  0.9012423482
C  -3.0516827336 -1.1628978292 -0.2587714765
C  -2.5258925771 -2.3200786858  0.3178381092
C  -3.2788566001 -3.4903319728  0.3613561282
C  -4.5560121386 -3.5215935362 -0.1908484730
C  -5.0690629209 -2.3843209837 -0.8079002218
C  -4.3183368410 -1.2134013244 -0.8461992931
H  -1.5449958101 -0.0829331328 -2.2482872702
H  -0.4117696777  2.1223832813 -2.2520256035
H  -0.4904848356  3.5643025460 -0.2315639112
H  -1.6651485842  2.7645228943  1.8051293318
H  -2.8255741005  0.5728529935  1.7859618110
H  -1.5267916782 -2.2928198712  0.7448226579
H  -2.8689657632 -4.3753553643  0.8404387899
H  -5.1489744195 -4.4315546129 -0.1424332113
H  -6.0548923607 -2.4093879791 -1.2640034602
H  -4.7182006306 -0.3212912496 -1.3222852711
22
Scanning combination 12/37: [469.9984]  Energy = -463.1732325873
C  -2.3255110801  0.1403008246 -0.2403949882
C  -1.7079755313  0.6124562302 -1.4011794783
C  -1.0342873057  1.8306825286 -1.3959154624
C  -0.9522146985  2.5793458645 -0.2244778517
C  -1.5322731353  2.0979091025  0.9456690494
C  -2.2026197698  0.8802809377  0.9383779100
C  -3.0792866418 -1.1454027489 -0.2368057238
C  -2.5909999541 -2.2671701164  0.4374881651
C  -3.3223538974 -3.4516161858  0.4576233875
C  -4.5392721075 -3.5334905885 -0.2146347674
C  -5.0145842085 -2.4320689751 -0.9205623384
C  -4.2815159736 -1.2511917319 -0.9408438073
H  -1.7727984412  0.0229095859 -2.3132546057
H  -0.5760312154  2.1987753222 -2.3099448653
H  -0.4430349537  3.5399762875 -0.2224612528
H  -1.4616046426  2.6687964823  1.8675465360
H  -2.6489786238  0.4950022019  1.8526293555
H  -1.6387289406 -2.1990748395  0.9592276258
H  -2.9434472447 -4.3115133935  1.0033587978
H  -5.1213542749 -4.4513017937 -0.1845790545
H  -5.9564434547 -2.4910751293 -1.4592171194
H  -4.6438840567 -0.3908294449 -1.4993494885
22
Scanning combination 13/37: [479.9984]  Energy = -463.1743225700
C  -2.3170610685  0.1349286309 -0.2488468499
C  -1.7865223139  0.6651666377 -1.4299370095
C  -1.0989311209  1.8749307450 -1.4154409072
C  -0.9534438992  2.5830161647 -0.2250835108
C  -1.4777525372  2.0628553649  0.9554638905
C  -2.1357081598  0.8384330131  0.9433758784
C  -3.0678316862 -1.1517100406 -0.2371514360
C  -2.6383737065 -2.2459521273  0.5216547495
C  -3.3643604341 -3.4331657105  0.5240439982
C  -4.5420816648 -3.5347921099 -0.2122541631
C  -4.9770571486 -2.4510488864 -0.9708310837
C  -4.2323746160 -1.2775728419 -0.9968888881
H  -1.9073798679  0.1178760499 -2.3627176765
H  -0.6744616165  2.2677079490 -2.3357970595
H  -0.4176063512  3.5289848468 -0.2154203265
H  -1.3749015790  2.6072107745  1.8901925089
H  -2.5294940312  0.4146664308  1.8653447572
H  -1.7233362313 -2.1652583188  1.1050991591
H  -3.0108187532 -4.2830387340  1.1021678300
H  -5.1093416120 -4.4623032151 -0.2080933533
H  -5.8963759936 -2.5157251032 -1.5464063063
H  -4.5539857629 -0.4335091136 -1.6041741913
22
Scanning combination 14/37: [489.9984]  Energy = -463.1753477997
C  -2.3157761571  0.1333825402 -0.2389495505
C  -1.8722031401  0.7111992539 -1.4319298915
C  -1.1928339990  1.9250643631 -1.4233417937
C  -0.9511738856  2.5822864799 -0.2196589747
C  -1.3733379963  2.0067920672  0.9757056288
C  -2.0384973526  0.7862534166  0.9656508760
C  -3.0719215271 -1.1485130123 -0.2458129060
C  -2.6980823188 -2.2065799023  0.5875970806
C  -3.4262746920 -3.3917439639  0.6004933445
C  -4.5439519719 -3.5343106075 -0.2178537644
C  -4.9145081477 -2.4930706802 -1.0645155301
C  -4.1761181298 -1.3155688731 -1.0866770117
H  -2.0538873697  0.1944743719 -2.3720720274
H  -0.8617359213  2.3634035893 -2.3613478006
H  -0.4362309194  3.5394129271 -0.2143253284
H  -1.1804686698  2.5080828672  1.9204386798
H  -2.3669316543  0.3371537294  1.9006686274
H  -1.8204026272 -2.0987522989  1.2215917622
H  -3.1254310961 -4.2013671103  1.2605184326
H  -5.1235255105 -4.4534558182 -0.1947553219
H  -5.7796691282 -2.5993885254 -1.7135216359
H  -4.4662379326 -0.5030544120 -1.7496029010
22
Scanning combination 15/37: [499.9984]  Energy = -463.1752917639
C  -2.2956720000  0.1210674906 -0.2522217297
C  -1.9402977513  0.7578522072 -1.4464336429
C  -1.2604464927  1.9704543664 -1.4296737271
C  -0.9558891238  2.5863897610 -0.2180764078
C  -1.3200864862  1.9703110545  0.9760714672
C  -1.9677559940  0.7409221773  0.9564802687
C  -3.0489026403 -1.1615351047 -0.2515116545
C  -2.7458314442 -2.1851637766  0.6530610132
C  -3.4775956278 -3.3672684848  0.6591393546
C  -4.5494008008 -3.5324360237 -0.2149649208
C  -4.8708933457 -2.5135072896 -1.1074908530
C  -4.1150424873 -1.3476744520 -1.1354868619
H  -2.1640004890  0.2805218126 -2.3982993068
H  -0.9755231458  2.4396119469 -2.3679034190
H  -0.4308266798  3.5374154712 -0.2083920959
H  -1.0961644432  2.4454112794  1.9282184137
H  -2.2534565265  0.2615163823  1.8902978508
H  -1.9041374559 -2.0709110277  1.3330868717
H  -3.2139954526 -4.1586881919  1.3560840245
H  -5.1237730174 -4.4544919599 -0.2029573581
H  -5.7109812282 -2.6266033087 -1.7885999770
H  -4.3685275291 -0.5514939290 -1.8321273292
22
Scanning combination 16/37: [509.9984]  Energy = -463.1745894722
C  -2.2725339320  0.1090048323 -0.2544988273
C  -2.0039698242  0.7994134845 -1.4410321999
C  -1.3473455624  2.0247947617 -1.4231226193
C  -0.9656564780  2.5973231892 -0.2135074696
C  -1.2362956898  1.9278449520  0.9759108165
C  -1.8763076163  0.6942555304  0.9528428420
C  -3.0314519729 -1.1733194237 -0.2670897763
C  -2.7997492929 -2.1576425403  0.6993853232
C  -3.5488926958 -3.3286642457  0.7221737452
C  -4.5632908824 -3.5294720952 -0.2091246653
C  -4.8132510623 -2.5541338007 -1.1695453140
C  -4.0499063953 -1.3930040441 -1.2007274748
H  -2.2841007950  0.3578589637 -2.3951798229
H  -1.1385803736  2.5365477365 -2.3593846369
H  -0.4554029485  3.5567252468 -0.1963821975
H  -0.9423553121  2.3607745328  1.9285780612
H  -2.0949667964  0.1921442697  1.8923137655
H  -2.0009889382 -2.0207863207  1.4254001878
H  -3.3417828433 -4.0847507927  1.4755018601
H  -5.1527546624 -4.4423347945 -0.1914079569
H  -5.6004356656 -2.6972770619 -1.9052428377
H  -4.2691804221 -0.6336019916 -1.9475608320
22
Scanning combination 17/37: [519.9984]  Energy = -463.1731518454
C  -2.2628555670  0.1049752557 -0.2581605884
C  -2.0816295243  0.8507498268 -1.4291680132
C  -1.4365851681  2.0815965454 -1.4068760590
C  -0.9686924678  2.6078084647 -0.2070845390
C  -1.1415889217  1.8804701646  0.9660539617
C  -1.7779264410  0.6454066241  0.9390488473
C  -3.0233798964 -1.1797179752 -0.2712366870
C  -2.8690212195 -2.1226543289  0.7521540194
C  -3.6283165799 -3.2863756285  0.7801190449
C  -4.5758811326 -3.5307759983 -0.2086752115
C  -4.7430393999 -2.6036492933 -1.2322311928
C  -3.9752178843 -1.4458366462 -1.2630617806
H  -2.4160799394  0.4520785939 -2.3832895628
H  -1.3084085252  2.6341881131 -2.3340768977
H  -0.4738813525  3.5748880345 -0.1872151594
H  -0.7829261193  2.2767983787  1.9125281867
H  -1.9194596075  0.1127801119  1.8758306127
H  -2.1193121061 -1.9679510016  1.5236120782
H  -3.4817371127 -4.0003898970  1.5864601509
H  -5.1774062778 -4.4351587348 -0.1816035911
H  -5.4793275282 -2.7781200872 -2.0125957957
H  -4.1465274006 -0.7294101145 -2.0622318626
22
Scanning combination 18/37: [529.9984]  Energy = -463.1714380330
C  -2.2518715990  0.1006862093 -0.2661488961
C  -2.1582599406  0.8994125121 -1.4142390970
C  -1.5231573878  2.1351493570 -1.3847722560
C  -0.9762219082  2.6178895592 -0.2004116327
C  -1.0655295264  1.8430179978  0.9507124158
C  -1.6851500895  0.6003028671  0.9136213307
C  -3.0122452027 -1.1884266254 -0.2729809575
C  -2.9376916912 -2.0859466699  0.8011421840
C  -3.7078100928 -3.2423670961  0.8310608875
C  -4.5896506966 -3.5283404271 -0.2059774822
C  -4.6828640499 -2.6462420773 -1.2768172703
C  -3.8984152057 -1.5003578941 -1.3122253477
H  -2.5513543212  0.5466195712 -2.3637501496
H  -1.4598810576  2.7232694421 -2.2970389393
H  -0.4807099784  3.5844634440 -0.1764044354
H  -0.6432278364  2.2007372997  1.8870358060
H  -1.7419546889  0.0286671127  1.8352593854
H  -2.2432408422 -1.9102079583  1.6180892468
H  -3.6163575112 -3.9213879118  1.6752676975
H  -5.1929493136 -4.4315905749 -0.1825727069
H  -5.3647813369 -2.8514296789 -2.0989386849
H  -4.0058758933 -0.8322180194 -2.1616111230
22
Scanning combination 19/37: [539.9984]  Energy = -463.1704320407
C  -2.2667905888  0.1109501115 -0.2586608088
C  -2.2594911105  0.9589098421 -1.3746461569
C  -1.6283868284  2.1963877747 -1.3430125393
C  -0.9755396338  2.6247491957 -0.1929818410
C  -0.9429177897  1.7844034244  0.9139623264
C  -1.5736012974  0.5466093656  0.8800324586
C  -3.0288444068 -1.1801683373 -0.2665975878
C  -3.0361269087 -2.0281584151  0.8493699684
C  -3.8099835554 -3.1817259676  0.8805460710
C  -4.5989584588 -3.5301543590 -0.2096246468
C  -4.5803259726 -2.7198751751 -1.3390920633
C  -3.8048081290 -1.5672227470 -1.3688996186
H  -2.7447772909  0.6605009854 -2.2979890499
H  -1.6523326824  2.8288160924 -2.2267545665
H  -0.4932045267  3.5975154112 -0.1621890611
H  -0.4276745905  2.0941742608  1.8195771290
H  -1.5227371993 -0.0712794512  1.7709783809
H  -2.4257811750 -1.8032000372  1.7177147330
H  -3.7948332092 -3.8090155798  1.7681505299
H  -5.2147773261 -4.4244724403 -0.1816889305
H  -5.1802261530 -2.9799385487 -2.2074839278
H  -3.8270813087 -0.9661049770 -2.2724107582
22
Scanning combination 20/37: [549.9984]  Energy = -463.1710791758
C  -2.3048242681  0.1328239589 -0.2443328406
C  -2.3830979858  1.0262156951 -1.3211885504
C  -1.7318974890  2.2533774780 -1.2925117144
C  -0.9577026951  2.6139258785 -0.1954972730
C  -0.8193549317  1.7152751173  0.8565764856
C  -1.4760837313  0.4906973242  0.8278123199
C  -3.0650670749 -1.1583577714 -0.2482579288
C  -3.1551765079 -1.9530041507  0.9026336974
C  -3.9134112048 -3.1170162794  0.9211408294
C  -4.5839936170 -3.5387350526 -0.2215750223
C  -4.4575510060 -2.7953226905 -1.3900660812
C  -3.7029271797 -1.6286076857 -1.4043564965
H  -2.9908844223  0.7933280725 -2.1900526579
H  -1.8377602132  2.9319548192 -2.1349586310
H  -0.4710097476  3.5843349525 -0.1598836453
H  -0.2028495197  1.9690360823  1.7152311249
H  -1.3217796060 -0.1902017091  1.6598389713
H  -2.6627865610 -1.6521972689  1.8222714434
H  -3.9817703553 -3.6933765855  1.8401208706
H  -5.1993985624 -4.4333076093 -0.2005244621
H  -4.9575156245 -3.1177550530 -2.3000030365
H  -3.6123577706 -1.0913870809 -2.3441174114
22
Scanning combination 21/37: [559.9984]  Energy = -463.1729413218
C  -2.3400231043  0.1505235245 -0.2289423569
C  -2.5004817660  1.0874952689 -1.2576468342
C  -1.8232341872  2.3005873116 -1.2373248508
C  -0.9368024820  2.5932872578 -0.2059064415
C  -0.7192954429  1.6467334831  0.7902652652
C  -1.4054976823  0.4385487511  0.7729740532
C  -3.0981315959 -1.1361170466 -0.2337047323
C  -3.2734640892 -1.8755001937  0.9428067258
C  -4.0085610114 -3.0550202245  0.9478215936
C  -4.5557406159 -3.5465807210 -0.2326631383
C  -4.3375859653 -2.8564409186 -1.4205420372
C  -3.6106252698 -1.6718304063 -1.4211279335
H  -3.2073795161  0.8997274662 -2.0615151713
H  -1.9952470161  3.0218765055 -2.0325147472
H  -0.4191715215  3.5482098413 -0.1803597037
H  -0.0154735778  1.8501331354  1.5937178005
H  -1.1912681535 -0.2960823704  1.5450806985
H  -2.8824342520 -1.5023498165  1.8855501427
H  -4.1561571365 -3.5882803870  1.8837007402
H  -5.1445642405 -4.4599773773 -0.2269436910
H  -4.7411125043 -3.2360639311 -2.3560720086
H  -3.4269489183 -1.1711787072 -2.3683534078
22
Scanning combination 22/37: [569.9984]  Energy = -463.1736410505
C  -2.2884692449  0.1199434532 -0.2554591692
C  -2.5284420199  1.0961205146 -1.2295833151
C  -1.8470641899  2.3075637056 -1.2181781778
C  -0.9305105145  2.5882847929 -0.2088138892
C  -0.6984397711  1.6383699930  0.7807612580
C  -1.3614022609  0.4170764119  0.7516931748
C  -3.0440881577 -1.1675440077 -0.2536587401
C  -3.3045375675 -1.8495027668  0.9407251195
C  -4.0319330213 -3.0342098181  0.9494001194
C  -4.5484012683 -3.5496646144 -0.2356723280
C  -4.3194636655 -2.8709314183 -1.4282596753
C  -3.5688253588 -1.7008379626 -1.4376391164
H  -3.2787349518  0.9260452928 -1.9980107212
H  -2.0484899179  3.0415216936 -1.9946248344
H  -0.4051365175  3.5395181633 -0.1938681436
H  -0.0084180730  1.8532764228  1.5931088794
H  -1.1498119152 -0.3139121732  1.5279902040
H  -2.9601511792 -1.4410880755  1.8876566992
H  -4.2087691490 -3.5457644116  1.8923978631
H  -5.1259726431 -4.4704423854 -0.2277899627
H  -4.7410626352 -3.2433702402 -2.3585880161
H  -3.3910760287 -1.1987521188 -2.3852872708
22
Scanning combination 23/37: [579.9984]  Energy = -463.1751407779
C  -2.3027110260  0.1249686329 -0.2436090420
C  -2.6228803727  1.1351232924 -1.1548333692
C  -1.9602167441  2.3565153049 -1.1274824085
C  -0.9540157159  2.5854460973 -0.1930896848
C  -0.6089330439  1.5782248845  0.7041295387
C  -1.2701794629  0.3553351402  0.6721899473
C  -3.0588059522 -1.1554843353 -0.2526812657
C  -3.4051948397 -1.7739656472  0.9518740076
C  -4.1549695751 -2.9443283098  0.9626310015
C  -4.5623521630 -3.5249122521 -0.2349399539
C  -4.2028859523 -2.9318042864 -1.4423184125
C  -3.4489855885 -1.7631208291 -1.4510035528
H  -3.4214456551  0.9665833040 -1.8743197128
H  -2.2259430442  3.1268003961 -1.8463763460
H  -0.4377050120  3.5416191850 -0.1681481261
H   0.1677705453  1.7527501808  1.4443810531
H  -0.9735628138 -0.4338293556  1.3607272180
H  -3.1045664388 -1.3129255776  1.8902865168
H  -4.4118942698 -3.4074568817  1.9115480704
H  -5.1520257407 -4.4381488180 -0.2277414527
H  -4.5265107516 -3.3724062308 -2.3818058878
H  -3.1511864561 -1.3232834885 -2.4011181748
22
Scanning combination 24/37: [589.9984]  Energy = -463.1751887745
C  -2.2831547631  0.1140557615 -0.2537793898
C  -2.6744539731  1.1581504876 -1.0952589337
C  -2.0183209032  2.3830124773 -1.0662292951
C  -0.9519091239  2.5817191148 -0.1931779535
C  -0.5495516679  1.5479459204  0.6480005662
C  -1.2102633980  0.3237769107  0.6195913027
C  -3.0388715420 -1.1678512326 -0.2599888603
C  -3.4722885078 -1.7271567207  0.9445337745
C  -4.2277122430 -2.8940620115  0.9588811973
C  -4.5589321539 -3.5243437319 -0.2372974746
C  -4.1298251248 -2.9794347973 -1.4444612480
C  -3.3767900560 -1.8090904160 -1.4564956331
H  -3.5196814629  1.0052623783 -1.7636059183
H  -2.3412494842  3.1828259798 -1.7269778087
H  -0.4354467650  3.5378596508 -0.1706581560
H   0.2660783082  1.7054936581  1.3496174280
H  -0.8863190369 -0.4796884441  1.2778442011
H  -3.2268093467 -1.2220824660  1.8765699953
H  -4.5573875188 -3.3102240174  1.9069466591
H  -5.1470601304 -4.4386352688 -0.2283883619
H  -4.4067474071 -3.4532654558 -2.3829394582
H  -3.0425037690 -1.3925673876 -2.4044266739
22
Scanning combination 25/37: [599.9984]  Energy = -463.1745072699
C  -2.2739195530  0.1089166354 -0.2638357630
C  -2.7310881490  1.1834844225 -1.0314522512
C  -2.0796092817  2.4112940231 -0.9950915980
C  -0.9590786464  2.5818540400 -0.1866090451
C  -0.4967862471  1.5189863895  0.5849329566
C  -1.1486164346  0.2905083766  0.5457817388
C  -3.0264893504 -1.1754142898 -0.2594359646
C  -3.5450895620 -1.6764529678  0.9376689992
C  -4.3083797246 -2.8389553355  0.9502019960
C  -4.5648263626 -3.5168002983 -0.2380968356
C  -4.0558868319 -3.0248989815 -1.4371200748
C  -3.2906565251 -1.8626450236 -1.4476951796
H  -3.6157011622  1.0504484667 -1.6510756538
H  -2.4463682085  3.2349118032 -1.6016556590
H  -0.4489152459  3.5414711396 -0.1549835732
H   0.3662980887  1.6511884214  1.2321399795
H  -0.7851453707 -0.5390603992  1.1489562401
H  -3.3545161564 -1.1358483633  1.8624518828
H  -4.7003378313 -3.2165841575  1.8907273174
H  -5.1628562746 -4.4250457215 -0.2312212926
H  -4.2680544314 -3.5392968500 -2.3705461489
H  -2.8931768047 -1.4803609297 -2.3857421294
22
Scanning combination 26/37: [609.9984]  Energy = -463.1734269730
C  -2.2710457232  0.1087017255 -0.2726598681
C  -2.7829578851  1.2127889840 -0.9597519243
C  -2.1349891854  2.4421784395 -0.9133087947
C  -0.9607286884  2.5840807975 -0.1790459403
C  -0.4398781280  1.4906462204  0.5077403790
C  -1.0985015032  0.2655056336  0.4709645081
C  -3.0203475512 -1.1803348249 -0.2545273148
C  -3.6241975814 -1.6291630281  0.9234722306
C  -4.3951021204 -2.7859523037  0.9311332578
C  -4.5714710018 -3.5144688671 -0.2420968148
C  -3.9728640903 -3.0783902167 -1.4214436804
C  -3.2139009808 -1.9125576531 -1.4287741494
H  -3.6998655971  1.1007251909 -1.5338516070
H  -2.5495492572  3.2897129309 -1.4524122743
H  -0.4533239098  3.5447036809 -0.1438214154
H   0.4776451893  1.5942676011  1.0812261529
H  -0.7024296057 -0.5886582986  1.0154090358
H  -3.4851121297 -1.0599187764  1.8397622891
H  -4.8584759053 -3.1179018629  1.8564582417
H  -5.1730060220 -4.4195853638 -0.2359734437
H  -4.1049729869 -3.6436570392 -2.3404290317
H  -2.7541254228 -1.5610225624 -2.3497698867
22
Scanning combination 27/37: [619.9984]  Energy = -463.1717560015
C  -2.2544493828  0.0997072065 -0.2777808058
C  -2.8254958161  1.2247997515 -0.8774818224
C  -2.1778470368  2.4546387725 -0.8412873720
C  -0.9640412679  2.5838201350 -0.1718157155
C  -0.4020330362  1.4760835295  0.4579988369
C  -1.0448707811  0.2425633119  0.4093076901
C  -3.0056861736 -1.1899193785 -0.2631266869
C  -3.6929590393 -1.5753250268  0.8901667698
C  -4.4588993290 -2.7362464583  0.9059534795
C  -4.5762891591 -3.5090452174 -0.2458244120
C  -3.9221756334 -3.1163428969 -1.4106228806
C  -3.1448256472 -1.9612385040 -1.4210079403
H  -3.7775649903  1.1185683632 -1.3927298546
H  -2.6195575151  3.3108070129 -1.3444314018
H  -0.4530886481  3.5436492697 -0.1498094037
H   0.5357452741  1.5793019970  0.9989434237
H  -0.6092986837 -0.6224221788  0.9062388569
H  -3.6027726524 -0.9630346816  1.7845278488
H  -4.9572997141 -3.0397538979  1.8226858855
H  -5.1687615762 -4.4212669803 -0.2319799753
H  -4.0290546880 -3.7073709268 -2.3170572694
H  -2.6379745786 -1.6502727837 -2.3325673106
22
Scanning combination 28/37: [629.9984]  Energy = -463.1705813951
C  -2.2509305585  0.0976615035 -0.2713407335
C  -2.8736388040  1.2412762990 -0.7738612081
C  -2.2348009351  2.4761046801 -0.7322228306
C  -0.9691396235  2.5832045844 -0.1642676061
C  -0.3470058175  1.4523247747  0.3566632810
C  -0.9823291599  0.2141418311  0.3023668441
C  -3.0067235612 -1.1891877458 -0.2706696209
C  -3.7793140286 -1.5130559103  0.8457237156
C  -4.5546009829 -2.6677041041  0.8640992507
C  -4.5817005410 -3.5024882965 -0.2487287085
C  -3.8295364507 -3.1790199045 -1.3742862490
C  -3.0434134446 -2.0294454684 -1.3863441447
H  -3.8691635036  1.1458233582 -1.1996855809
H  -2.7281451528  3.3547843713 -1.1389315999
H  -0.4683733035  3.5475717622 -0.1276972843
H   0.6316758342  1.5383595358  0.8214686968
H  -0.4898925154 -0.6672195178  0.7058869735
H  -3.7613678414 -0.8432638152  1.7016452240
H  -5.1409354213 -2.9120861457  1.7457812961
H  -5.1888157298 -4.4043847666 -0.2384039608
H  -3.8675442554 -3.8177394975 -2.2528564268
H  -2.4535042961 -1.7839571339 -2.2660393466
22
Scanning combination 29/37: [639.9984]  Energy = -463.1719768963
C  -2.3461021245  0.1542453974 -0.2194664836
C  -2.9597213446  1.3482356757 -0.6081287029
C  -2.2535990433  2.5475815491 -0.5894861248
C  -0.9181763016  2.5655955347 -0.1972846605
C  -0.2874762353  1.3754304994  0.1523964498
C  -0.9925019538  0.1757345131  0.1232972567
C  -3.1080200591 -1.1303366948 -0.2360368548
C  -3.9816060920 -1.4506182214  0.8068808462
C  -4.6963125596 -2.6448943525  0.7920000379
C  -4.5341272262 -3.5427675778 -0.2590003668
C  -3.6360840188 -3.2507314357 -1.2813112827
C  -2.9147593038 -2.0606468779 -1.2594000840
H  -4.0046803640  1.3328046757 -0.9080902206
H  -2.7507622207  3.4711794012 -0.8727074724
H  -0.3713466492  3.5049047421 -0.1618779414
H   0.7583943231  1.3784140279  0.4484506825
H  -0.4964102728 -0.7590268132  0.3707323330
H  -4.1115713052 -0.7449072185  1.6236703975
H  -5.3887461760 -2.8696229549  1.5986476720
H  -5.1077325119 -4.4663599659 -0.2827263812
H  -3.4941333935 -3.9515540160 -2.0999081467
H  -2.1937253172 -1.8409594638 -2.0423510231
22
Scanning combination 30/37: [649.9984]  Energy = -463.1729121155
C  -2.3192564327  0.1368133405 -0.2352690882
C  -2.9713815675  1.3375431250 -0.5276784993
C  -2.2728443787  2.5392484157 -0.5390470873
C  -0.9191100273  2.5620341285 -0.2106353639
C  -0.2693921550  1.3758847019  0.1206996899
C  -0.9587912681  0.1677561135  0.0837438230
C  -3.0775721639 -1.1465974069 -0.2456455256
C  -4.0229983226 -1.4087461713  0.7498577241
C  -4.7245731049 -2.6086912719  0.7623288692
C  -4.5241240025 -3.5445417900 -0.2495527359
C  -3.6128425939 -3.2754481611 -1.2679281212
C  -2.8759923527 -2.0952172620 -1.2516113085
H  -4.0362818231  1.3189795877 -0.7504750707
H  -2.7888816090  3.4623830583 -0.7886446333
H  -0.3791636759  3.5054067997 -0.1943047438
H   0.7774877229  1.3921216488  0.4135569650
H  -0.4506639606 -0.7634347764  0.3242312414
H  -4.2004754445 -0.6602784084  1.5191565416
H  -5.4416136647 -2.8073613047  1.5545338983
H  -5.0918003539 -4.4716106236 -0.2537659292
H  -3.4790075349 -3.9854231923 -2.0800945087
H  -2.1499214434 -1.8891201468 -2.0351562050
22
Scanning combination 31/37: [659.9984]  Energy = -463.1746310762
C  -2.3209980136  0.1376160202 -0.2247593710
C  -2.9925498256  1.3505069874 -0.4067756690
C  -2.3024481680  2.5570484423 -0.3924384938
C  -0.9249876187  2.5689544673 -0.1884472640
C  -0.2436056444  1.3670809811 -0.0153040905
C  -0.9332550906  0.1586365075 -0.0523912342
C  -3.0846671889 -1.1421988371 -0.2519272866
C  -4.1083769635 -1.3592265204  0.6758633159
C  -4.8310159768 -2.5465616146  0.6755507291
C  -4.5440778409 -3.5363217508 -0.2608214940
C  -3.5204820867 -3.3359945739 -1.1836163932
C  -2.7835084300 -2.1554620981 -1.1673566205
H  -4.0709408311  1.3389559237 -0.5540236315
H  -2.8419403706  3.4891914108 -0.5378912253
H  -0.3847774941  3.5122309345 -0.1674677546
H   0.8321300116  1.3720928488  0.1414556891
H  -0.3955674596 -0.7802947540  0.0648139827
H  -4.3383181623 -0.5788830732  1.3988519059
H  -5.6215672128 -2.6972845949  1.4060457972
H  -5.1144446117 -4.4618209277 -0.2686746532
H  -3.2916942874 -4.1075130639 -1.9144129692
H  -1.9721068622 -2.0090523241 -1.8779733204
22
Scanning combination 32/37: [669.9984]  Energy = -463.1753678045
C  -2.3223522171  0.1364983484 -0.2276909355
C  -3.0036379028  1.3544074019 -0.3069671551
C  -2.3109056186  2.5594386684 -0.3044949124
C  -0.9229924513  2.5641227536 -0.1940177297
C  -0.2350051492  1.3572709626 -0.0990889700
C  -0.9278433904  0.1518022236 -0.1374474424
C  -3.0826628321 -1.1414703859 -0.2492721550
C  -4.1717738378 -1.3192712809  0.6086181069
C  -4.8857464434 -2.5117730330  0.6154238686
C  -4.5364454684 -3.5371283620 -0.2593350002
C  -3.4626921469 -3.3652736019 -1.1290623291
C  -2.7278957685 -2.1845116867 -1.1090726453
H  -4.0895474759  1.3480530981 -0.3788916677
H  -2.8577333451  3.4953951787 -0.3851700707
H  -0.3793948326  3.5052594770 -0.1862720920
H   0.8473754256  1.3552707878 -0.0032146085
H  -0.3846852559 -0.7895256918 -0.0827320248
H  -4.4513601794 -0.5106634235  1.2812283118
H  -5.7182981395 -2.6373783469  1.3029055368
H  -5.0966371700 -4.4684784460 -0.2598919433
H  -3.1915523501 -4.1584662750 -1.8205028605
H  -1.8774135624 -2.0618779811 -1.7767513447
22
Scanning combination 33/37: [679.9984]  Energy = -463.1755205936
C  -2.3287247948  0.1410210278 -0.2396202572
C  -3.0064836197  1.3647302225 -0.2255067652
C  -2.3092170019  2.5672720500 -0.2135186932
C  -0.9172867803  2.5675785562 -0.1928796462
C  -0.2308575966  1.3567576384 -0.1994293899
C  -0.9305336894  0.1559421266 -0.2356653978
C  -3.0812476131 -1.1430667388 -0.2353136502
C  -4.2270119229 -1.2954215431  0.5527393544
C  -4.9432358424 -2.4868126612  0.5489645818
C  -4.5379442338 -3.5430433592 -0.2622346671
C  -3.4036919364 -3.4019028675 -1.0565162302
C  -2.6757058999 -2.2177326047 -1.0327028005
H  -4.0945283030  1.3734327432 -0.2457811036
H  -2.8565461897  3.5066799029 -0.2099977009
H  -0.3708139248  3.5065699530 -0.1736624944
H   0.8556434017  1.3469168063 -0.1825510501
H  -0.3830798005 -0.7839495754 -0.2411518462
H  -4.5481770875 -0.4761393124  1.1930277228
H  -5.8267832998 -2.5855298693  1.1748037583
H  -5.1022100389 -4.4715762628 -0.2736688839
H  -3.0800875035 -4.2205568246 -1.6936704903
H  -1.7906764584 -2.1194690094 -1.6573644046
22
Scanning combination 34/37: [689.9984]  Energy = -463.1734418741
C  -2.3314428992  0.1412601690 -0.2826181853
C  -3.0059429755  1.3634934144 -0.2021799084
C  -2.3090801809  2.5663566168 -0.1985676093
C  -0.9174004094  2.5686753427 -0.1937097875
C  -0.2310066087  1.3576636627 -0.2101713108
C  -0.9319788185  0.1588398914 -0.2666589617
C  -3.0576607906 -1.1555715167 -0.2014888648
C  -4.2392522658 -1.2872992524  0.5345515333
C  -4.9510314886 -2.4814052132  0.5374137665
C  -4.5383472752 -3.5438222558 -0.2611766258
C  -3.3983063026 -3.4058936124 -1.0480894287
C  -2.6606407073 -2.2286210258 -1.0077106300
H  -4.0937124967  1.3751791519 -0.2290913973
H  -2.8565321971  3.5055374394 -0.2021086061
H  -0.3707866962  3.5074898026 -0.1749690689
H   0.8553128687  1.3449157638 -0.1831723514
H  -0.3887484017 -0.7834228606 -0.2409074327
H  -4.5588644666 -0.4721175856  1.1806321944
H  -5.8304033671 -2.5822855754  1.1685251937
H  -5.1021553960 -4.4725390864 -0.2724030795
H  -3.0783055579 -4.2193913881 -1.6936869405
H  -1.7929137021 -2.1153414830 -1.6541125497
22
Scanning combination 35/37: [699.9984]  Energy = -463.1729030407
C  -2.3362146334  0.1464752600 -0.2555175666
C  -2.9919210933  1.3667066694 -0.0503083886
C  -2.2934792081  2.5672787450 -0.0516115094
C  -0.9098801124  2.5714448814 -0.1894212860
C  -0.2373578149  1.3648099168 -0.3506937663
C  -0.9446241622  0.1707608151 -0.4040381812
C  -3.0785957940 -1.1456405658 -0.2172830159
C  -4.3244019389 -1.2487784673  0.4138904634
C  -5.0310602370 -2.4444143749  0.4188619128
C  -4.5406306911 -3.5497322732 -0.2676930902
C  -3.3253041521 -3.4521274881 -0.9368926184
C  -2.5949973059 -2.2717462535 -0.8936237978
H  -4.0727018730  1.3928350213  0.0584700674
H  -2.8333412345  3.5050361477  0.0551279814
H  -0.3603062363  3.5076003401 -0.1904334851
H   0.8444247510  1.3501318053 -0.4499582626
H  -0.3930237549 -0.7549134547 -0.5455400354
H  -4.7306134294 -0.4012027321  0.9591844135
H  -5.9701001335 -2.5133626250  0.9626918918
H  -5.0902595792 -4.4857985139 -0.2667843611
H  -2.9330439661 -4.3035540280 -1.4861034394
H  -1.6417675655 -2.2301084086 -1.4140239806
22
Scanning combination 36/37: [709.9984]  Energy = -463.1715419761
C  -2.3450472225  0.1547070001 -0.2548965985
C  -2.9733939900  1.3702444027  0.0475849608
C  -2.2628679069  2.5646603007  0.0702013100
C  -0.8988894499  2.5772016837 -0.2018946987
C  -0.2553793954  1.3797239872 -0.4927425427
C  -0.9653229773  0.1856687231 -0.5013245432
C  -3.0877122422 -1.1433896036 -0.2099073554
C  -4.3774948952 -1.2319146599  0.3314027410
C  -5.0894891297 -2.4255777603  0.3092048462
C  -4.5347297325 -3.5653284549 -0.2626851092
C  -3.2608347185 -3.4944297961 -0.8153063265
C  -2.5570020849 -2.2967152680 -0.8038640475
H  -4.0445256215  1.4075785114  0.2263731068
H  -2.7806905282  3.4902892497  0.3104421627
H  -0.3434984442  3.5104480457 -0.1900495182
H   0.8102451842  1.3684340713 -0.7089295118
H  -0.4149469464 -0.7353078621 -0.6696876822
H  -4.8292369634 -0.3745459702  0.8225192929
H  -6.0891083947 -2.4595768509  0.7363307026
H  -5.0876508458 -4.5000670483 -0.2758288671
H  -2.8092740324 -4.3744660504 -1.2666491460
H  -1.5923498677 -2.2659362196 -1.3019932232
22
Scanning combination 37/37: [719.9984]  Energy = -463.1707828513
C  -2.3366616421  0.1521892506 -0.2247284627
C  -2.9269019604  1.3487813768  0.2055782456
C  -2.2200470514  2.5451103909  0.2150449750
C  -0.8950103650  2.5855995599 -0.2038673511
C  -0.2923835093  1.4102106387 -0.6376449628
C  -1.0029561287  0.2160874182 -0.6526643450
C  -3.1007546783 -1.1381557120 -0.2381184621
C  -4.4374483341 -1.2025364718  0.1790603521
C  -5.1446215498 -2.3987497887  0.1696831260
C  -4.5387091750 -3.5735945770 -0.2606595901
C  -3.2124733179 -3.5317449249 -0.6752616838
C  -2.5047768759 -2.3355932466 -0.6588756797
H  -3.9522023895  1.3659888550  0.5613664571
H  -2.7143162923  3.4517430616  0.5552911318
H  -0.3397760308  3.5198178670 -0.1904309241
H   0.7439001315  1.4169111127 -0.9668093957
H  -0.4919993799 -0.6721118943 -1.0106702855
H  -4.9614901235 -0.3094716340  0.5047512910
H  -6.1797773665 -2.4067644179  0.5020808730
H  -5.0934215104 -4.5082517758 -0.2743738023
H  -2.7186268959 -4.4372557390 -1.0190888608
H  -1.4687457454 -2.3565089213 -0.9813626760
