27
Scanning combination 1/37: [177.8609]  Energy = -652.9203163240
C  -3.4012377991 -1.5688673737  0.0546637947
C  -2.1133057436 -1.5196533040  0.5163022814
C  -1.3573847448 -0.3217410792  0.4278291909
C  -1.9492913834  0.8277933779 -0.1503279636
C  -3.2934568242  0.7540839856 -0.6111251766
C  -4.0002441969 -0.4156675972 -0.5128589314
H   0.4007532674 -1.1406668863  1.3675210700
H  -3.9716626033 -2.4919184684  0.1168423152
H  -1.6431544661 -2.3997694978  0.9505091969
C  -0.0162196658 -0.2547557967  0.8919476142
C  -1.1683109319  2.0117091945 -0.2477616112
H  -3.7501361366  1.6397611512 -1.0484316485
H  -5.0252182191 -0.4707506680 -0.8708029801
C   0.1294175339  2.0359108773  0.1884113598
C   0.7444792986  0.8809382097  0.7455961352
H  -1.6172046313  2.9030272971 -0.6807538151
H   0.6986529498  2.9617916382  0.1174628405
C   2.2073221042  0.9054986354  1.1401524889
C   3.1893453350  0.5766755779 -0.0103830443
H   2.3807961747  0.1931667701  1.9562347830
H   2.4675175634  1.8967238071  1.5281460175
H   4.2176259320  0.6337035948  0.3627434161
H   3.0695340185  1.2884655861 -0.8317059263
C   2.9690575435 -0.8013093846 -0.5828891658
O   2.2994821605 -1.0671256048 -1.5518037858
O   3.6030990032 -1.7563340355  0.1331182092
H   3.3702431959 -2.5971900869 -0.2945367075
27
Scanning combination 2/37: [187.8609]  Energy = -652.9197213356
C  -3.4012430490 -1.5689419074  0.0547390430
C  -2.1132516632 -1.5198754633  0.5165677146
C  -1.3569067305 -0.3219622986  0.4270931406
C  -1.9490553123  0.8281018750 -0.1498851218
C  -3.2930530771  0.7540463693 -0.6112830268
C  -4.0001604611 -0.4155246517 -0.5128029559
H   0.4018391133 -1.1407292434  1.3660187498
H  -3.9721869602 -2.4917932986  0.1172785754
H  -1.6436149266 -2.4004046338  0.9511139781
C  -0.0155270330 -0.2549066459  0.8909965472
C  -1.1679967842  2.0120016736 -0.2476831411
H  -3.7495120247  1.6399551609 -1.0482650069
H  -5.0251681767 -0.4704283915 -0.8708795618
C   0.1301447850  2.0354934651  0.1879389899
C   0.7451368110  0.8811709513  0.7466515226
H  -1.6178168902  2.9030609095 -0.6806322007
H   0.6990803113  2.9613715479  0.1166413590
C   2.2090410631  0.9053040350  1.1390899507
C   3.1891501646  0.5783018704 -0.0107072870
H   2.3806997390  0.1935169179  1.9556714090
H   2.4666796776  1.8960119831  1.5285181016
H   4.2191450703  0.6353851535  0.3619328468
H   3.0692163470  1.2909619914 -0.8325759560
C   2.9596727940 -0.8017959575 -0.5762630834
O   2.3017315565 -1.0672818890 -1.5532877456
O   3.5957304612 -1.7555374904  0.1396007704
H   3.4933631727 -2.5767394737 -0.3700062797
27
Scanning combination 3/37: [197.8609]  Energy = -652.9181678448
C  -3.4017655082 -1.5660089201  0.0591312247
C  -2.1125391532 -1.5227169006  0.5178942245
C  -1.3502831171 -0.3279978812  0.4225916541
C  -1.9419768165  0.8249834716 -0.1500417625
C  -3.2853951899  0.7549383776 -0.6103519166
C  -3.9962843551 -0.4118858688 -0.5114880687
H   0.4248486945 -1.1506897840  1.3332701486
H  -3.9790877703 -2.4844677944  0.1282465305
H  -1.6514584401 -2.4044790953  0.9597916369
C  -0.0077214396 -0.2600412166  0.8815647810
C  -1.1640715884  2.0109675187 -0.2484320208
H  -3.7370908122  1.6438141827 -1.0458378704
H  -5.0208247102 -0.4628368144 -0.8705403575
C   0.1339005611  2.0362701119  0.1860919061
C   0.7433978065  0.8832678063  0.7536096488
H  -1.6204387760  2.9014229417 -0.6766540466
H   0.7109793562  2.9559837508  0.0985647295
C   2.2031670239  0.9073228672  1.1536852100
C   3.1706712892  0.5761578461 -0.0078261709
H   2.3765336290  0.1969609425  1.9709560414
H   2.4586371183  1.8990221936  1.5440948215
H   4.2046043197  0.6407173987  0.3468293880
H   3.0310794886  1.2852585352 -0.8272018092
C   2.9480151983 -0.8050967848 -0.5814164883
O   2.3291336903 -1.0608870515 -1.5862192282
O   3.5717406298 -1.7622302561  0.1448657080
H   3.6274928710 -2.5484872980 -0.4221018057
27
Scanning combination 4/37: [207.8609]  Energy = -652.9153317664
C  -3.4018905841 -1.5659406543  0.0592597825
C  -2.1125310471 -1.5226271287  0.5179969855
C  -1.3503249232 -0.3279127328  0.4226821444
C  -1.9419317563  0.8250232169 -0.1499689192
C  -3.2853811759  0.7549941726 -0.6104275940
C  -3.9963241445 -0.4118107758 -0.5114484436
H   0.4247517117 -1.1510702034  1.3329718971
H  -3.9791949595 -2.4844049797  0.1284312015
H  -1.6513780870 -2.4043655808  0.9597075860
C  -0.0077384424 -0.2603754164  0.8813683123
C  -1.1639128775  2.0108826981 -0.2481434144
H  -3.7370743533  1.6438624642 -1.0459411097
H  -5.0209870399 -0.4627387997 -0.8704515509
C   0.1341600358  2.0359176695  0.1860623686
C   0.7438314317  0.8827632279  0.7528770784
H  -1.6200363138  2.9011596301 -0.6767821768
H   0.7108494284  2.9558647222  0.0988814488
C   2.2040984605  0.9071471994  1.1527048855
C   3.1712395378  0.5771959516 -0.0092705968
H   2.3767170058  0.1965378077  1.9705011734
H   2.4591002134  1.8985619442  1.5435048637
H   4.2056593354  0.6411311530  0.3459593652
H   3.0315853267  1.2867094645 -0.8282662471
C   2.9403874038 -0.8046122706 -0.5771052483
O   2.3311664269 -1.0591284566 -1.5858540665
O   3.5636062578 -1.7669856151  0.1494923401
H   3.7559451566 -2.4949347724 -0.4632768186
27
Scanning combination 5/37: [217.8609]  Energy = -652.9116977904
C  -3.4024604714 -1.5654171634  0.0600698226
C  -2.1130032980 -1.5222815522  0.5184836876
C  -1.3504933600 -0.3279170239  0.4230363316
C  -1.9418970615  0.8250554573 -0.1495646830
C  -3.2852955883  0.7552731719 -0.6105487603
C  -3.9966664241 -0.4113002322 -0.5111184700
H   0.4242517721 -1.1533810136  1.3309960686
H  -3.9798235157 -2.4838398358  0.1295991063
H  -1.6510851281 -2.4039604490  0.9593753611
C  -0.0074359908 -0.2617924045  0.8802708729
C  -1.1630208647  2.0101832263 -0.2475412649
H  -3.7368019162  1.6440725175 -1.0465324832
H  -5.0215261109 -0.4620658754 -0.8698002629
C   0.1352328196  2.0343160931  0.1856716137
C   0.7445369796  0.8810867800  0.7515426664
H  -1.6178385831  2.9002586479 -0.6773661038
H   0.7108629427  2.9550073140  0.1006736223
C   2.2033960994  0.9080829785  1.1533875973
C   3.1653054514  0.5801044346 -0.0088801706
H   2.3786972342  0.1939169673  1.9669450804
H   2.4609381984  1.8987009675  1.5426958072
H   4.2017088425  0.6406568698  0.3385710981
H   3.0317718525  1.2888536200 -0.8300466648
C   2.9308494534 -0.8031294586 -0.5701073141
O   2.3373792335 -1.0471901058 -1.5902600057
O   3.5552292392 -1.7738533412  0.1549260936
H   3.8872815753 -2.4328875248 -0.4741825354
27
Scanning combination 6/37: [227.8609]  Energy = -652.9075838629
C  -3.4025091945 -1.5653895439  0.0601190720
C  -2.1130525817 -1.5223039524  0.5185004462
C  -1.3505817402 -0.3279753085  0.4229931919
C  -1.9419159203  0.8250450204 -0.1495659759
C  -3.2852926086  0.7552898999 -0.6105234458
C  -3.9966778415 -0.4112673836 -0.5110790301
H   0.4242957604 -1.1535311108  1.3308325245
H  -3.9798638506 -2.4837927350  0.1296711802
H  -1.6510944173 -2.4039596349  0.9593706012
C  -0.0075115298 -0.2618593359  0.8802807486
C  -1.1630413579  2.0101414313 -0.2476555242
H  -3.7367663818  1.6440755891 -1.0465603522
H  -5.0215362221 -0.4620201487 -0.8697604698
C   0.1351960858  2.0343033279  0.1857213838
C   0.7447611571  0.8810631991  0.7516413245
H  -1.6177658560  2.9002833015 -0.6774108453
H   0.7109230987  2.9549493326  0.1007482017
C   2.2046994294  0.9080765502  1.1523971117
C   3.1666036705  0.5816723837 -0.0105668816
H   2.3788539773  0.1938627470  1.9665864406
H   2.4608337281  1.8988329715  1.5429150326
H   4.2034386041  0.6407052754  0.3386769644
H   3.0315749480  1.2902091790 -0.8316284924
C   2.9258131538 -0.8011807273 -0.5682160967
O   2.3376333623 -1.0461356619 -1.5887805520
O   3.5440625727 -1.7815581061  0.1596432519
H   4.0063709722 -2.3534129712 -0.4711619819
27
Scanning combination 7/37: [237.8609]  Energy = -652.9073911909
C  -3.4501387166 -1.5484474079  0.0914477328
C  -2.1529692459 -1.5370395300  0.5300590981
C  -1.3646423952 -0.3595595235  0.4298371453
C  -1.9441008136  0.8087187289 -0.1244571980
C  -3.2899727210  0.7679174286 -0.5781120496
C  -4.0257604593 -0.3821951541 -0.4735167795
H   0.4277831352 -1.2346389887  1.2674390274
H  -4.0495277366 -2.4515146299  0.1735390419
H  -1.7066948277 -2.4309143917  0.9624488496
C  -0.0084614149 -0.3236495517  0.8612810946
C  -1.1570405868  1.9871625116 -0.2155279861
H  -3.7202266855  1.6676834094 -1.0127832798
H  -5.0548108177 -0.4084882723 -0.8221259869
C   0.1448645847  1.9873331124  0.2019429137
C   0.7433338760  0.8194629386  0.7482861967
H  -1.6063778934  2.8877235171 -0.6268539626
H   0.7452075315  2.8908819868  0.1096744777
C   2.2085369501  0.8682454935  1.1194819607
C   3.1230438229  0.6581263950 -0.0919844628
H   2.4419818394  0.1227445431  1.8849350942
H   2.4301694682  1.8528092409  1.5454438551
H   4.1698453411  0.8204934334  0.1927478256
H   2.8890540996  1.3643842691 -0.8917400122
C   3.0676680751 -0.7327456073 -0.6745504078
O   3.1617569460 -1.0003408285 -1.8417904758
O   3.0762043371 -1.6986357756  0.3065551728
H   3.8342051000 -2.2815015070  0.1565911813
27
Scanning combination 8/37: [247.8609]  Energy = -652.9041459266
C  -3.4504078758 -1.5484923026  0.0926430914
C  -2.1534267667 -1.5362569540  0.5317612633
C  -1.3643756223 -0.3588863400  0.4290489655
C  -1.9452912212  0.8093363839 -0.1240017571
C  -3.2915466710  0.7678325454 -0.5769521720
C  -4.0269794345 -0.3828070004 -0.4729366932
H   0.4268206640 -1.2341805707  1.2650996449
H  -4.0489490497 -2.4524270098  0.1724773298
H  -1.7066730473 -2.4306892888  0.9627700073
C  -0.0074160878 -0.3232407076  0.8575594161
C  -1.1574094272  1.9874442851 -0.2166356160
H  -3.7232559607  1.6670963320 -1.0114451901
H  -5.0561459193 -0.4098501043 -0.8215189736
C   0.1448282015  1.9872918919  0.2007090116
C   0.7447792487  0.8200333811  0.7469747511
H  -1.6065253434  2.8879739121 -0.6294648024
H   0.7429387306  2.8921759029  0.1113438395
C   2.2098081282  0.8684893812  1.1210511531
C   3.1266328726  0.6585615578 -0.0921471222
H   2.4417213298  0.1200024532  1.8856868076
H   2.4322662304  1.8521148925  1.5494373791
H   4.1740286812  0.8170839985  0.1958588574
H   2.8965720390  1.3622571228 -0.8969701075
C   3.0692579317 -0.7311162334 -0.6769790381
O   3.1553391912 -0.9952936121 -1.8442731793
O   3.0613680937 -1.7083762900  0.3019819203
H   3.8975087080 -2.1906418114  0.2481519163
27
Scanning combination 9/37: [257.8609]  Energy = -652.9015990053
C  -3.4503277351 -1.5484329304  0.0925730191
C  -2.1534420942 -1.5363131296  0.5317745718
C  -1.3642678618 -0.3589959351  0.4291773539
C  -1.9451720101  0.8092500600 -0.1238644064
C  -3.2911949614  0.7677920562 -0.5771230391
C  -4.0267749208 -0.3827077385 -0.4732392911
H   0.4273500426 -1.2342887742  1.2655202952
H  -4.0490996815 -2.4522255851  0.1724722839
H  -1.7067343515 -2.4309315370  0.9626329131
C  -0.0073180765 -0.3236616623  0.8577383493
C  -1.1569760666  1.9873821145 -0.2162957234
H  -3.7226135859  1.6671306066 -1.0118026848
H  -5.0559701422 -0.4095671133 -0.8217709861
C   0.1446608166  1.9870217020  0.2007104380
C   0.7452158056  0.8200880912  0.7471038738
H  -1.6065424906  2.8880455318 -0.6290239218
H   0.7433505491  2.8919028464  0.1111435274
C   2.2103029164  0.8691595692  1.1210737694
C   3.1276595485  0.6574997336 -0.0919482815
H   2.4417429531  0.1202239208  1.8864678393
H   2.4321927910  1.8528164761  1.5493167495
H   4.1755346973  0.8177390409  0.1956467573
H   2.8957758269  1.3615387957 -0.8967494473
C   3.0685754152 -0.7316101393 -0.6776309292
O   3.1516079297 -0.9938787541 -1.8446084167
O   3.0655437379 -1.7215863849  0.2952056922
H   3.9557879436 -2.0948295628  0.3385284828
27
Scanning combination 10/37: [267.8609]  Energy = -652.9002536092
C  -3.4499839241 -1.5489009976  0.0938813364
C  -2.1529728705 -1.5351429766  0.5318558109
C  -1.3642245295 -0.3580003677  0.4285222980
C  -1.9468035695  0.8098238167 -0.1245231730
C  -3.2942746123  0.7676394858 -0.5748164118
C  -4.0287091407 -0.3835552551 -0.4703881179
H   0.4382096554 -1.2337988407  1.2509765361
H  -4.0472195162 -2.4539683615  0.1725698419
H  -1.7060314817 -2.4289856766  0.9641919417
C  -0.0045060298 -0.3221781948  0.8528117050
C  -1.1595359084  1.9881661670 -0.2191632791
H  -3.7286310446  1.6664854534 -1.0079083632
H  -5.0576132655 -0.4123563278 -0.8190602456
C   0.1419939013  1.9907356687  0.1999568588
C   0.7444409659  0.8241125787  0.7442302044
H  -1.6078049867  2.8879742531 -0.6341023312
H   0.7392776519  2.8965534043  0.1127226361
C   2.2088427491  0.8732312266  1.1189288789
C   3.1329602880  0.6520635635 -0.0879877745
H   2.4362668397  0.1215932853  1.8821439361
H   2.4355490459  1.8532368225  1.5533367003
H   4.1771310321  0.8209404083  0.2056045405
H   2.9117617308  1.3548643071 -0.8952706301
C   3.0836793007 -0.7339497773 -0.6825309856
O   3.1241411188 -0.9771214304 -1.8551556924
O   3.0658402449 -1.7377288342  0.2784685660
H   3.9715025157 -2.0185228832  0.4623072731
27
Scanning combination 11/37: [277.8609]  Energy = -652.9000831995
C  -3.4455965269 -1.5512088647  0.0994504784
C  -2.1457444484 -1.5342158044  0.5295689706
C  -1.3595483367 -0.3558649558  0.4169129583
C  -1.9495404339  0.8116991896 -0.1281009308
C  -3.3006131767  0.7664822321 -0.5675265177
C  -4.0306855787 -0.3872534104 -0.4610242918
H   0.4599115698 -1.2332775434  1.2007045192
H  -4.0393546234 -2.4580780628  0.1801613308
H  -1.6960456897 -2.4253539385  0.9640848062
C   0.0036515425 -0.3185358056  0.8258727510
C  -1.1651826100  1.9921157974 -0.2247556922
H  -3.7416602428  1.6650828191 -0.9943150154
H  -5.0615066341 -0.4191809190 -0.8047171739
C   0.1377951417  1.9995881626  0.1921181236
C   0.7479908093  0.8310050468  0.7245659786
H  -1.6184045050  2.8893399718 -0.6398772498
H   0.7251475710  2.9125861104  0.1136680735
C   2.2102089241  0.8770493888  1.1139288742
C   3.1556932156  0.6513590477 -0.0769399557
H   2.4200790086  0.1227914714  1.8814682426
H   2.4371635418  1.8537629375  1.5529630527
H   4.1948733008  0.8238954763  0.2413781806
H   2.9490607944  1.3535633372 -0.8916590621
C   3.0879074964 -0.7376484987 -0.6752096820
O   3.0865225427 -0.9675705879 -1.8511668494
O   3.0246111078 -1.7577334942  0.2655189985
H   3.9106365865 -1.9651731049  0.5904790139
27
Scanning combination 12/37: [287.8609]  Energy = -652.9007953707
C  -3.4450125311 -1.5515597465  0.0997619202
C  -2.1446968572 -1.5342807456  0.5282252504
C  -1.3588010023 -0.3557624191  0.4154194547
C  -1.9495687325  0.8118251745 -0.1287910385
C  -3.3010562664  0.7664677084 -0.5675096458
C  -4.0307507307 -0.3876188606 -0.4599071511
H   0.4596792783 -1.2337958449  1.1979255011
H  -4.0387857917 -2.4585638833  0.1818563982
H  -1.6939246461 -2.4252727722  0.9620508404
C   0.0047971459 -0.3186033594  0.8232884305
C  -1.1655314107  1.9923809757 -0.2251041573
H  -3.7428765814  1.6650602156 -0.9933095751
H  -5.0619644660 -0.4195709325 -0.8020478958
C   0.1371495557  2.0001727003  0.1908137088
C   0.7478640859  0.8324026348  0.7237449760
H  -1.6191519667  2.8903739477 -0.6387194750
H   0.7249473781  2.9130614311  0.1130543005
C   2.2092007215  0.8801025992  1.1147020678
C   3.1563634416  0.6479776687 -0.0745310744
H   2.4184420634  0.1257153697  1.8813598482
H   2.4365528535  1.8572942423  1.5543841083
H   4.1948036168  0.8181519787  0.2419005459
H   2.9542783527  1.3519323571 -0.8868218269
C   3.0968103511 -0.7409731006 -0.6767650021
O   3.0755697964 -0.9659271352 -1.8523265977
O   3.0332443619 -1.7671791563  0.2516744007
H   3.8916146401 -1.8597166283  0.6863552940
27
Scanning combination 13/37: [297.8609]  Energy = -652.9023731206
C  -3.4441477474 -1.5518731646  0.1002927173
C  -2.1429415237 -1.5344912043  0.5264285260
C  -1.3578870250 -0.3557587675  0.4126874803
C  -1.9495193652  0.8119480885 -0.1299739905
C  -3.3015577787  0.7661908031 -0.5669965840
C  -4.0307269524 -0.3879005385 -0.4582172232
H   0.4581083696 -1.2339770911  1.1954598604
H  -4.0375603879 -2.4587817049  0.1838847010
H  -1.6910605018 -2.4252587156  0.9594140438
C   0.0059466585 -0.3184855469  0.8195787494
C  -1.1657510974  1.9929515165 -0.2254397510
H  -3.7442467969  1.6647484212 -0.9919379931
H  -5.0624705914 -0.4201428829 -0.7986973182
C   0.1371536457  2.0007294424  0.1902002839
C   0.7490862305  0.8323949720  0.7214585580
H  -1.6204182662  2.8914123192 -0.6376663204
H   0.7243989827  2.9141521594  0.1120622129
C   2.2105228505  0.8775649149  1.1124980461
C   3.1615714036  0.6469235532 -0.0734593795
H   2.4152509284  0.1287548067  1.8861583548
H   2.4361424985  1.8547420850  1.5517077963
H   4.1986702850  0.8196445030  0.2487036833
H   2.9581540495  1.3510249861 -0.8853714560
C   3.1089722109 -0.7429193329 -0.6795841485
O   3.0542098119 -0.9639483838 -1.8555185429
O   3.0428396177 -1.7722046751  0.2357028889
H   3.8342569041 -1.7769636789  0.7897443669
27
Scanning combination 14/37: [307.8609]  Energy = -652.9045247738
C  -3.4439065522 -1.5520021702  0.1004437454
C  -2.1425728569 -1.5345310852  0.5260113453
C  -1.3576134921 -0.3557402846  0.4121351714
C  -1.9494524689  0.8119949167 -0.1301794976
C  -3.3016448900  0.7662437066 -0.5667984771
C  -4.0307667585 -0.3880075593 -0.4578582373
H   0.4571808301 -1.2340665855  1.1953169463
H  -4.0373509243 -2.4589545100  0.1842759855
H  -1.6903395145 -2.4252946705  0.9586548053
C   0.0063293405 -0.3185007583  0.8186044286
C  -1.1655575300  1.9929190599 -0.2254480344
H  -3.7446534453  1.6647414805 -0.9915967398
H  -5.0627025476 -0.4202446147 -0.7978468134
C   0.1375722814  2.0004382010  0.1893825148
C   0.7495712909  0.8320575114  0.7198364618
H  -1.6203737793  2.8914344233 -0.6372410519
H   0.7243083406  2.9142043056  0.1120845176
C   2.2106667750  0.8775811403  1.1124997066
C   3.1640777369  0.6462127811 -0.0716982515
H   2.4148424678  0.1295604908  1.8867099754
H   2.4364434250  1.8549617005  1.5516794565
H   4.2008572332  0.8202713730  0.2497260389
H   2.9606350519  1.3504032695 -0.8836322379
C   3.1117720541 -0.7458435058 -0.6778347726
O   3.0436348912 -0.9632940062 -1.8546937191
O   3.0540766698 -1.7802358619  0.2241091020
H   3.7667781314 -1.6950867761  0.8722372738
27
Scanning combination 15/37: [317.8609]  Energy = -652.9067129050
C  -3.4436370447 -1.5521449421  0.1006115134
C  -2.1420900815 -1.5346431288  0.5254292511
C  -1.3572728094 -0.3558090778  0.4112849182
C  -1.9494000470  0.8119834234 -0.1305128911
C  -3.3018092982  0.7662491972 -0.5665107426
C  -4.0308115850 -0.3881064964 -0.4572925414
H   0.4561810523 -1.2342698739  1.1950585103
H  -4.0370041323 -2.4591312879  0.1848011959
H  -1.6893033605 -2.4253600802  0.9575855290
C   0.0068094738 -0.3185484793  0.8171081139
C  -1.1653846646  1.9928296195 -0.2257091848
H  -3.7451634907  1.6646952666 -0.9910588477
H  -5.0629444197 -0.4203688357 -0.7966420720
C   0.1380235505  2.0001665891  0.1882580651
C   0.7501742138  0.8316764806  0.7180014422
H  -1.6203713487  2.8916067199 -0.6366925161
H   0.7243158871  2.9142807816  0.1119701992
C   2.2110245006  0.8772771196  1.1121476953
C   3.1673121367  0.6445432438 -0.0700558087
H   2.4136429317  0.1314307198  1.8889202930
H   2.4368172581  1.8544943752  1.5513486616
H   4.2033897168  0.8207187102  0.2515019626
H   2.9637392049  1.3489285380 -0.8809540578
C   3.1117514104 -0.7477949824 -0.6794528526
O   3.0322126131 -0.9621161380 -1.8562282040
O   3.0652691236 -1.7853560410  0.2128942067
H   3.6781289300 -1.6279507269  0.9449228360
27
Scanning combination 16/37: [327.8609]  Energy = -652.9085591737
C  -3.4433493170 -1.5523201925  0.1008040702
C  -2.1415364752 -1.5348155777  0.5247337243
C  -1.3569757751 -0.3559179817  0.4101970932
C  -1.9493194914  0.8119565741 -0.1309973689
C  -3.3020028127  0.7662224057 -0.5661707132
C  -4.0308670220 -0.3882008669 -0.4565963920
H   0.4547321981 -1.2346464408  1.1949047583
H  -4.0366230942 -2.4593204117  0.1853632074
H  -1.6880832365 -2.4254375782  0.9563514457
C   0.0072618682 -0.3186097369  0.8154803322
C  -1.1652054561  1.9927217246 -0.2261803604
H  -3.7457072520  1.6646443660 -0.9903916381
H  -5.0632212807 -0.4204865322 -0.7952666582
C   0.1384871872  1.9999056433  0.1870206958
C   0.7509203847  0.8312411739  0.7161490602
H  -1.6204208629  2.8918456005 -0.6361544417
H   0.7244231891  2.9143295837  0.1116159266
C   2.2116363227  0.8766836453  1.1116638503
C   3.1704426758  0.6429445766 -0.0680285831
H   2.4117044881  0.1344944679  1.8931697919
H   2.4372312637  1.8537976128  1.5505118804
H   4.2061811620  0.8200596457  0.2535895042
H   2.9666108121  1.3478440527 -0.8782825530
C   3.1091350518 -0.7486127817 -0.6798267316
O   3.0227999631 -0.9625331738 -1.8572654873
O   3.0782462007 -1.7880721901  0.2044060759
H   3.5775615244 -1.5709764261  1.0040326123
27
Scanning combination 17/37: [337.8609]  Energy = -652.9099405114
C  -3.4432816655 -1.5523621936  0.1008466734
C  -2.1414264773 -1.5348548687  0.5245658360
C  -1.3569327856 -0.3559729502  0.4099467967
C  -1.9492848768  0.8119632210 -0.1311176341
C  -3.3020428499  0.7662151521 -0.5660974388
C  -4.0308834781 -0.3882201822 -0.4564396073
H   0.4543909851 -1.2348601396  1.1949159507
H  -4.0365460823 -2.4593652775  0.1854818625
H  -1.6877913606 -2.4254319460  0.9560725506
C   0.0073553296 -0.3185585342  0.8152200565
C  -1.1651461680  1.9926787564 -0.2263020123
H  -3.7458314315  1.6646397209 -0.9902397135
H  -5.0632859293 -0.4205091092 -0.7949585214
C   0.1386231230  1.9998021893  0.1867464958
C   0.7512795402  0.8311021398  0.7156348407
H  -1.6204221929  2.8918929795 -0.6360513589
H   0.7244646292  2.9143252593  0.1115009909
C   2.2130658326  0.8767790167  1.1105977654
C   3.1715571415  0.6428112096 -0.0674565441
H   2.4112671974  0.1352521579  1.8946481932
H   2.4372816509  1.8536863288  1.5503400463
H   4.2093218498  0.8196564039  0.2545224122
H   2.9676821129  1.3475179205 -0.8773157285
C   3.0991247564 -0.7492085994 -0.6780307146
O   3.0207423617 -0.9628481496 -1.8567525839
O   3.0927396084 -1.7889894202  0.2024495252
H   3.4738960269 -1.5235818529  1.0511551538
27
Scanning combination 18/37: [347.8609]  Energy = -652.9108764384
C  -3.4430462211 -1.5524216872  0.1009482332
C  -2.1409990872 -1.5348490942  0.5242506939
C  -1.3564557581 -0.3560086309  0.4095839258
C  -1.9490962456  0.8118949203 -0.1313153493
C  -3.3020356069  0.7661855711 -0.5659073764
C  -4.0308717166 -0.3882640485 -0.4560928522
H   0.4537248595 -1.2355235981  1.1951242296
H  -4.0363371471 -2.4594276216  0.1857302106
H  -1.6870014950 -2.4253573477  0.9554891117
C   0.0080203894 -0.3185701386  0.8147508620
C  -1.1649135809  1.9925621213 -0.2265917675
H  -3.7460422117  1.6646042893 -0.9898919592
H  -5.0634085280 -0.4205489832 -0.7943028133
C   0.1389978357  1.9996283364  0.1858980964
C   0.7516889108  0.8312643107  0.7150277626
H  -1.6203805788  2.8919207148 -0.6357978910
H   0.7246342594  2.9143355421  0.1111626169
C   2.2131246692  0.8779586829  1.1111878256
C   3.1727100868  0.6432608496 -0.0658937362
H   2.4100510049  0.1396231603  1.8992152558
H   2.4374579192  1.8548120926  1.5501158356
H   4.2100593603  0.8161118369  0.2543822774
H   2.9690467807  1.3480013351 -0.8753593936
C   3.0958237372 -0.7486442266 -0.6738610571
O   3.0164563311 -0.9692336857 -1.8507583815
O   3.1143567213 -1.7815079276  0.2093936625
H   3.3646057428 -1.4682684182  1.0887732160
27
Scanning combination 19/37: [357.8609]  Energy = -652.9112311904
C  -3.4428843410 -1.5525122384  0.1010329970
C  -2.1406705894 -1.5349402605  0.5238417184
C  -1.3562589536 -0.3560472505  0.4090316318
C  -1.9490369165  0.8118682075 -0.1316393118
C  -3.3020979631  0.7661682250 -0.5657266103
C  -4.0308682283 -0.3883065802 -0.4557029705
H   0.4525297028 -1.2361068906  1.1952093603
H  -4.0361016002 -2.4595211523  0.1860146499
H  -1.6862239367 -2.4253370320  0.9548365698
C   0.0082544595 -0.3182854708  0.8144317749
C  -1.1646791278  1.9924663952 -0.2269045537
H  -3.7462846768  1.6645772909 -0.9894962634
H  -5.0635167454 -0.4205934334 -0.7935400107
C   0.1394128535  1.9993527936  0.1853232594
C   0.7525745464  0.8312255854  0.7143013909
H  -1.6203700095  2.8920295715 -0.6356201056
H   0.7247874938  2.9142864779  0.1107586391
C   2.2136273628  0.8789420948  1.1115057621
C   3.1718370963  0.6425891209 -0.0644858271
H   2.4094390236  0.1429959450  1.9025709756
H   2.4374815686  1.8557905974  1.5494856160
H   4.2123114743  0.8131152259  0.2551016573
H   2.9708363719  1.3484182067 -0.8740014175
C   3.0883977358 -0.7494263151 -0.6751031896
O   3.0125020467 -0.9683283989 -1.8524079095
O   3.1305244863 -1.7857109170  0.2019094010
H   3.2435775631 -1.4604987112  1.1061650661
27
Scanning combination 20/37: [367.8609]  Energy = -652.9110752646
C  -3.4414239644 -1.5538663639  0.1013919604
C  -2.1376806265 -1.5357399497  0.5185992475
C  -1.3567483486 -0.3551718727  0.4033973514
C  -1.9495315440  0.8127907829 -0.1357966508
C  -3.3040088829  0.7663880582 -0.5644053176
C  -4.0314107211 -0.3887316988 -0.4513240619
H   0.4394341454 -1.2384982398  1.1989692392
H  -4.0336785014 -2.4610637431  0.1889477921
H  -1.6784278950 -2.4252641491  0.9464161389
C   0.0049438249 -0.3175997385  0.8138599443
C  -1.1639481846  1.9927362902 -0.2316401971
H  -3.7504444932  1.6649630816 -0.9852166862
H  -5.0655615006 -0.4210326655 -0.7840320253
C   0.1397165807  1.9983433836  0.1817160298
C   0.7499699728  0.8318546370  0.7181260890
H  -1.6197029773  2.8939954401 -0.6363752895
H   0.7269926858  2.9121840054  0.1045168592
C   2.2102233944  0.8839719512  1.1189295678
C   3.1688359654  0.6309710553 -0.0565659667
H   2.4055346140  0.1752991522  1.9361100018
H   2.4338881535  1.8724450838  1.5315920972
H   4.2085910480  0.7792992983  0.2685943721
H   2.9792440461  1.3487105909 -0.8578963851
C   3.0810344886 -0.7537129385 -0.6836727191
O   3.0150292597 -0.9606162176 -1.8643638362
O   3.1549027655 -1.7948229916  0.1840542836
H   3.1301561662 -1.4678963650  1.0926829914
27
Scanning combination 21/37: [377.8609]  Energy = -652.9101384733
C  -3.4414178274 -1.5538874584  0.1013123695
C  -2.1377839902 -1.5357526020  0.5183748254
C  -1.3568683568 -0.3550832795  0.4035923428
C  -1.9496421397  0.8128510882 -0.1358209650
C  -3.3041612341  0.7663895320 -0.5643945964
C  -4.0316902369 -0.3887520388 -0.4512558035
H   0.4397757358 -1.2382491931  1.1994330862
H  -4.0337621180 -2.4611604466  0.1888977906
H  -1.6784778288 -2.4253945813  0.9460047818
C   0.0048245032 -0.3171600641  0.8143465050
C  -1.1641180811  1.9927056769 -0.2314933401
H  -3.7508063085  1.6649488307 -0.9851083820
H  -5.0659106077 -0.4210266094 -0.7836814481
C   0.1397319832  1.9982129141  0.1817205841
C   0.7505022471  0.8316401519  0.7176280245
H  -1.6195568150  2.8938763319 -0.6367891938
H   0.7268967988  2.9119632778  0.1044088735
C   2.2112055973  0.8847023154  1.1181997894
C   3.1702149407  0.6316652977 -0.0567603550
H   2.4058619101  0.1754981713  1.9355572407
H   2.4336586525  1.8731681054  1.5308943958
H   4.2103478101  0.7778749507  0.2690519246
H   2.9808689613  1.3490706695 -0.8578527062
C   3.0719247182 -0.7528041508 -0.6814694046
O   3.0130707513 -0.9607328407 -1.8628241028
O   3.1691453333 -1.7915370931  0.1875084983
H   3.0071943079 -1.4804726444  1.0875829859
27
Scanning combination 22/37: [387.8609]  Energy = -652.9086980079
C  -3.4423701082 -1.5541447127  0.1005860406
C  -2.1387033157 -1.5361085414  0.5170999261
C  -1.3584115090 -0.3546751738  0.4051256340
C  -1.9515732557  0.8130060428 -0.1350907104
C  -3.3064145415  0.7664038905 -0.5632232012
C  -4.0339262826 -0.3886711855 -0.4499083030
H   0.4390624518 -1.2343073186  1.2072585735
H  -4.0342044448 -2.4617842899  0.1877654562
H  -1.6791610696 -2.4272467439  0.9414755716
C   0.0033383168 -0.3152460578  0.8174257714
C  -1.1655434297  1.9923315004 -0.2327834780
H  -3.7540589340  1.6647449493 -0.9835341045
H  -5.0689795525 -0.4207620356 -0.7797017777
C   0.1382308888  1.9983181653  0.1806102444
C   0.7493451944  0.8330135660  0.7183785461
H  -1.6191814037  2.8930764374 -0.6409415809
H   0.7262384160  2.9113279214  0.1020310570
C   2.2104187799  0.8882196213  1.1166118536
C   3.1707511379  0.6312761599 -0.0558786905
H   2.4106448330  0.1802848319  1.9328355670
H   2.4315091933  1.8790954936  1.5255472272
H   4.2095781191  0.7677738608  0.2755896364
H   2.9915316367  1.3515644722 -0.8580675572
C   3.0713108082 -0.7524321288 -0.6838843077
O   3.0148462483 -0.9473025536 -1.8671937134
O   3.1933917092 -1.8023445602  0.1740671143
H   2.8972037121 -1.5484520525  1.0581546166
27
Scanning combination 23/37: [397.8609]  Energy = -652.9066957388
C  -3.4424232566 -1.5542000702  0.1006165608
C  -2.1387073934 -1.5362692679  0.5170566041
C  -1.3585881599 -0.3544889452  0.4052335250
C  -1.9515881022  0.8130580448 -0.1352172482
C  -3.3064637246  0.7664454828 -0.5631252491
C  -4.0339863190 -0.3886703429 -0.4497357320
H   0.4388392516 -1.2342061037  1.2078737808
H  -4.0342609958 -2.4618430369  0.1876785625
H  -1.6792475902 -2.4273585694  0.9413475391
C   0.0028984458 -0.3147312631  0.8177354907
C  -1.1655345582  1.9923436367 -0.2327673056
H  -3.7541341279  1.6647605505 -0.9834039028
H  -5.0691292079 -0.4207430463 -0.7795888721
C   0.1382848543  1.9982749965  0.1805117344
C   0.7501227718  0.8327337391  0.7177811675
H  -1.6193099366  2.8929428989 -0.6411055634
H   0.7260516800  2.9113818597  0.1018592065
C   2.2115278935  0.8883348714  1.1164552320
C   3.1707356411  0.6320047986 -0.0562144876
H   2.4109057243  0.1805199280  1.9328765191
H   2.4317547213  1.8792332926  1.5255049316
H   4.2115701878  0.7656740492  0.2757396122
H   2.9927450867  1.3516364632 -0.8585986164
C   3.0638868647 -0.7513895152 -0.6838589222
O   3.0126542700 -0.9477624974 -1.8662046246
O   3.2068456665 -1.7967139947  0.1815302740
H   2.7823694532 -1.5873616518  1.0247487225
27
Scanning combination 24/37: [407.8609]  Energy = -652.9043580149
C  -3.4426107994 -1.5542931409  0.1006301876
C  -2.1389213374 -1.5363584222  0.5169829089
C  -1.3591418490 -0.3542745022  0.4057392253
C  -1.9517752119  0.8131138759 -0.1352095198
C  -3.3067743805  0.7664976876 -0.5627945418
C  -4.0343406071 -0.3885667948 -0.4492693343
H   0.4378072593 -1.2330793831  1.2104865864
H  -4.0344169264 -2.4620529159  0.1873622902
H  -1.6794374929 -2.4276516530  0.9408126021
C   0.0022289476 -0.3141494847  0.8183809453
C  -1.1656178385  1.9922018456 -0.2330738170
H  -3.7545298010  1.6648639469 -0.9829096941
H  -5.0694986643 -0.4206356757 -0.7789786022
C   0.1383703757  1.9982295624  0.1797310123
C   0.7499290518  0.8329315416  0.7177498698
H  -1.6195244103  2.8925025775 -0.6415924362
H   0.7256185178  2.9116108954  0.1011709721
C   2.2109696120  0.8888558744  1.1169042263
C   3.1707635923  0.6335849884 -0.0578267637
H   2.4125366745  0.1801474797  1.9321952619
H   2.4324113374  1.8800267453  1.5256524405
H   4.2094991456  0.7595840462  0.2752514528
H   2.9948467179  1.3536685238 -0.8606073888
C   3.0665270372 -0.7489694243 -0.6826310111
O   3.0096062773 -0.9472819513 -1.8640447521
O   3.2236449565 -1.7913783457  0.1879960480
H   2.6759708937 -1.6477960406  0.9706221224
27
Scanning combination 25/37: [417.8609]  Energy = -652.9018819783
C  -3.4430082597 -1.5543410594  0.1006033468
C  -2.1393572812 -1.5364322822  0.5170021510
C  -1.3596677549 -0.3541656898  0.4062993573
C  -1.9521824493  0.8131084060 -0.1351119977
C  -3.3072284830  0.7665608768 -0.5623564628
C  -4.0348099580 -0.3884768113 -0.4488276035
H   0.4370891143 -1.2314613710  1.2141667662
H  -4.0345912594 -2.4622564482  0.1869929401
H  -1.6795525655 -2.4277666057  0.9401976141
C   0.0013814117 -0.3134879011  0.8194029551
C  -1.1658845664  1.9920300500 -0.2336144715
H  -3.7550249490  1.6649664006 -0.9822874681
H  -5.0700517168 -0.4204534082 -0.7782270390
C   0.1379980580  1.9983657014  0.1792831964
C   0.7496161566  0.8333377720  0.7180737871
H  -1.6198040897  2.8922010595 -0.6423696033
H   0.7251828951  2.9117328482  0.1001695181
C   2.2106900297  0.8892494783  1.1167314657
C   3.1702201590  0.6344764207 -0.0594328544
H   2.4146200885  0.1784078046  1.9290603369
H   2.4326656399  1.8804276882  1.5258411347
H   4.2087256862  0.7564505491  0.2759819338
H   2.9966377143  1.3552796283 -0.8622264942
C   3.0709752889 -0.7469653689 -0.6837569838
O   3.0087870920 -0.9441388627 -1.8647046586
O   3.2439374087 -1.7900803339  0.1905718413
H   2.5904428820 -1.7315279716  0.8999364841
27
Scanning combination 26/37: [427.8609]  Energy = -652.8996577714
C  -3.4435899442 -1.5543458832  0.1005479830
C  -2.1397234446 -1.5363992993  0.5171788132
C  -1.3603344499 -0.3536874020  0.4070437824
C  -1.9526549930  0.8131062663 -0.1349779679
C  -3.3078694399  0.7667146103 -0.5620014965
C  -4.0354252500 -0.3884579797 -0.4483400606
H   0.4359987943 -1.2292754162  1.2188547722
H  -4.0348629403 -2.4624713226  0.1865754186
H  -1.6794835150 -2.4276110104  0.9396164712
C   0.0006440245 -0.3125205363  0.8210380519
C  -1.1664623803  1.9920773972 -0.2341371134
H  -3.7556380783  1.6651051159 -0.9816492326
H  -5.0707838344 -0.4202085000 -0.7774835539
C   0.1376125233  1.9985894933  0.1788852004
C   0.7492944785  0.8341220799  0.7182432006
H  -1.6201524173  2.8919296094 -0.6433924604
H   0.7245906768  2.9118939255  0.0989945703
C   2.2099354990  0.8911782927  1.1168390804
C   3.1695838998  0.6369719223 -0.0601746952
H   2.4170576254  0.1760840701  1.9236703637
H   2.4326125365  1.8819183801  1.5266491884
H   4.2079278494  0.7560418941  0.2768330239
H   2.9986102774  1.3567544342 -0.8646480902
C   3.0795350186 -0.7439767830 -0.6831299017
O   3.0060789340 -0.9442124284 -1.8625989656
O   3.2625988751 -1.7863589612  0.1963710186
H   2.5212359413 -1.8249846143  0.8147297094
27
Scanning combination 27/37: [437.8609]  Energy = -652.8982093040
C  -3.4435171709 -1.5542554986  0.1006783877
C  -2.1402434769 -1.5359978727  0.5173084118
C  -1.3605920383 -0.3534414682  0.4078918269
C  -1.9531972909  0.8135319640 -0.1348849579
C  -3.3082294736  0.7667172274 -0.5616962057
C  -4.0358721737 -0.3882844977 -0.4481251052
H   0.4354338816 -1.2272702019  1.2228171638
H  -4.0349808512 -2.4625299565  0.1862958138
H  -1.6790262717 -2.4272186505  0.9393918550
C   0.0001132078 -0.3114164673  0.8218709748
C  -1.1666475687  1.9918887763 -0.2344942443
H  -3.7561721685  1.6652296873 -0.9813194281
H  -5.0712821840 -0.4200749534 -0.7770019821
C   0.1366787154  1.9992505249  0.1782209373
C   0.7490486067  0.8350095647  0.7186817381
H  -1.6205201758  2.8919404908 -0.6442069837
H   0.7240993579  2.9123591103  0.0981230524
C   2.2101368505  0.8930197337  1.1160831099
C   3.1697822783  0.6386866497 -0.0613089495
H   2.4181078752  0.1741188949  1.9190633872
H   2.4320850001  1.8835862383  1.5273425470
H   4.2076265610  0.7573173815  0.2779342314
H   3.0005377551  1.3578878664 -0.8669023403
C   3.0877171633 -0.7414620257 -0.6773221228
O   2.9979151187 -0.9488190811 -1.8541809765
O   3.2592876433 -1.7793443689  0.2159498054
H   2.4446061191 -1.9105556118  0.7174744770
27
Scanning combination 28/37: [447.8609]  Energy = -652.8978016231
C  -3.4437515298 -1.5542863805  0.1005491405
C  -2.1400545978 -1.5361651834  0.5173755372
C  -1.3608742872 -0.3532030500  0.4077566405
C  -1.9530394270  0.8133316108 -0.1349232759
C  -3.3081706465  0.7667553211 -0.5618478950
C  -4.0357375677 -0.3883229204 -0.4482297000
H   0.4351046821 -1.2273929052  1.2223965658
H  -4.0349982904 -2.4624822687  0.1863189040
H  -1.6787811407 -2.4270825721  0.9393876093
C  -0.0000330685 -0.3115987100  0.8220780074
C  -1.1664956188  1.9919672324 -0.2344841250
H  -3.7560313124  1.6652173395 -0.9814643141
H  -5.0711939159 -0.4200681958 -0.7771817719
C   0.1372213845  1.9989791605  0.1785470525
C   0.7499881125  0.8349773059  0.7182613083
H  -1.6202459045  2.8918794629 -0.6438813941
H   0.7242292140  2.9122835767  0.0983921081
C   2.2109079815  0.8940630723  1.1164626486
C   3.1705515967  0.6391149504 -0.0616462349
H   2.4185727049  0.1739962535  1.9179015871
H   2.4324355178  1.8846898175  1.5271061866
H   4.2100450767  0.7537541500  0.2768305977
H   3.0021840527  1.3585333429 -0.8675546787
C   3.0807602183 -0.7413482949 -0.6719968516
O   2.9909029851 -0.9554809283 -1.8474093937
O   3.2250873059 -1.7687113156  0.2428899178
H   2.3621089129 -1.9844307201  0.6165084600
27
Scanning combination 29/37: [457.8609]  Energy = -652.8987248693
C  -3.4432241273 -1.5538637032  0.1010802699
C  -2.1396746714 -1.5353424354  0.5181053512
C  -1.3606457026 -0.3522911415  0.4088924996
C  -1.9534424441  0.8137435116 -0.1347786989
C  -3.3086920320  0.7670331241 -0.5610672143
C  -4.0360879438 -0.3881035476 -0.4472469755
H   0.4356612793 -1.2211467623  1.2322934051
H  -4.0343165448 -2.4622804795  0.1859889423
H  -1.6774867570 -2.4261320485  0.9395599974
C   0.0000710676 -0.3090826939  0.8242704145
C  -1.1675601078  1.9925973997 -0.2357195303
H  -3.7568915047  1.6654329328 -0.9805098384
H  -5.0716787785 -0.4200145053 -0.7758408683
C   0.1360642800  2.0009934459  0.1765410176
C   0.7488874680  0.8377378282  0.7172240166
H  -1.6217833524  2.8919280959 -0.6460545520
H   0.7225194777  2.9145596541  0.0959912751
C   2.2084335664  0.8961891386  1.1161642465
C   3.1718611285  0.6408146257 -0.0590238597
H   2.4168292248  0.1667667702  1.9078804417
H   2.4306750377  1.8860354981  1.5296648264
H   4.2067167363  0.7651202972  0.2870358324
H   3.0068444528  1.3544591829 -0.8711241303
C   3.0964362553 -0.7443627413 -0.6621242152
O   2.9755042636 -0.9681992256 -1.8340800131
O   3.2124005072 -1.7697272023  0.2597861775
H   2.3231882996 -2.0756510606  0.4798148890
27
Scanning combination 30/37: [467.8609]  Energy = -652.9006969635
C  -3.4430948155 -1.5538073633  0.1010409267
C  -2.1394370273 -1.5353521783  0.5179953779
C  -1.3599933760 -0.3524701888  0.4086590236
C  -1.9530883440  0.8135001827 -0.1347568235
C  -3.3085276971  0.7670177847 -0.5611028102
C  -4.0360286769 -0.3881067893 -0.4473435054
H   0.4364361422 -1.2211842444  1.2321634326
H  -4.0343867961 -2.4622118836  0.1859514178
H  -1.6776042541 -2.4262684260  0.9395399533
C   0.0010320203 -0.3094450296  0.8242639644
C  -1.1672750823  1.9925088195 -0.2355583365
H  -3.7567144185  1.6654373118 -0.9805911317
H  -5.0716151912 -0.4199636500 -0.7760022429
C   0.1364354515  2.0008749851  0.1767451125
C   0.7499159874  0.8377846771  0.7169470180
H  -1.6215334180  2.8918856419 -0.6457433697
H   0.7226893516  2.9144964247  0.0963110342
C   2.2095259017  0.8968359079  1.1160368964
C   3.1724843807  0.6379529835 -0.0577935876
H   2.4171269147  0.1664032959  1.9062480961
H   2.4311364057  1.8871913582  1.5292322667
H   4.2083949530  0.7625679533  0.2867621163
H   3.0092630868  1.3523056878 -0.8702325288
C   3.0883638571 -0.7475269318 -0.6570444546
O   2.9690261697 -0.9743231560 -1.8293553590
O   3.1553216797 -1.7660891707  0.2734317713
H   2.2787094319 -2.1623227205  0.3535258741
27
Scanning combination 31/37: [477.8609]  Energy = -652.9037594799
C  -3.4424301983 -1.5535799566  0.1012102693
C  -2.1386971934 -1.5350743384  0.5180052600
C  -1.3585707724 -0.3526600680  0.4083759655
C  -1.9525083331  0.8133806825 -0.1348205953
C  -3.3081882250  0.7669884435 -0.5608193576
C  -4.0357486960 -0.3880650730 -0.4470288676
H   0.4394471654 -1.2187164239  1.2347317809
H  -4.0336541786 -2.4620281242  0.1861678478
H  -1.6782629693 -2.4265126501  0.9398868565
C   0.0024511994 -0.3093980722  0.8240649902
C  -1.1673337537  1.9928764411 -0.2358244549
H  -3.7565641517  1.6654029886 -0.9801669733
H  -5.0714715005 -0.4200474414 -0.7755683143
C   0.1365635822  2.0018407812  0.1760570978
C   0.7499512553  0.8385201387  0.7162511547
H  -1.6222955297  2.8919210019 -0.6462939800
H   0.7222299567  2.9157760440  0.0957250389
C   2.2087301964  0.8947346759  1.1170057984
C   3.1726815343  0.6327516188 -0.0543937119
H   2.4142013501  0.1646305165  1.9072649377
H   2.4322060297  1.8852875763  1.5279679642
H   4.2077547503  0.7616828736  0.2901529946
H   3.0114055631  1.3423868822 -0.8690351573
C   3.0843732133 -0.7505228612 -0.6576297517
O   2.9641960374 -0.9791159730 -1.8305351042
O   3.1121921523 -1.7596459261  0.2805788074
H   2.2784190307 -2.2458653840  0.2288928157
27
Scanning combination 32/37: [487.8609]  Energy = -652.9076400552
C  -3.4410115559 -1.5534472045  0.1020644539
C  -2.1376362823 -1.5348502298  0.5183990985
C  -1.3568547557 -0.3532660765  0.4076252523
C  -1.9515079265  0.8130265092 -0.1353076977
C  -3.3073684137  0.7668286246 -0.5599456902
C  -4.0349604045 -0.3879695162 -0.4459933855
H   0.4449005464 -1.2126702620  1.2404281226
H  -4.0316880302 -2.4621657755  0.1872852941
H  -1.6786486956 -2.4267171198  0.9415268294
C   0.0039814518 -0.3085150939  0.8237427078
C  -1.1674952868  1.9932092226 -0.2373234450
H  -3.7560775984  1.6655451273 -0.9785614293
H  -5.0707891182 -0.4202087299 -0.7736580073
C   0.1366863313  2.0036562085  0.1738978414
C   0.7495467645  0.8399262569  0.7139991821
H  -1.6240354480  2.8916145526 -0.6479092733
H   0.7209503184  2.9186361465  0.0935909180
C   2.2071650087  0.8914326924  1.1162830661
C   3.1734342406  0.6291773712 -0.0524882994
H   2.4062706416  0.1605335776  1.9069830418
H   2.4339079662  1.8806094398  1.5271610120
H   4.2054501594  0.7622764435  0.2988427268
H   3.0142523373  1.3394648865 -0.8684995911
C   3.0846266851 -0.7567084022 -0.6537300114
O   2.9604689792 -0.9893895571 -1.8268482961
O   3.0768566675 -1.7583486836  0.2835120324
H   2.3113187954 -2.3200799160  0.0945200932
27
Scanning combination 33/37: [497.8609]  Energy = -652.9117380981
C  -3.4412184311 -1.5534759836  0.1020179820
C  -2.1372557997 -1.5348679839  0.5185776542
C  -1.3567912741 -0.3528751423  0.4075933101
C  -1.9513039562  0.8128607658 -0.1351976729
C  -3.3075135983  0.7668749258 -0.5600196861
C  -4.0349097069 -0.3881067632 -0.4458907743
H   0.4452832617 -1.2125828294  1.2398013345
H  -4.0316990274 -2.4622059158  0.1873449736
H  -1.6787268376 -2.4266250487  0.9415595656
C   0.0039375439 -0.3087318010  0.8242214599
C  -1.1675671279  1.9934036750 -0.2374470353
H  -3.7560565298  1.6655474941 -0.9784938642
H  -5.0708195743 -0.4201967616 -0.7735910454
C   0.1369153506  2.0035892623  0.1738847136
C   0.7498467695  0.8399105135  0.7134969812
H  -1.6240540679  2.8915388577 -0.6479519973
H   0.7209116896  2.9187741349  0.0934778713
C   2.2079261408  0.8906815147  1.1157867366
C   3.1752694083  0.6270993828 -0.0510408171
H   2.4062563281  0.1603719325  1.9068284662
H   2.4340513979  1.8803297247  1.5270924822
H   4.2077467137  0.7612913618  0.2990255142
H   3.0155773111  1.3378214674 -0.8674372246
C   3.0779376154 -0.7593621326 -0.6531706190
O   2.9586718163 -0.9909495805 -1.8276349902
O   3.0590731537 -1.7532862431  0.2846336911
H   2.3907200135 -2.3977214096  0.0045457927
27
Scanning combination 34/37: [507.8609]  Energy = -652.9156093452
C  -3.4409973637 -1.5536818784  0.1022601810
C  -2.1371575253 -1.5345422511  0.5189371863
C  -1.3568680051 -0.3523175182  0.4082010454
C  -1.9513099700  0.8131764996 -0.1352469014
C  -3.3075018666  0.7667701588 -0.5600053774
C  -4.0348077903 -0.3881985773 -0.4456850896
H   0.4453927539 -1.2122664966  1.2380573961
H  -4.0316251062 -2.4623311547  0.1876226320
H  -1.6784863601 -2.4264183159  0.9419539416
C   0.0029720849 -0.3079224607  0.8254593775
C  -1.1673243553  1.9934286972 -0.2377488270
H  -3.7560705419  1.6655565056 -0.9782514052
H  -5.0708220983 -0.4202332174 -0.7731852431
C   0.1372173858  2.0037610451  0.1731894749
C   0.7495466965  0.8399365588  0.7133949900
H  -1.6241719027  2.8914745429 -0.6482684647
H   0.7208555993  2.9192179317  0.0929315465
C   2.2077315016  0.8887905560  1.1163102802
C   3.1743413847  0.6249613842 -0.0494103479
H   2.4055024589  0.1590937640  1.9077099884
H   2.4346111465  1.8787315077  1.5266656738
H   4.2081311345  0.7560858891  0.2988886406
H   3.0184541141  1.3343043846 -0.8651172654
C   3.0743121519 -0.7578123494 -0.6550259755
O   2.9583142081 -0.9962207209 -1.8295024447
O   3.0477522279 -1.7391263459  0.2884578579
H   2.4995883132 -2.4567939933 -0.0662905926
27
Scanning combination 35/37: [517.8609]  Energy = -652.9188336734
C  -3.4408756329 -1.5537251882  0.1026592140
C  -2.1372207141 -1.5343064857  0.5195465602
C  -1.3569866465 -0.3518911420  0.4086880148
C  -1.9514751276  0.8135484372 -0.1351732812
C  -3.3075868380  0.7668218834 -0.5598500261
C  -4.0347777175 -0.3882650603 -0.4454254083
H   0.4447222242 -1.2123220279  1.2360008912
H  -4.0314370179 -2.4624554345  0.1879595009
H  -1.6780590393 -2.4261836531  0.9425158737
C   0.0021572507 -0.3071264442  0.8263353142
C  -1.1670876433  1.9934927794 -0.2380841009
H  -3.7562808469  1.6655373493 -0.9781186126
H  -5.0707738391 -0.4203741777 -0.7727084147
C   0.1375619354  2.0037504282  0.1729675011
C   0.7496271246  0.8399589865  0.7136352370
H  -1.6241067265  2.8914607823 -0.6488106704
H   0.7208818605  2.9193890644  0.0921795778
C   2.2076941931  0.8874604168  1.1165595258
C   3.1731175854  0.6229144302 -0.0493688006
H   2.4044519390  0.1578181994  1.9079052673
H   2.4352034621  1.8769423976  1.5269894096
H   4.2082908609  0.7496913965  0.2989784867
H   3.0215364716  1.3352601233 -0.8638254027
C   3.0644233403 -0.7590897328 -0.6542378138
O   2.9618046551 -1.0024318915 -1.8306960381
O   3.0346476265 -1.7364795353  0.2872548525
H   2.6189781695 -2.5073262226 -0.1327083415
27
Scanning combination 36/37: [527.8609]  Energy = -652.9210736308
C  -3.4413120042 -1.5536512459  0.1041511902
C  -2.1378643379 -1.5332527717  0.5213284982
C  -1.3596392072 -0.3499690417  0.4101237716
C  -1.9530993035  0.8152330406 -0.1347646298
C  -3.3090515302  0.7673567888 -0.5593989695
C  -4.0352194986 -0.3882768843 -0.4441834729
H   0.4387987686 -1.2124810303  1.2356104900
H  -4.0310556004 -2.4627767110  0.1893333593
H  -1.6769979497 -2.4243003137  0.9443027915
C  -0.0016681205 -0.3056593543  0.8284407279
C  -1.1677250480  1.9945245567 -0.2390744539
H  -3.7580985196  1.6655896249 -0.9781895713
H  -5.0711611527 -0.4210783855 -0.7713538812
C   0.1367511134  2.0044170705  0.1728217208
C   0.7466928496  0.8408561611  0.7163572856
H  -1.6234922830  2.8922306716 -0.6514869192
H   0.7215540780  2.9191151212  0.0898114398
C   2.2057099910  0.8837098860  1.1164895524
C   3.1692664516  0.6209388877 -0.0520491475
H   2.4008534341  0.1518937192  1.9069726630
H   2.4371159447  1.8714177025  1.5290757381
H   4.2044030837  0.7278685920  0.2993346287
H   3.0257828306  1.3397656225 -0.8624829148
C   3.0551889897 -0.7573643940 -0.6595897615
O   2.9809909699 -1.0098062016 -1.8363732045
O   3.0275816244 -1.7299331408  0.2843248007
H   2.7588973686 -2.5394642527 -0.1820563362
27
Scanning combination 37/37: [537.8609]  Energy = -652.9221727107
C  -3.4413653108 -1.5536266074  0.1042232413
C  -2.1379349643 -1.5331619783  0.5214048500
C  -1.3597876608 -0.3497546399  0.4102505170
C  -1.9532335713  0.8153305647 -0.1347569872
C  -3.3091852095  0.7674096933 -0.5593919941
C  -4.0353721913 -0.3882903595 -0.4441437793
H   0.4384746368 -1.2123111859  1.2356133790
H  -4.0311441235 -2.4627957592  0.1893986373
H  -1.6770368033 -2.4242119441  0.9443896382
C  -0.0019023565 -0.3053913531  0.8289148268
C  -1.1677881555  1.9945944212 -0.2390504932
H  -3.7582815040  1.6655869565 -0.9782185125
H  -5.0712898157 -0.4211021282 -0.7713256011
C   0.1368627734  2.0042867327  0.1729012393
C   0.7474083319  0.8406757102  0.7156762674
H  -1.6234982077  2.8922767363 -0.6516410689
H   0.7214817029  2.9190310053  0.0897420119
C   2.2072143414  0.8837666825  1.1157240705
C   3.1718236279  0.6207829040 -0.0520783424
H   2.4009810674  0.1518772436  1.9062082821
H   2.4371610656  1.8712539451  1.5293544004
H   4.2079607481  0.7276429431  0.2997703754
H   3.0271810376  1.3397193813 -0.8617884342
C   3.0439489018 -0.7561223459 -0.6592240376
O   2.9813114625 -1.0099756282 -1.8361049654
O   3.0188971107 -1.7256375256  0.2864015279
H   2.9007933952 -2.5584069445 -0.2004767748
