27
Scanning combination 1/37: [179.1159]  Energy = -652.9203162495
C  -3.4012377990 -1.5688673739  0.0546637946
C  -2.1133057435 -1.5196533044  0.5163022817
C  -1.3573847443 -0.3217410791  0.4278291910
C  -1.9492913834  0.8277933778 -0.1503279638
C  -3.2934568238  0.7540839860 -0.6111251765
C  -4.0002441974 -0.4156675973 -0.5128589315
H   0.4007532672 -1.1406668863  1.3675210700
H  -3.9716626034 -2.4919184684  0.1168423152
H  -1.6431544660 -2.3997694980  0.9505091969
C  -0.0162196663 -0.2547557971  0.8919476143
C  -1.1683109321  2.0117091948 -0.2477616114
H  -3.7501361367  1.6397611513 -1.0484316485
H  -5.0252182192 -0.4707506681 -0.8708029800
C   0.1294175342  2.0359108778  0.1884113595
C   0.7444797035  0.8809464610  0.7455941221
H  -1.6172046314  2.9030272971 -0.6807538151
H   0.6986529498  2.9617916380  0.1174628406
C   2.2073216299  0.9054896034  1.1401546656
C   3.1893415250  0.5766649112 -0.0103779575
H   2.3807961747  0.1931667701  1.9562347831
H   2.4675175635  1.8967238070  1.5281460175
H   4.2176263362  0.6337145772  0.3627406224
H   3.0695340185  1.2884655862 -0.8317059264
C   2.9690615022 -0.8013088252 -0.5828919249
O   2.2994821604 -1.0671256046 -1.5518037857
O   3.6031036195 -1.7563336029  0.1331146989
H   3.3702380969 -2.5971906138 -0.2945328954
27
Scanning combination 2/37: [189.1159]  Energy = -652.9206480090
C  -3.3838639626 -1.5850395284  0.1267521072
C  -2.0770132135 -1.5497695286  0.5293716000
C  -1.3107874611 -0.3625313558  0.3910877356
C  -1.9072416823  0.7841061202 -0.1868970871
C  -3.2649192058  0.7166056215 -0.6042787737
C  -3.9869648416 -0.4369249315 -0.4467441485
H   0.4840526469 -1.1881504640  1.2568343156
H  -3.9683770054 -2.4931162926  0.2433201529
H  -1.6048080613 -2.4265407645  0.9692908879
C   0.0356030776 -0.2936648109  0.8326276535
C  -1.1238040903  1.9627200328 -0.3226695067
H  -3.7219859748  1.5980235692 -1.0475469858
H  -5.0291713872 -0.4795405328 -0.7525914085
C   0.1710094210  1.9992769472  0.1210708353
C   0.7750368273  0.8575734100  0.7179258287
H  -1.5770330263  2.8410239823 -0.7790581203
H   0.7448487239  2.9200847791  0.0246426424
C   2.2133979460  0.9104017233  1.1894783745
C   3.2526493380  0.6132973831  0.0886854413
H   2.3482724234  0.1678923499  1.9834503785
H   2.4334802917  1.8882327619  1.6303345488
H   4.2443653836  0.5118395210  0.5455259250
H   3.2814649026  1.3987605887 -0.6694489402
C   2.9854004088 -0.6923181651 -0.6232136445
O   2.7479332305 -0.8339719983 -1.7967753785
O   3.0352482501 -1.7470543970  0.2249047498
H   2.8225074274 -2.5243001944 -0.3190117895
27
Scanning combination 3/37: [199.1159]  Energy = -652.9185521607
C  -3.3920667952 -1.5885575975  0.1254734205
C  -2.0869896277 -1.5554962994  0.5375758610
C  -1.3162373730 -0.3703666756  0.4011517607
C  -1.9087682512  0.7762237860 -0.1815269851
C  -3.2656055430  0.7129003345 -0.6028596813
C  -3.9903024591 -0.4392613380 -0.4504691453
H   0.4686433801 -1.2015631035  1.2790291093
H  -3.9785310858 -2.4957657731  0.2368367175
H  -1.6195508266 -2.4337323199  0.9794889402
C   0.0306749785 -0.3064181698  0.8463458194
C  -1.1225785370  1.9524114969 -0.3175030776
H  -3.7175665078  1.5975095827 -1.0453300126
H  -5.0298452114 -0.4805988349 -0.7669372306
C   0.1721175037  1.9817679051  0.1224765581
C   0.7765205830  0.8395570998  0.7186063483
H  -1.5729549319  2.8351851784 -0.7678166041
H   0.7535389335  2.8976258462  0.0284407045
C   2.2183685129  0.9293026494  1.1764342781
C   3.2838300138  0.5989024724  0.1036023693
H   2.3584004517  0.2205818796  2.0030346277
H   2.4233487618  1.9235438253  1.5819512611
H   4.2264216903  0.3622945359  0.6117243211
H   3.4242620012  1.4032195368 -0.6232202450
C   2.9657843899 -0.6810282147 -0.6434217464
O   2.7335338557 -0.8076446059 -1.8192363207
O   2.9921003807 -1.7397192466  0.2061704018
H   2.8262058891 -2.5305316660 -0.3331697114
27
Scanning combination 4/37: [209.1159]  Energy = -652.9155368809
C  -3.4001671629 -1.5995292559  0.1285433897
C  -2.0994804799 -1.5659598495  0.5563963038
C  -1.3167490438 -0.3851400181  0.4213889640
C  -1.9064896238  0.7588774908 -0.1711585363
C  -3.2609665202  0.7011985008 -0.6004241131
C  -3.9906224882 -0.4486688390 -0.4540081135
H   0.4666528420 -1.2046157647  1.3210501489
H  -3.9920914120 -2.5065326391  0.2337247304
H  -1.6473723833 -2.4483587458  1.0058190808
C   0.0360259017 -0.3184408287  0.8621989280
C  -1.1218761414  1.9336452085 -0.3145153180
H  -3.7071095544  1.5890763958 -1.0454625668
H  -5.0254454833 -0.4895111371 -0.7843385880
C   0.1774367031  1.9617330083  0.1092739953
C   0.7885872136  0.8233649006  0.7039892088
H  -1.5781537177  2.8132125425 -0.7632927622
H   0.7609970817  2.8754016024  0.0055622670
C   2.2304644544  0.9589666508  1.1637683874
C   3.3479089397  0.5401662482  0.1728561944
H   2.3627959090  0.3442390530  2.0620006954
H   2.4141537617  1.9927530910  1.4700465319
H   4.2145971081  0.1955348006  0.7487097791
H   3.6192264753  1.3475828810 -0.5077544582
C   2.9660269356 -0.6680049927 -0.6502466014
O   2.7078402189 -0.7033257397 -1.8269249244
O   2.9486124431 -1.7769479074  0.1288537341
H   2.7093968452 -2.5158103209 -0.4538985450
27
Scanning combination 5/37: [219.1159]  Energy = -652.9130660150
C  -3.3683774837 -1.6148942726  0.1611398634
C  -2.0680701187 -1.5659535197  0.5878825537
C  -1.2932844112 -0.3842200420  0.4290133630
C  -1.8918631047  0.7442163776 -0.1849190614
C  -3.2465748539  0.6712173436 -0.6103040618
C  -3.9678108538 -0.4808374267 -0.4434823347
H   0.4943070262 -1.1690420310  1.3594769517
H  -3.9516267786 -2.5245909112  0.2817563244
H  -1.6087022130 -2.4341945833  1.0567689580
C   0.0554742926 -0.2988534325  0.8767457654
C  -1.1138243646  1.9193267472 -0.3558501228
H  -3.7002940872  1.5470167547 -1.0705243878
H  -5.0022456150 -0.5356770817 -0.7726809655
C   0.1844834489  1.9637576339  0.0711303816
C   0.7972779381  0.8479965873  0.7011316898
H  -1.5723323018  2.7897397624 -0.8200418480
H   0.7626235861  2.8776632824 -0.0546343296
C   2.2276467205  0.9942077037  1.1900205716
C   3.3712508582  0.4276557446  0.2962009280
H   2.2986602478  0.5022116207  2.1668853587
H   2.4391118343  2.0517024733  1.3758936405
H   4.1376632100 -0.0367348771  0.9245632691
H   3.8152519418  1.2173914700 -0.3103702629
C   2.9196927883 -0.6522729914 -0.6603824421
O   2.6443312796 -0.5016867212 -1.8241552874
O   2.8346557183 -1.8573833475 -0.0505220932
H   2.5016350707 -2.4704660551 -0.7275858311
27
Scanning combination 6/37: [229.1159]  Energy = -652.9113557939
C  -3.3504873008 -1.6280985867  0.1884337792
C  -2.0530479365 -1.5653092036  0.6235232393
C  -1.2853920517 -0.3807076130  0.4522739291
C  -1.8849632536  0.7324003363 -0.1894334392
C  -3.2370376761  0.6428873251 -0.6215537813
C  -3.9540913131 -0.5087865783 -0.4381403910
H   0.4923958198 -1.1375286611  1.4219846271
H  -3.9303681339 -2.5379206703  0.3167828161
H  -1.5927045636 -2.4266427240  1.1048300965
C   0.0594162190 -0.2807148440  0.9097283749
C  -1.1075019668  1.9050887636 -0.3847418325
H  -3.6898016078  1.5059987758 -1.1048575682
H  -4.9862094630 -0.5732201909 -0.7746567715
C   0.1905974743  1.9581127388  0.0460232047
C   0.8026214461  0.8610011659  0.7082247816
H  -1.5608705038  2.7647718900 -0.8750508772
H   0.7743304029  2.8648448232 -0.1026950266
C   2.2327650253  1.0110052916  1.2014530702
C   3.3746737380  0.3279316279  0.3812526997
H   2.2880550626  0.6371742716  2.2310819180
H   2.4646351209  2.0796209761  1.2603849535
H   4.0266296088 -0.2485901696  1.0437117259
H   3.9702873812  1.0957005134 -0.1192394016
C   2.8786673136 -0.6173223423 -0.6866874271
O   2.5986723913 -0.3139700090 -1.8188042164
O   2.7458785956 -1.8792523104 -0.2170204567
H   2.3741355122 -2.3994231510 -0.9487024531
27
Scanning combination 7/37: [239.1159]  Energy = -652.9109629546
C  -3.3394745675 -1.6393440794  0.2111440562
C  -2.0456175281 -1.5655496825  0.6554537059
C  -1.2800742414 -0.3808392535  0.4740740601
C  -1.8765015226  0.7209569162 -0.1891085839
C  -3.2244086644  0.6227679875 -0.6296450328
C  -3.9387447921 -0.5286544966 -0.4351477717
H   0.4940284256 -1.1206034734  1.4602049112
H  -3.9188308863 -2.5491982107  0.3493571331
H  -1.5883373162 -2.4181969903  1.1538752995
C   0.0608009357 -0.2683311476  0.9394944344
C  -1.1041010610  1.8941706309 -0.3971867624
H  -3.6749915008  1.4802871670 -1.1261667603
H  -4.9672042126 -0.6006454132 -0.7784000506
C   0.1899042742  1.9611064718  0.0416694508
C   0.7982234206  0.8746945297  0.7242999652
H  -1.5572757424  2.7402724375 -0.9089752072
H   0.7765009499  2.8640855474 -0.1249304133
C   2.2298620811  1.0334240202  1.2029485775
C   3.3412780028  0.2280632719  0.4582244136
H   2.3014560231  0.8037967609  2.2728880557
H   2.4799838115  2.0960732733  1.1168432420
H   3.8645800589 -0.4338271773  1.1523216729
H   4.0744977645  0.9369421590  0.0637628847
C   2.8524960610 -0.5942380774 -0.7117639694
O   2.6190033729 -0.1766323206 -1.8178818035
O   2.6735805139 -1.8901305601 -0.3687681534
H   2.3328627172 -2.3377919997 -1.1605669588
27
Scanning combination 8/37: [249.1159]  Energy = -652.9118646685
C  -3.3274366912 -1.6482821376  0.2401410399
C  -2.0367331289 -1.5592658754  0.6907869733
C  -1.2769591501 -0.3733573290  0.4918938100
C  -1.8777244468  0.7149333593 -0.1905072089
C  -3.2227359194  0.6000766851 -0.6372426447
C  -3.9303381479 -0.5530404787 -0.4279571479
H   0.5031204033 -1.0840431931  1.4952716188
H  -3.9011394182 -2.5599649183  0.3879737111
H  -1.5778129140 -2.4014156423  1.2055532506
C   0.0635012894 -0.2461177509  0.9560195903
C  -1.1123525797  1.8909287865 -0.4091953234
H  -3.6757143032  1.4448316598 -1.1526078801
H  -4.9545803287 -0.6391006129 -0.7804704674
C   0.1831530284  1.9693478772  0.0262131080
C   0.7989782236  0.8931690696  0.7189934605
H  -1.5716313419  2.7305808902 -0.9273494945
H   0.7641663534  2.8727878227 -0.1547961642
C   2.2355617383  1.0471773441  1.1868021466
C   3.3083159085  0.1282083390  0.5274496339
H   2.3053948074  0.9229046514  2.2739440742
H   2.5210237174  2.0858716221  0.9853928933
H   3.6844572270 -0.6059925086  1.2444441766
H   4.1616418530  0.7562124423  0.2498172245
C   2.8498840966 -0.5677863581 -0.7317382590
O   2.6702650783 -0.0387285994 -1.8002976803
O   2.6282897228 -1.8841422023 -0.5211579453
H   2.2838424563 -2.2434122139 -1.3552918406
27
Scanning combination 9/37: [259.1159]  Energy = -652.9138027732
C  -3.3133330943 -1.6553045815  0.2640575949
C  -2.0242928338 -1.5530513164  0.7161613994
C  -1.2740351613 -0.3644674461  0.5051551894
C  -1.8800183839  0.7133370484 -0.1887697759
C  -3.2218773001  0.5828691468 -0.6390329245
C  -3.9223224406 -0.5725705935 -0.4188654029
H   0.5152567504 -1.0620762047  1.4998484931
H  -3.8806006944 -2.5682177321  0.4241801950
H  -1.5570304934 -2.3836413569  1.2426588129
C   0.0656734293 -0.2273862254  0.9645605738
C  -1.1223481458  1.8921220204 -0.4185624432
H  -3.6797524507  1.4195804062 -1.1622915134
H  -4.9459673717 -0.6693799031 -0.7710152914
C   0.1720955092  1.9817022154  0.0178036482
C   0.7918725608  0.9154297973  0.7216716384
H  -1.5856792490  2.7194619561 -0.9527453221
H   0.7496753353  2.8841086875 -0.1771301815
C   2.2310024050  1.0709643087  1.1758195870
C   3.2412062644  0.0348600580  0.6095608737
H   2.2987717737  1.0818929135  2.2711572553
H   2.5587244135  2.0601709423  0.8380138515
H   3.4680554980 -0.7514405821  1.3329745194
H   4.1903459290  0.5571024062  0.4346042372
C   2.8384564886 -0.5500278517 -0.7230767356
O   2.7503618737  0.0720249612 -1.7529765433
O   2.5686009395 -1.8712533935 -0.6449558636
H   2.2981030549 -2.1479098523 -1.5363375645
27
Scanning combination 10/37: [269.1159]  Energy = -652.9160601054
C  -3.3106005700 -1.6614383487  0.2810155625
C  -2.0215364351 -1.5500683812  0.7318772686
C  -1.2727115542 -0.3615658602  0.5105713721
C  -1.8815669724  0.7122147201 -0.1862530148
C  -3.2247201885  0.5751170913 -0.6334294667
C  -3.9193866330 -0.5836877413 -0.4105272658
H   0.5116573859 -1.0466157452  1.5151676993
H  -3.8739183806 -2.5775692800  0.4440342177
H  -1.5534811455 -2.3767269186  1.2624587662
C   0.0675309115 -0.2181775808  0.9668214225
C  -1.1250783931  1.8904589338 -0.4247605229
H  -3.6852485586  1.4030732292 -1.1696530231
H  -4.9420781388 -0.6889130970 -0.7636883945
C   0.1690015382  1.9877172663  0.0099312287
C   0.7914709561  0.9249374572  0.7175019291
H  -1.5977686342  2.7168577485 -0.9510666376
H   0.7424705954  2.8927404877 -0.1895086200
C   2.2355225390  1.0797155877  1.1518247598
C   3.1924300176 -0.0321584345  0.6586475003
H   2.3194798071  1.1619701596  2.2419733470
H   2.5861246964  2.0366371943  0.7510029765
H   3.2600192923 -0.8543091636  1.3750171310
H   4.1993392514  0.3967519282  0.5866268937
C   2.8512247163 -0.5403500092 -0.7220199965
O   2.8062066717  0.1375722115 -1.7199765182
O   2.5711625941 -1.8603993308 -0.7240393025
H   2.3065197438 -2.0847347648 -1.6311060065
27
Scanning combination 11/37: [279.1159]  Energy = -652.9180820141
C  -3.3042232544 -1.6640677639  0.2989885392
C  -2.0165978751 -1.5473262436  0.7499502360
C  -1.2751047093 -0.3548007520  0.5260867249
C  -1.8883332697  0.7103523714 -0.1806893326
C  -3.2279957631  0.5640076577 -0.6308183198
C  -3.9205957509 -0.5941670484 -0.3974247296
H   0.5160693192 -1.0330740657  1.5201448330
H  -3.8637596982 -2.5813345132  0.4641017140
H  -1.5443443227 -2.3689554407  1.2864813491
C   0.0648823472 -0.2034190790  0.9791630349
C  -1.1405583757  1.8934199807 -0.4224325266
H  -3.6909800296  1.3878937086 -1.1693121156
H  -4.9395680953 -0.7065574875 -0.7578680280
C   0.1546506390  1.9956736970  0.0090162550
C   0.7837725187  0.9395061955  0.7185970636
H  -1.6091487296  2.7144084679 -0.9610063432
H   0.7298909970  2.8966701996 -0.1973822597
C   2.2366219051  1.0924811742  1.1263109774
C   3.1199335623 -0.0994934575  0.7106705335
H   2.3389206269  1.2622163527  2.2057206796
H   2.6232196821  1.9912237397  0.6312262379
H   3.0343689510 -0.9409765047  1.4016083388
H   4.1708613971  0.2137143229  0.7541329464
C   2.8609752718 -0.5313511888 -0.7129300506
O   2.9013402162  0.2002204021 -1.6722871041
O   2.5550711822 -1.8424694338 -0.8061736335
H   2.3648803696 -2.0130867197 -1.7432729333
27
Scanning combination 12/37: [289.1159]  Energy = -652.9193017487
C  -3.3017461696 -1.6676559904  0.3160880974
C  -2.0158369328 -1.5395673173  0.7685267257
C  -1.2825620645 -0.3444364825  0.5362310028
C  -1.9001134707  0.7143687398 -0.1757069616
C  -3.2379604725  0.5566896972 -0.6277231810
C  -3.9224800662 -0.6053313261 -0.3890546602
H   0.5109759750 -1.0142159490  1.5286097255
H  -3.8570955990 -2.5856593268  0.4905933830
H  -1.5365644391 -2.3526774101  1.3118144009
C   0.0578482647 -0.1900706456  0.9813102804
C  -1.1556230025  1.8993561380 -0.4192351715
H  -3.7074339124  1.3768541765 -1.1669801617
H  -4.9430138593 -0.7235664309 -0.7438208311
C   0.1422477241  2.0041308995  0.0033663586
C   0.7775895442  0.9486177253  0.7085160690
H  -1.6278396118  2.7175981398 -0.9588239741
H   0.7147057012  2.9043701909 -0.2122847979
C   2.2371866679  1.0876492589  1.0938646253
C   3.0686106468 -0.1553995272  0.7434851885
H   2.3407777861  1.3046825165  2.1646822756
H   2.6587112954  1.9413690922  0.5513139347
H   2.8308723594 -1.0060029133  1.3846713396
H   4.1323078131  0.0697667467  0.8891709413
C   2.8935347040 -0.5275943284 -0.7098273031
O   3.0229297712  0.2382363068 -1.6335372063
O   2.5517827009 -1.8217468582 -0.8784987561
H   2.4361378538 -1.9455024446 -1.8353089807
27
Scanning combination 13/37: [299.1159]  Energy = -652.9186443690
C  -3.3042783512 -1.6690119816  0.3174894372
C  -2.0193602741 -1.5389824179  0.7712968626
C  -1.2868571118 -0.3434400208  0.5425172981
C  -1.9042499203  0.7142903161 -0.1701697896
C  -3.2409685092  0.5563928404 -0.6248787402
C  -3.9246631022 -0.6070507029 -0.3884944122
H   0.4976683654 -1.0230401702  1.5376751768
H  -3.8595971058 -2.5866586926  0.4952238130
H  -1.5363266197 -2.3499065968  1.3137734551
C   0.0537198480 -0.1941573646  0.9905916668
C  -1.1573376552  1.8975976566 -0.4147793912
H  -3.7093406043  1.3748328205 -1.1681390662
H  -4.9458072481 -0.7248911724 -0.7409138125
C   0.1383043477  1.9995284423  0.0124314315
C   0.7752150203  0.9447061410  0.7180093799
H  -1.6253309764  2.7137796833 -0.9611871041
H   0.7152677845  2.8961998065 -0.2084677931
C   2.2435328453  1.0938702014  1.0650194546
C   3.0639261850 -0.1605707319  0.7442743941
H   2.3506361497  1.3177999019  2.1335920558
H   2.6593877991  1.9464556101  0.5181070342
H   2.7144561179 -1.0289818476  1.3053881234
H   4.1244617761  0.0017935764  0.9687168433
C   2.9158226624 -0.5060372030 -0.7248530653
O   3.0455537857  0.2558616227 -1.6524668763
O   2.5613263232 -1.7995186813 -0.8881429688
H   2.4457767444 -1.9389754302 -1.8418747596
27
Scanning combination 14/37: [309.1159]  Energy = -652.9175448273
C  -3.3150604142 -1.6702025217  0.3383686520
C  -2.0334316263 -1.5339817017  0.7985105502
C  -1.3041120592 -0.3361623193  0.5656340557
C  -1.9208670164  0.7157322330 -0.1554801686
C  -3.2559269993  0.5518854525 -0.6110292483
C  -3.9366365868 -0.6123302563 -0.3723552109
H   0.4735512538 -0.9956479821  1.5811353568
H  -3.8662583857 -2.5908643630  0.5106582673
H  -1.5489757318 -2.3424793206  1.3434463847
C   0.0368453761 -0.1810659883  1.0068066467
C  -1.1760528036  1.8996560520 -0.4041941072
H  -3.7231818440  1.3663568007 -1.1599794986
H  -4.9532842408 -0.7369470477 -0.7352082662
C   0.1232455244  2.0038939123  0.0090476405
C   0.7640477939  0.9496361663  0.7125018522
H  -1.6491522569  2.7147206777 -0.9470215809
H   0.6961987773  2.9029179168 -0.2119712876
C   2.2435317524  1.0850611975  1.0170786891
C   2.9921881983 -0.2258419300  0.7732642632
H   2.3937388661  1.4161033286  2.0526075700
H   2.6810139389  1.8514292209  0.3690155875
H   2.5139235785 -1.0681648537  1.2721726730
H   4.0356124243 -0.1534680869  1.0970562724
C   2.9713414680 -0.5123561658 -0.7132714188
O   3.2114993701  0.3019288285 -1.5727220982
O   2.6178843461 -1.7810613049 -1.0003875834
H   2.5944048844 -1.8359501236 -1.9705730550
27
Scanning combination 15/37: [319.1159]  Energy = -652.9216232751
C  -3.6707728555 -1.4546363243  0.6555748787
C  -2.3647433122 -1.4109757024  1.0605773722
C  -1.5104934883 -0.3488432682  0.6531415187
C  -2.0349384252  0.6661300485 -0.1887455921
C  -3.3986977573  0.6008328896 -0.5857120453
C  -4.1954173408 -0.4357373596 -0.1788297926
H   0.2263806863 -1.0521041300  1.7249177229
H  -4.3157057502 -2.2756207378  0.9631556243
H  -1.9621453402 -2.1908779900  1.7044155760
C  -0.1512371299 -0.2760787259  1.0607523175
C  -1.1719583075  1.7091325462 -0.6141292103
H  -3.7946161665  1.3893099728 -1.2233841635
H  -5.2369669722 -0.4829262010 -0.4881479039
C   0.1374196546  1.7336196824 -0.2198846705
C   0.6739746078  0.7369277183  0.6379849528
H  -1.5701240230  2.4895237675 -1.2594882725
H   0.7982613241  2.5256315937 -0.5648380215
C   2.1301897329  0.8139301825  1.0510064713
C   2.9740359986 -0.3727888881  0.5800566220
H   2.1962187454  0.8836208923  2.1435724637
H   2.5673098601  1.7305531127  0.6485551205
H   2.4335196034 -1.3206938062  0.6844520087
H   3.8907441565 -0.4694090771  1.1720292800
C   3.3784738535 -0.2485221520 -0.8685225928
O   3.1028462590  0.6652097530 -1.6115828847
O   4.1256374072 -1.2998615890 -1.2630819613
H   4.3557589585 -1.1367082800 -2.1926990532
27
Scanning combination 16/37: [329.1159]  Energy = -652.9201145027
C  -3.6722976339 -1.4555854902  0.6599379960
C  -2.3666599373 -1.4117032997  1.0702794401
C  -1.5133067499 -0.3481773616  0.6653780140
C  -2.0355613488  0.6639134865 -0.1810186929
C  -3.3964415269  0.5959222018 -0.5843188563
C  -4.1959267695 -0.4375760765 -0.1760130116
H   0.2244895892 -1.0567711412  1.7296734693
H  -4.3184733626 -2.2725463873  0.9703119766
H  -1.9614759226 -2.1934122497  1.7099376532
C  -0.1524763640 -0.2778155621  1.0685414359
C  -1.1741240563  1.7064093503 -0.6100596767
H  -3.7881526861  1.3815886482 -1.2267161487
H  -5.2362351864 -0.4829326611 -0.4889119963
C   0.1355461939  1.7302860964 -0.2185686307
C   0.6710524989  0.7367829535  0.6442074726
H  -1.5714864334  2.4804594588 -1.2632955069
H   0.8004708517  2.5158675625 -0.5721548990
C   2.1332823768  0.8253599461  1.0338369605
C   2.9465285992 -0.3876395217  0.5718451834
H   2.2098611280  0.9151046222  2.1261549024
H   2.5669800104  1.7332125149  0.6085118194
H   2.3231312775 -1.2896197608  0.5510376944
H   3.8131126456 -0.5877895900  1.2097683014
C   3.4089714920 -0.2274467574 -0.8608692649
O   3.1514329945  0.6973554888 -1.5949583989
O   4.1430577928 -1.2836308966 -1.2662614896
H   4.3523370889 -1.1257928035 -2.2022498379
27
Scanning combination 17/37: [339.1159]  Energy = -652.9187188897
C  -3.6855892950 -1.4521476782  0.7034409259
C  -2.3856801889 -1.3789702448  1.1216127177
C  -1.5456749750 -0.3147332544  0.6970409487
C  -2.0691303882  0.6738390197 -0.1748070160
C  -3.4284520695  0.5824711829 -0.5802794959
C  -4.2156824568 -0.4549374422 -0.1541165333
H   0.1945827818 -0.9857356521  1.7841044354
H  -4.3201381144 -2.2737647813  1.0267615056
H  -1.9696392730 -2.1376207938  1.7818750123
C  -0.1878209629 -0.2329177328  1.0975232339
C  -1.2071930663  1.7120859485 -0.6212486032
H  -3.8311104316  1.3479661645 -1.2411541767
H  -5.2511079139 -0.5268982580 -0.4752153880
C   0.1073239542  1.7413798134 -0.2420831334
C   0.6433889773  0.7552190271  0.6293809164
H  -1.6093081550  2.4743240476 -1.2855380997
H   0.7676308868  2.5258660778 -0.6109988669
C   2.1119896557  0.7803772178  0.9937137923
C   2.8616532485 -0.4564509261  0.4785480777
H   2.2056462262  0.8312573814  2.0869014499
H   2.5814063904  1.6806071952  0.5929165496
H   2.1770525125 -1.2880449369  0.2741962563
H   3.6268618722 -0.8065775661  1.1778789842
C   3.5196387333 -0.1962558369 -0.8600260633
O   3.4720625926  0.8310580231 -1.4923169634
O   4.1773587154 -1.2888371844 -1.3020299967
H   4.5695375188 -1.0473475772 -2.1580122054
27
Scanning combination 18/37: [349.1159]  Energy = -652.9173396383
C  -3.7336325614 -1.4294111058  0.7667008394
C  -2.4326409643 -1.3529600213  1.1829000265
C  -1.5849115294 -0.3090920148  0.7244871400
C  -2.1102106787  0.6653563549 -0.1623951652
C  -3.4682495842  0.5686313331 -0.5681219969
C  -4.2591725197 -0.4551683166 -0.1196638070
H   0.1695902918 -0.9733191159  1.7980646930
H  -4.3721575084 -2.2401318492  1.1079801046
H  -2.0208448016 -2.1015738427  1.8574212844
C  -0.2207803753 -0.2277350073  1.1069194691
C  -1.2530272195  1.7003661250 -0.6235668091
H  -3.8643180287  1.3192047019 -1.2494837830
H  -5.2939041682 -0.5312906514 -0.4427099414
C   0.0611592238  1.7402578752 -0.2488810784
C   0.6075706918  0.7511827983  0.6122196106
H  -1.6595669821  2.4578900509 -1.2907949878
H   0.7141860660  2.5308077096 -0.6183510280
C   2.0903967475  0.7472079414  0.9157956112
C   2.8152454611 -0.4846447669  0.3432874981
H   2.2299339404  0.7702985534  2.0023103450
H   2.5586067043  1.6498222367  0.5180619471
H   2.1083554793 -1.2394662114 -0.0187153337
H   3.4490378049 -0.9780082193  1.0857377841
C   3.6939940386 -0.1575247598 -0.8441791428
O   3.8503078749  0.9283413384 -1.3490336040
O   4.3138093896 -1.2619395609 -1.3081443315
H   4.8657400740 -0.9677241266 -2.0517406661
27
Scanning combination 19/37: [359.1159]  Energy = -652.9158604000
C  -3.7375663159 -1.4304324296  0.7689041485
C  -2.4352874488 -1.3577906052  1.1845596769
C  -1.5868922870 -0.3114146443  0.7320220978
C  -2.1133884442  0.6640758547 -0.1530405624
C  -3.4704634432  0.5665948365 -0.5630996059
C  -4.2633353334 -0.4565099886 -0.1168734499
H   0.1690140466 -0.9888165829  1.7944122463
H  -4.3790357236 -2.2360369263  1.1152075671
H  -2.0276023978 -2.1061336873  1.8620914590
C  -0.2201041325 -0.2336179537  1.1135353990
C  -1.2570045373  1.6987491839 -0.6151328269
H  -3.8652132723  1.3171843916 -1.2446595817
H  -5.2999840913 -0.5286240626 -0.4367094419
C   0.0576528855  1.7339335149 -0.2423951457
C   0.6054432198  0.7491303417  0.6232016826
H  -1.6596961704  2.4526649680 -1.2879240578
H   0.7172747264  2.5143397386 -0.6192202001
C   2.0952535252  0.7593102741  0.8953711993
C   2.7918206448 -0.4901371827  0.3230112900
H   2.2753904470  0.8251660379  1.9770542584
H   2.5382651294  1.6510212663  0.4477070750
H   2.0730993053 -1.1616510213 -0.1618682735
H   3.3255770747 -1.0734761122  1.0773139397
C   3.7344880701 -0.1481049163 -0.8130848531
O   3.8926745348  0.9407755909 -1.3111633213
O   4.3560626615 -1.2490632788 -1.2815131382
H   4.8677266117 -0.9605719538 -2.0553320159
27
Scanning combination 20/37: [369.1159]  Energy = -652.9169342522
C  -3.7683912151 -1.4339217472  0.8219671649
C  -2.4625434602 -1.3411215031  1.2221465495
C  -1.6332618682 -0.2878817674  0.7505283339
C  -2.1839798806  0.6832789495 -0.1248122714
C  -3.5454561847  0.5674353981 -0.5160431532
C  -4.3163132230 -0.4680122633 -0.0595482913
H   0.1483773244 -0.9422171510  1.7826562450
H  -4.3923110462 -2.2513118755  1.1741676508
H  -2.0375737572 -2.0793464596  1.8999601592
C  -0.2586454409 -0.1996587619  1.0982045550
C  -1.3463601877  1.7284323255 -0.5988451381
H  -3.9591597432  1.3106828803 -1.1949518428
H  -5.3519797241 -0.5623966975 -0.3751620494
C  -0.0188570097  1.7654653696 -0.2675767856
C   0.5580645162  0.7692342939  0.5647094940
H  -1.7753656804  2.4895526482 -1.2480074547
H   0.6189955959  2.5607754161 -0.6504335963
C   2.0565897901  0.7288007163  0.7662721315
C   2.7018306850 -0.4936047300  0.0829723640
H   2.2970751934  0.7223678608  1.8358859341
H   2.5040767169  1.6366509357  0.3521200287
H   1.9884078706 -1.0258062409 -0.5584849428
H   3.0321211472 -1.2291899370  0.8233101279
C   3.9001811649 -0.1626369024 -0.7749756512
O   4.3460225685  0.9345303783 -1.0077293216
O   4.4420680341 -1.2869267852 -1.2862787686
H   5.2109608726 -1.0069189075 -1.8096224401
27
Scanning combination 21/37: [379.1159]  Energy = -652.9187470976
C  -3.8094145466 -1.4077080342  0.9016611148
C  -2.4832280499 -1.3421349790  1.2355708997
C  -1.6575230175 -0.3043422769  0.7234325248
C  -2.2295792028  0.6736820624 -0.1288974321
C  -3.6114152829  0.5864157268 -0.4508166406
C  -4.3809022121 -0.4321047120  0.0463695808
H   0.1537170218 -0.9824743672  1.6825542357
H  -4.4326778487 -2.2123488632  1.2841129885
H  -2.0401985243 -2.0915635243  1.8887951819
C  -0.2701102863 -0.2305634940  1.0191776690
C  -1.3964303510  1.7027941846 -0.6435389120
H  -4.0425075132  1.3374594722 -1.1089826809
H  -5.4339154760 -0.5017057308 -0.2135897569
C  -0.0575093111  1.7325466381 -0.3534298242
C   0.5349536399  0.7404045975  0.4719680941
H  -1.8398284325  2.4642374301 -1.2816115864
H   0.5716289142  2.5226409680 -0.7598069139
C   2.0333171039  0.7066167820  0.6741555428
C   2.6895197185 -0.4584300633 -0.0884063683
H   2.2806108665  0.6371154195  1.7397319641
H   2.4672183904  1.6450622960  0.3142693506
H   2.0353315221 -0.8334330917 -0.8840764942
H   2.8267959714 -1.3244823583  0.5695675150
C   4.0452799131 -0.1440122831 -0.6706719956
O   4.6166963817  0.9198487802 -0.6384518080
O   4.5852622731 -1.2382975896 -1.2456636308
H   5.4595656432 -0.9710841008 -1.5747992249
27
Scanning combination 22/37: [389.1159]  Energy = -652.9197471146
C  -3.8107999389 -1.4064949303  0.9036288622
C  -2.4840105970 -1.3436414817  1.2357287975
C  -1.6563354423 -0.3081323484  0.7252376919
C  -2.2303611504  0.6710656526 -0.1260433760
C  -3.6124942843  0.5855712380 -0.4486562292
C  -4.3832939535 -0.4309253835  0.0488485159
H   0.1512763757 -1.0006116154  1.6813627135
H  -4.4355756350 -2.2070185367  1.2906214250
H  -2.0413256931 -2.0922670992  1.8901581905
C  -0.2672034025 -0.2413255867  1.0225536002
C  -1.3954731493  1.6990451090 -0.6385817140
H  -4.0445157452  1.3384303105 -1.1051546009
H  -5.4380032406 -0.4970665070 -0.2070155746
C  -0.0581443274  1.7224892455 -0.3469884198
C   0.5365871923  0.7329631722  0.4810476835
H  -1.8327587797  2.4607141168 -1.2811056891
H   0.5751785686  2.5058674106 -0.7593032599
C   2.0389369541  0.7200050193  0.6553071969
C   2.6778832068 -0.4528621812 -0.1042206893
H   2.3060132696  0.6731926821  1.7190549062
H   2.4634397823  1.6512514423  0.2687398344
H   2.0757192801 -0.7158322961 -0.9830313238
H   2.7209114189 -1.3657858022  0.4998812764
C   4.0587747509 -0.1467152416 -0.6375225748
O   4.6221029849  0.9215668056 -0.6114741249
O   4.6063931145 -1.2367086062 -1.2116297488
H   5.4590143171 -0.9529247642 -1.5807111721
27
Scanning combination 23/37: [399.1159]  Energy = -652.9213516567
C  -3.8117807657 -1.4081316129  0.9656427625
C  -2.4768445960 -1.3379120217  1.2604170227
C  -1.6679119363 -0.3019506801  0.7182608510
C  -2.2702815886  0.6767304526 -0.1129628022
C  -3.6595001720  0.5815191834 -0.3990526536
C  -4.4108435960 -0.4390436882  0.1206714856
H   0.1742366320 -0.9842511371  1.6114204363
H  -4.4231704933 -2.2103495818  1.3723813524
H  -2.0145240603 -2.0800684402  1.9095037673
C  -0.2692532789 -0.2307923937  0.9625713128
C  -1.4571026324  1.7125510912 -0.6453626699
H  -4.1120549388  1.3297291373 -1.0468232827
H  -5.4704315057 -0.5145045520 -0.1107502831
C  -0.1096225528  1.7410517992 -0.4014081090
C   0.5155764979  0.7441514162  0.3944198631
H  -1.9245900601  2.4794294996 -1.2596420707
H   0.5014454280  2.5391362555 -0.8189577288
C   2.0201419234  0.7178380500  0.5384729251
C   2.6557969363 -0.3786146376 -0.3256389888
H   2.3059601003  0.5645941107  1.5861150572
H   2.4384407423  1.6840826844  0.2391035020
H   2.1570697766 -0.4591195749 -1.2992630262
H   2.5215933360 -1.3628336493  0.1380102302
C   4.1328494901 -0.1783662388 -0.5567292952
O   4.7772204695  0.7953285788 -0.2501260972
O   4.6806563069 -1.2502619867 -1.1656369010
H   5.6275625561 -1.0571198782 -1.2628185178
27
Scanning combination 24/37: [409.1159]  Energy = -652.9216212485
C  -3.8125438742 -1.4077060561  0.9678824515
C  -2.4770094235 -1.3403968249  1.2612982522
C  -1.6659428038 -0.3048581607  0.7224218557
C  -2.2702799833  0.6727168705 -0.1098402370
C  -3.6596574426  0.5802184791 -0.3962639878
C  -4.4127765455 -0.4384525785  0.1245773518
H   0.1748783875 -0.9999151711  1.6120482771
H  -4.4245872110 -2.2085692151  1.3752310923
H  -2.0147015127 -2.0841070544  1.9081430093
C  -0.2661254641 -0.2376846895  0.9705938824
C  -1.4575387138  1.7084358552 -0.6417195557
H  -4.1117506834  1.3303086582 -1.0423028479
H  -5.4729279052 -0.5106449659 -0.1050082621
C  -0.1119836177  1.7340964268 -0.3928717862
C   0.5157040757  0.7402178792  0.4052637376
H  -1.9188665311  2.4740784636 -1.2624560508
H   0.5021773753  2.5259612798 -0.8160404287
C   2.0235231419  0.7360130870  0.5166252999
C   2.6430294778 -0.3646299235 -0.3515550699
H   2.3243439791  0.5981548294  1.5625859956
H   2.4352499595  1.6971551179  0.1972990807
H   2.2242736773 -0.3237334908 -1.3653372984
H   2.4314399679 -1.3680673500  0.0317596877
C   4.1348883267 -0.1894774191 -0.5301955283
O   4.7798942440  0.7845870307 -0.2205674501
O   4.6894522597 -1.2605553291 -1.1320142021
H   5.6280147390 -1.0448980098 -1.2644734904
27
Scanning combination 25/37: [419.1159]  Energy = -652.9226324860
C  -3.7905889979 -1.4120095966  1.0278224149
C  -2.4440809687 -1.3435875330  1.2627118576
C  -1.6597771771 -0.3065126786  0.6893425972
C  -2.2957088752  0.6721792645 -0.1170476083
C  -3.6966288113  0.5785422273 -0.3414330903
C  -4.4242244803 -0.4420078628  0.2103875970
H   0.2167327525 -0.9899199524  1.5095184743
H  -4.3835216112 -2.2137244629  1.4613061413
H  -1.9530823589 -2.0859669043  1.8892448873
C  -0.2550923464 -0.2310479618  0.8864247549
C  -1.5032004065  1.7084610998 -0.6794828683
H  -4.1784512110  1.3268845103 -0.9674881785
H  -5.4932086404 -0.5154906705  0.0284381396
C  -0.1499851828  1.7453128396 -0.4772967571
C   0.5040082025  0.7555400555  0.3057555093
H  -1.9907656351  2.4745348413 -1.2792857839
H   0.4440916242  2.5435977957 -0.9194374078
C   2.0093773513  0.7559972629  0.4356904166
C   2.6692961804 -0.2486384167 -0.5133239661
H   2.2936601896  0.5033405896  1.4641660283
H   2.4160442874  1.7526273373  0.2405263421
H   2.4195716788 -0.0270522385 -1.5580600363
H   2.3187741140 -1.2695937420 -0.3248940824
C   4.1760696539 -0.2350087654 -0.4118559099
O   4.8395508836  0.5735030370  0.1920797660
O   4.7225246137 -1.2583643626 -1.1005609775
H   5.6851858143 -1.1778220369 -0.9995350770
27
Scanning combination 26/37: [429.1159]  Energy = -652.9218301777
C  -3.7918522504 -1.4158393997  1.0339944073
C  -2.4443976897 -1.3510190414  1.2675467022
C  -1.6554347854 -0.3134569008  0.6980623002
C  -2.2943287007  0.6635001753 -0.1087956102
C  -3.6946694129  0.5754233057 -0.3326126154
C  -4.4254438511 -0.4424919894  0.2203261658
H   0.2267513100 -0.9940377492  1.5137903007
H  -4.3873194865 -2.2172566873  1.4662180367
H  -1.9578974289 -2.0983981655  1.8913136357
C  -0.2473986104 -0.2341167281  0.8936147293
C  -1.5083944230  1.7010866693 -0.6761734460
H  -4.1727615155  1.3263610734 -0.9593463362
H  -5.4940509484 -0.5124139396  0.0384192781
C  -0.1564957167  1.7430190603 -0.4729492390
C   0.5044422330  0.7554311344  0.3063003199
H  -1.9984139827  2.4609141942 -1.2808179412
H   0.4348818378  2.5424120567 -0.9158427835
C   2.0123495967  0.7862921338  0.3967666795
C   2.6658525013 -0.1874339726 -0.5886532819
H   2.3444324068  0.5417591292  1.4120128555
H   2.3758854259  1.7981167304  0.1925940810
H   2.5161264366  0.1703727815 -1.6133223986
H   2.2417246658 -1.1955366233 -0.5340614509
C   4.1610140085 -0.2557246586 -0.4022531140
O   4.8192798074  0.5125794215  0.2579910959
O   4.7172127025 -1.2663210247 -1.0993932742
H   5.6737626076 -1.1969221138 -0.9409261444
27
Scanning combination 27/37: [439.1159]  Energy = -652.9214006219
C  -3.7620121917 -1.4263161953  1.0731347584
C  -2.4087842807 -1.3567784012  1.2701108657
C  -1.6399698997 -0.3172300638  0.6773776821
C  -2.3063385533  0.6546257673 -0.1129919688
C  -3.7123436970  0.5617381764 -0.2975112330
C  -4.4241029423 -0.4573365101  0.2769280710
H   0.2664999660 -0.9711159920  1.4626599170
H  -4.3420638260 -2.2276382813  1.5243750666
H  -1.9021357912 -2.1003140864  1.8826740465
C  -0.2282925570 -0.2232963511  0.8417172015
C  -1.5423193617  1.6951047120 -0.7006659396
H  -4.2100610126  1.3134713363 -0.9075692335
H  -5.4986941295 -0.5282153408  0.1292897227
C  -0.1874879637  1.7504567654 -0.5306595239
C   0.5009239640  0.7741338551  0.2374599211
H  -2.0541096912  2.4510845071 -1.2901535073
H   0.3830132826  2.5560756836 -0.9865100057
C   2.0095832343  0.8386402835  0.3274086879
C   2.7192377200 -0.0622697585 -0.6919775658
H   2.3340112268  0.5478679894  1.3323801841
H   2.3530915173  1.8694132608  0.1903084783
H   2.7397913480  0.3992562179 -1.6849194872
H   2.2255944625 -1.0320816941 -0.8050277756
C   4.1546139437 -0.3241115742 -0.3032927145
O   4.7400979515  0.1885205373  0.6207996403
O   4.7383006569 -1.2294302226 -1.1149769116
H   5.6310294322 -1.3670332828 -0.7571947228
27
Scanning combination 28/37: [449.1159]  Energy = -652.9204619829
C  -3.7278026909 -1.4358446595  1.1013118474
C  -2.3709924521 -1.3583862751  1.2698771541
C  -1.6213613372 -0.3153247106  0.6598695481
C  -2.3064649439  0.6479015245 -0.1246043866
C  -3.7149904724  0.5468197438 -0.2799822464
C  -4.4099104210 -0.4716671764  0.3152080942
H   0.2980698988 -0.9514329425  1.4221516286
H  -4.2949086206 -2.2370505051  1.5678708786
H  -1.8480249039 -2.0967493064  1.8748587555
C  -0.2100399532 -0.2076250149  0.8086088240
C  -1.5561453020  1.6888191895 -0.7326143270
H  -4.2287722468  1.2949502294 -0.8817106167
H  -5.4870526362 -0.5461137278  0.1923856440
C  -0.1993859207  1.7578934923 -0.5744472268
C   0.5034513094  0.7978178527  0.2010413424
H  -2.0804843792  2.4342320777 -1.3255837561
H   0.3602868015  2.5630735332 -1.0455792868
C   2.0091897791  0.8861157489  0.3056251465
C   2.7499492569  0.0315477198 -0.7348720060
H   2.3224123980  0.5546849882  1.3013161996
H   2.3378538817  1.9270150198  0.2185221799
H   2.9332485193  0.5827283256 -1.6644496128
H   2.1971315074 -0.8744635492 -1.0028520891
C   4.1102040640 -0.3945361705 -0.2334014445
O   4.6160517653 -0.0632220174  0.8126755288
O   4.7287364850 -1.2129719588 -1.1083444314
H   5.5713753789 -1.4611646899 -0.6945046732
27
Scanning combination 29/37: [459.1159]  Energy = -652.9193725888
C  -3.6794371535 -1.4476916225  1.1314522344
C  -2.3207140277 -1.3560931997  1.2733717044
C  -1.5936980445 -0.3095944153  0.6422156137
C  -2.2976416068  0.6404418827 -0.1410392489
C  -3.7082434441  0.5212222199 -0.2705709301
C  -4.3825593868 -0.4971582826  0.3488657358
H   0.3457059797 -0.9142115545  1.3809709302
H  -4.2305745331 -2.2505228818  1.6157220689
H  -1.7805081903 -2.0836686229  1.8763111591
C  -0.1843303559 -0.1799424696  0.7761519786
C  -1.5654523407  1.6801840316 -0.7739205934
H  -4.2417858303  1.2542439363 -0.8721904800
H  -5.4610461725 -0.5853445965  0.2448395469
C  -0.2080685252  1.7727177508 -0.6271937419
C   0.5098449093  0.8379467551  0.1687174768
H  -2.1079891216  2.4093822740 -1.3724263003
H   0.3375203864  2.5778435545 -1.1162604265
C   2.0115230922  0.9525555009  0.3053372852
C   2.7842715903  0.1346572506 -0.7436445358
H   2.3156771336  0.5877937759  1.2926920043
H   2.3208454680  2.0027514801  0.2650133928
H   3.1262551364  0.7552800683 -1.5795088036
H   2.1835729433 -0.6742924304 -1.1725978975
C   4.0339638820 -0.4965249997 -0.1656665951
O   4.4364796485 -0.3952705070  0.9685718079
O   4.6865559374 -1.2178443367 -1.0990076077
H   5.4704282022 -1.5847319924 -0.6585383962
27
Scanning combination 30/37: [469.1159]  Energy = -652.9175808434
C  -3.6780242383 -1.4511835923  1.1327741625
C  -2.3191964291 -1.3599503619  1.2786325975
C  -1.5893461072 -0.3146243600  0.6498138152
C  -2.2944923708  0.6331021504 -0.1357270602
C  -3.7048357304  0.5157227140 -0.2687047849
C  -4.3818172164 -0.5012166872  0.3502324366
H   0.3493665471 -0.9216782114  1.3960690041
H  -4.2291114145 -2.2531733023  1.6174813649
H  -1.7779709051 -2.0887663562  1.8792229723
C  -0.1768470228 -0.1894330336  0.7856727271
C  -1.5622355103  1.6717611438 -0.7680337476
H  -4.2362362469  1.2498928712 -0.8707802584
H  -5.4609131119 -0.5867630043  0.2469826588
C  -0.2063463020  1.7606939431 -0.6182068057
C   0.5160375168  0.8272939757  0.1738173532
H  -2.0995155949  2.3994790602 -1.3720534709
H   0.3427710460  2.5656655012 -1.1024401618
C   2.0167094853  0.9839745910  0.2865696924
C   2.8176780262  0.1982264175 -0.7714158012
H   2.3486372459  0.6556465818  1.2778361868
H   2.2813003610  2.0443639623  0.2194648625
H   3.2754626881  0.8711910663 -1.5062354931
H   2.2159439618 -0.5275773061 -1.3248618283
C   4.0063091679 -0.5196721513 -0.1650231445
O   4.3806197172 -0.4431162490  0.9808446512
O   4.6690479379 -1.2428780499 -1.0899402245
H   5.4520736753 -1.5996444525 -0.6379333943
27
Scanning combination 31/37: [479.1159]  Energy = -652.9177894447
C  -3.5681088440 -1.4762754014  1.1598760659
C  -2.2082706801 -1.3564772280  1.2668897865
C  -1.5181350096 -0.3027208468  0.6094811755
C  -2.2602006116  0.6168573338 -0.1759710935
C  -3.6706122541  0.4674342315 -0.2724443048
C  -4.3099025567 -0.5512293230  0.3821124987
H   0.4448347178 -0.8466030661  1.3331963877
H  -4.0913646634 -2.2799104958  1.6724285614
H  -1.6366436974 -2.0640743825  1.8643000547
C  -0.1124510875 -0.1288557049  0.7330810184
C  -1.5627618301  1.6624191015 -0.8364907332
H  -4.2339999291  1.1814530631 -0.8701659884
H  -5.3894098865 -0.6578124931  0.3114539033
C  -0.2098909914  1.8048828947 -0.6887673955
C   0.5392785773  0.9193643762  0.1331309280
H  -2.1239662437  2.3623670928 -1.4519801432
H   0.3108232729  2.6147728583 -1.1949418330
C   2.0270476340  1.1234563193  0.3157783599
C   2.8817604634  0.3981807509 -0.7404058120
H   2.3304872530  0.7572554016  1.3019580807
H   2.2492018132  2.1962262858  0.3016781855
H   3.4832900163  1.1016949295 -1.3264953216
H   2.2693673772 -0.1454435801 -1.4670024162
C   3.8543098713 -0.5968103069 -0.1394691038
O   4.0262083705 -0.8261257829  1.0339417616
O   4.5544090503 -1.2239978606 -1.1060269204
H   5.1598292344 -1.8314374531 -0.6496027946
27
Scanning combination 32/37: [489.1159]  Energy = -652.9192401324
C  -3.4470955833 -1.5142209778  1.1570844854
C  -2.0955570210 -1.3421030569  1.2918644891
C  -1.4322318732 -0.2730695655  0.6302128593
C  -2.1902346354  0.6031401914 -0.1890036096
C  -3.5910629015  0.3993956498 -0.3118267123
C  -4.2059237057 -0.6307766644  0.3486371849
H   0.5438735631 -0.7289013088  1.3900677577
H  -3.9527745757 -2.3301757598  1.6681465285
H  -1.5150056621 -2.0217355584  1.9132963335
C  -0.0363408985 -0.0430841062  0.7746285705
C  -1.5204935290  1.6603216204 -0.8611710855
H  -4.1656480842  1.0780439718 -0.9386016660
H  -5.2776971262 -0.7813284907  0.2512328555
C  -0.1775643583  1.8606388463 -0.6901559667
C   0.5813890247  1.0226779230  0.1706700947
H  -2.0959720621  2.3173649718 -1.5093789799
H   0.3266633132  2.6704232477 -1.2144453377
C   2.0608219478  1.2671845352  0.3679859720
C   2.9098909622  0.5473703740 -0.6911029700
H   2.3758376974  0.9500711010  1.3666472221
H   2.2418530328  2.3451790547  0.3063665172
H   3.6284933151  1.2170734945 -1.1741113441
H   2.2743261414  0.2022682816 -1.5153540910
C   3.6173716813 -0.6762911845 -0.1704157872
O   3.5160511788 -1.1369111326  0.9412627637
O   4.3857044343 -1.2399218348 -1.1243797990
H   4.8119683822 -2.0086591148 -0.7133898897
27
Scanning combination 33/37: [499.1159]  Energy = -652.9209228162
C  -3.4396407161 -1.5248538973  1.1569775672
C  -2.0894840076 -1.3427514672  1.3015291149
C  -1.4256535161 -0.2757759187  0.6385099688
C  -2.1852132735  0.5966742977 -0.1828948075
C  -3.5844631266  0.3827748622 -0.3156630094
C  -4.1983687353 -0.6503363317  0.3396939433
H   0.5423640913 -0.7254735385  1.4196313186
H  -3.9414116620 -2.3424573183  1.6669948494
H  -1.5076297932 -2.0147697827  1.9297423792
C  -0.0264455462 -0.0486904168  0.7846008558
C  -1.5177484343  1.6620593374 -0.8436665803
H  -4.1595863296  1.0571449231 -0.9463528439
H  -5.2693940594 -0.8074531656  0.2379169446
C  -0.1761383026  1.8608537388 -0.6695295900
C   0.5947671933  1.0103491195  0.1688765290
H  -2.0954464877  2.3268266534 -1.4827164812
H   0.3195033016  2.6928441271 -1.1666680942
C   2.0729969181  1.2905649677  0.3363372594
C   2.9492904954  0.5744847697 -0.7047251736
H   2.4064959326  1.0070629855  1.3391718905
H   2.2212316917  2.3720075565  0.2446622222
H   3.7551414932  1.2253918832 -1.0654673077
H   2.3672989560  0.3125530814 -1.5972443008
C   3.5661630663 -0.7019506609 -0.1797148413
O   3.3844792365 -1.1854669118  0.9125272101
O   4.3773146651 -1.2751404836 -1.0900266266
H   4.7326945036 -2.0720785059 -0.6628473301
27
Scanning combination 34/37: [509.1159]  Energy = -652.9222676609
C  -3.4043490340 -1.5399912042  1.1654050036
C  -2.0554615159 -1.3460764275  1.3069183993
C  -1.3982675507 -0.2781524337  0.6361545902
C  -2.1689587188  0.5856868016 -0.1831525678
C  -3.5670909605  0.3640618185 -0.3129597796
C  -4.1715562414 -0.6741521068  0.3444252144
H   0.5748760318 -0.7155349460  1.4033323336
H  -3.9000725562 -2.3599438890  1.6808810826
H  -1.4681297981 -2.0079038958  1.9413670029
C   0.0000303304 -0.0406296073  0.7740511141
C  -1.5153567823  1.6566206391 -0.8463747060
H  -4.1472962916  1.0356434151 -0.9438388294
H  -5.2405056470 -0.8423397971  0.2410863703
C  -0.1734737631  1.8622492681 -0.6837086639
C   0.6122180057  1.0183287881  0.1466511398
H  -2.1042412931  2.3241820052 -1.4718178615
H   0.3113692981  2.6970042239 -1.1843386995
C   2.0839502336  1.3325889427  0.3223075304
C   3.0110747337  0.6210610915 -0.6726855258
H   2.4081158084  1.0972649735  1.3406284580
H   2.2017636710  2.4141574751  0.1963165207
H   3.8975402116  1.2303589136 -0.8872699837
H   2.5226301367  0.4790624086 -1.6440988534
C   3.4832738287 -0.7262548034 -0.1856273229
O   3.1875837141 -1.2446593660  0.8648007841
O   4.3175593601 -1.3158111185 -1.0638112489
H   4.5559230770 -2.1702412987 -0.6663413037
27
Scanning combination 35/37: [519.1159]  Energy = -652.9228627686
C  -3.3831469450 -1.5490871085  1.1692236395
C  -2.0350924674 -1.3465373999  1.3072357714
C  -1.3836827170 -0.2758361890  0.6359560175
C  -2.1596800291  0.5816089399 -0.1847100007
C  -3.5567149738  0.3496090269 -0.3135328899
C  -4.1551591483 -0.6891343618  0.3479848516
H   0.5921536622 -0.7027344454  1.4053047351
H  -3.8724673467 -2.3712124432  1.6867797416
H  -1.4425608588 -2.0063066049  1.9374890123
C   0.0137918188 -0.0333462110  0.7728627366
C  -1.5112612475  1.6526023779 -0.8529805415
H  -4.1435486011  1.0147754595 -0.9445732992
H  -5.2240592070 -0.8616321142  0.2513284410
C  -0.1711102744  1.8654042980 -0.6914157826
C   0.6209152003  1.0256197080  0.1393670290
H  -2.1017021385  2.3100020342 -1.4876302507
H   0.3052537860  2.7079616549 -1.1887293506
C   2.0871782130  1.3663435920  0.3178318827
C   3.0541062910  0.6512668994 -0.6321162940
H   2.4020289885  1.1457177034  1.3426429176
H   2.2006330718  2.4458958529  0.1686368887
H   3.9972145405  1.2107973630 -0.6908749400
H   2.6627161794  0.6085569036 -1.6537005902
C   3.4282045860 -0.7441099884 -0.1859506151
O   3.1070018408 -1.2728110175  0.8528405711
O   4.2298424882 -1.3594149616 -1.0777125557
H   4.4588562528 -2.2160602118 -0.6790029299
27
Scanning combination 36/37: [529.1159]  Energy = -652.9232701365
C  -3.2937538477 -1.5715900747  1.1763614354
C  -1.9513855722 -1.3391376460  1.3011983378
C  -1.3379115960 -0.2575997870  0.6155610992
C  -2.1299716623  0.5739691773 -0.2140545772
C  -3.5222350380  0.3084418631 -0.3292903957
C  -4.0898088824 -0.7352771276  0.3534822284
H   0.6500217652 -0.6437128184  1.3756861902
H  -3.7598183662 -2.3955206858  1.7103399659
H  -1.3314904685 -1.9730869247  1.9329396328
C   0.0476575304  0.0168308354  0.7595405154
C  -1.4976383099  1.6493377094 -0.8943514439
H  -4.1289986364  0.9527265278 -0.9620741692
H  -5.1548698222 -0.9308859769  0.2677256787
C  -0.1622611312  1.8964359567 -0.7247074596
C   0.6352484645  1.0874522454  0.1319666266
H  -2.0954211387  2.2860963294 -1.5434830944
H   0.3007472950  2.7364860254 -1.2402694138
C   2.0955416321  1.4277133933  0.3506153763
C   3.0880920634  0.6772041229 -0.5438086662
H   2.3655182455  1.2212840522  1.3929441991
H   2.2362055021  2.5017950285  0.1932571671
H   4.0828056392  1.1338104225 -0.4426178836
H   2.8195273789  0.7316003197 -1.6027343678
C   3.2933899416 -0.7718118071 -0.1701536974
O   2.9565023484 -1.3009446227  0.8629030764
O   3.9770222389 -1.4332599730 -1.1259828474
H   4.1160724445 -2.3327708590 -0.7856568182
27
Scanning combination 37/37: [539.1159]  Energy = -652.9219048921
C  -3.3005487037 -1.5785725264  1.1763050191
C  -1.9581241690 -1.3440602638  1.3114237770
C  -1.3359219583 -0.2618464137  0.6317510060
C  -2.1259587226  0.5665708204 -0.2038863325
C  -3.5175786239  0.3018083253 -0.3285804889
C  -4.0915514637 -0.7421371951  0.3475460793
H   0.6459547938 -0.6408509875  1.4089304676
H  -3.7710201134 -2.4048898815  1.7043153870
H  -1.3457687060 -1.9822655746  1.9461880975
C   0.0513926979  0.0137421957  0.7791482393
C  -1.4945445692  1.6417940887 -0.8835828046
H  -4.1187112060  0.9468135825 -0.9672079267
H  -5.1568269269 -0.9371659444  0.2553876924
C  -0.1596646488  1.8857838250 -0.7129100922
C   0.6439196425  1.0727637133  0.1342785668
H  -2.0937885156  2.2759566380 -1.5340835478
H   0.3028626459  2.7298076046 -1.2216869344
C   2.1028096803  1.4431485298  0.3253671454
C   3.1305504628  0.6885975192 -0.5268832783
H   2.3784493540  1.2727715141  1.3725987299
H   2.2213170041  2.5146249733  0.1361422834
H   4.1300789868  1.0781901221 -0.2864991540
H   2.9703626471  0.8009141622 -1.6023438211
C   3.2694258546 -0.7756195551 -0.1854617161
O   2.9153264454 -1.2988537272  0.8444684888
O   3.9365557215 -1.4522541219 -1.1424532472
H   4.0605201161 -2.3520466542 -0.7964516194
