42
Scanning combination 1/73: [179.9814]  Energy = -2548.7148309404
C  -0.7222588718  0.9647953976  0.2244851087
C  -1.4269066625 -0.2687095840  0.1832189892
C  -2.8144679440 -0.3500723587  0.2843137560
C  -3.5193842653  0.8608385361  0.4328774299
C  -2.8094855373  2.0920263968  0.4731268540
C  -1.4230105465  2.1754494854  0.3721232108
C   0.6951697738  0.7803067685  0.1012055643
C   1.0784494008 -0.5203554909 -0.0291268569
S  -0.3022414445 -1.6039729977 -0.0072295942
C  -4.9421414003  1.0658170480  0.5592560058
C  -5.2828243330  2.3660984976  0.6863608958
S  -3.9155627185  3.4302400711  0.6625485848
C  -0.6831869210  3.4802967575  0.4156992086
C  -3.5444136010 -1.6642023940  0.2390592996
C   2.4336136862 -1.0334804651 -0.1723899460
C   2.8746133245 -2.3288293558 -0.3063668306
C   4.2845398316 -2.4339049732 -0.4209426330
C   4.9349207694 -1.2208693277 -0.3757332062
S   3.7736992993  0.0639256437 -0.1888042215
C   6.3602077876 -0.8936724087 -0.4567937883
C   7.3921433100 -1.8883751080 -0.6127316133
C   8.7829020710 -1.4860786402 -0.6851078919
C   9.1501312508 -0.1132326206 -0.6040093428
C   8.1513780849  0.7986694235 -0.4570394236
C   6.7865424588  0.4192125444 -0.3848538018
N   7.2493942844 -3.2082597285 -0.7063459949
S   8.7276419717 -3.8474407642 -0.8676269218
N   9.6304201865 -2.5049420299 -0.8291328234
H   1.3985739596  1.6085577497  0.1117095885
H  -5.6664283203  0.2560950266  0.5529842705
H  -6.2778815419  2.7792472662  0.7956186633
H  -0.1007807836  3.6230910952 -0.5021252722
H  -1.3568932064  4.3337519512  0.5292783772
H   0.0280655621  3.4918779108  1.2500062662
H  -2.8468858424 -2.4962536122  0.1175153416
H  -4.1175725860 -1.8308088308  1.1596987505
H  -4.2580526546 -1.6922706149 -0.5938451313
H   2.2052923476 -3.1824905566 -0.3221190842
H   4.8398601762 -3.3591350140 -0.5347082072
H   10.1954400521  0.1712571774 -0.6597465103
H   8.3853922500  1.8584932464 -0.3906416536
H   6.0491875043  1.2062099039 -0.2672652233
42
Scanning combination 2/73: [184.9814]  Energy = -2548.7150444740
C  -0.7188627486  0.9662757412  0.2102055022
C  -1.4212944331 -0.2709443260  0.1810129107
C  -2.8058902605 -0.3579256553  0.2798534220
C  -3.5067577055  0.8549714612  0.4298398652
C  -2.8008035356  2.0891197713  0.4659744984
C  -1.4152108502  2.1797730931  0.3581689581
C   0.6955227616  0.7738263481  0.0928186995
C   1.0753261109 -0.5310976039  0.0080552435
S  -0.3016186386 -1.6130630333  0.0392253025
C  -4.9279967745  1.0549253292  0.5581479358
C  -5.2739406028  2.3535848078  0.6857278983
S  -3.9103086111  3.4224802382  0.6629657747
C  -0.6734511107  3.4875074172  0.4107074337
C  -3.5428783425 -1.6696690400  0.2387587860
C   2.4279931898 -1.0399365308 -0.1314298669
C   2.8752201537 -2.3274808245 -0.3132534151
C   4.2838632363 -2.4135817347 -0.4346263755
C   4.9244199348 -1.1963343163 -0.3704831996
S   3.7572009473  0.0717407004 -0.1310535096
C   6.3492832797 -0.8744902730 -0.4565985039
C   7.3712312645 -1.8792785948 -0.6108345334
C   8.7653471428 -1.4900083215 -0.6839900204
C   9.1472766152 -0.1217372316 -0.6044617558
C   8.1564377261  0.8008109047 -0.4570402259
C   6.7866913159  0.4343003597 -0.3837971101
N   7.2150657202 -3.1979741024 -0.7025534151
S   8.6875126855 -3.8504336575 -0.8645872759
N   9.6034283828 -2.5167252315 -0.8281594466
H   1.4045884013  1.5963264071  0.0732053437
H  -5.6415966534  0.2365791311  0.5495496254
H  -6.2700774827  2.7643116572  0.7939669917
H  -0.0871684129  3.6420886390 -0.5035876931
H  -1.3489730762  4.3389521428  0.5281085521
H   0.0352972532  3.5019075732  1.2484591487
H  -2.8633203520 -2.5169069477  0.1176846241
H  -4.1173395424 -1.8271255441  1.1603758367
H  -4.2577555405 -1.6886773058 -0.5930686075
H   2.2165398165 -3.1871482750 -0.3587776214
H   4.8439803693 -3.3309001082 -0.5668800243
H   10.1972670669  0.1452101514 -0.6620856288
H   8.4050251954  1.8565489721 -0.3924738963
H   6.0579262660  1.2290988339 -0.2666700253
42
Scanning combination 3/73: [189.9814]  Energy = -2548.7149073833
C  -0.7186261626  0.9623766027  0.2040952351
C  -1.4191047925 -0.2749988039  0.2013185175
C  -2.8056669216 -0.3578513324  0.2851668580
C  -3.5077721867  0.8547125017  0.4239598626
C  -2.8017993860  2.0880131312  0.4551158657
C  -1.4160910812  2.1754521398  0.3465653500
C   0.6961068824  0.7729654860  0.0846644281
C   1.0819692974 -0.5316071154  0.0383488750
S  -0.2922172198 -1.6159736182  0.0954818036
C  -4.9288599329  1.0541394614  0.5544375793
C  -5.2754915731  2.3520088122  0.6827492767
S  -3.9120966120  3.4207453318  0.6547961368
C  -0.6738354379  3.4803199550  0.4017993284
C  -3.5423510415 -1.6679577133  0.2399693999
C   2.4354711447 -1.0400264841 -0.0961113605
C   2.8799908843 -2.3188768745 -0.3311520782
C   4.2868256804 -2.4047545473 -0.4601243933
C   4.9275126220 -1.1905660561 -0.3479029974
S   3.7653896429  0.0695032481 -0.0534133123
C   6.3491517178 -0.8643494581 -0.4445306660
C   7.3629862246 -1.8750659999 -0.6073100578
C   8.7584446828 -1.4952924333 -0.6837747245
C   9.1486457270 -0.1284865308 -0.6068667007
C   8.1631535701  0.7991908303 -0.4593373335
C   6.7911527267  0.4435755584 -0.3801625826
N   7.1967375787 -3.1922937920 -0.7026272999
S   8.6635337608 -3.8566397717 -0.8646752407
N   9.5873325646 -2.5290284322 -0.8280275202
H   1.4007104349  1.5967734200  0.0385821803
H  -5.6439676431  0.2377780063  0.5503717504
H  -6.2719004154  2.7598419163  0.7988778338
H  -0.0881083293  3.6353366628 -0.5124113342
H  -1.3511069042  4.3296388161  0.5215509162
H   0.0327634665  3.4879871008  1.2412426505
H  -2.8539741954 -2.5073503294  0.1174164506
H  -4.1171732694 -1.8275163222  1.1609019187
H  -4.2575074929 -1.6871850457 -0.5918238785
H   2.2162897967 -3.1739592369 -0.3986942191
H   4.8491471567 -3.3175573208 -0.6246978174
H   10.1991020613  0.1384198886 -0.6630625669
H   8.4165046351  1.8538081381 -0.3959268036
H   6.0659285071  1.2436512276 -0.2683791305
42
Scanning combination 4/73: [194.9814]  Energy = -2548.7147100622
C  -0.7209189250  0.9614975809  0.2165462047
C  -1.4189541546 -0.2781160660  0.2348652772
C  -2.8062563233 -0.3634055336  0.2957905810
C  -3.5085740215  0.8511454703  0.4195266008
C  -2.8036817266  2.0862193023  0.4437768858
C  -1.4181702181  2.1766093820  0.3389666985
C   0.6923227541  0.7719474122  0.0898058163
C   1.0804215110 -0.5318190456  0.0721024260
S  -0.2898123085 -1.6191037061  0.1633427821
C  -4.9291759217  1.0501009640  0.5525073571
C  -5.2763299882  2.3483905733  0.6759447559
S  -3.9148375064  3.4189109306  0.6347678481
C  -0.6741940113  3.4826029452  0.3831467045
C  -3.5420467197 -1.6753695777  0.2449085434
C   2.4352985850 -1.0365591795 -0.0616098483
C   2.8765985355 -2.3028942470 -0.3599661597
C   4.2831145291 -2.3846271347 -0.4932844150
C   4.9283475769 -1.1811939162 -0.3130858631
S   3.7701053711  0.0643093482  0.0568591102
C   6.3503824645 -0.8589627410 -0.4281525944
C   7.3591711866 -1.8742856828 -0.6008779461
C   8.7562656437 -1.5014374279 -0.6828719304
C   9.1545438929 -0.1373233514 -0.6075154127
C   8.1738009461  0.7960215482 -0.4599953316
C   6.7995977459  0.4469875851 -0.3742208196
N   7.1871719693 -3.1909725916 -0.6968356304
S   8.6503676518 -3.8618176921 -0.8654919498
N   9.5802121987 -2.5384510080 -0.8312038190
H   1.3973298625  1.5940283413  0.0165591856
H  -5.6426774762  0.2322190229  0.5546686613
H  -6.2721250744  2.7572508362  0.7921736131
H  -0.0910188445  3.6381138752 -0.5331108938
H  -1.3472602824  4.3351446226  0.5054103604
H   0.0366796407  3.4882816101  1.2188882450
H  -2.8551485977 -2.5160014200  0.1194592215
H  -4.1165179555 -1.8401625922  1.1653078257
H  -4.2576296048 -1.6923920957 -0.5868764313
H   2.2106144798 -3.1506721814 -0.4719432973
H   4.8404890109 -3.2869907185 -0.7175404686
H   10.2068371090  0.1212796680 -0.6700807650
H   8.4336808811  1.8491795564 -0.4021186217
H   6.0791762834  1.2512183383 -0.2621423015
42
Scanning combination 5/73: [199.9814]  Energy = -2548.7141291553
C  -0.7212468691  0.9620317080  0.2026538217
C  -1.4182880193 -0.2775518668  0.2297623864
C  -2.8048854284 -0.3633220816  0.3005552476
C  -3.5087100153  0.8505332712  0.4250759699
C  -2.8043256202  2.0856569884  0.4455057242
C  -1.4193077252  2.1759570495  0.3323332990
C   0.6930237951  0.7720587901  0.0857364687
C   1.0847853293 -0.5308124803  0.1079458999
S  -0.2884111079 -1.6185442548  0.1787515940
C  -4.9301286529  1.0498042365  0.5528756271
C  -5.2782433410  2.3484361163  0.6714775910
S  -3.9163583825  3.4187211204  0.6305812053
C  -0.6755601239  3.4812057511  0.3811447154
C  -3.5398381904 -1.6752789115  0.2481386676
C   2.4370660082 -1.0430702574 -0.0256019192
C   2.8753556334 -2.2981862262 -0.3743967670
C   4.2807921257 -2.3784790246 -0.5154887707
C   4.9274249935 -1.1780589696 -0.3209754089
S   3.7730856822  0.0601455475  0.0824578764
C   6.3507798195 -0.8585026215 -0.4245270545
C   7.3589195062 -1.8747012056 -0.5963210331
C   8.7561329748 -1.5028156958 -0.6811519934
C   9.1553136424 -0.1388261513 -0.6081433998
C   8.1751847746  0.7952999136 -0.4589751613
C   6.8009567982  0.4467303702 -0.3695498439
N   7.1856612896 -3.1909273075 -0.6941012928
S   8.6477951805 -3.8630698656 -0.8662408330
N   9.5788300178 -2.5405066091 -0.8323722734
H   1.3960794900  1.5958957943  0.0072468590
H  -5.6434077834  0.2316444481  0.5552104225
H  -6.2739580895  2.7576882018  0.7894609075
H  -0.0963884739  3.6319321095 -0.5375608142
H  -1.3497074787  4.3328290653  0.5027024034
H   0.0386682226  3.4916073176  1.2147171273
H  -2.8544317710 -2.5169638102  0.1205506073
H  -4.1148443706 -1.8414104576  1.1678096808
H  -4.2540985334 -1.6885898318 -0.5848937798
H   2.2106407265 -3.1457456771 -0.5003481168
H   4.8393207078 -3.2822274843 -0.7299666079
H   10.2076699810  0.1189800766 -0.6725379979
H   8.4357578531  1.8484206690 -0.4034693601
H   6.0800955928  1.2509132455 -0.2596714666
42
Scanning combination 6/73: [204.9814]  Energy = -2548.7138432616
C  -0.7196754473  0.9596620149  0.2188715922
C  -1.4144830420 -0.2802224396  0.2730257245
C  -2.8025685183 -0.3663677233  0.3083604907
C  -3.5087619823  0.8479942315  0.4169118130
C  -2.8063511429  2.0842459552  0.4250116205
C  -1.4205885524  2.1746883400  0.3209734842
C   0.6935820995  0.7677420518  0.0943935447
C   1.0868469950 -0.5327878216  0.1420394545
S  -0.2808002081 -1.6188851029  0.2746253853
C  -4.9295377383  1.0464936237  0.5510137791
C  -5.2783927039  2.3457784445  0.6633117283
S  -3.9178549322  3.4173586325  0.6135555589
C  -0.6785013944  3.4813702483  0.3546789855
C  -3.5367003268 -1.6783664445  0.2555242715
C   2.4405878277 -1.0416247865  0.0063416437
C   2.8720140834 -2.2779273292 -0.4082192906
C   4.2767083879 -2.3595840121 -0.5530903606
C   4.9315731954 -1.1802319144 -0.2768863483
S   3.7867398704  0.0315499202  0.2281777125
C   6.3523643420 -0.8576598883 -0.4099810582
C   7.3563228027 -1.8755287830 -0.5920461957
C   8.7540746329 -1.5072014777 -0.6818418648
C   9.1562106495 -0.1436970977 -0.6116545725
C   8.1793533072  0.7922359715 -0.4579000514
C   6.8046976658  0.4472704661 -0.3611356239
N   7.1778465387 -3.1909005744 -0.6894642424
S   8.6379235389 -3.8670532974 -0.8623760718
N   9.5737232303 -2.5475753045 -0.8332498608
H   1.3983249616  1.5855333315 -0.0223536706
H  -5.6422203366  0.2278980080  0.5619056318
H  -6.2744651830  2.7545849997  0.7777009931
H  -0.0996504239  3.6390620903 -0.5643737074
H  -1.3537357682  4.3314613521  0.4816016592
H   0.0358383986  3.4865894776  1.1872192849
H  -2.8505050445 -2.5188983162  0.1259837349
H  -4.1087415404 -1.8449409948  1.1771969846
H  -4.2534964546 -1.6914572701 -0.5751095268
H   2.1970622111 -3.1046116291 -0.5941895271
H   4.8241116880 -3.2451725391 -0.8545544866
H   10.2095440549  0.1104977220 -0.6787342351
H   8.4435883982  1.8451461827 -0.4028591383
H   6.0851920272  1.2524326812 -0.2520050372
42
Scanning combination 7/73: [209.9814]  Energy = -2548.7130436057
C  -0.7198229171  0.9595708969  0.2057965504
C  -1.4142294712 -0.2798559733  0.2708538108
C  -2.8020212159 -0.3665279852  0.3149521420
C  -3.5083720547  0.8475735657  0.4208825257
C  -2.8055003866  2.0835586010  0.4294825969
C  -1.4202539716  2.1743113979  0.3160483558
C   0.6951132131  0.7677683633  0.0875970530
C   1.0908440411 -0.5314945975  0.1742868559
S  -0.2806844272 -1.6179990720  0.2806468794
C  -4.9298858730  1.0461524346  0.5492074521
C  -5.2789667467  2.3453030708  0.6604672274
S  -3.9185176742  3.4170611301  0.6070889117
C  -0.6787376931  3.4812715916  0.3544490163
C  -3.5360783401 -1.6786257224  0.2584271040
C   2.4414734298 -1.0511751694  0.0387808912
C   2.8690735583 -2.2720569673 -0.4248813932
C   4.2736591738 -2.3522102667 -0.5746939703
C   4.9302146379 -1.1789469350 -0.2808204701
S   3.7883058903  0.0272624962  0.2416213179
C   6.3524138612 -0.8582964558 -0.4034604914
C   7.3563117819 -1.8759475712 -0.5883037498
C   8.7539836380 -1.5079824150 -0.6804876286
C   9.1564591180 -0.1446585511 -0.6100136890
C   8.1793672301  0.7917663881 -0.4576991314
C   6.8046779012  0.4464470549 -0.3586217904
N   7.1775928940 -3.1915710691 -0.6874719653
S   8.6372552415 -3.8677071770 -0.8637780120
N   9.5731292605 -2.5481736295 -0.8344959877
H   1.3971685976  1.5881399436 -0.0276283606
H  -5.6423299994  0.2273682623  0.5617777931
H  -6.2750614797  2.7541646333  0.7766055832
H  -0.1045638661  3.6336584313 -0.5673048415
H  -1.3535610546  4.3321905462  0.4790140994
H   0.0396025294  3.4922578408  1.1845290785
H  -2.8495507316 -2.5186007762  0.1272401477
H  -4.1090763519 -1.8483581597  1.1785822644
H  -4.2524170447 -1.6900704751 -0.5729486834
H   2.1966836131 -3.1013822046 -0.6138322289
H   4.8248004537 -3.2415567987 -0.8604171434
H   10.2095106017  0.1099222816 -0.6807052742
H   8.4438008716  1.8442613949 -0.4044214772
H   6.0853899286  1.2520886461 -0.2499511618
42
Scanning combination 8/73: [214.9814]  Energy = -2548.7127214724
C  -0.7157808209  0.9560715648  0.2278242748
C  -1.4095409755 -0.2825931237  0.3153340595
C  -2.7980353861 -0.3700027410  0.3277118426
C  -3.5061864463  0.8444631448  0.4168436896
C  -2.8048213715  2.0814674131  0.4094975090
C  -1.4186651558  2.1719119367  0.3040916327
C   0.6985160245  0.7604987925  0.1065064605
C   1.0931765259 -0.5361481718  0.2123568098
S  -0.2733565842 -1.6175633138  0.3816809388
C  -4.9271741998  1.0434572875  0.5485838388
C  -5.2767284774  2.3423126635  0.6482365721
S  -3.9180609330  3.4152983935  0.5823900824
C  -0.6793724916  3.4806371745  0.3230243618
C  -3.5307189977 -1.6826674489  0.2711867784
C   2.4455899453 -1.0517032947  0.0704401947
C   2.8628121184 -2.2449816431 -0.4644962494
C   4.2673157817 -2.3281501557 -0.6187199933
C   4.9329315520 -1.1850020394 -0.2391697849
S   3.8035101311 -0.0188615438  0.3952692706
C   6.3522616635 -0.8591327692 -0.3852075072
C   7.3529549287 -1.8772662103 -0.5787934324
C   8.7499344924 -1.5116746784 -0.6779754212
C   9.1541091513 -0.1487738899 -0.6106077922
C   8.1794723625  0.7891407339 -0.4536463713
C   6.8048885761  0.4455336558 -0.3455457841
N   7.1706395369 -3.1923874905 -0.6778211181
S   8.6277983353 -3.8710855538 -0.8613044524
N   9.5662022912 -2.5533904492 -0.8374538417
H   1.4041128761  1.5701527018 -0.0529308509
H  -5.6393027618  0.2238974531  0.5687107925
H  -6.2737349192  2.7516936176  0.7580337104
H  -0.1083089607  3.6364578024 -0.6011305940
H  -1.3556885530  4.3298261636  0.4509734500
H   0.0414864197  3.4910169575  1.1500475244
H  -2.8432564054 -2.5213389375  0.1368320257
H  -4.1004173411 -1.8548773893  1.1931220333
H  -4.2498130892 -1.6926160033 -0.5575870812
H   2.1776252776 -3.0408742994 -0.7296417022
H   4.8037870154 -3.1888679851 -1.0018791628
H   10.2071634149  0.1040156160 -0.6876821881
H   8.4458995874  1.8416059213 -0.4049782604
H   6.0839760299  1.2494011523 -0.2357260632
42
Scanning combination 9/73: [219.9814]  Energy = -2548.7117205316
C  -0.7155612069  0.9557360394  0.2146605539
C  -1.4088125533 -0.2822182795  0.3134544340
C  -2.7971090102 -0.3701849619  0.3347285993
C  -3.5055209561  0.8441712897  0.4208867307
C  -2.8038110293  2.0809158815  0.4136354882
C  -1.4181916087  2.1714369454  0.3002383263
C   0.7001025603  0.7601305903  0.0998206504
C   1.0979117088 -0.5333326219  0.2440575665
S  -0.2732892000 -1.6164009871  0.3861312747
C  -4.9272915417  1.0428811247  0.5467999773
C  -5.2776639985  2.3424874373  0.6434034982
S  -3.9183750390  3.4151118355  0.5766951158
C  -0.6792521365  3.4803749896  0.3226989948
C  -3.5296508021 -1.6829824673  0.2747582051
C   2.4449201231 -1.0641370678  0.0990674711
C   2.8601009816 -2.2381464666 -0.4815262380
C   4.2637910472 -2.3191310720 -0.6410272029
C   4.9311979328 -1.1834793582 -0.2440319589
S   3.8046296829 -0.0247825399  0.4052319260
C   6.3521980530 -0.8605478385 -0.3778054894
C   7.3528940067 -1.8780742811 -0.5748207945
C   8.7497993075 -1.5122263681 -0.6771966212
C   9.1536719224 -0.1490641789 -0.6109876743
C   8.1784370397  0.7886612759 -0.4530347034
C   6.8041669733  0.4439529124 -0.3409477127
N   7.1704392097 -3.1931867571 -0.6762258482
S   8.6272946255 -3.8716679962 -0.8625731385
N   9.5658779999 -2.5538897187 -0.8377575737
H   1.4030065935  1.5732849325 -0.0557016234
H  -5.6389855404  0.2233491657  0.5690789157
H  -6.2742061438  2.7516335857  0.7571608194
H  -0.1128160148  3.6301123809 -0.6043319318
H  -1.3551795584  4.3303085893  0.4485119019
H   0.0453951728  3.4971732878  1.1471133076
H  -2.8424437448 -2.5214581979  0.1378629199
H  -4.1004673738 -1.8579085798  1.1952648297
H  -4.2479051774 -1.6913413004 -0.5550344367
H   2.1771861799 -3.0370569122 -0.7475321449
H   4.8057302233 -3.1849562294 -1.0058171935
H   10.2066536908  0.1040669406 -0.6888932072
H   8.4450018945  1.8408950939 -0.4056558563
H   6.0833258735  1.2483908975 -0.2339599559
42
Scanning combination 10/73: [224.9814]  Energy = -2548.7113039547
C  -0.7089108874  0.9511708203  0.2431181474
C  -1.4021486087 -0.2851893962  0.3633914015
C  -2.7907577240 -0.3744221781  0.3535267928
C  -3.5004890931  0.8403349117  0.4201591842
C  -2.8002775443  2.0775187371  0.3938020054
C  -1.4135514167  2.1674574157  0.2891879137
C   0.7056451986  0.7503975842  0.1261206342
C   1.1006089992 -0.5407289390  0.2827446197
S  -0.2653575133 -1.6150292047  0.4895315437
C  -4.9220191781  1.0393904495  0.5459524716
C  -5.2730492783  2.3399704647  0.6262780330
S  -3.9152778462  3.4128169160  0.5445697682
C  -0.6772518627  3.4780843181  0.2854951379
C  -3.5214051992 -1.6879397177  0.2946735351
C   2.4488973227 -1.0665556255  0.1246946081
C   2.8513229773 -2.2025070651 -0.5319594186
C   4.2548203160 -2.2883172212 -0.6938764404
C   4.9320877969 -1.1952400943 -0.2063520406
S   3.8189468881 -0.0882408021  0.5507124462
C   6.3501147801 -0.8642353821 -0.3558957945
C   7.3480883770 -1.8808788805 -0.5621364726
C   8.7432478257 -1.5153159045 -0.6730586641
C   9.1468526107 -0.1521749773 -0.6098371268
C   8.1731793802  0.7860244247 -0.4438704962
C   6.8000248760  0.4404903866 -0.3206295558
N   7.1630942389 -3.1955912443 -0.6630739606
S   8.6178603990 -3.8746103250 -0.8593952701
N   9.5574146558 -2.5575396095 -0.8407718087
H   1.4139584786  1.5504641514 -0.0683420400
H  -5.6333992682  0.2201785591  0.5776066271
H  -6.2700948660  2.7493940224  0.7299719956
H  -0.1163617336  3.6267845383 -0.6461294285
H  -1.3548636421  4.3265919537  0.4119655518
H   0.0520506455  3.4989870723  1.1049833984
H  -2.8331684490 -2.5248187111  0.1533223115
H  -4.0879188476 -1.8659729942  1.2174580713
H  -4.2432335186 -1.6943994242 -0.5317860242
H   2.1532393218 -2.9545329908 -0.8783602707
H   4.7810412801 -3.1133773727 -1.1606614645
H   10.1988012977  0.1011838521 -0.6976948967
H   8.4401816133  1.8384290458 -0.4007070126
H   6.0752573635  1.2408494468 -0.2083278139
42
Scanning combination 11/73: [229.9814]  Energy = -2548.7101075703
C  -0.7084197624  0.9504269306  0.2306518610
C  -1.4011830831 -0.2849928589  0.3610445578
C  -2.7896285060 -0.3744998298  0.3607918336
C  -3.4997513912  0.8401051617  0.4244627146
C  -2.7990018484  2.0770442301  0.3982386471
C  -1.4129143878  2.1669410479  0.2861116981
C   0.7076956362  0.7498389969  0.1207676904
C   1.1059399669 -0.5367132178  0.3140727241
S  -0.2654855930 -1.6141715786  0.4922782761
C  -4.9220634830  1.0391373458  0.5442651094
C  -5.2738489730  2.3399737170  0.6207019652
S  -3.9153214503  3.4125616073  0.5385759604
C  -0.6768952553  3.4777524217  0.2849385809
C  -3.5202005865 -1.6882397719  0.2989793786
C   2.4471757391 -1.0816909137  0.1498211644
C   2.8481448622 -2.1943682224 -0.5488600682
C   4.2512943374 -2.2774332151 -0.7157315686
C   4.9298436321 -1.1926637918 -0.2121343118
S   3.8196098327 -0.0938987364  0.5577095495
C   6.3497554301 -0.8661955620 -0.3493127282
C   7.3479720732 -1.8819675693 -0.5582964043
C   8.7430606451 -1.5159232506 -0.6721543086
C   9.1460580571 -0.1522534856 -0.6097792057
C   8.1717157944  0.7851759612 -0.4424110883
C   6.7989889163  0.4384110065 -0.3155661051
N   7.1631031205 -3.1967657991 -0.6616663794
S   8.6177213206 -3.8753088237 -0.8604773645
N   9.5571437503 -2.5579043400 -0.8416034257
H   1.4124756795  1.5544137705 -0.0697286126
H  -5.6329645990  0.2194963150  0.5782121892
H  -6.2707080247  2.7495599470  0.7284952408
H  -0.1208194639  3.6197577795 -0.6496104686
H  -1.3538587615  4.3272440970  0.4088537814
H   0.0561407825  3.5052504053  1.1015505770
H  -2.8321719401 -2.5248776051  0.1552383562
H  -4.0876062790 -1.8693026661  1.2204117528
H  -4.2413102534 -1.6933338211 -0.5284073011
H   2.1527136493 -2.9505000973 -0.8959140735
H   4.7839000869 -3.1096413695 -1.1639519341
H   10.1979540968  0.1017443935 -0.6987557644
H   8.4384545945  1.8375514953 -0.4003888861
H   6.0744918044  1.2391609063 -0.2050234124
42
Scanning combination 12/73: [234.9814]  Energy = -2548.7095248157
C  -0.7005558403  0.9447245209  0.2642298379
C  -1.3932366119 -0.2884262153  0.4193172172
C  -2.7810701159 -0.3795693742  0.3891018993
C  -3.4925366828  0.8354403769  0.4266481315
C  -2.7925775423  2.0723096517  0.3794239138
C  -1.4058431243  2.1612091480  0.2767328943
C   0.7142737588  0.7386053024  0.1515805516
C   1.1081734065 -0.5463513393  0.3500602902
S  -0.2577842798 -1.6143180079  0.5921459485
C  -4.9147390493  1.0356750647  0.5429409280
C  -5.2671142005  2.3374031263  0.5963480705
S  -3.9096048802  3.4094683046  0.4974269916
C  -0.6720969919  3.4727830261  0.2407953843
C  -3.5094115876 -1.6947754214  0.3298663529
C   2.4498952348 -1.0854549342  0.1652642746
C   2.8369385345 -2.1471044490 -0.6120257000
C   4.2397334597 -2.2357784738 -0.7817580560
C   4.9287241494 -1.2096295743 -0.1794936045
S   3.8315576481 -0.1706221303  0.6883203785
C   6.3458428470 -0.8739147577 -0.3229864547
C   7.3418658302 -1.8861531521 -0.5452833773
C   8.7345972257 -1.5192413859 -0.6682247567
C   9.1358395258 -0.1551528355 -0.6061030867
C   8.1625152778  0.7815925557 -0.4245086081
C   6.7914996058  0.4312671531 -0.2848936491
N   7.1550614431 -3.2008836725 -0.6496062070
S   8.6076948652 -3.8785379128 -0.8597520608
N   9.5473033722 -2.5610291531 -0.8460144882
H   1.4259238650  1.5284629728 -0.0692367466
H  -5.6253255885  0.2163696046  0.5897465352
H  -6.2647513804  2.7479000091  0.6902660537
H  -0.1244892006  3.6072341729 -0.7007048956
H  -1.3500178542  4.3219691239  0.3609339269
H   0.0679590545  3.5097126646  1.0497968755
H  -2.8196063811 -2.5292262156  0.1807078271
H  -4.0699927752 -1.8786370552  1.2551008929
H  -4.2359341657 -1.7001099783 -0.4928958697
H   2.1235928568 -2.8432814697 -1.0370601273
H   4.7564398131 -3.0164613446 -1.3293131061
H   10.1861874104  0.1004225221 -0.7060998544
H   8.4291158581  1.8340159495 -0.3825826237
H   6.0631533642  1.2269946378 -0.1618117166
42
Scanning combination 13/73: [239.9814]  Energy = -2548.7080902511
C  -0.6996571431  0.9435049759  0.2525662838
C  -1.3924028819 -0.2882889132  0.4135626537
C  -2.7806271278 -0.3796601074  0.3946254004
C  -3.4920085258  0.8352766217  0.4325074339
C  -2.7918334656  2.0719090848  0.3834887174
C  -1.4053270597  2.1605853381  0.2739935557
C   0.7168159096  0.7377208069  0.1467325624
C   1.1137360359 -0.5422072286  0.3812899759
S  -0.2572466551 -1.6116489732  0.5933742694
C  -4.9148196815  1.0354958686  0.5418659761
C  -5.2678679424  2.3372701879  0.5909889546
S  -3.9099624697  3.4091168131  0.4917925005
C  -0.6716937837  3.4723463938  0.2401668579
C  -3.5083242883 -1.6950417684  0.3350116777
C   2.4477263128 -1.1023949808  0.1886351970
C   2.8331245969 -2.1380327207 -0.6271440216
C   4.2357609997 -2.2244233888 -0.7994985419
C   4.9259205441 -1.2053318602 -0.1885860911
S   3.8311080602 -0.1776800701  0.6917193433
C   6.3456695904 -0.8751504817 -0.3193670335
C   7.3417054034 -1.8877083383 -0.5416835855
C   8.7343654745 -1.5199441101 -0.6669421009
C   9.1351092794 -0.1555314045 -0.6051119515
C   8.1614829558  0.7801573118 -0.4218277637
C   6.7912534201  0.4294542687 -0.2795088907
N   7.1554698481 -3.2024481670 -0.6482086185
S   8.6082270879 -3.8791129414 -0.8618671749
N   9.5472302311 -2.5611246170 -0.8474794316
H   1.4230903252  1.5339079198 -0.0709300834
H  -5.6249718185  0.2159839143  0.5900703927
H  -6.2652624126  2.7480376345  0.6881693168
H  -0.1283469732  3.5998233102 -0.7040801435
H  -1.3489405875  4.3226666287  0.3580479589
H   0.0717616275  3.5155674123  1.0465555735
H  -2.8187413557 -2.5290758695  0.1836544142
H  -4.0698201904 -1.8820797470  1.2588187232
H  -4.2338445336 -1.6987910931 -0.4884118318
H   2.1251349150 -2.8401112159 -1.0540879253
H   4.7593361930 -3.0130260309 -1.3310965558
H   10.1851022855  0.1011682618 -0.7068054960
H   8.4269751797  1.8326580514 -0.3810405156
H   6.0627927726  1.2250642592 -0.1575597963
42
Scanning combination 14/73: [244.9814]  Energy = -2548.7085228020
C  -0.6880073936  0.9395450512  0.3548868562
C  -1.3795350956 -0.2954939051  0.5003903846
C  -2.7677970963 -0.3882131113  0.5028953665
C  -3.4810936159  0.8264217528  0.4827058650
C  -2.7850756040  2.0622882919  0.3747306673
C  -1.3978352659  2.1504373434  0.2824435439
C   0.7297927104  0.7400081185  0.2794850332
C   1.1173553149 -0.5560384877  0.4061926275
S  -0.2468984041 -1.6283325903  0.6137984121
C  -4.9059466553  1.0268917831  0.5481846675
C  -5.2660675349  2.3259689999  0.4833342951
S  -3.9105297606  3.3967495652  0.3501478028
C  -0.6663320608  3.4510663400  0.1040201020
C  -3.4866613220 -1.7096761590  0.5123095021
C   2.4422556751 -1.0980978074  0.1249881132
C   2.8012708765 -1.9996681572 -0.8460662152
C   4.2051334658 -2.0987431239 -1.0205872304
C   4.9155174782 -1.2346994649 -0.2215609340
S   3.8392989208 -0.3325835728  0.8061617348
C   6.3418495940 -0.9140458841 -0.2818555756
C   7.3398741691 -1.9135654777 -0.5333874993
C   8.7276214475 -1.5329390695 -0.6639786738
C   9.1220302284 -0.1691053004 -0.5550634486
C   8.1513786816  0.7501608621 -0.2935348956
C   6.7857258697  0.3850309949 -0.1505916404
N   7.1622943490 -3.2294704371 -0.6499217418
S   8.6161175587 -3.8898888850 -0.8986599422
N   9.5456116408 -2.5646584396 -0.8778552474
H   1.4463162872  1.5453347649  0.1395084393
H  -5.6134149094  0.2094191397  0.6466130422
H  -6.2685651792  2.7350741020  0.4977391492
H  -0.1682465048  3.4894356845 -0.8738150425
H  -1.3358123483  4.3121094002  0.1765521179
H   0.1149739375  3.5596753281  0.8656702621
H  -2.7962167529 -2.5416128328  0.3526180867
H  -4.0053409387 -1.8790757056  1.4644031354
H  -4.2451124423 -1.7422941718 -0.2795022954
H   2.0727419380 -2.5757057622 -1.4066528765
H   4.6993895932 -2.7759213565 -1.7091646728
H   10.1670148942  0.0992134531 -0.6768277975
H   8.4137692460  1.8000045313 -0.1952025130
H   6.0543551485  1.1638952212  0.0408492433
42
Scanning combination 15/73: [249.9814]  Energy = -2548.7070914859
C  -0.6863331941  0.9368507316  0.3371428258
C  -1.3787430456 -0.2944883112  0.4995756582
C  -2.7674302322 -0.3877674239  0.5056209504
C  -3.4811503142  0.8264245047  0.4838490474
C  -2.7841372040  2.0608524226  0.3702457165
C  -1.3968920972  2.1489796674  0.2753264926
C   0.7317547385  0.7342173666  0.2626006985
C   1.1224341230 -0.5557663711  0.4329974583
S  -0.2474242128 -1.6256980852  0.6251899853
C  -4.9066984809  1.0264876808  0.5465259483
C  -5.2662876177  2.3257293418  0.4840900017
S  -3.9099810087  3.3959004093  0.3475593492
C  -0.6676420858  3.4513209116  0.1062402150
C  -3.4878045872 -1.7087791233  0.5153705365
C   2.4414671910 -1.1167112831  0.1471638067
C   2.7990014458 -1.9895201968 -0.8514760368
C   4.2026960600 -2.0859454516 -1.0297874523
C   4.9150637343 -1.2325791277 -0.2231282555
S   3.8413531246 -0.3435679717  0.8156539424
C   6.3426977552 -0.9140548981 -0.2804333172
C   7.3406930540 -1.9136938176 -0.5318608826
C   8.7289664424 -1.5340718005 -0.6601651146
C   9.1233069602 -0.1704622098 -0.5516415724
C   8.1526199075  0.7490638857 -0.2927808047
C   6.7868464531  0.3848161484 -0.1497220745
N   7.1621744921 -3.2287400474 -0.6572635419
S   8.6162598685 -3.8894801441 -0.9043230000
N   9.5465829967 -2.5649828292 -0.8784945576
H   1.4423401811  1.5430661572  0.1162892025
H  -5.6140342432  0.2084144733  0.6425615317
H  -6.2689163418  2.7351141974  0.5032476143
H  -0.1689022708  3.4898603920 -0.8703266657
H  -1.3383174476  4.3121839614  0.1757509198
H   0.1136558320  3.5619037351  0.8680569022
H  -2.7990300026 -2.5424343212  0.3577998869
H  -4.0059314814 -1.8767117339  1.4677811743
H  -4.2475880134 -1.7420968654 -0.2756886699
H   2.0744211807 -2.5651523640 -1.4159555035
H   4.6979694516 -2.7693373683 -1.7106726018
H   10.1686886527  0.0971879488 -0.6707499951
H   8.4147465653  1.7988170614 -0.1938430918
H   6.0547038131  1.1637517755  0.0380734806
42
Scanning combination 16/73: [254.9814]  Energy = -2548.7057871872
C  -0.6866988306  0.9291599434  0.3192938833
C  -1.3778953767 -0.2985459331  0.5192208450
C  -2.7664095743 -0.3917272036  0.5080061820
C  -3.4796375718  0.8218220636  0.4677281935
C  -2.7826533754  2.0553328307  0.3452689042
C  -1.3954408748  2.1416066970  0.2473954594
C   0.7291849968  0.7198657324  0.2234715622
C   1.1224977897 -0.5607595345  0.4478113601
S  -0.2423319196 -1.6206044164  0.7098941348
C  -4.9041500942  1.0242871448  0.5408637356
C  -5.2619039120  2.3243850505  0.4856785587
S  -3.9055679888  3.3921842837  0.3386077724
C  -0.6678263515  3.4482690408  0.0954902698
C  -3.4907295363 -1.7096326182  0.5327199203
C   2.4439583963 -1.1218240035  0.1702707926
C   2.7959535933 -1.9589858610 -0.8577126311
C   4.1988838207 -2.0611200177 -1.0402488025
C   4.9173439794 -1.2419565520 -0.2027541308
S   3.8493875276 -0.3968955053  0.8808425141
C   6.3441899476 -0.9164659782 -0.2748101014
C   7.3408180528 -1.9143154053 -0.5377036196
C   8.7306999785 -1.5366241997 -0.6539592931
C   9.1272308887 -0.1751036659 -0.5330658821
C   8.1556446596  0.7460415583 -0.2817282858
C   6.7881019111  0.3824956093 -0.1468210741
N   7.1590817152 -3.2270697716 -0.6820031771
S   8.6127359312 -3.8885654830 -0.9288854283
N   9.5470179865 -2.5674940621 -0.8776980519
H   1.4435432296  1.5117043347  0.0152261736
H  -5.6125854656  0.2075608208  0.6367747181
H  -6.2631486691  2.7352376420  0.5200444860
H  -0.1536476767  3.5069068118 -0.8724401666
H  -1.3460039869  4.3027700061  0.1678274175
H   0.0993029647  3.5524752507  0.8729173059
H  -2.8059676438 -2.5475855435  0.3815861637
H  -4.0064153328 -1.8633693026  1.4887202977
H  -4.2539032132 -1.7464293272 -0.2546090138
H   2.0606877882 -2.5010744174 -1.4424570729
H   4.6845163657 -2.7041310470 -1.7662453709
H   10.1745523299  0.0902055744 -0.6404766094
H   8.4196006054  1.7951399641 -0.1826062630
H   6.0551830781  1.1617305234  0.0369645338
42
Scanning combination 17/73: [259.9814]  Energy = -2548.7038483971
C  -0.6854829045  0.9272052342  0.3054922449
C  -1.3765937331 -0.2983241740  0.5163216392
C  -2.7653989690 -0.3914993488  0.5117053190
C  -3.4790552746  0.8215983532  0.4700382806
C  -2.7818403857  2.0548631008  0.3462242602
C  -1.3946304439  2.1401805892  0.2420085371
C   0.7306533770  0.7178780556  0.2140551909
C   1.1299639929 -0.5556452220  0.4741661592
S  -0.2416043365 -1.6170448627  0.7232204428
C  -4.9044303971  1.0237349505  0.5400096435
C  -5.2626067897  2.3239832455  0.4832233544
S  -3.9058938945  3.3914628607  0.3332923671
C  -0.6676024487  3.4471854810  0.0939087251
C  -3.4897900064 -1.7100262179  0.5386412263
C   2.4399128969 -1.1409735740  0.1866183618
C   2.7931781962 -1.9482321566 -0.8670233786
C   4.1951890412 -2.0455257357 -1.0539502955
C   4.9148931800 -1.2385076761 -0.2079900332
S   3.8505391422 -0.4074275737  0.8870804057
C   6.3434147615 -0.9180174124 -0.2727702766
C   7.3403837055 -1.9160674612 -0.5365213776
C   8.7304360403 -1.5375445466 -0.6524422044
C   9.1271735089 -0.1761497784 -0.5294368224
C   8.1548893342  0.7446482408 -0.2773177069
C   6.7876717570  0.3799273004 -0.1423569494
N   7.1591908526 -3.2284634910 -0.6837698044
S   8.6129580144 -3.8889475514 -0.9336751648
N   9.5469050577 -2.5676972278 -0.8791286114
H   1.4397073297  1.5133107369 -0.0021126626
H  -5.6128599804  0.2071817212  0.6373779482
H  -6.2635607784  2.7356634352  0.5209084824
H  -0.1537685050  3.5025542836 -0.8738826300
H  -1.3444462255  4.3028235636  0.1659457038
H   0.0992241555  3.5539340543  0.8713906503
H  -2.8050400064 -2.5479576504  0.3865939752
H  -4.0071068773 -1.8647134963  1.4939543288
H  -4.2522296585 -1.7469081868 -0.2495560419
H   2.0626295393 -2.4914402366 -1.4576809833
H   4.6848668717 -2.6954164004 -1.7712567443
H   10.1743308519  0.0898848817 -0.6363582159
H   8.4182733437  1.7938597629 -0.1790058879
H   6.0547568061  1.1595511613  0.0404587554
42
Scanning combination 18/73: [264.9814]  Energy = -2548.7038563842
C  -0.6880790199  0.9237488740  0.3433553092
C  -1.3654837457 -0.2963718427  0.6159269969
C  -2.7542483020 -0.3940962776  0.6527029581
C  -3.4739639198  0.8131263900  0.5387994805
C  -2.7852055134  2.0379756773  0.3131712639
C  -1.4002890667  2.1263145569  0.2106944248
C   0.7217375851  0.7181548226  0.1998875085
C   1.1207100037 -0.5616738321  0.3989887161
S  -0.2179042483 -1.6115122133  0.7886580949
C  -4.9004699108  1.0122604752  0.5823533341
C  -5.2673423715  2.2982588868  0.3990763918
S  -3.9157409630  3.3604590600  0.1749739643
C  -0.6669859407  3.4114924252 -0.0483887600
C  -3.4621564546 -1.7176358108  0.7717292116
C   2.4318428527 -1.1056468735  0.0432342462
C   2.7836358164 -1.7717438714 -1.1020962694
C   4.1887162812 -1.8793837988 -1.2684021362
C   4.9025227357 -1.2483866655 -0.2795664977
S   3.8298651850 -0.5596603966  0.8988903663
C   6.3374255567 -0.9566039849 -0.2428896389
C   7.3306871375 -1.9431631375 -0.5500956723
C   8.7223425685 -1.5631367749 -0.6299543471
C   9.1234884080 -0.2157361304 -0.4074240020
C   8.1569878592  0.6853317851 -0.0746738472
C   6.7885926166  0.3176849796  0.0232817709
N   7.1457114058 -3.2445790628 -0.7695873548
S   8.6003378890 -3.8937575916 -1.0472757496
N   9.5380403037 -2.5803084145 -0.9135841167
H   1.4188040111  1.5172427499 -0.0353397644
H  -5.6032576078  0.2017329132  0.7519272188
H  -6.2716652317  2.7042983131  0.3794432763
H  -0.1742415456  3.3824541531 -1.0282684953
H  -1.3296327325  4.2802956054 -0.0310214706
H   0.1222195806  3.5624561046  0.6982610052
H  -2.7660744847 -2.5530613188  0.6604325807
H  -3.9580037119 -1.8226511663  1.7447612304
H  -4.2368404903 -1.8233079531  0.0008913550
H   2.0544502291 -2.1859312142 -1.7899323696
H   4.6659232019 -2.3779223456 -2.1040410268
H   10.1717020374  0.0535972279 -0.4860868189
H   8.4237775390  1.7205387333  0.1187244199
H   6.0552646231  1.0777479444  0.2748634097
42
Scanning combination 19/73: [269.9814]  Energy = -2548.7025563771
C  -0.6882097988  0.9208833042  0.3228075693
C  -1.3672493908 -0.2965128643  0.6046982168
C  -2.7546854716 -0.3935048048  0.6481770537
C  -3.4749203662  0.8115295776  0.5308763859
C  -2.7862405750  2.0382512165  0.3156010500
C  -1.4012288046  2.1250999893  0.2018749563
C   0.7226275697  0.7121135532  0.1866716303
C   1.1256523959 -0.5621796635  0.4248171602
S  -0.2225185991 -1.6083498391  0.8067419732
C  -4.9011399456  1.0099588211  0.5806546501
C  -5.2675538022  2.2968338016  0.4070203437
S  -3.9187107482  3.3592180390  0.1749808778
C  -0.6711246829  3.4130808957 -0.0515007476
C  -3.4635000636 -1.7148434946  0.7795408257
C   2.4271338042 -1.1279166180  0.0623589042
C   2.7825486936 -1.7610263093 -1.1039562387
C   4.1878965494 -1.8622638431 -1.2753881782
C   4.9027929278 -1.2474074863 -0.2781562698
S   3.8320253598 -0.5787544137  0.9135671254
C   6.3382668559 -0.9563695063 -0.2499733883
C   7.3317547757 -1.9424641867 -0.5575889324
C   8.7250433274 -1.5643427187 -0.6274431473
C   9.1273552147 -0.2186191413 -0.3946273310
C   8.1597892601  0.6839863319 -0.0689723531
C   6.7894778522  0.3178108163  0.0154850610
N   7.1459459825 -3.2439891399 -0.7783104993
S   8.6005042581 -3.8938010665 -1.0555220000
N   9.5393965870 -2.5820411766 -0.9121020919
H   1.4237487222  1.5045808400 -0.0633887789
H  -5.6048488862  0.2002857888  0.7484167676
H  -6.2720770066  2.7008907824  0.3865926714
H  -0.1748279096  3.3892382168 -1.0302765167
H  -1.3378967926  4.2788667217 -0.0295345577
H   0.1128255100  3.5655012054  0.7004476576
H  -2.7692120691 -2.5518295466  0.6691558703
H  -3.9622642135 -1.8161726589  1.7518599553
H  -4.2372167669 -1.8128731875  0.0080731835
H   2.0599345218 -2.1690707804 -1.8030757958
H   4.6765278177 -2.3730062890 -2.0975920699
H   10.1754672472  0.0508783688 -0.4810454919
H   8.4277948521  1.7189452232  0.1237686765
H   6.0581159740  1.0782862424  0.2706660224
42
Scanning combination 20/73: [274.9814]  Energy = -2548.7014196867
C  -0.6903137139  0.9106944104  0.2942160711
C  -1.3666971439 -0.2980853946  0.6199496647
C  -2.7545776618 -0.3953837377  0.6474876070
C  -3.4750328504  0.8076099701  0.5154605824
C  -2.7874571642  2.0318976427  0.2900087332
C  -1.4026437789  2.1160271883  0.1656698722
C   0.7173021506  0.6885187580  0.1371137186
C   1.1235404870 -0.5725331852  0.4289701576
S  -0.2149126535 -1.5924721082  0.9005333758
C  -4.9006334457  1.0057660535  0.5770528608
C  -5.2680204089  2.2948404792  0.4175151797
S  -3.9193662672  3.3564341474  0.1801717545
C  -0.6793641680  3.4130939012 -0.0674095123
C  -3.4701328757 -1.7092039960  0.7977858193
C   2.4319835417 -1.1389617028  0.0791206674
C   2.7881616183 -1.7264953803 -1.1088955355
C   4.1930115922 -1.8387178565 -1.2759915881
C   4.9092958934 -1.2645004396 -0.2559275408
S   3.8385573502 -0.6669029508  0.9760502324
C   6.3438688398 -0.9585339997 -0.2437641037
C   7.3348431995 -1.9411468546 -0.5665132972
C   8.7298468235 -1.5683378415 -0.6209900618
C   9.1351003883 -0.2261398588 -0.3752193028
C   8.1674127584  0.6788947052 -0.0576557527
C   6.7947119244  0.3170272988  0.0171248956
N   7.1437931969 -3.2374176842 -0.8136503149
S   8.5977168981 -3.8905651185 -1.0844503489
N   9.5419423675 -2.5866372865 -0.9092548061
H   1.4190950803  1.4605820675 -0.1685452322
H  -5.6030622454  0.1952786937  0.7424697296
H  -6.2725424283  2.6989460766  0.4140637440
H  -0.1704411978  3.4181303373 -1.0399724528
H  -1.3594681927  4.2683608901 -0.0375173147
H   0.0909585171  3.5645147607  0.6991801215
H  -2.7830642904 -2.5528327963  0.6980208265
H  -3.9652325139 -1.7858479735  1.7737965798
H  -4.2489238203 -1.8131020854  0.0324831087
H   2.0655603278 -2.0880319054 -1.8328575617
H   4.6727182698 -2.3066361958 -2.1288114046
H   10.1861712444  0.0376073812 -0.4433660867
H   8.4392751233  1.7114052334  0.1418327132
H   6.0642194027  1.0817573512  0.2611143988
42
Scanning combination 21/73: [279.9814]  Energy = -2548.7005357200
C  -0.7005811356  0.9071067703  0.2799482328
C  -1.3632868713 -0.2922731200  0.6614807413
C  -2.7514641360 -0.3968598318  0.6909889097
C  -3.4777557262  0.8005611915  0.5246348937
C  -2.7946356976  2.0225291484  0.2713677895
C  -1.4121739320  2.1099982068  0.1445369101
C   0.6982738470  0.6869246435  0.0747338791
C   1.1243052573 -0.5576050168  0.4044780429
S  -0.1914600880 -1.5667707071  0.9626967981
C  -4.9034440806  1.0010406801  0.5877363430
C  -5.2706582282  2.2883986279  0.4130465495
S  -3.9254633641  3.3443138696  0.1382751917
C  -0.6864166508  3.4018253454 -0.1049595803
C  -3.4616302242 -1.7130967104  0.8592245648
C   2.4378046770 -1.1152140627  0.0568152643
C   2.7949346562 -1.6460413108 -1.1557335253
C   4.1995953444 -1.7662184155 -1.3191109719
C   4.9123061533 -1.2863609041 -0.2503141247
S   3.8399648483 -0.7591098450  1.0137771611
C   6.3489096935 -0.9898974904 -0.2181015432
C   7.3423602758 -1.9636244487 -0.5573724627
C   8.7364902112 -1.5843623284 -0.6051326062
C   9.1371513249 -0.2460740843 -0.3293532077
C   8.1652878708  0.6528850469 -0.0068788193
C   6.7943579627  0.2835381381  0.0601670712
N   7.1538396233 -3.2528650926 -0.8386319779
S   8.6091083696 -3.8923548296 -1.1385157323
N   9.5502798659 -2.5907273815 -0.9289875021
H   1.3638518531  1.4487234563 -0.3215651858
H  -5.6073697316  0.1933136314  0.7619035545
H  -6.2719756474  2.6997042460  0.4346927939
H  -0.1815805545  3.3939319602 -1.0793899578
H  -1.3602071365  4.2619249605 -0.0810340808
H   0.0894356678  3.5538539700  0.6556028712
H  -2.7697464235 -2.5547972688  0.7709058628
H  -3.9601346116 -1.7847506636  1.8342336965
H  -4.2378551678 -1.8290179324  0.0921968118
H   2.0659891427 -1.9495916518 -1.8984954120
H   4.6831044745 -2.1636148961 -2.2043104850
H   10.1881617063  0.0208320833 -0.3850710407
H   8.4300873034  1.6875032844  0.1934803957
H   6.0594394473  1.0412197366  0.3124340790
42
Scanning combination 22/73: [284.9814]  Energy = -2548.6991588527
C  -0.6995891706  0.9058360328  0.2610478172
C  -1.3621953066 -0.2899994763  0.6512771737
C  -2.7501389447 -0.3933725536  0.6939337180
C  -3.4783301672  0.8030009592  0.5344063603
C  -2.7961911704  2.0237979163  0.2735683495
C  -1.4141136064  2.1088000436  0.1317166841
C   0.7018335236  0.6854147051  0.0680794943
C   1.1328423643 -0.5528765833  0.4231746781
S  -0.1926835241 -1.5601274803  0.9715918704
C  -4.9051146430  0.9992044488  0.5949568105
C  -5.2761596013  2.2845036410  0.4122535749
S  -3.9311935193  3.3439713734  0.1454907163
C  -0.6902021342  3.4027270697 -0.1118049035
C  -3.4584958026 -1.7096008131  0.8672296274
C   2.4302046026 -1.1405427561  0.0593799684
C   2.7940715203 -1.6356935532 -1.1694952564
C   4.1993356195 -1.7537787062 -1.3296181244
C   4.9104204456 -1.2811429238 -0.2568711579
S   3.8375770835 -0.7799094951  1.0140063183
C   6.3480764722 -0.9896401469 -0.2174512569
C   7.3413032385 -1.9628872148 -0.5606734015
C   8.7362647466 -1.5854735958 -0.6067398593
C   9.1381650562 -0.2480485907 -0.3304852055
C   8.1673196610  0.6481267880  0.0010761947
C   6.7957593231  0.2806700967  0.0690361859
N   7.1523356560 -3.2513144532 -0.8454009364
S   8.6083465365 -3.8937612753 -1.1361548306
N   9.5504195292 -2.5933309946 -0.9243397427
H   1.3647262532  1.4530830976 -0.3235433830
H  -5.6064356684  0.1903852317  0.7748672619
H  -6.2797798685  2.6913895356  0.4237563276
H  -0.1883886700  3.3923086510 -1.0868308302
H  -1.3645420391  4.2628471084 -0.0875818201
H   0.0880143027  3.5563489332  0.6469326280
H  -2.7659348848 -2.5507682125  0.7823063914
H  -3.9548966293 -1.7756405149  1.8433034660
H  -4.2362281716 -1.8337625291  0.1027859425
H   2.0775228159 -1.9276762538 -1.9296140891
H   4.6872497125 -2.1612756579 -2.2069598054
H   10.1894283426  0.0187461679 -0.3833159948
H   8.4342427733  1.6788866213  0.2153694764
H   6.0623541122  1.0394763654  0.3217337542
42
Scanning combination 23/73: [289.9814]  Energy = -2548.7095258588
C  -0.8561578665  1.0182654298 -0.1737415937
C  -1.2676780532 -0.1480840585  0.5276606157
C  -2.5664084249 -0.3211907505  1.0024304733
C  -3.4794121644  0.7243683846  0.7516967041
C  -3.0431320706  1.9132550557  0.1036695693
C  -1.7320760885  2.1067264398 -0.3219494327
C   0.4994947110  0.9093914917 -0.6293098871
C   1.1244174684 -0.2344482675 -0.2601753957
S   0.0687880418 -1.2776902798  0.6622384937
C  -4.8829836246  0.7864011989  1.0765523992
C  -5.4665706046  1.9480295418  0.7099557225
S  -4.3620754088  3.0476391625 -0.0509919809
C  -1.2289726497  3.3985775128 -0.8961222969
C  -2.9925228976 -1.5604689327  1.7440191326
C   2.5072525310 -0.5988965786 -0.5896766868
C   3.0078591140 -0.9392171037 -1.8198838487
C   4.4119703080 -1.1620884802 -1.8118282148
C   4.9898539240 -0.9474721244 -0.5827038188
S   3.7740436609 -0.5188004061  0.5892104585
C   6.4113544595 -0.9718559650 -0.2181789072
C   7.3365445579 -1.8995575225 -0.8109712560
C   8.7165276070 -1.9264252893 -0.3793808327
C   9.1931892376 -1.0094526343  0.5979888092
C   8.2973470220 -0.1241437689  1.1179184314
C   6.9312219740 -0.1070282730  0.7217184708
N   7.0837289536 -2.8184048549 -1.7425909899
S   8.4556675601 -3.6292480861 -2.0074198892
N   9.4465167712 -2.8661924312 -0.9810127968
H   0.9916158298  1.6819741781 -1.2098541948
H  -5.4127307730 -0.0280171543  1.5614693862
H  -6.5020262204  2.2385516454  0.8440561610
H  -0.8988917030  3.2675917675 -1.9338551368
H  -1.9870890076  4.1854381064 -0.8762248526
H  -0.3564078860  3.7403264064 -0.3256207071
H  -2.1439096555 -2.2205334652  1.9380740649
H  -3.4509700065 -1.3102051598  2.7093169708
H  -3.7378662348 -2.1279837166  1.1716490276
H   2.3816200998 -1.0283792171 -2.6996030232
H   5.0006170450 -1.4886236191 -2.6631739031
H   10.2373653948 -1.0286339238  0.8952616005
H   8.6228364806  0.5919703314  1.8669230509
H   6.2752487075  0.6334366291  1.1688601668
42
Scanning combination 24/73: [294.9814]  Energy = -2548.7093254978
C  -0.8521683774  1.0161929299 -0.1879703140
C  -1.2633323353 -0.1497536778  0.5171362083
C  -2.5576673551 -0.3240604980  1.0017644353
C  -3.4722662806  0.7202915316  0.7557710052
C  -3.0360406285  1.9093334740  0.1081926858
C  -1.7285640979  2.1044359577 -0.3307992490
C   0.5093683972  0.9165816151 -0.6310915752
C   1.1403735999 -0.2165892437 -0.2346513672
S   0.0789286514 -1.2657197031  0.6787586127
C  -4.8764806820  0.7811164935  1.0803067080
C  -5.4585972709  1.9418519478  0.7123054600
S  -4.3558674903  3.0404612846 -0.0488641021
C  -1.2356132955  3.4019009973 -0.9057606892
C  -2.9906459683 -1.5609978108  1.7428846706
C   2.5085497500 -0.6160429322 -0.5758210904
C   3.0093677135 -0.9274367933 -1.8142517844
C   4.4126962081 -1.1461822330 -1.8089884218
C   4.9894617080 -0.9568937878 -0.5759139709
S   3.7760282212 -0.5552192672  0.6048963966
C   6.4083569210 -0.9853920386 -0.2119187059
C   7.3324549842 -1.9097871457 -0.8060615769
C   8.7138175244 -1.9273017938 -0.3819552581
C   9.1865331789 -1.0082016370  0.5967846447
C   8.2907827592 -0.1248310158  1.1178343317
C   6.9245642927 -0.1143498059  0.7249713966
N   7.0803446806 -2.8258504903 -1.7410255436
S   8.4583633806 -3.6217357383 -2.0197772561
N   9.4490546389 -2.8562414483 -0.9943525005
H   0.9968215905  1.6891663638 -1.2173921219
H  -5.4109726410 -0.0286351694  1.5687279361
H  -6.4936310012  2.2339832219  0.8427997197
H  -0.9125729739  3.2704062651 -1.9455162883
H  -1.9995353247  4.1829948670 -0.8809342679
H  -0.3640546860  3.7634071942 -0.3448158031
H  -2.1538289713 -2.2345650572  1.9432623468
H  -3.4541808959 -1.2950343495  2.7012991121
H  -3.7394630748 -2.1227431397  1.1695175884
H   2.3828941606 -1.0232295504 -2.6930843002
H   4.9976412619 -1.4618896265 -2.6652717023
H   10.2298178953 -1.0360623143  0.8964883424
H   8.6139452814  0.5983413051  1.8622666792
H   6.2625166714  0.6231820388  1.1666496658
42
Scanning combination 25/73: [299.9814]  Energy = -2548.7089948708
C  -0.8450851876  1.0213611679 -0.1818795023
C  -1.2507045854 -0.1328640827  0.5467194274
C  -2.5527465110 -0.3186309185  1.0013405912
C  -3.4662320186  0.7218673049  0.7424890887
C  -3.0355553834  1.9098333759  0.0923201350
C  -1.7286549951  2.1033294743 -0.3470465077
C   0.5124679476  0.9051564140 -0.6346393077
C   1.1472858933 -0.2168298272 -0.2097001010
S   0.0966524226 -1.2360101541  0.7447164802
C  -4.8640174407  0.7826468231  1.0812260942
C  -5.4526797348  1.9417597957  0.7195148900
S  -4.3568157544  3.0426555256 -0.0494797120
C  -1.2519105897  3.4011339428 -0.9337391770
C  -2.9908443799 -1.5568608871  1.7364587578
C   2.5084359664 -0.6344001521 -0.5535009696
C   3.0087544265 -0.8978752399 -1.8032999992
C   4.4106922666 -1.1283524306 -1.8061048232
C   4.9841556765 -0.9942141820 -0.5643324857
S   3.7703918976 -0.6514388337  0.6336579311
C   6.4048304128 -1.0048222970 -0.2076246974
C   7.3339067965 -1.9180951048 -0.8089629620
C   8.7167056935 -1.9273720890 -0.3878539036
C   9.1844629408 -1.0117390267  0.5963809013
C   8.2830704464 -0.1351981128  1.1195849044
C   6.9167646028 -0.1311224089  0.7283352135
N   7.0838530462 -2.8337371529 -1.7449056740
S   8.4675265916 -3.6161611801 -2.0331954161
N   9.4567213503 -2.8462905754 -1.0092307691
H   1.0028250843  1.6665807687 -1.2341648076
H  -5.3818365184 -0.0329121358  1.5751489059
H  -6.4904560068  2.2228241099  0.8509732629
H  -0.9366985635  3.2805179076 -1.9771914020
H  -2.0292572720  4.1695563086 -0.9060542925
H  -0.3800544711  3.7637467687 -0.3743522533
H  -2.1528250260 -2.2262455126  1.9428918796
H  -3.4508930139 -1.2968972495  2.6973382714
H  -3.7441369156 -2.1137744982  1.1632888933
H   2.3771607851 -0.9461066014 -2.6831882189
H   5.0014479601 -1.3942190242 -2.6768045200
H   10.2281530724 -1.0241560957  0.8956886622
H   8.6085052138  0.5893377656  1.8603497509
H   6.2538339968  0.6029195261  1.1752275193
42
Scanning combination 26/73: [304.9814]  Energy = -2548.7082683498
C  -0.8464074462  1.0175281746 -0.1912892784
C  -1.2521337630 -0.1329965352  0.5437387447
C  -2.5498357175 -0.3159235216  1.0112808155
C  -3.4662934300  0.7222545303  0.7550142805
C  -3.0343606213  1.9059216920  0.0959777122
C  -1.7287347698  2.1001011466 -0.3522891271
C   0.5135076414  0.9035530506 -0.6361905046
C   1.1555354964 -0.2050110927 -0.1870318594
S   0.0980506377 -1.2274757454  0.7614974585
C  -4.8686985492  0.7794931641  1.0849393631
C  -5.4553031449  1.9366080608  0.7139556557
S  -4.3578257161  3.0338392020 -0.0569922206
C  -1.2515583268  3.3981540323 -0.9429572961
C  -2.9876036899 -1.5556080050  1.7430318993
C   2.5044322675 -0.6456830441 -0.5467263175
C   3.0103793679 -0.8729751096 -1.8024398443
C   4.4107932625 -1.1080912543 -1.8055084102
C   4.9843537526 -0.9955064356 -0.5619000498
S   3.7696625856 -0.6742324541  0.6402594089
C   6.4047534794 -1.0160389967 -0.2022213610
C   7.3353066315 -1.9253077813 -0.8071460568
C   8.7188861473 -1.9285107172 -0.3897550237
C   9.1858524035 -1.0082891340  0.5908759842
C   8.2831807486 -0.1351162105  1.1195787927
C   6.9151202047 -0.1410438779  0.7332134327
N   7.0882977792 -2.8375096318 -1.7474249345
S   8.4747035774 -3.6146440335 -2.0387244458
N   9.4617310805 -2.8454272125 -1.0118968874
H   1.0021773234  1.6575252131 -1.2467059132
H  -5.3959272990 -0.0315952100  1.5788199680
H  -6.4886659233  2.2297208715  0.8550303885
H  -0.9396279710  3.2676212791 -1.9866128936
H  -2.0247321049  4.1700387029 -0.9106638305
H  -0.3808617800  3.7783042963 -0.3928013034
H  -2.1558049084 -2.2365410910  1.9377087373
H  -3.4540925002 -1.2927413146  2.7007889080
H  -3.7354340446 -2.1093352493  1.1614682578
H   2.3831495412 -0.9168541304 -2.6854189760
H   4.9960449739 -1.3761642117 -2.6776650792
H   10.2300795966 -1.0298854495  0.8878580990
H   8.6010766890  0.5889013733  1.8652658316
H   6.2440266349  0.5878438642  1.1764579398
42
Scanning combination 27/73: [309.9814]  Energy = -2548.7081609720
C  -0.8431996336  1.0164405661 -0.1783788511
C  -1.2391915727 -0.1106420645  0.5970932452
C  -2.5473590617 -0.3074633834  1.0297261389
C  -3.4652425926  0.7249463058  0.7537524626
C  -3.0381651465  1.8998323167  0.0772410818
C  -1.7336279514  2.0881418663 -0.3725685993
C   0.5080705189  0.8831438249 -0.6425449126
C   1.1580320276 -0.2101466807 -0.1650558026
S   0.1283986664 -1.1724111599  0.8705119835
C  -4.8639981344  0.7874126106  1.0899419686
C  -5.4535546984  1.9410641855  0.7121099096
S  -4.3597725101  3.0321425530 -0.0728959862
C  -1.2653473599  3.3760005039 -0.9898575560
C  -2.9898181503 -1.5521210421  1.7514334605
C   2.5097203893 -0.6389515602 -0.5228939053
C   3.0181145498 -0.7892704276 -1.7885128655
C   4.4137861517 -1.0540946033 -1.8034574958
C   4.9802030654 -1.0436589416 -0.5512077533
S   3.7583214964 -0.8168047528  0.6661065360
C   6.4029017556 -1.0517671587 -0.1934628393
C   7.3410951728 -1.9433925555 -0.8111475126
C   8.7276698151 -1.9317418642 -0.4022417529
C   9.1873146447 -1.0117758802  0.5825049322
C   8.2758939630 -0.1570577768  1.1252212055
C   6.9058677637 -0.1791147299  0.7485364203
N   7.0980160322 -2.8547087149 -1.7536388471
S   8.4926330476 -3.6130449782 -2.0582056990
N   9.4776034251 -2.8358104007 -1.0346926057
H   0.9802714475  1.6052280051 -1.3020646618
H  -5.3820702192 -0.0203639556  1.5964410899
H  -6.4885385055  2.2281705632  0.8504931785
H  -0.9637201590  3.2374829678 -2.0359896160
H  -2.0397152313  4.1472237308 -0.9570737166
H  -0.3910535207  3.7555186673 -0.4462077277
H  -2.1574376275 -2.2339115730  1.9377204601
H  -3.4533661919 -1.3001867801  2.7135537689
H  -3.7392815904 -2.1024263830  1.1685424895
H   2.3921924328 -0.7387667834 -2.6719298332
H   5.0036019339 -1.2435336230 -2.6939144349
H   10.2321672425 -1.0126465245  0.8764460625
H   8.5915305925  0.5661182698  1.8722869156
H   6.2282538508  0.5358485458  1.2046797418
42
Scanning combination 28/73: [314.9814]  Energy = -2548.7098563069
C  -0.8583503384  1.0004667621 -0.1878071889
C  -1.2464213399 -0.1269454242  0.5922972131
C  -2.5385865081 -0.2975577182  1.0830054421
C  -3.4676923524  0.7232893921  0.7942802200
C  -3.0659136007  1.8607296428  0.0408604503
C  -1.7759201348  2.0322897810 -0.4542028252
C   0.5076693857  0.9027332247 -0.6087277016
C   1.1540307137 -0.2106880754 -0.1756458522
S   0.1147822867 -1.2110293095  0.8141783460
C  -4.8601744736  0.8002406469  1.1614143125
C  -5.4674991684  1.9221766633  0.7207973885
S  -4.4065486453  2.9585188614 -0.1740067138
C  -1.3532038906  3.2417134320 -1.2396342779
C  -2.9616002017 -1.5042569292  1.8778449579
C   2.5350395466 -0.5522926043 -0.5029485840
C   3.0985468625 -0.4705637279 -1.7518866094
C   4.4874126827 -0.7579301801 -1.7568923435
C   4.9901057533 -1.0266286879 -0.5091248237
S   3.7229612620 -0.9979992700  0.6801486738
C   6.4015575059 -1.1288970776 -0.1267837233
C   7.3274217395 -1.9681485078 -0.8297793476
C   8.7274481742 -1.9533217291 -0.4718824034
C   9.2052901318 -1.1039846307  0.5655307689
C   8.2926613018 -0.3415202144  1.2309591330
C   6.9112095782 -0.3626052146  0.8980784605
N   7.0614203689 -2.8357340351 -1.8068421307
S   8.4586027925 -3.5417491111 -2.2122434703
N   9.4700851048 -2.7976445497 -1.1897349607
H   0.9977496384  1.6596268284 -1.2150986470
H  -5.3691710012  0.0342817486  1.7382081091
H  -6.5024799539  2.2089004685  0.8599061413
H  -1.1404032311  2.9803636814 -2.2842916210
H  -2.1180608621  4.0224834426 -1.2379484027
H  -0.4320424061  3.6649802409 -0.8217010572
H  -2.1383296146 -2.2033416752  2.0427563663
H  -3.3593307400 -1.2093626138  2.8575724261
H  -3.7632736533 -2.0439971736  1.3579393661
H   2.5230248122 -0.2152350551 -2.6350751471
H   5.1226859707 -0.7525713022 -2.6356523520
H   10.2655156827 -1.0836199970  0.7973838745
H   8.6169245270  0.3094040984  2.0377459729
H   6.2300563938  0.2743270537  1.4534026112
42
Scanning combination 29/73: [319.9814]  Energy = -2548.7098645622
C  -0.8642289395  0.9920676135 -0.2005305684
C  -1.2405959393 -0.1211636339  0.6043139549
C  -2.5348567304 -0.2967919466  1.0825472606
C  -3.4634323678  0.7209556517  0.7854776894
C  -3.0663551979  1.8565015045  0.0288086058
C  -1.7778981995  2.0274969684 -0.4672293115
C   0.4937170641  0.8865092816 -0.6362662156
C   1.1611426418 -0.1942775978 -0.1538378506
S   0.1337942727 -1.1799681428  0.8638407036
C  -4.8511535887  0.7969683798  1.1615529348
C  -5.4626824054  1.9175990703  0.7227718256
S  -4.4054286591  2.9572640157 -0.1731388347
C  -1.3603710149  3.2434010922 -1.2464596072
C  -2.9560519478 -1.5012949189  1.8788643922
C   2.5349458348 -0.5479934115 -0.4926541055
C   3.0961425962 -0.4480309595 -1.7409191032
C   4.4838634204 -0.7419250345 -1.7556075041
C   4.9913152150 -1.0230379077 -0.5111044368
S   3.7270849221 -1.0022285920  0.6819489659
C   6.4024225518 -1.1327485510 -0.1255451684
C   7.3285817156 -1.9711634061 -0.8281934406
C   8.7281220276 -1.9623852704 -0.4660426879
C   9.2048730748 -1.1246991857  0.5816302862
C   8.2928287420 -0.3568010156  1.2412528484
C   6.9124818915 -0.3717027452  0.9030162885
N   7.0645292845 -2.8233935291 -1.8188604379
S   8.4637613802 -3.5181434682 -2.2366854808
N   9.4728347845 -2.7920766787 -1.1986202771
H   0.9557377692  1.6274077893 -1.2816643298
H  -5.3424874756  0.0221239886  1.7410028618
H  -6.4954987415  2.2094803331  0.8668605837
H  -1.1421526366  2.9906854708 -2.2921719159
H  -2.1374031828  4.0118532036 -1.2421314863
H  -0.4480942588  3.6813939566 -0.8231756251
H  -2.1289810813 -2.1955166839  2.0414253260
H  -3.3479818643 -1.2014166460  2.8588155232
H  -3.7583789872 -2.0461947517  1.3654119889
H   2.5155468026 -0.1992606896 -2.6234397656
H   5.1053309495 -0.7380101694 -2.6447912922
H   10.2625651700 -1.1197446600  0.8266541501
H   8.6174890026  0.2991956729  2.0435870359
H   6.2321222082  0.2679667561  1.4556862716
42
Scanning combination 30/73: [324.9814]  Energy = -2548.7094656283
C  -0.8653231578  0.9936463630 -0.2125108834
C  -1.2351081857 -0.1072080453  0.6132160511
C  -2.5291068562 -0.2907437918  1.0922319954
C  -3.4654901797  0.7196357468  0.7917927219
C  -3.0717986359  1.8509149559  0.0248438763
C  -1.7856259570  2.0233951859 -0.4803169172
C   0.4921037047  0.8807247610 -0.6574767240
C   1.1693633677 -0.1813602381 -0.1449009447
S   0.1484022322 -1.1456508928  0.9007326401
C  -4.8560361104  0.7946242295  1.1671193906
C  -5.4684928559  1.9132256653  0.7246666383
S  -4.4133187735  2.9499127769 -0.1767305994
C  -1.3678780004  3.2410961804 -1.2570271158
C  -2.9478102479 -1.4994954751  1.8859934960
C   2.5317210351 -0.5614613464 -0.4968841257
C   3.1017874974 -0.4348675305 -1.7404592450
C   4.4889964509 -0.7331412894 -1.7534315768
C   4.9913882128 -1.0235198563 -0.5098521178
S   3.7233925883 -1.0230799847  0.6785593544
C   6.4030015363 -1.1287376278 -0.1305697634
C   7.3296675543 -1.9617892363 -0.8394309553
C   8.7266126105 -1.9638236515 -0.4689908149
C   9.2017870105 -1.1329345546  0.5843620812
C   8.2902157848 -0.3689051225  1.2481416089
C   6.9113407181 -0.3747749975  0.9042445535
N   7.0673950440 -2.8067648539 -1.8374557252
S   8.4635639961 -3.5147338933 -2.2433649599
N   9.4701100424 -2.7998171711 -1.1954542710
H   0.9629617225  1.6064456622 -1.3143523199
H  -5.3621298394  0.0273487563  1.7446375487
H  -6.5009628740  2.2023873140  0.8764003026
H  -1.1411319497  2.9901948761 -2.3013065431
H  -2.1420150436  4.0129431589 -1.2572659254
H  -0.4565883189  3.6737775433 -0.8258489783
H  -2.1249342979 -2.1996480885  2.0474444818
H  -3.3413061645 -1.2062582187  2.8673102971
H  -3.7519145024 -2.0388843296  1.3696010787
H   2.5259572717 -0.1709924170 -2.6206192508
H   5.1211358277 -0.7173582556 -2.6336074190
H   10.2586050548 -1.1331262388  0.8328497528
H   8.6129254132  0.2726330832  2.0627029237
H   6.2317373751  0.2650720036  1.4574064386
42
Scanning combination 31/73: [329.9814]  Energy = -2548.7084875757
C  -0.8659094293  0.9917053293 -0.2152500216
C  -1.2345176850 -0.1062984673  0.6151494819
C  -2.5290631071 -0.2903214146  1.0927991913
C  -3.4655448211  0.7195588326  0.7910743670
C  -3.0717364630  1.8510847855  0.0250120048
C  -1.7856235104  2.0229367745 -0.4803758426
C   0.4893731578  0.8767100094 -0.6646234838
C   1.1761104372 -0.1692467032 -0.1291668888
S   0.1489112981 -1.1443305761  0.9016306035
C  -4.8556834642  0.7946457155  1.1668809894
C  -5.4683487459  1.9131427548  0.7247512395
S  -4.4134744971  2.9497525679 -0.1771821893
C  -1.3678667947  3.2408536089 -1.2571007451
C  -2.9478318802 -1.4993032688  1.8859134121
C   2.5266396124 -0.5795020586 -0.5014841269
C   3.1032317240 -0.4264509191 -1.7398788513
C   4.4890798363 -0.7278249936 -1.7524761701
C   4.9909004535 -1.0247510219 -0.5106186612
S   3.7229772154 -1.0242714724  0.6767989507
C   6.4030646187 -1.1300487853 -0.1298195172
C   7.3297632251 -1.9620663712 -0.8393294142
C   8.7268493730 -1.9639844614 -0.4688373320
C   9.2018641893 -1.1336032149  0.5851988418
C   8.2900108047 -0.3692852688  1.2484009947
C   6.9111394045 -0.3751510656  0.9042094501
N   7.0673617873 -2.8062064162 -1.8374335150
S   8.4634216271 -3.5139862149 -2.2441083638
N   9.4701527754 -2.7997218267 -1.1958830302
H   0.9600711786  1.6061268211 -1.3166658037
H  -5.3601895091  0.0266915329  1.7451301952
H  -6.5010174707  2.2026903140  0.8760747068
H  -1.1416374655  2.9897185580 -2.3011392828
H  -2.1426509855  4.0122346613 -1.2578017346
H  -0.4566842422  3.6741861124 -0.8265557104
H  -2.1243453234 -2.1986760483  2.0471384026
H  -3.3406761025 -1.2058056107  2.8673678942
H  -3.7521009892 -2.0391409719  1.3699545397
H   2.5266184191 -0.1690758538 -2.6214147026
H   5.1208620611 -0.7170891866 -2.6343561557
H   10.2587627825 -1.1339585733  0.8333976086
H   8.6131572505  0.2723286445  2.0631914775
H   6.2317793547  0.2646348972  1.4578272476
42
Scanning combination 32/73: [334.9814]  Energy = -2548.7139011973
C  -0.9413463062  1.0515626383 -0.4247151110
C  -1.1016798251  0.0907204521  0.6158480057
C  -2.3172380258 -0.1405112662  1.2548724672
C  -3.3994663022  0.6779294264  0.8721880949
C  -3.2294269890  1.6518259184 -0.1496381037
C  -2.0270303800  1.8529876891 -0.8218168781
C   0.4012845494  1.0688395077 -0.9286705207
C   1.2422493763  0.1935056400 -0.3125279351
S   0.4187501906 -0.7137071382  0.9389123040
C  -4.7432360027  0.6931723795  1.3960425672
C  -5.5352211358  1.6145603508  0.8087527612
S  -4.7192959632  2.5201145827 -0.4209761976
C  -1.8625716217  2.8723059507 -1.9126812517
C  -2.5025038854 -1.1970798346  2.3119015177
C   2.6624694943  0.0069876882 -0.5633196933
C   3.3492699810  0.2852548262 -1.7216855942
C   4.7123577454 -0.0956440072 -1.6638281523
C   5.0791121255 -0.6470522959 -0.4594217030
S   3.7154240468 -0.7070180935  0.6186729600
C   6.4104664879 -1.0874688273 -0.0377352399
C   7.3291182710 -1.7080703757 -0.9534989736
C   8.6235216623 -2.1547151739 -0.4906201921
C   9.0235506659 -1.9549025274  0.8607185881
C   8.1336961523 -1.3494297899  1.6966239892
C   6.8487470982 -0.9251494728  1.2597607725
N   7.1383261019 -1.9687406035 -2.2466227412
S   8.4668542309 -2.7100858809 -2.7903424179
N   9.3573907415 -2.7374812446 -1.4393891729
H   0.7175655065  1.7312409658 -1.7292774937
H  -5.0835512107  0.0320959080  2.1868170694
H  -6.5722833015  1.8350475612  1.0313200095
H  -1.5556173831  2.3885955931 -2.8479409610
H  -2.7879389377  3.4221345790 -2.1009801511
H  -1.0806166715  3.5977807052 -1.6552897854
H  -1.6627815473 -1.8954979030  2.3494734604
H  -2.6098285029 -0.7445690060  3.3061530769
H  -3.4150180229 -1.7755347255  2.1230700903
H   2.8848553453  0.7252100974 -2.5969671141
H   5.4188288021 -0.0083006907 -2.4815075204
H   10.0091439141 -2.2770952302  1.1833778633
H   8.4023657956 -1.1823188369  2.7353708410
H   6.1985039686 -0.4325985543  1.9759761456
42
Scanning combination 33/73: [339.9814]  Energy = -2548.7140337580
C  -0.9414897831  1.0489538020 -0.4274301403
C  -1.1018661851  0.0907935998  0.6155669955
C  -2.3181723955 -0.1407902804  1.2503234918
C  -3.3983218150  0.6790492544  0.8679460623
C  -3.2297510530  1.6501102208 -0.1564906273
C  -2.0275898665  1.8481000000 -0.8308128113
C   0.4044958368  1.0693052794 -0.9212824038
C   1.2474272189  0.2102506380 -0.2861205534
S   0.4235188308 -0.6920902989  0.9678406520
C  -4.7391306830  0.6947863422  1.3968161861
C  -5.5332925714  1.6157731057  0.8114610637
S  -4.7176641963  2.5258899926 -0.4167960886
C  -1.8622940000  2.8716440097 -1.9190469882
C  -2.5012002905 -1.1943091760  2.3096926021
C   2.6567065282 -0.0151537600 -0.5652668444
C   3.3410591929  0.2783963118 -1.7203197624
C   4.7074295226 -0.0958276715 -1.6651944081
C   5.0756740034 -0.6529500183 -0.4633781763
S   3.7094943336 -0.7394037379  0.6094330104
C   6.4079717919 -1.0912999794 -0.0403987460
C   7.3293702765 -1.7092550038 -0.9539369781
C   8.6250780011 -2.1509036500 -0.4912750136
C   9.0212866042 -1.9535490590  0.8610149590
C   8.1317491762 -1.3471586718  1.6961995367
C   6.8466743716 -0.9270540997  1.2561692316
N   7.1416093754 -1.9656573515 -2.2481909560
S   8.4725921962 -2.7015590406 -2.7919616874
N   9.3623307521 -2.7289266589 -1.4404291564
H   0.7219708024  1.7265350001 -1.7246263622
H  -5.0679629495  0.0327167308  2.1916915711
H  -6.5748110045  1.8224445891  1.0261863988
H  -1.5533771040  2.3960721682 -2.8580023803
H  -2.7866793442  3.4237201431 -2.1068121819
H  -1.0822153337  3.5970180431 -1.6555896585
H  -1.6594562838 -1.8894811709  2.3496976583
H  -2.6081496492 -0.7438044620  3.3045997595
H  -3.4121233575 -1.7742149089  2.1210485373
H   2.8727555846  0.7275831330 -2.5894464303
H   5.4196592026  0.0037099656 -2.4775153969
H   10.0017816993 -2.2872444284  1.1858070016
H   8.3992721494 -1.1756433598  2.7350201073
H   6.1928406506 -0.4376745623  1.9702086095
42
Scanning combination 34/73: [344.9814]  Energy = -2548.7139113897
C  -0.9380927881  1.0525317727 -0.4264561391
C  -1.0937556249  0.1131639036  0.6346980197
C  -2.3140639625 -0.1332566460  1.2565672533
C  -3.3961836880  0.6799392149  0.8680568432
C  -3.2282621498  1.6476591883 -0.1599464738
C  -2.0258993043  1.8466681397 -0.8346740205
C   0.4051465125  1.0609091454 -0.9302962393
C   1.2500945594  0.2174329306 -0.2757194303
S   0.4357663256 -0.6499620430  1.0063357385
C  -4.7382398037  0.6922744590  1.3942379845
C  -5.5326976067  1.6108180912  0.8057670837
S  -4.7186103642  2.5174790492 -0.4256035810
C  -1.8607729299  2.8690796030 -1.9236431574
C  -2.5001331599 -1.1930226608  2.3098493891
C   2.6507584542 -0.0369988352 -0.5634413486
C   3.3403116236  0.2897598335 -1.7052510045
C   4.7034567400 -0.0904975228 -1.6575296586
C   5.0677683774 -0.6782332964 -0.4691836968
S   3.6963588635 -0.7970106399  0.5953365819
C   6.4049365033 -1.0993951785 -0.0464747791
C   7.3323040927 -1.7082499055 -0.9600479724
C   8.6269665102 -2.1498347313 -0.4936787284
C   9.0159085087 -1.9555869838  0.8613880210
C   8.1241925293 -1.3491587015  1.6931468363
C   6.8401748351 -0.9285868918  1.2511801304
N   7.1503800987 -1.9612178663 -2.2563428026
S   8.4859831270 -2.6913903864 -2.7973786885
N   9.3693823338 -2.7233232626 -1.4416324947
H   0.7259581804  1.7159544742 -1.7350505212
H  -5.0698231320  0.0364503626  2.1931684002
H  -6.5711989391  1.8227780175  1.0276974061
H  -1.5491804992  2.3938590777 -2.8619521271
H  -2.7872301901  3.4178929626 -2.1105269803
H  -1.0818010237  3.5959746995 -1.6598463550
H  -1.6587364063 -1.8889889142  2.3482898044
H  -2.6101628601 -0.7400811414  3.3031978398
H  -3.4090149561 -1.7768912406  2.1214372472
H   2.8735669096  0.7402745760 -2.5739632870
H   5.4082306409  0.0272284920 -2.4730696806
H   9.9975212766 -2.2823464650  1.1910477905
H   8.3909765435 -1.1758095084  2.7318367536
H   6.1849160763 -0.4393841913  1.9648697254
42
Scanning combination 35/73: [349.9814]  Energy = -2548.7137330228
C  -0.9351301523  1.0570366238 -0.4124577950
C  -1.0855306116  0.1382998181  0.6670475157
C  -2.3107291218 -0.1170776907  1.2745249947
C  -3.3949785192  0.6869489697  0.8720394217
C  -3.2290756693  1.6439902056 -0.1660169742
C  -2.0239048031  1.8433768192 -0.8347101219
C   0.4033211883  1.0494711479 -0.9247094727
C   1.2542398710  0.2241294087 -0.2559261355
S   0.4510928870 -0.6033607502  1.0603135917
C  -4.7381672482  0.6981549760  1.3929105144
C  -5.5348822748  1.6089250684  0.7955872144
S  -4.7208388987  2.5091899028 -0.4407513327
C  -1.8592265495  2.8574889985 -1.9323934486
C  -2.4982674039 -1.1836300973  2.3203211104
C   2.6456064070 -0.0511237246 -0.5661640636
C   3.3404467047  0.3090863742 -1.6961371232
C   4.7022925552 -0.0810826603 -1.6553516982
C   5.0573578483 -0.7111470696 -0.4861926959
S   3.6784495137 -0.8693252325  0.5626927519
C   6.3971821953 -1.1212011213 -0.0582259022
C   7.3351814876 -1.7173665599 -0.9682596658
C   8.6322254408 -2.1453755258 -0.4967908985
C   9.0125154065 -1.9530489166  0.8604103193
C   8.1119706623 -1.3545454461  1.6895158743
C   6.8254763266 -0.9482394276  1.2409112360
N   7.1638404014 -1.9653005708 -2.2667748190
S   8.5119636437 -2.6749696273 -2.8039968048
N   9.3879817598 -2.7035154350 -1.4434033209
H   0.7115817396  1.6689229528 -1.7603481692
H  -5.0635046097  0.0428974455  2.1947081428
H  -6.5760643634  1.8170545922  1.0090443799
H  -1.5444053667  2.3800506014 -2.8689445091
H  -2.7857769319  3.4045351369 -2.1251999597
H  -1.0833894652  3.5875883184 -1.6693542942
H  -1.6543421892 -1.8767666320  2.3505105439
H  -2.6107289216 -0.7466071424  3.3207358638
H  -3.4046254935 -1.7665873756  2.1190289120
H   2.8808344416  0.8073249632 -2.5420539536
H   5.4231982487  0.0740984136 -2.4508770251
H   9.9939524022 -2.2765096676  1.1927955485
H   8.3715703933 -1.1757506155  2.7289972547
H   6.1584873006 -0.4671384660  1.9493446855
42
Scanning combination 36/73: [354.9814]  Energy = -2548.7130720967
C  -0.9351318886  1.0570295488 -0.4124620555
C  -1.0855289035  0.1383080698  0.6670556841
C  -2.3107321571 -0.1170827667  1.2745183411
C  -3.3949795346  0.6869501480  0.8720390537
C  -3.2290816282  1.6439794013 -0.1660291506
C  -2.0239045051  1.8433809105 -0.8347063010
C   0.4009420426  1.0430084865 -0.9296473443
C   1.2592801773  0.2384579684 -0.2460196782
S   0.4510946129 -0.6033525321  1.0603182573
C  -4.7381688974  0.6981573148  1.3929062523
C  -5.5348778103  1.6089243962  0.7955894471
S  -4.7208380933  2.5091982489 -0.4407444988
C  -1.8592282668  2.8574891902 -1.9323939263
C  -2.4982699456 -1.1836306341  2.3203197280
C   2.6407013052 -0.0661989282 -0.5748021797
C   3.3426939019  0.3162920278 -1.6924576835
C   4.7022924636 -0.0810869464 -1.6553564359
C   5.0573526222 -0.7111611702 -0.4862041313
S   3.6784449833 -0.8693281192  0.5626842350
C   6.3971874185 -1.1211809110 -0.0582195337
C   7.3351816335 -1.7173624560 -0.9682570146
C   8.6322234337 -2.1453777966 -0.4967900490
C   9.0125170841 -1.9530623806  0.8604032219
C   8.1119717598 -1.3545442744  1.6895218996
C   6.8254816910 -0.9482289610  1.2409103006
N   7.1638386773 -1.9653011737 -2.2667674511
S   8.5119589230 -2.6749721122 -2.8039931045
N   9.3879820166 -2.7035154607 -1.4434025378
H   0.7115762351  1.6689166165 -1.7603472659
H  -5.0634966011  0.0428922250  2.1947073817
H  -6.5760634315  1.8170581157  1.0090464813
H  -1.5444032535  2.3800590466 -2.8689501900
H  -2.7857778043  3.4045396335 -2.1251956589
H  -1.0833930055  3.5875858949 -1.6693483859
H  -1.6543457066 -1.8767680895  2.3505021048
H  -2.6107308116 -0.7466070361  3.3207367961
H  -3.4046234441 -1.7665942450  2.1190274370
H   2.8808320076  0.8073201234 -2.5420565232
H   5.4232093974  0.0740968661 -2.4508734113
H   9.9939497345 -2.2765123804  1.1927911044
H   8.3715745152 -1.1757432304  2.7289950701
H   6.1584892838 -0.4671316459  1.9493514064
42
Scanning combination 37/73: [359.9814]  Energy = -2548.7125824446
C  -0.9351455780  1.0530554108 -0.4150994397
C  -1.0766880345  0.1578781853  0.6849708871
C  -2.3029321714 -0.1060600670  1.2871410632
C  -3.3918958411  0.6898220624  0.8787683130
C  -3.2266942089  1.6420767321 -0.1638793298
C  -2.0247032668  1.8361293964 -0.8392543288
C   0.3968441784  1.0304749992 -0.9426674034
C   1.2615103984  0.2449578284 -0.2435452822
S   0.4729921961 -0.5386342005  1.1092117009
C  -4.7365425163  0.7022118489  1.3986182229
C  -5.5354335886  1.6036309332  0.7892413287
S  -4.7213868919  2.4968501315 -0.4515565079
C  -1.8595244413  2.8435161741 -1.9422019137
C  -2.4913280537 -1.1732606185  2.3316559944
C   2.6356497553 -0.0752354855 -0.5802878536
C   3.3492101760  0.3485256822 -1.6762051590
C   4.7064210423 -0.0550093687 -1.6421447122
C   5.0476477289 -0.7412474137 -0.5003001637
S   3.6505063463 -0.9639322753  0.5135400359
C   6.3894739110 -1.1419460726 -0.0665752704
C   7.3370626057 -1.7237263841 -0.9744711713
C   8.6362830499 -2.1419302132 -0.4993488035
C   9.0102097196 -1.9500291451  0.8602251109
C   8.0980453761 -1.3683795049  1.6886147134
C   6.8096688801 -0.9712886550  1.2355606965
N   7.1695997340 -1.9707927731 -2.2737780586
S   8.5261845105 -2.6650079960 -2.8096443008
N   9.3991853927 -2.6894374346 -1.4466557509
H   0.6981283143  1.6298876993 -1.7955674664
H  -5.0705716590  0.0536966240  2.2023826216
H  -6.5796999232  1.8043469976  0.9940067239
H  -1.5421690843  2.3568059558 -2.8727479444
H  -2.7856934009  3.3895819067 -2.1404759570
H  -1.0832791496  3.5751585139 -1.6837063960
H  -1.6491271030 -1.8686889847  2.3657280593
H  -2.6068773318 -0.7337822260  3.3300573890
H  -3.3985565546 -1.7540918214  2.1286109099
H   2.9035613328  0.8885423030 -2.5036616555
H   5.4304909227  0.1374838295 -2.4251355506
H   9.9981236548 -2.2556355197  1.1920454467
H   8.3538490530 -1.1947170760  2.7298694727
H   6.1348007573 -0.5028989973  1.9450614132
42
Scanning combination 38/73: [364.9814]  Energy = -2548.7116162235
C  -0.9356878603  1.0502238726 -0.4169750888
C  -1.0758404603  0.1594858375  0.6870220428
C  -2.3025112777 -0.1042634085  1.2885983272
C  -3.3911838761  0.6921750128  0.8806158922
C  -3.2275971263  1.6416843989 -0.1649769776
C  -2.0250673764  1.8350334176 -0.8396900512
C   0.3969212325  1.0287338330 -0.9423719725
C   1.2679615891  0.2591647395 -0.2328325456
S   0.4732363529 -0.5405479851  1.1091903876
C  -4.7372417209  0.7009186560  1.3963705510
C  -5.5359878492  1.6030266475  0.7884286629
S  -4.7225121195  2.4966536329 -0.4525622262
C  -1.8595561195  2.8426830954 -1.9428056566
C  -2.4910055063 -1.1721505321  2.3329314151
C   2.6292156484 -0.0933849988 -0.5915837742
C   3.3506903139  0.3528544754 -1.6738656741
C   4.7088072215 -0.0476552690 -1.6382984202
C   5.0471118108 -0.7391680016 -0.4992412174
S   3.6500146383 -0.9640883375  0.5128087897
C   6.3868162220 -1.1475245843 -0.0656689530
C   7.3351509521 -1.7264901031 -0.9750541334
C   8.6360813167 -2.1403794875 -0.5008620490
C   9.0107186142 -1.9468502910  0.8580882400
C   8.0986667446 -1.3674594853  1.6874499199
C   6.8080180993 -0.9767939491  1.2360465368
N   7.1708165239 -1.9704403282 -2.2754919551
S   8.5282747386 -2.6647819665 -2.8100913785
N   9.4001123354 -2.6887477484 -1.4465417829
H   0.6956094544  1.6248243607 -1.7988224778
H  -5.0676407231  0.0537142551  2.2027776319
H  -6.5799721794  1.8046465847  0.9941774545
H  -1.5432284878  2.3561857461 -2.8737388896
H  -2.7856730256  3.3879999685 -2.1420729541
H  -1.0833596231  3.5747737358 -1.6851086465
H  -1.6473954228 -1.8660349812  2.3660239664
H  -2.6061780395 -0.7345650591  3.3324527232
H  -3.3985459971 -1.7527940860  2.1293518477
H   2.9058321262  0.8958449538 -2.4997123632
H   5.4333008989  0.1391835114 -2.4236752509
H   9.9958446363 -2.2565971234  1.1932071858
H   8.3510385228 -1.1950312795  2.7299885672
H   6.1331450333 -0.5051607495  1.9429139797
42
Scanning combination 39/73: [369.9814]  Energy = -2548.7100541645
C  -0.9356923115  1.0502126755 -0.4169902731
C  -1.0758396667  0.1594893795  0.6870235851
C  -2.3025116964 -0.1042722605  1.2885879291
C  -3.3911845102  0.6921769245  0.8806222703
C  -3.2275992968  1.6416820219 -0.1649774377
C  -2.0250675859  1.8350385221 -0.8396825210
C   0.3940633283  1.0217890569 -0.9463920293
C   1.2741225776  0.2738102320 -0.2238654893
S   0.4732374481 -0.5405489828  1.1091858688
C  -4.7372458961  0.7009153614  1.3963653246
C  -5.5359827673  1.6030306124  0.7884333965
S  -4.7225117538  2.4966575241 -0.4525584384
C  -1.8595543269  2.8426872329 -1.9428007180
C  -2.4910080702 -1.1721574458  2.3329270258
C   2.6230290145 -0.1075460289 -0.6011083034
C   3.3535752160  0.3593097708 -1.6692856426
C   4.7088049607 -0.0476526593 -1.6382997899
C   5.0471097387 -0.7391705397 -0.4992451398
S   3.6500166321 -0.9640780083  0.5128130672
C   6.3868184804 -1.1475161778 -0.0656630686
C   7.3351488463 -1.7264864771 -0.9750499364
C   8.6360803967 -2.1403784593 -0.5008639164
C   9.0107201973 -1.9468526167  0.8580853991
C   8.0986773289 -1.3674565478  1.6874481517
C   6.8080265628 -0.9767869000  1.2360526483
N   7.1708169654 -1.9704345478 -2.2754873964
S   8.5282709840 -2.6647860376 -2.8100872491
N   9.4001101029 -2.6887542476 -1.4465396720
H   0.6956134239  1.6248366883 -1.7988164248
H  -5.0676460757  0.0537152903  2.2027779436
H  -6.5799718117  1.8046469979  0.9941776090
H  -1.5432273886  2.3561899124 -2.8737347757
H  -2.7856720499  3.3880045172 -2.1420698010
H  -1.0833584008  3.5747771640 -1.6851041802
H  -1.6473983526 -1.8660418954  2.3660227176
H  -2.6061803424 -0.7345643630  3.3324462488
H  -3.3985504073 -1.7527983930  2.1293486145
H   2.9058263438  0.8958221059 -2.4997208606
H   5.4332940274  0.1391676955 -2.4236894843
H   9.9958446503 -2.2565974485  1.1932082122
H   8.3510428448 -1.1950304921  2.7299917127
H   6.1331528753 -0.5051481761  1.9429145061
42
Scanning combination 40/73: [374.9814]  Energy = -2548.7112089449
C  -0.9430542802  1.0270510347 -0.4464707390
C  -1.0598948296  0.1810340917  0.6944172302
C  -2.2714245794 -0.0504867457  1.3369478163
C  -3.3682622313  0.7241904427  0.9112458309
C  -3.2287945864  1.6265420157 -0.1787384942
C  -2.0377277876  1.7990171057 -0.8786263318
C   0.3751627591  0.9746725879 -1.0014717677
C   1.2589602683  0.2372893387 -0.2754292219
S   0.4914668739 -0.5244222530  1.1001599545
C  -4.7113378616  0.7255434534  1.4310080534
C  -5.5395298426  1.5655805741  0.7736157538
S  -4.7441510562  2.4331650218 -0.4994041208
C  -1.8948190913  2.7573986076 -2.0285307071
C  -2.4276146608 -1.0808349150  2.4239592902
C   2.6402689136 -0.0510124777 -0.6085036199
C   3.4138049326  0.5780160676 -1.5543271949
C   4.7632728465  0.1414750022 -1.5377041214
C   5.0302375583 -0.7764745646 -0.5510326624
S   3.5879058452 -1.1517465421  0.3410962099
C   6.3451760913 -1.2492931348 -0.1073602854
C   7.3254135771 -1.7785279175 -1.0103041633
C   8.6419333590 -2.1248672661 -0.5222323318
C   8.9829805098 -1.9443115201  0.8480039557
C   8.0151083007 -1.4744959901  1.6835176144
C   6.7143011576 -1.1457257544  1.2160596934
N   7.1813958772 -2.0353346638 -2.3104321164
S   8.5843811033 -2.6475373251 -2.8347501546
N   9.4465163568 -2.6203307437 -1.4639547021
H   0.6420255869  1.4882685796 -1.9185253810
H  -5.0134997063  0.1056107701  2.2686007225
H  -6.5959728680  1.7240485352  0.9526519290
H  -1.6044626798  2.2302767848 -2.9460805539
H  -2.8243570897  3.2968667378 -2.2262250680
H  -1.1103722337  3.4973142718 -1.8247351095
H  -1.5673087089 -1.7526886358  2.4620473705
H  -2.5323317756 -0.6141770467  3.4112885983
H  -3.3207609632 -1.6952472532  2.2586431448
H   3.0264383196  1.3216469836 -2.2413674272
H   5.5289499936  0.4827422565 -2.2249896990
H   9.9807302902 -2.2015498604  1.1904487154
H   8.2291367707 -1.3386057708  2.7397290611
H   5.9873098230 -0.7611788577  1.9241547481
42
Scanning combination 41/73: [379.9814]  Energy = -2548.7100535685
C  -0.9430631746  1.0270421152 -0.4464800795
C  -1.0598905644  0.1810348204  0.6944113977
C  -2.2714261180 -0.0504853345  1.3369443807
C  -3.3682536503  0.7242094470  0.9112513271
C  -3.2287898815  1.6265406793 -0.1787390676
C  -2.0377217996  1.7990346213 -0.8786169116
C   0.3726326280  0.9674720623 -1.0057053192
C   1.2644168602  0.2518263811 -0.2653863771
S   0.4914672869 -0.5244300683  1.1001605292
C  -4.7113251576  0.7255499165  1.4310333489
C  -5.5395574878  1.5655849047  0.7735951294
S  -4.7441351096  2.4331826805 -0.4993980253
C  -1.8948137658  2.7574036300 -2.0285300763
C  -2.4276180580 -1.0808334808  2.4239516920
C   2.6347217726 -0.0640426567 -0.6202091755
C   3.4164127069  0.5837228790 -1.5484033836
C   4.7632800917  0.1414877451 -1.5376946803
C   5.0302344025 -0.7764796129 -0.5510384558
S   3.5879115017 -1.1517469583  0.3411043565
C   6.3451745799 -1.2492930773 -0.1073645752
C   7.3254103452 -1.7785418316 -1.0103068714
C   8.6419361583 -2.1248618320 -0.5222320231
C   8.9829900746 -1.9442782194  0.8479980439
C   8.0151066210 -1.4744863259  1.6835171602
C   6.7142906911 -1.1457416729  1.2160599195
N   7.1813993457 -2.0353455758 -2.3104327183
S   8.5843851593 -2.6475551203 -2.8347457446
N   9.4465214186 -2.6203305523 -1.4639514590
H   0.6420105677  1.4882432760 -1.9185246346
H  -5.0134789159  0.1056096393  2.2685962086
H  -6.5959832046  1.7240285738  0.9526433467
H  -1.6044550327  2.2302804376 -2.9460792889
H  -2.8243523607  3.2968677390 -2.2262165853
H  -1.1103741335  3.4973228120 -1.8247396380
H  -1.5673133312 -1.7526828773  2.4620272493
H  -2.5323281285 -0.6141859109  3.4112881968
H  -3.3207527223 -1.6952694512  2.2586478950
H   3.0264341993  1.3216470144 -2.2413635833
H   5.5289326247  0.4827321768 -2.2250040033
H   9.9807298317 -2.2015521322  1.1904490013
H   8.2291306724 -1.3386017837  2.7397311172
H   5.9873033385 -0.7611780520  1.9241520956
42
Scanning combination 42/73: [384.9814]  Energy = -2548.7091745788
C  -0.9418945646  1.0257741243 -0.4496698604
C  -1.0513503885  0.1944232852  0.7030033863
C  -2.2653545796 -0.0531699361  1.3377225739
C  -3.3730269464  0.7030807377  0.9029417069
C  -3.2364110704  1.6000461926 -0.1918692171
C  -2.0456388080  1.7792979065 -0.8900750978
C   0.3739270081  0.9756101718 -1.0114254573
C   1.2723682011  0.2695276175 -0.2729485103
S   0.5159014768 -0.4631300660  1.1293571706
C  -4.7161594323  0.7132904782  1.4280354600
C  -5.5375417475  1.5642424390  0.7781497654
S  -4.7482117654  2.4136106249 -0.5078623473
C  -1.9039773792  2.7436918025 -2.0347714355
C  -2.4249663005 -1.0732385682  2.4330869955
C   2.6283624489 -0.0805926700 -0.6541776968
C   3.4262300008  0.5840323721 -1.5545373178
C   4.7734383001  0.1479802493 -1.5272554576
C   5.0266170124 -0.7885884032 -0.5543335415
S   3.5642215717 -1.2076906899  0.2834416656
C   6.3430230094 -1.2503379385 -0.0999407110
C   7.3232318780 -1.7725106756 -1.0064003663
C   8.6362547017 -2.1349157211 -0.5219674531
C   8.9787553143 -1.9647854699  0.8492091950
C   8.0163169813 -1.4862272894  1.6860080004
C   6.7161537634 -1.1443661261  1.2221967557
N   7.1799413192 -2.0063184641 -2.3112732937
S   8.5789142075 -2.6187767290 -2.8431751727
N   9.4380162093 -2.6222554015 -1.4702262359
H   0.6387014826  1.4946438347 -1.9279757657
H  -5.0322127065  0.1013891991  2.2670089741
H  -6.5850083384  1.7541072221  0.9774400494
H  -1.6126910720  2.2218915298 -2.9548688765
H  -2.8301458359  3.2904189919 -2.2321105937
H  -1.1157763067  3.4768635843 -1.8207945407
H  -1.5720869454 -1.7543834720  2.4879569090
H  -2.5377027974 -0.5960289372  3.4145086929
H  -3.3257665289 -1.6741668854  2.2630038786
H   3.0536111920  1.3458488150 -2.2313704799
H   5.5569097418  0.5124746106 -2.1819202381
H   9.9776327427 -2.2201816082  1.1897113318
H   8.2374567564 -1.3495054339  2.7405838754
H   5.9971384760 -0.7521742800  1.9339829991
42
Scanning combination 43/73: [389.9814]  Energy = -2548.7108621353
C  -0.9633984523  0.9646645952 -0.5547418120
C  -1.0339223650  0.1735425022  0.6310808180
C  -2.2050007574  0.0008084431  1.3642207666
C  -3.3445911466  0.6909095085  0.9064606916
C  -3.2719722438  1.4788606529 -0.2751713496
C  -2.1081350028  1.6332256253 -1.0260459439
C   0.3628647186  0.9741850997 -1.1055753730
C   1.2729394304  0.2819757863 -0.3684382682
S   0.5327031715 -0.5062277165  1.0066942452
C  -4.6645982294  0.7299884378  1.4883396903
C  -5.5313057830  1.4938066981  0.7908381158
S  -4.8182334904  2.2154305709 -0.6124665692
C  -2.0435259292  2.4824360880 -2.2658023732
C  -2.2869697841 -0.8540955392  2.6017815106
C   2.6839240732  0.0853651543 -0.6499201392
C   3.5289916681  0.9341771370 -1.3239751018
C   4.8863142220  0.5203902927 -1.2655333703
C   5.0739822245 -0.6201118207 -0.5227858615
S   3.5682701537 -1.2064837986  0.0984995113
C   6.3433180901 -1.2231008840 -0.1072143895
C   7.3257613231 -1.6723125982 -1.0473433802
C   8.5887165561 -2.1938363493 -0.5736440695
C   8.8740571274 -2.2594344690  0.8197490992
C   7.9039604286 -1.8474641113  1.6838932629
C   6.6527473209 -1.3506516635  1.2274949335
N   7.2237209396 -1.7034989862 -2.3754184811
S   8.6060863360 -2.3269901712 -2.9423004614
N   9.3994413273 -2.5927629822 -1.5554061055
H   0.6244172814  1.4992684917 -2.0209732270
H  -4.9319355362  0.2096156153  2.4028944232
H  -6.5718029676  1.6874356320  1.0209101941
H  -1.8354964263  1.8654934420 -3.1485605740
H  -2.9769055389  3.0237665281 -2.4444048121
H  -1.2309691095  3.2162787761 -2.1915815530
H  -1.4018604612 -1.4798192858  2.7409208756
H  -2.4004664381 -0.2321367084  3.4986777497
H  -3.1627720715 -1.5119561071  2.5560809315
H   3.1823482202  1.8306987039 -1.8275549402
H   5.7143661314  1.0473652065 -1.7259567668
H   9.8360439835 -2.6357060202  1.1540263192
H   8.0785646855 -1.8897985600  2.7544812651
H   5.9175226871 -1.0344001165  1.9601702762
42
Scanning combination 44/73: [394.9814]  Energy = -2548.7100027555
C  -0.9678419455  0.9586348350 -0.5528031700
C  -1.0343237680  0.1756282450  0.6367178079
C  -2.2076754063  0.0027089820  1.3637143034
C  -3.3459286742  0.6922179691  0.9021376938
C  -3.2731025484  1.4831185247 -0.2768339323
C  -2.1080348981  1.6344667347 -1.0248190199
C   0.3576897034  0.9678027599 -1.1008327049
C   1.2769853013  0.3029054595 -0.3508298125
S   0.5364060628 -0.4937625027  1.0184506877
C  -4.6627926595  0.7322612502  1.4857503293
C  -5.5316206975  1.4958386052  0.7907022311
S  -4.8208478152  2.2163422670 -0.6152904047
C  -2.0417620823  2.4779769365 -2.2669403405
C  -2.2891696571 -0.8514747894  2.6007301720
C   2.6792202388  0.0803851530 -0.6623115488
C   3.5308719245  0.9348107104 -1.3197239616
C   4.8874526583  0.5193791577 -1.2596224116
C   5.0717633965 -0.6257862007 -0.5261989958
S   3.5626826188 -1.2108038656  0.0905527445
C   6.3446892483 -1.2212892943 -0.1070774708
C   7.3274592790 -1.6683994052 -1.0472663714
C   8.5883578228 -2.1945154499 -0.5742959653
C   8.8731387831 -2.2626487083  0.8185624596
C   7.9046297288 -1.8493981874  1.6845583717
C   6.6549983678 -1.3495316217  1.2274620573
N   7.2260853233 -1.6937797930 -2.3759488478
S   8.6062611130 -2.3214146834 -2.9433025595
N   9.3997993855 -2.5898234883 -1.5567545560
H   0.6151868546  1.4836377255 -2.0198916525
H  -4.9217545497  0.2057933759  2.3991146778
H  -6.5728802612  1.6861333782  1.0192330114
H  -1.8336823996  1.8643500286 -3.1529531557
H  -2.9751728824  3.0183344303 -2.4427123935
H  -1.2338289063  3.2157631966 -2.1900965352
H  -1.4012682068 -1.4737695647  2.7332462914
H  -2.4015698693 -0.2330744681  3.5003468822
H  -3.1618967904 -1.5127654982  2.5553312852
H   3.1881180770  1.8313525505 -1.8248214723
H   5.7135983905  1.0408895072 -1.7288018689
H   9.8339595775 -2.6408466891  1.1526422487
H   8.0810692735 -1.8950218659  2.7548720444
H   5.9219312553 -1.0337246072  1.9624036103
42
Scanning combination 45/73: [399.9814]  Energy = -2548.7091020995
C  -0.9665453742  0.9650838522 -0.5465313430
C  -1.0269137327  0.2197769730  0.6668548868
C  -2.2077514840  0.0182761111  1.3749575772
C  -3.3498100760  0.6934493356  0.9013940160
C  -3.2769020439  1.4772888583 -0.2823711852
C  -2.1117789989  1.6231218525 -1.0325141072
C   0.3530977882  0.9466075127 -1.1095834851
C   1.2811231653  0.3241966260 -0.3333577250
S   0.5580805233 -0.3854337130  1.0934161084
C  -4.6683467394  0.7288282169  1.4812844005
C  -5.5359346334  1.4945064410  0.7849507234
S  -4.8238175730  2.2131080138 -0.6213048273
C  -2.0424356451  2.4645102837 -2.2762063805
C  -2.2895406101 -0.8482230585  2.6034122650
C   2.6791693103  0.0826170058 -0.6581467835
C   3.5371020881  0.9443891002 -1.2984675808
C   4.8887842713  0.5118778423 -1.2575352816
C   5.0671182100 -0.6420466501 -0.5351974558
S   3.5526809975 -1.2376306983  0.0572382286
C   6.3403489817 -1.2310769103 -0.1097178402
C   7.3294101467 -1.6605743303 -1.0507868132
C   8.5876334243 -2.1944982451 -0.5805965764
C   8.8669948753 -2.2807149046  0.8129331846
C   7.9018806243 -1.8644970183  1.6793689480
C   6.6529664215 -1.3566508071  1.2258837405
N   7.2365951846 -1.6605083531 -2.3804757544
S   8.6188936554 -2.2792037310 -2.9512319928
N   9.4023992527 -2.5770284076 -1.5652916139
H   0.5997900085  1.4177983242 -2.0568192351
H  -4.9276273510  0.2039222961  2.3949280284
H  -6.5766011106  1.6840192642  1.0120912378
H  -1.8223160512  1.8525446137 -3.1604191128
H  -2.9784952534  2.9987804745 -2.4592116310
H  -1.2389848520  3.2070392219 -2.1899386196
H  -1.3989838146 -1.4686318383  2.7310907200
H  -2.4071507270 -0.2393589966  3.5090068106
H  -3.1596446689 -1.5126938830  2.5482740157
H   3.2008417699  1.8521187985 -1.7886427534
H   5.7225937806  1.0327243803 -1.7138644071
H   9.8254008342 -2.6682721095  1.1447364347
H   8.0797569791 -1.9140611004  2.7501313560
H   5.9241188183 -1.0365795575  1.9626595753
42
Scanning combination 46/73: [404.9814]  Energy = -2548.7075441831
C  -0.9675403453  0.9620758858 -0.5483291045
C  -1.0266222028  0.2203678817  0.6675026578
C  -2.2068416302  0.0200215453  1.3755700272
C  -3.3491325325  0.6938236691  0.9021008922
C  -3.2768053027  1.4768118194 -0.2827081131
C  -2.1116449540  1.6234006262 -1.0318659170
C   0.3516614571  0.9392927664 -1.1109641793
C   1.2876234376  0.3430753273 -0.3243825080
S   0.5587549233 -0.3849543095  1.0939171085
C  -4.6686493355  0.7304029402  1.4810711143
C  -5.5357793288  1.4926594072  0.7841006520
S  -4.8234907779  2.2127746461 -0.6213996931
C  -2.0426380575  2.4645300169 -2.2761302856
C  -2.2896625022 -0.8478250919  2.6032490098
C   2.6730860092  0.0745218076 -0.6743332471
C   3.5385199294  0.9459624078 -1.2921824583
C   4.8891754079  0.5133994438 -1.2533460280
C   5.0670230930 -0.6415331965 -0.5346361616
S   3.5525755178 -1.2373557445  0.0580917722
C   6.3409758318 -1.2308402765 -0.1100266400
C   7.3295954964 -1.6608311964 -1.0509201816
C   8.5876172344 -2.1951856829 -0.5808671306
C   8.8674377694 -2.2800614560  0.8124241740
C   7.9011938257 -1.8649662170  1.6788494789
C   6.6522119543 -1.3582986768  1.2252678811
N   7.2370207041 -1.6601903124 -2.3808215713
S   8.6195945065 -2.2785140883 -2.9515393087
N   9.4030153525 -2.5765560868 -1.5653019598
H   0.5991876951  1.4143522469 -2.0556205178
H  -4.9277625500  0.2038407802  2.3945667654
H  -6.5778064066  1.6842753676  1.0122069980
H  -1.8221749423  1.8520726247 -3.1595409825
H  -2.9786091899  2.9980585618 -2.4600662965
H  -1.2392170105  3.2068093171 -2.1913579262
H  -1.3993273467 -1.4678748912  2.7309713677
H  -2.4069295065 -0.2396153114  3.5091942640
H  -3.1596957684 -1.5126875489  2.5482267125
H   3.2014108913  1.8514778303 -1.7859712548
H   5.7221541156  1.0331631789 -1.7145476600
H   9.8252401849 -2.6692026528  1.1446103356
H   8.0789631557 -1.9147470146  2.7492904725
H   5.9234915688 -1.0370292581  1.9620471945
42
Scanning combination 47/73: [409.9814]  Energy = -2548.7060670310
C  -0.9686260206  0.9553663693 -0.5492062057
C  -1.0180054989  0.2488295006  0.6870639658
C  -2.2008380874  0.0354522273  1.3882740752
C  -3.3465371684  0.7004088181  0.9084391484
C  -3.2767600696  1.4704205712 -0.2844586641
C  -2.1138674163  1.6089769918 -1.0381805350
C   0.3458108094  0.9245187964 -1.1207721542
C   1.2932802181  0.3738419597 -0.3144813446
S   0.5843897659 -0.2801638376  1.1506504486
C  -4.6680200132  0.7334068617  1.4826425472
C  -5.5380847327  1.4861962947  0.7771554696
S  -4.8249789643  2.1991944674 -0.6310944131
C  -2.0457698891  2.4453089258 -2.2850169892
C  -2.2846147720 -0.8390424021  2.6110132915
C   2.6750090766  0.0915756038 -0.6761497762
C   3.5497299399  0.9703797118 -1.2701610586
C   4.8959364807  0.5253147556 -1.2342282634
C   5.0617300583 -0.6493944196 -0.5453177154
S   3.5368441612 -1.2604009431  0.0024570044
C   6.3329099348 -1.2450721879 -0.1175440181
C   7.3286357294 -1.6628195847 -1.0573365661
C   8.5875481946 -2.1950760520 -0.5864863943
C   8.8620475832 -2.2901301997  0.8072788132
C   7.8910727656 -1.8842422623  1.6724543972
C   6.6403990286 -1.3800565546  1.2181130610
N   7.2428561945 -1.6492675938 -2.3874281832
S   8.6311137250 -2.2561201232 -2.9574678432
N   9.4093640901 -2.5637018493 -1.5705215892
H   0.5718512911  1.3396319643 -2.0992543892
H  -4.9303275499  0.2078110471  2.3950972938
H  -6.5808937682  1.6742341839  1.0006157695
H  -1.8188861090  1.8308913775 -3.1651674358
H  -2.9835007001  2.9743641474 -2.4730854383
H  -1.2476147903  3.1935139422 -2.2012709565
H  -1.3934144998 -1.4593954717  2.7330234239
H  -2.4063735548 -0.2409430823  3.5234024532
H  -3.1540998443 -1.5040229579  2.5465313959
H   3.2270970081  1.8977789838 -1.7334837780
H   5.7365184570  1.0540069436 -1.6673301945
H   9.8192960170 -2.6804577405  1.1399032655
H   8.0657626249 -1.9384722818  2.7433476492
H   5.9092106723 -1.0637438135  1.9543801877
42
Scanning combination 48/73: [414.9814]  Energy = -2548.7039502615
C  -0.9722640590  0.9509793728 -0.5501212838
C  -1.0153421587  0.2579200003  0.6935795276
C  -2.1992569734  0.0405441295  1.3913747072
C  -3.3471150090  0.6998372989  0.9075961292
C  -3.2781939577  1.4706038952 -0.2850171713
C  -2.1161282913  1.6078092775 -1.0397610668
C   0.3406812691  0.9152893629 -1.1206502718
C   1.2990255467  0.3922941538 -0.3087872446
S   0.5891368839 -0.2754149689  1.1500947664
C  -4.6686656814  0.7316262692  1.4818803771
C  -5.5390273823  1.4849252421  0.7763303509
S  -4.8267481771  2.1978058696 -0.6326207902
C  -2.0466164697  2.4442574539 -2.2871430537
C  -2.2833582531 -0.8376197717  2.6108801752
C   2.6705557154  0.0850422178 -0.6947541369
C   3.5557980925  0.9714908779 -1.2606939353
C   4.9021091715  0.5315091934 -1.2222296931
C   5.0621429537 -0.6504571080 -0.5453325304
S   3.5344586210 -1.2582214413  0.0008802544
C   6.3324931928 -1.2473218576 -0.1196359943
C   7.3288810165 -1.6628919246 -1.0589079601
C   8.5872933028 -2.1952915280 -0.5873801340
C   8.8602052275 -2.2913351879  0.8065884955
C   7.8882177452 -1.8865699672  1.6709131062
C   6.6384325894 -1.3819111447  1.2159679079
N   7.2430837363 -1.6483975770 -2.3888266624
S   8.6323018165 -2.2535313279 -2.9584309256
N   9.4097788774 -2.5624459410 -1.5713173854
H   0.5748813991  1.3300501600 -2.0958720344
H  -4.9292442494  0.2093331089  2.3968145764
H  -6.5814210127  1.6730359193  1.0001739266
H  -1.8197371753  1.8280437802 -3.1660710243
H  -2.9854002708  2.9713742825 -2.4770399568
H  -1.2471642689  3.1920183619 -2.2041545505
H  -1.3919982736 -1.4575336987  2.7331962087
H  -2.4040998958 -0.2395550541  3.5226323568
H  -3.1522038821 -1.5036351300  2.5470916221
H   3.2273121832  1.8970482610 -1.7214568328
H   5.7383297530  1.0587032876 -1.6668158637
H   9.8176788075 -2.6805279620  1.1398340758
H   8.0623400021 -1.9418792902  2.7416135511
H   5.9060479164 -1.0680998078  1.9519781418
42
Scanning combination 49/73: [419.9814]  Energy = -2548.7023351842
C  -0.9733367719  0.9541147891 -0.5562641415
C  -1.0029530827  0.3181338827  0.7174037491
C  -2.1852978853  0.0716646838  1.4080162876
C  -3.3429375023  0.7032906149  0.9127700839
C  -3.2823942669  1.4551824136 -0.2927868214
C  -2.1247831259  1.5869707369 -1.0554898784
C   0.3328225926  0.8861516070 -1.1440981579
C   1.2989974921  0.4123229174 -0.3132424129
S   0.6155054583 -0.1301826147  1.2108431704
C  -4.6646721679  0.7311778073  1.4867277975
C  -5.5398090030  1.4693186093  0.7728947543
S  -4.8354605004  2.1674052743 -0.6471015139
C  -2.0581433974  2.4103136455 -2.3105739172
C  -2.2608883564 -0.8153836204  2.6222578124
C   2.6786140220  0.1160294489 -0.6912331196
C   3.5784731415  1.0224591451 -1.2029882593
C   4.9192830366  0.5584642849 -1.1793827583
C   5.0566201000 -0.6625065159 -0.5713689462
S   3.5149593737 -1.2959039906 -0.1023436552
C   6.3169230477 -1.2730892254 -0.1345494727
C   7.3226341461 -1.6690635409 -1.0694580446
C   8.5812627958 -2.1968401495 -0.5956135263
C   8.8450124848 -2.3060713876  0.7990689995
C   7.8628862194 -1.9197464902  1.6608741147
C   6.6118097434 -1.4197628750  1.2025187542
N   7.2438396559 -1.6363203771 -2.3992149514
S   8.6419431470 -2.2225479115 -2.9670703148
N   9.4126294016 -2.5445032295 -1.5790760154
H   0.5468394399  1.2270816946 -2.1542019980
H  -4.9221712794  0.2184962845  2.4084734772
H  -6.5842137041  1.6510002602  0.9937282324
H  -1.8261196068  1.7891967436 -3.1845866904
H  -2.9991958798  2.9312002641 -2.5042531193
H  -1.2605308103  3.1604593020 -2.2277713664
H  -1.3658122652 -1.4317035566  2.7362967451
H  -2.3841857624 -0.2282510284  3.5405044066
H  -3.1268084061 -1.4853636731  2.5546451219
H   3.2723971696  1.9835474003 -1.6069067832
H   5.7737079173  1.1044846516 -1.5641427731
H   9.8048111745 -2.6879621128  1.1341654131
H   8.0327309157 -1.9844213335  2.7316872555
H   5.8722116691 -1.1199417456  1.9372422330
42
Scanning combination 50/73: [424.9814]  Energy = -2548.7027436251
C  -0.9673718439  0.9664097502 -0.5836761294
C  -0.9765463293  0.3967419438  0.7222710006
C  -2.1432368999  0.1648249613  1.4418500659
C  -3.3187908030  0.7403046738  0.9225719566
C  -3.2937091168  1.4034071803 -0.3362480924
C  -2.1446454522  1.5234899315 -1.1171510569
C   0.3430327010  0.8982092551 -1.1691398331
C   1.3049473022  0.4433963340 -0.3249917315
S   0.6461511208 -0.0157768366  1.2284302875
C  -4.6369488043  0.7561413427  1.5032436649
C  -5.5515237829  1.3883602229  0.7385870991
S  -4.8797610453  2.0219956576 -0.7284970788
C  -2.1352515018  2.2408558294 -2.4399919322
C  -2.1617059074 -0.6647064391  2.6997824065
C   2.7155798097  0.2263254824 -0.6373041787
C   3.6292957065  1.1924195198 -0.9761725423
C   4.9673423896  0.7153913762 -0.9691518302
C   5.0722490880 -0.5905544222 -0.5671463596
S   3.5134053751 -1.2715468330 -0.2649267871
C   6.2964073845 -1.2968734058 -0.1766767596
C   7.3197982374 -1.6349849310 -1.1150519578
C   8.5662123301 -2.1953769008 -0.6431845455
C   8.7888014077 -2.4055187743  0.7487533961
C   7.7668943159 -2.1227870882  1.6048999130
C   6.5289156540 -1.5960572333  1.1461889666
N   7.2711370320 -1.5211024237 -2.4409775949
S   8.6821551838 -2.0806706866 -3.0105798634
N   9.4210947307 -2.4834819332 -1.6261352811
H   0.5542899746  1.1739573785 -2.1980170267
H  -4.8568485048  0.3119253005  2.4693730672
H  -6.6072151359  1.5206031358  0.9446537893
H  -1.9198891275  1.5546049118 -3.2683240719
H  -3.0917313607  2.7280166348 -2.6485258980
H  -1.3555614744  3.0120980152 -2.4558555617
H  -1.2450478430 -1.2513714010  2.8046776851
H  -2.2637551262 -0.0384155512  3.5949327705
H  -3.0036023932 -1.3677782801  2.6936087355
H   3.3487442935  2.2158127824 -1.2008892260
H   5.8330366935  1.3184051060 -1.2162122049
H   9.7446166247 -2.7933083995  1.0877527584
H   7.8886816316 -2.2961242725  2.6700950207
H   5.7475538568 -1.3883598280  1.8695547360
42
Scanning combination 51/73: [429.9814]  Energy = -2548.7014397734
C  -0.9723062361  0.9577310243 -0.5854178893
C  -0.9775437236  0.3926644351  0.7213651862
C  -2.1438002046  0.1648181690  1.4414685332
C  -3.3203230526  0.7366551395  0.9215594612
C  -3.2945561848  1.4040808325 -0.3345845050
C  -2.1466355100  1.5216210492 -1.1166775005
C   0.3373955153  0.8950554747 -1.1690683973
C   1.3104122917  0.4743812240 -0.3203791504
S   0.6480613257 -0.0150077396  1.2251621483
C  -4.6375941970  0.7537442556  1.5035683046
C  -5.5497222491  1.3888116228  0.7400366478
S  -4.8818849505  2.0125660863 -0.7317532335
C  -2.1332547527  2.2372855310 -2.4401156456
C  -2.1635507719 -0.6593588429  2.7005782652
C   2.7126973361  0.2283687619 -0.6567229209
C   3.6375175206  1.1909637288 -0.9719618125
C   4.9745409553  0.7144043222 -0.9614122730
C   5.0720533184 -0.5944408087 -0.5699670704
S   3.5080014493 -1.2689835828 -0.2671961946
C   6.2976449783 -1.2958706277 -0.1757596850
C   7.3213233990 -1.6313666454 -1.1129273792
C   8.5660527804 -2.1966554181 -0.6436235757
C   8.7871223829 -2.4154747058  0.7468092525
C   7.7667694972 -2.1292868976  1.6036718051
C   6.5317603352 -1.5934235476  1.1467279255
N   7.2704840163 -1.5131874389 -2.4381079595
S   8.6818625473 -2.0682311385 -3.0101015961
N   9.4210846266 -2.4787751691 -1.6280242950
H   0.5532791956  1.1753534265 -2.1950172290
H  -4.8616404897  0.3077180184  2.4680128365
H  -6.6039676493  1.5262002519  0.9469491030
H  -1.9203142482  1.5470182356 -3.2664997571
H  -3.0914378737  2.7211458986 -2.6480540337
H  -1.3521577883  3.0086456169 -2.4537610197
H  -1.2472298880 -1.2451747767  2.8088326605
H  -2.2667393971 -0.0351160648  3.5963433637
H  -3.0097783525 -1.3561966922  2.6930750275
H   3.3480647120  2.2096472990 -1.2012385113
H   5.8408564635  1.3160333454 -1.2122333762
H   9.7432787719 -2.8038259600  1.0839005156
H   7.8909838646 -2.2993314224  2.6691486650
H   5.7503906275 -1.3863051821  1.8697950853
42
Scanning combination 52/73: [434.9814]  Energy = -2548.7095355445
C  -0.8963503037  0.9402489828 -0.4370915289
C  -0.9791121946  0.7805877205  0.9749892491
C  -2.1871505447  0.6737220101  1.6581342608
C  -3.3592061975  0.8235217474  0.8933891853
C  -3.2768744042  0.9899775373 -0.5165321788
C  -2.0681697974  1.0340839021 -1.2096152381
C   0.4706237671  0.9403670932 -0.8818962184
C   1.3819220965  0.7961809664  0.1136033908
S   0.6195845286  0.6780462440  1.6808564239
C  -4.7267580758  0.8413049373  1.3480851787
C  -5.6204112601  0.9996696906  0.3496828181
S  -4.8741178771  1.1274513933 -1.2083846273
C  -1.9904881231  1.1672626396 -2.7043543893
C  -2.2493548662  0.4029186912  3.1371630297
C   2.8327038013  0.6237445206 -0.0402988394
C   3.7832911439  1.5555968272 -0.3717149221
C   5.0850579250  1.0008668457 -0.5176622729
C   5.1331204884 -0.3491471355 -0.2604830603
S   3.5453271280 -0.9443661916  0.1306681523
C   6.2888837556 -1.2477072489 -0.1941817768
C   7.4585698230 -1.0778600925 -1.0119841041
C   8.5340176452 -2.0445741307 -0.9486596716
C   8.4756529580 -3.1471913643 -0.0510036288
C   7.3729702261 -3.2503261761  0.7410660687
C   6.3018019463 -2.3195456346  0.6738260419
N   7.7072801465 -0.1058544022 -1.8884089779
S   9.1441528367 -0.4176751549 -2.5598800710
N   9.5395611950 -1.7812770817 -1.7834715260
H   0.7618049439  1.0245480527 -1.9243584388
H  -5.0028627116  0.7453383758  2.3930093869
H  -6.6987163087  1.0611465639  0.4311918537
H  -1.5309181230  0.2764839080 -3.1508621767
H  -2.9778234148  1.2950898334 -3.1550781627
H  -1.3691302373  2.0256113071 -2.9885539532
H  -1.3488612106 -0.1096481585  3.4850034660
H  -2.3432572183  1.3300737642  3.7160253014
H  -3.1143912686 -0.2227350228  3.3841618143
H   3.5568324913  2.6083301350 -0.4900139083
H   5.9668651872  1.5542951955 -0.8232426211
H   9.2949696664 -3.8594658901 -0.0168335220
H   7.2920504732 -4.0697340886  1.4488268091
H   5.4641103117 -2.4504599316  1.3512831592
42
Scanning combination 53/73: [439.9814]  Energy = -2548.7095718139
C  -0.8966538243  0.9185586539 -0.4392475821
C  -0.9745202939  0.7791979368  0.9750353393
C  -2.1816230546  0.6735766800  1.6609816002
C  -3.3552940427  0.8288629705  0.8982562337
C  -3.2723807362  0.9990934888 -0.5114291970
C  -2.0669364371  1.0269891998 -1.2089021645
C   0.4650255792  0.9105369981 -0.8938042816
C   1.3827669622  0.8010558611  0.0984364080
S   0.6297052980  0.7112285839  1.6740969274
C  -4.7246570641  0.8424954265  1.3503725537
C  -5.6155857379  1.0065128278  0.3500236771
S  -4.8657869033  1.1579862815 -1.2036915286
C  -1.9881949519  1.1677692874 -2.7027044543
C  -2.2458269376  0.4130057498  3.1417441989
C   2.8279843114  0.6124138921 -0.0772179589
C   3.7846030237  1.5490066703 -0.3744351652
C   5.0889116726  0.9944110389 -0.4911103235
C   5.1287651531 -0.3598707543 -0.2564554185
S   3.5344407290 -0.9571574394  0.0969451893
C   6.2838908886 -1.2568582455 -0.1888906585
C   7.4492824771 -1.0765188031 -1.0088246048
C   8.5335723766 -2.0310892355 -0.9455172951
C   8.4811956717 -3.1368074142 -0.0513182483
C   7.3785020548 -3.2548590503  0.7393851620
C   6.2993005278 -2.3334384525  0.6730553698
N   7.6845174388 -0.1031862018 -1.8878624349
S   9.1248338033 -0.3980758209 -2.5584983044
N   9.5372747609 -1.7549237244 -1.7788232258
H   0.7452498265  0.9850400619 -1.9402040583
H  -5.0078923639  0.7439617114  2.3935125502
H  -6.6952155748  1.0388940550  0.4271060008
H  -1.5210867373  0.2835231831 -3.1552322278
H  -2.9755704689  1.2965214785 -3.1534831208
H  -1.3704325347  2.0322574889 -2.9757822436
H  -1.3504173690 -0.1011133667  3.5012371937
H  -2.3436500709  1.3459649149  3.7105173660
H  -3.1142208210 -0.2070034987  3.3890182901
H   3.5529177139  2.5985508339 -0.5120447693
H   5.9821479385  1.5488439666 -0.7557201303
H   9.3054450542 -3.8426173961 -0.0198897769
H   7.3053070098 -4.0770245501  1.4450691384
H   5.4575060003 -2.4768141105  1.3426957461
42
Scanning combination 54/73: [444.9814]  Energy = -2548.7088596875
C  -0.8968850281  0.9171826774 -0.4387597587
C  -0.9744174584  0.7788476861  0.9751892920
C  -2.1815845701  0.6738358573  1.6608241877
C  -3.3552415648  0.8295906978  0.8981552939
C  -3.2725293968  0.9991807900 -0.5116857289
C  -2.0670840868  1.0269237273 -1.2088766405
C   0.4637730535  0.8984687374 -0.8923586112
C   1.3852378022  0.8214038536  0.0989978601
S   0.6300896447  0.7115678661  1.6753902316
C  -4.7245807595  0.8423942877  1.3502324397
C  -5.6157723561  1.0059433487  0.3502537535
S  -4.8664613622  1.1576143181 -1.2035704998
C  -1.9883483733  1.1679399256 -2.7026680237
C  -2.2456212302  0.4136973407  3.1417485846
C   2.8241793049  0.6088631195 -0.0984029132
C   3.7865038125  1.5485502605 -0.3615301980
C   5.0888998237  0.9940663062 -0.4893343031
C   5.1288564422 -0.3596538058 -0.2552823628
S   3.5338709476 -0.9592194658  0.0959419650
C   6.2836906946 -1.2570918557 -0.1888622937
C   7.4491225671 -1.0763913814 -1.0091009439
C   8.5338012837 -2.0307259888 -0.9457179142
C   8.4814806083 -3.1366668844 -0.0514155677
C   7.3787377141 -3.2550925004  0.7392951168
C   6.2991713948 -2.3339749240  0.6727249590
N   7.6845800727 -0.1029098468 -1.8879060208
S   9.1250791259 -0.3975821787 -2.5585499105
N   9.5375342225 -1.7545783662 -1.7790108142
H   0.7448854434  0.9826552579 -1.9379517564
H  -5.0075807822  0.7435385208  2.3933503924
H  -6.6953658417  1.0396292823  0.4273726448
H  -1.5210649108  0.2838128599 -3.1549402964
H  -2.9755020035  1.2967070572 -3.1538753446
H  -1.3707944676  2.0323354561 -2.9763490909
H  -1.3501266268 -0.1007670736  3.5006821508
H  -2.3434882615  1.3466821208  3.7108870877
H  -3.1139078844 -0.2067170310  3.3887753631
H   3.5533642647  2.5967611828 -0.5100636488
H   5.9820558544  1.5489444225 -0.7554340680
H   9.3058485985 -3.8422436247 -0.0195407086
H   7.3053084453 -4.0773853843  1.4451922264
H   5.4574861912 -2.4772354711  1.3425736416
42
Scanning combination 55/73: [449.9814]  Energy = -2548.7083979303
C  -0.9049206609  0.8995191169 -0.4489168350
C  -0.9722828888  0.8028015470  0.9686965432
C  -2.1762822817  0.6864696699  1.6592071748
C  -3.3543705838  0.8269403187  0.8993628596
C  -3.2781194506  0.9894716102 -0.5116561112
C  -2.0765491619  1.0126717300 -1.2139431424
C   0.4510534609  0.8643040587 -0.9154038277
C   1.3801842841  0.8272610228  0.0697664868
S   0.6400188541  0.7902812951  1.6560542228
C  -4.7222294191  0.8401684742  1.3564418484
C  -5.6170045142  1.0055362356  0.3592351413
S  -4.8731733482  1.1496664364 -1.1980237501
C  -1.9963595780  1.1624924180 -2.7058112371
C  -2.2346979487  0.4298008078  3.1412547880
C   2.8231812397  0.6189497096 -0.1231793473
C   3.8011024032  1.5571434894 -0.3281890393
C   5.0994267201  0.9909447011 -0.4462670522
C   5.1186666157 -0.3721923621 -0.2751627715
S   3.5064630826 -0.9684344070 -0.0078999022
C   6.2754343848 -1.2679958080 -0.1954395123
C   7.4445506891 -1.0776081457 -1.0077178410
C   8.5340785947 -2.0253391716 -0.9437341667
C   8.4865455813 -3.1316566256 -0.0501290107
C   7.3802445060 -3.2596638252  0.7352041796
C   6.2933326092 -2.3456181938  0.6646070525
N   7.6764289434 -0.0997695596 -1.8827658913
S   9.1194988552 -0.3842794922 -2.5510887733
N   9.5376730582 -1.7412305207 -1.7744610881
H   0.7210097796  0.8881026411 -1.9666433166
H  -5.0025552070  0.7363683318  2.3996997885
H  -6.6958780813  1.0493171139  0.4403546152
H  -1.5221865322  0.2843844912 -3.1626356517
H  -2.9826024857  1.2915738907 -3.1583058143
H  -1.3807760709  2.0319216269 -2.9679419011
H  -1.3363195987 -0.0818442433  3.4969025752
H  -2.3347833557  1.3615255399  3.7119002843
H  -3.0999333895 -0.1931221710  3.3922728484
H   3.5835036192  2.6151785872 -0.4229168535
H   6.0060383080  1.5432905930 -0.6697727185
H   9.3186679361 -3.8283118859 -0.0138768772
H   7.3133381496 -4.0843765784  1.4388759393
H   5.4477832211 -2.4957412829  1.3284458521
42
Scanning combination 56/73: [454.9814]  Energy = -2548.7081290537
C  -0.9103805332  0.8814255617 -0.4774867067
C  -0.9681297110  0.8212125082  0.9428705286
C  -2.1638268728  0.7152316809  1.6473652002
C  -3.3490154979  0.8394207799  0.8976296580
C  -3.2866303056  0.9837677104 -0.5162870423
C  -2.0906986872  0.9949180585 -1.2309682116
C   0.4448377607  0.8195047481 -0.9492767730
C   1.3752617971  0.8044336181  0.0366294866
S   0.6450956557  0.8284702773  1.6243524917
C  -4.7117490446  0.8475905532  1.3690035263
C  -5.6172488933  0.9974952135  0.3799876287
S  -4.8907791083  1.1300319205 -1.1868268048
C  -2.0260661178  1.1440165825 -2.7242775854
C  -2.2000694959  0.4724690162  3.1316865488
C   2.8223161814  0.6124916675 -0.1314890169
C   3.8063438485  1.5603483247 -0.2420826867
C   5.1076317069  0.9968651592 -0.3515179076
C   5.1158555875 -0.3748015106 -0.2848790143
S   3.4971554748 -0.9810842238 -0.1027945293
C   6.2648921875 -1.2804639681 -0.2290932036
C   7.4403527213 -1.0803766087 -1.0271670382
C   8.5402943838 -2.0136471689 -0.9396536939
C   8.4871831187 -3.1210347983 -0.0471544631
C   7.3665228667 -3.2657061062  0.7138286519
C   6.2706512849 -2.3663193214  0.6195197226
N   7.6736357090 -0.1038812800 -1.9042539861
S   9.1357495160 -0.3683407613 -2.5393982893
N   9.5583754270 -1.7158406625 -1.7483272567
H   0.7184509620  0.7927567601 -1.9999500201
H  -4.9804620803  0.7524693509  2.4163953021
H  -6.6954467283  1.0342201615  0.4731669070
H  -1.5527289839  0.2682345113 -3.1856028205
H  -3.0172965694  1.2680541922 -3.1674572429
H  -1.4168958686  2.0160365266 -2.9941589546
H  -1.2885339017 -0.0237466521  3.4760399992
H  -2.3032799748  1.4079864234  3.6953120522
H  -3.0529662663 -0.1607451675  3.3985835286
H   3.5956679147  2.6230916600 -0.2665494637
H   6.0226689854  1.5634821348 -0.4852854140
H   9.3274387312 -3.8062189840  0.0083888489
H   7.2959166315 -4.0872322485  1.4208164755
H   5.4071065136 -2.5276844674  1.2567613302
42
Scanning combination 57/73: [459.9814]  Energy = -2548.7071373218
C  -0.9102880572  0.8802768189 -0.4767824884
C  -0.9679299210  0.8206936037  0.9431131666
C  -2.1637693966  0.7152935382  1.6472822038
C  -3.3490161683  0.8398934205  0.8975848304
C  -3.2865537908  0.9834982718 -0.5163778797
C  -2.0905649769  0.9948477513 -1.2309033216
C   0.4436588518  0.8060158810 -0.9463864939
C   1.3778871535  0.8252663086  0.0355689024
S   0.6456092694  0.8279740498  1.6260601305
C  -4.7117949028  0.8478074223  1.3688299398
C  -5.6175096973  0.9969343516  0.3798895374
S  -4.8910411973  1.1299123260 -1.1868683920
C  -2.0263633539  1.1437808837 -2.7243685485
C  -2.1999855492  0.4730097947  3.1317373092
C   2.8193330452  0.6121610090 -0.1538864391
C   3.8075286946  1.5583522867 -0.2273846906
C   5.1075646845  0.9967262507 -0.3495370827
C   5.1160849692 -0.3747078362 -0.2841645554
S   3.4969542698 -0.9828700192 -0.1042817829
C   6.2649765768 -1.2804737677 -0.2290098816
C   7.4405198168 -1.0801802320 -1.0270641132
C   8.5406395008 -2.0133726670 -0.9395134643
C   8.4876902245 -3.1205955129 -0.0467116268
C   7.3666521074 -3.2659236798  0.7135719398
C   6.2705091644 -2.3667857454  0.6190386142
N   7.6740400287 -0.1035213710 -1.9038993402
S   9.1359467880 -0.3683833408 -2.5395904468
N   9.5585354270 -1.7159398860 -1.7485595880
H   0.7178188116  0.7928520182 -1.9973730064
H  -4.9799572010  0.7527987993  2.4162827084
H  -6.6956879880  1.0343803287  0.4732284779
H  -1.5531220358  0.2679392180 -3.1855367386
H  -3.0175273689  1.2679332139 -3.1678045888
H  -1.4173685300  2.0156712297 -2.9949968932
H  -1.2884335653 -0.0232130136  3.4760511235
H  -2.3031342956  1.4088441203  3.6950924248
H  -3.0527371435 -0.1604835968  3.3989181714
H   3.5955434613  2.6208826934 -0.2648082946
H   6.0222298843  1.5636924191 -0.4851993610
H   9.3276037903 -3.8061641584  0.0085301454
H   7.2954572973 -4.0880195897  1.4199569187
H   5.4072016470 -2.5279024195  1.2566722357
42
Scanning combination 58/73: [464.9814]  Energy = -2548.7072271162
C  -0.9182573573  0.8651337138 -0.5170425158
C  -0.9597584708  0.8264167678  0.9050515330
C  -2.1440687897  0.7541672106  1.6301184223
C  -3.3383461167  0.8549904161  0.8941132392
C  -3.2975999894  0.9517032089 -0.5241544381
C  -2.1108167139  0.9582312891 -1.2561782190
C   0.4335785409  0.8002362473 -0.9998923806
C   1.3711827062  0.7880247371 -0.0201869867
S   0.6569637192  0.8170813604  1.5721050202
C  -4.6914076810  0.8704536826  1.3886540731
C  -5.6156480951  0.9770713834  0.4110644992
S  -4.9154069477  1.0596188647 -1.1719079031
C  -2.0784262381  1.0686437132 -2.7548370818
C  -2.1530245939  0.5704812826  3.1229008325
C   2.8219822339  0.6118427575 -0.1702060142
C   3.8085229171  1.5574904083 -0.0793376700
C   5.1155729546  1.0036373006 -0.1779884616
C   5.1204965173 -0.3631236112 -0.3072695519
S   3.4958799529 -0.9750935814 -0.3191513244
C   6.2627031464 -1.2812419440 -0.2759173440
C   7.4579156658 -1.0652847394 -1.0384592709
C   8.5598017373 -1.9949167271 -0.9285288077
C   8.4852098348 -3.1156842481 -0.0542232667
C   7.3335175224 -3.2901875412  0.6518854787
C   6.2361421764 -2.3960502937  0.5324851983
N   7.7092331971 -0.0808502996 -1.9018985247
S   9.1900061223 -0.3353230899 -2.5003288374
N   9.5987449484 -1.6858434317 -1.7060761877
H   0.7001757396  0.7812311755 -2.0523245175
H  -4.9349693629  0.8082049395  2.4441221563
H  -6.6917224161  1.0181716396  0.5245183356
H  -1.6243811561  0.1763340148 -3.2031501315
H  -3.0798841960  1.1865635059 -3.1771116423
H  -1.4715224687  1.9271705257 -3.0690322112
H  -1.2225693532  0.1145644747  3.4711837852
H  -2.2705587149  1.5274347175  3.6461236834
H  -2.9819220210 -0.0748555976  3.4328830414
H   3.5945795437  2.6140322014  0.0321958430
H   6.0353189037  1.5754921795 -0.1509587538
H   9.3276274616 -3.7969064449  0.0179955154
H   7.2371295325 -4.1330007015  1.3298236042
H   5.3452059406 -2.5771602917  1.1253375120
42
Scanning combination 59/73: [469.9814]  Energy = -2548.7062516862
C  -0.9186536114  0.8634995571 -0.5161358897
C  -0.9597944026  0.8257766290  0.9053376284
C  -2.1440677860  0.7536432348  1.6303666962
C  -3.3383773895  0.8542522206  0.8943073419
C  -3.2976024376  0.9526555497 -0.5240210344
C  -2.1110000722  0.9577935698 -1.2561592240
C   0.4326781131  0.7853000399 -0.9972139783
C   1.3738869466  0.8097695642 -0.0217476724
S   0.6576147176  0.8183305042  1.5736562751
C  -4.6917765910  0.8701748832  1.3884120557
C  -5.6155561192  0.9777102730  0.4111228291
S  -4.9154607971  1.0597153704 -1.1718477797
C  -2.0783881598  1.0680203445 -2.7549462672
C  -2.1530836790  0.5709422723  3.1232576410
C   2.8202403421  0.6154487113 -0.1929440218
C   3.8093131474  1.5533618646 -0.0646943574
C   5.1160830517  1.0023720194 -0.1762696017
C   5.1207778430 -0.3635245582 -0.3076833179
S   3.4952125149 -0.9766502065 -0.3214320031
C   6.2626354056 -1.2810616418 -0.2753543968
C   7.4581760538 -1.0646047823 -1.0374730779
C   8.5600757002 -1.9946338441 -0.9283144217
C   8.4848022307 -3.1164143145 -0.0553839854
C   7.3335571589 -3.2909596179  0.6512179658
C   6.2366786608 -2.3958869630  0.5332620806
N   7.7088861025 -0.0807979456 -1.9017762413
S   9.1899680486 -0.3346200861 -2.4997886664
N   9.5986573258 -1.6856344813 -1.7063576992
H   0.6991740097  0.7803640549 -2.0501194013
H  -4.9355542778  0.8087976876  2.4441018229
H  -6.6918110978  1.0177005660  0.5239383094
H  -1.6243055266  0.1756359197 -3.2033631722
H  -3.0796795091  1.1864149900 -3.1772405273
H  -1.4716927067  1.9270737288 -3.0685359725
H  -1.2226548343  0.1149754489  3.4717898333
H  -2.2710030159  1.5279715233  3.6466177439
H  -2.9824510964 -0.0741787911  3.4327541159
H   3.5957439204  2.6118150558  0.0334707524
H   6.0356513956  1.5763130478 -0.1513099850
H   9.3277840637 -3.7965566776  0.0183117878
H   7.2370530007 -4.1336987359  1.3294488007
H   5.3454636893 -2.5777048101  1.1251387451
42
Scanning combination 60/73: [474.9814]  Energy = -2548.7053423578
C  -0.9209128847  0.8397804069 -0.5160946234
C  -0.9551693505  0.8231952511  0.9059372021
C  -2.1396734611  0.7499498755  1.6335946646
C  -3.3371725709  0.8499491177  0.8991720394
C  -3.2972136828  0.9434459951 -0.5194774513
C  -2.1128982461  0.9346281903 -1.2537124348
C   0.4249998010  0.7735946216 -1.0106945052
C   1.3761842147  0.8378942331 -0.0467478462
S   0.6697332262  0.8824893253  1.5580971392
C  -4.6929537970  0.8721096993  1.3902572157
C  -5.6145991367  0.9808298206  0.4113227077
S  -4.9122037392  1.0661482192 -1.1695792573
C  -2.0792347512  1.0544012104 -2.7512517512
C  -2.1533733674  0.5782878274  3.1290298961
C   2.8243096887  0.6426222066 -0.2257645927
C   3.8231390263  1.5631014050 -0.0521868652
C   5.1230320227  0.9975572414 -0.1555335281
C   5.1162021280 -0.3644394035 -0.3167636579
S   3.4845820036 -0.9545046969 -0.4074998838
C   6.2579881383 -1.2851484516 -0.2726848993
C   7.4555316921 -1.0638974832 -1.0306980377
C   8.5584456968 -1.9928740562 -0.9275542350
C   8.4839901197 -3.1191253376 -0.0599997261
C   7.3326715461 -3.2980674760  0.6445786165
C   6.2338142192 -2.4026864394  0.5329596432
N   7.7051744731 -0.0745103023 -1.8893377883
S   9.1854056315 -0.3236735198 -2.4903106821
N   9.5957790516 -1.6789394068 -1.7050645318
H   0.6713078994  0.7303045012 -2.0666151460
H  -4.9436171147  0.8149145208  2.4448910227
H  -6.6921717573  1.0139939668  0.5186352370
H  -1.6233222304  0.1669145484 -3.2070006622
H  -3.0789822089  1.1783238836 -3.1751778498
H  -1.4730503518  1.9174275406 -3.0545879778
H  -1.2245357152  0.1242837166  3.4850685739
H  -2.2768158647  1.5370198104  3.6491215124
H  -2.9857152448 -0.0640373402  3.4371690312
H   3.6265296236  2.6192338256  0.0933892961
H   6.0490138228  1.5596476711 -0.1111658559
H   9.3298690427 -3.7963613041  0.0140201500
H   7.2378658511 -4.1458029674  1.3177204506
H   5.3452468889 -2.5890792753  1.1269391232
42
Scanning combination 61/73: [479.9814]  Energy = -2548.7043263072
C  -0.9222399508  0.8267340774 -0.5226994696
C  -0.9493889700  0.8468070842  0.8991009148
C  -2.1318112148  0.7658620214  1.6304605152
C  -3.3338610150  0.8479200101  0.8996755867
C  -3.2999216269  0.9268121736 -0.5198272203
C  -2.1175564471  0.9119244671 -1.2564897044
C   0.4218347241  0.7513246263 -1.0243812333
C   1.3785396127  0.8530308210 -0.0688128758
S   0.6794370388  0.9468068334  1.5385473821
C  -4.6885871643  0.8704148380  1.3946188928
C  -5.6137443618  0.9762857355  0.4186893590
S  -4.9172762492  1.0467514393 -1.1657017867
C  -2.0852312115  1.0324851785 -2.7537195800
C  -2.1426343777  0.5966703856  3.1258887001
C   2.8301629386  0.6675365658 -0.2420017012
C   3.8356631302  1.5696562691 -0.0093697796
C   5.1315399451  0.9912020641 -0.1043450621
C   5.1119821364 -0.3616578799 -0.3305185483
S   3.4782544775 -0.9253835995 -0.4935121975
C   6.2467422422 -1.2911293112 -0.2919251319
C   7.4499569350 -1.0631174566 -1.0383856980
C   8.5542504321 -1.9894694938 -0.9299427840
C   8.4746139952 -3.1189151813 -0.0673359591
C   7.3198083244 -3.3008964147  0.6311268591
C   6.2187033381 -2.4086319151  0.5129807506
N   7.7057297995 -0.0661715033 -1.8866124805
S   9.1927735031 -0.3070987150 -2.4741747171
N   9.5983887494 -1.6676320048 -1.6952996362
H   0.6547698925  0.6597372816 -2.0807210347
H  -4.9360405064  0.8178881229  2.4502603188
H  -6.6905687706  1.0239807647  0.5301688612
H  -1.6289589562  0.1456977161 -3.2096243037
H  -3.0843078907  1.1574928483 -3.1787153757
H  -1.4781522455  1.8956815108 -3.0556882670
H  -1.2108551016  0.1483118358  3.4815709840
H  -2.2726544777  1.5559466173  3.6429818822
H  -2.9707100254 -0.0513877075  3.4344819448
H   3.6540986130  2.6212964011  0.1812984638
H   6.0625138315  1.5386770828 -0.0110653525
H   9.3191075769 -3.7975228721  0.0070754686
H   7.2241251746 -4.1483816781  1.3040076268
H   5.3287044830 -2.5966378772  1.1043351080
42
Scanning combination 62/73: [484.9814]  Energy = -2548.7039546722
C  -0.9168381250  0.8252977179 -0.5503468930
C  -0.9415504107  0.8909706431  0.8711154182
C  -2.1125180604  0.7982605333  1.6171644392
C  -3.3184667437  0.8527713870  0.8945861379
C  -3.2947229480  0.9018997235 -0.5269084230
C  -2.1191072639  0.8821876667 -1.2768595526
C   0.4306259934  0.7258205399 -1.0451064294
C   1.3798557872  0.8447289814 -0.0823865037
S   0.6811576939  1.0349101424  1.5071661185
C  -4.6666604626  0.8852873394  1.4042449885
C  -5.6021180378  0.9611772330  0.4335072465
S  -4.9185533040  1.0011753125 -1.1582211196
C  -2.1048889416  0.9647601116 -2.7777771124
C  -2.1017298402  0.6519476019  3.1151194441
C   2.8334295046  0.6820497771 -0.2230669389
C   3.8290037815  1.5640637826  0.1106286311
C   5.1275977999  0.9906029750  0.0108711868
C   5.1147613868 -0.3320848885 -0.3546324135
S   3.4892806050 -0.8665985036 -0.6349311247
C   6.2358265871 -1.2779936266 -0.3237245616
C   7.4481672781 -1.0487667235 -1.0505240304
C   8.5482063859 -1.9790101033 -0.9302442132
C   8.4506061156 -3.1181098461 -0.0824142217
C   7.2760396751 -3.3136982062  0.5802688872
C   6.1813711522 -2.4145903578  0.4519882657
N   7.7126990437 -0.0495777568 -1.8921215561
S   9.2108749018 -0.2875398789 -2.4554069485
N   9.6045913102 -1.6518358682 -1.6761406074
H   0.6761760052  0.5931947979 -2.0955167856
H  -4.9011790226  0.8577269167  2.4634687302
H  -6.6774940138  0.9960007858  0.5555821789
H  -1.6591837866  0.0674434426 -3.2260076488
H  -3.1101957438  1.0876930450 -3.1890834511
H  -1.4980777570  1.8201687123 -3.1005380812
H  -1.1545113680  0.2339801396  3.4666144209
H  -2.2489850062  1.6144708085  3.6208437878
H  -2.9069961680 -0.0123656123  3.4473417796
H   3.6377173006  2.5933554501  0.3965672297
H   6.0508895534  1.5150187466  0.2307241713
H   9.2945411735 -3.7958416864  0.0047846737
H   7.1631691853 -4.1744319174  1.2329051982
H   5.2743891257 -2.6156181577  1.0128654194
42
Scanning combination 63/73: [489.9814]  Energy = -2548.7029339725
C  -0.9183230441  0.8141689070 -0.5455929503
C  -0.9396623070  0.8902607525  0.8749441146
C  -2.1125926949  0.8031382768  1.6177698776
C  -3.3186009818  0.8560634903  0.8938873475
C  -3.2960106705  0.9043568128 -0.5276133297
C  -2.1192545774  0.8790663905 -1.2749749917
C   0.4276772400  0.7166498634 -1.0404378672
C   1.3828091411  0.8718213774 -0.0898972960
S   0.6867897782  1.0329414082  1.5090672698
C  -4.6668181837  0.8830330728  1.4031139740
C  -5.6020393367  0.9602334011  0.4330316390
S  -4.9209188783  0.9963394604 -1.1594626136
C  -2.1043893048  0.9639856012 -2.7764862228
C  -2.1018518713  0.6548305477  3.1151270314
C   2.8342910304  0.6937757391 -0.2484232961
C   3.8315647542  1.5561664584  0.1241704508
C   5.1289983993  0.9834055427  0.0260675118
C   5.1130040404 -0.3353522541 -0.3506776532
S   3.4860287028 -0.8659213884 -0.6392885452
C   6.2354784566 -1.2791296230 -0.3259844728
C   7.4488606104 -1.0472203900 -1.0503776528
C   8.5487119508 -1.9779932691 -0.9310987899
C   8.4487640425 -3.1192688971 -0.0860946839
C   7.2753337459 -3.3137106575  0.5784124780
C   6.1814739366 -2.4142493471  0.4510279774
N   7.7139804137 -0.0468192716 -1.8903623830
S   9.2120839945 -0.2850996306 -2.4543781798
N   9.6056115234 -1.6500980516 -1.6760447132
H   0.6765298540  0.5905332618 -2.0899690307
H  -4.9009029897  0.8586146402  2.4624697901
H  -6.6771152302  0.9967744618  0.5550600327
H  -1.6610074343  0.0648466097 -3.2217836542
H  -3.1094938205  1.0840694085 -3.1894277369
H  -1.4974039463  1.8173542344 -3.1059888689
H  -1.1526426916  0.2382976876  3.4639805769
H  -2.2490798797  1.6179580264  3.6193965832
H  -2.9072889353 -0.0106513026  3.4456835107
H   3.6365721601  2.5856462207  0.4051602920
H   6.0517311342  1.5157355817  0.2294482466
H   9.2929995718 -3.7961002532  0.0036710424
H   7.1604689826 -4.1747331960  1.2303160453
H   5.2728336563 -2.6148185226  1.0089588791
42
Scanning combination 64/73: [494.9814]  Energy = -2548.7118408138
C  -0.8371887609  0.6585242845 -0.2714951045
C  -0.9993948752  1.1642391087  1.0486879369
C  -2.2502393976  1.3922262938  1.6140096319
C  -3.3722783115  1.0923241183  0.8142639174
C  -3.1996745418  0.6399052949 -0.5231254129
C  -1.9494312099  0.4455534570 -1.1036845617
C   0.5379299492  0.3942016568 -0.5650317564
C   1.3931229685  0.6937488240  0.4460141372
S   0.5644171326  1.3716685925  1.8249124553
C  -4.7668568943  1.1671709973  1.1678438891
C  -5.5936368272  0.7958276775  0.1671312068
S  -4.7467319287  0.3379526060 -1.2741259454
C  -1.7632565735 -0.0003188319 -2.5274259895
C  -2.4179132530  1.9021498695  3.0199124248
C   2.8366484211  0.4891051043  0.4244306910
C   3.8490960777  1.3256888659  0.8196885996
C   5.1390436151  0.8102910864  0.5291654314
C   5.1116567505 -0.4305121170 -0.0645993585
S   3.4697071952 -0.9494054859 -0.3005406836
C   6.2174604609 -1.3130814926 -0.4307472467
C   7.5273496326 -0.8125269516 -0.7452415497
C   8.5790071000 -1.7281326477 -1.1294949514
C   8.3430396248 -3.1309077052 -1.1751710127
C   7.0945688751 -3.5713838466 -0.8548599817
C   6.0492381158 -2.6818255570 -0.4903645998
N   7.9362850004  0.4551352554 -0.7467172303
S   9.4861662176  0.4604563604 -1.2066438440
N   9.7334171406 -1.1252099959 -1.4152523496
H   0.8798724517 -0.0105877625 -1.5120761071
H  -5.1108706069  1.4858338859  2.1466047226
H  -6.6757774379  0.7613851310  0.1865326551
H  -1.3291781220 -1.0076957441 -2.5723096664
H  -2.7087541433 -0.0169084260 -3.0750066762
H  -1.0722059654  0.6679817042 -3.0557405025
H  -1.4526971651  2.0547159704  3.5081861422
H  -2.9622912059  2.8549971568  3.0370008280
H  -2.9919617339  1.1909845662  3.6272854906
H   3.6659360478  2.2861145302  1.2872030657
H   6.0775160468  1.3231609246  0.7103661145
H   9.1478814446 -3.8043707211 -1.4522909402
H   6.8758462273 -4.6351799837 -0.8752280635
H   5.0823324641 -3.1043953234 -0.2356656954
42
Scanning combination 65/73: [499.9814]  Energy = -2548.7117690498
C  -0.8399823136  0.6385196248 -0.2653323276
C  -0.9982665922  1.1573266794  1.0505125162
C  -2.2481287334  1.3918199648  1.6160452838
C  -3.3716782178  1.0951246405  0.8169014897
C  -3.2001380434  0.6370217630 -0.5184305798
C  -1.9521666885  0.4349646138 -1.0988541483
C   0.5344760604  0.3842751567 -0.5677972065
C   1.3959614093  0.7198749693  0.4244779697
S   0.5702185530  1.3837438377  1.8119883590
C  -4.7664935883  1.1711513685  1.1700853497
C  -5.5929618400  0.8020160955  0.1682341178
S  -4.7460607559  0.3434290061 -1.2719598840
C  -1.7670482611 -0.0016604943 -2.5256958266
C  -2.4171180343  1.9020595271  3.0210962919
C   2.8379059963  0.5090404314  0.3916076759
C   3.8507017251  1.3227178049  0.8288059657
C   5.1391386248  0.7994904636  0.5446860978
C   5.1094086992 -0.4326687569 -0.0664738710
S   3.4651064309 -0.9389605338 -0.3199139390
C   6.2174284927 -1.3142136329 -0.4316098685
C   7.5277210426 -0.8121485520 -0.7439200184
C   8.5801343171 -1.7272337864 -1.1285158428
C   8.3465721241 -3.1309237836 -1.1747537622
C   7.0980903009 -3.5722715977 -0.8548141354
C   6.0518150582 -2.6827145674 -0.4922000929
N   7.9362737479  0.4556430822 -0.7442113694
S   9.4870951033  0.4617020433 -1.2015252085
N   9.7341533663 -1.1234749121 -1.4136660796
H   0.8791597556 -0.0263560084 -1.5115158749
H  -5.1116639846  1.4896708099  2.1484731627
H  -6.6750518301  0.7631138592  0.1838796894
H  -1.3333972969 -1.0085551391 -2.5714870622
H  -2.7114076183 -0.0183842396 -3.0755286023
H  -1.0756844861  0.6689868683 -3.0513638425
H  -1.4530434123  2.0590921190  3.5106971225
H  -2.9643307556  2.8527855387  3.0320131563
H  -2.9945288205  1.1925313931  3.6277933668
H   3.6639473511  2.2792144316  1.3023235398
H   6.0767326843  1.3145881911  0.7227861704
H   9.1518575502 -3.8020853664 -1.4569453319
H   6.8773104721 -4.6358028185 -0.8749555793
H   5.0851424126 -3.1035493637 -0.2345367611
42
Scanning combination 66/73: [504.9814]  Energy = -2548.7120002860
C  -0.8464382837  0.6246817348 -0.2745775617
C  -0.9949868526  1.1712365627  1.0303839057
C  -2.2411980259  1.3845490005  1.6134239765
C  -3.3717572268  1.0791393066  0.8271984824
C  -3.2101364403  0.6133411234 -0.5065952325
C  -1.9663782647  0.4043995619 -1.0936492876
C   0.5257468349  0.3617602247 -0.5857386458
C   1.3977798993  0.7258776628  0.3901671287
S   0.5815223435  1.4472204800  1.7570381524
C  -4.7652862136  1.1822943933  1.1812706237
C  -5.5983050377  0.8252828527  0.1805523407
S  -4.7612818758  0.3463694793 -1.2585797920
C  -1.7880760275 -0.0268704709 -2.5220010965
C  -2.4070854249  1.9036578411  3.0154728975
C   2.8404585630  0.5286711248  0.3570562068
C   3.8551279372  1.3109798848  0.8480361990
C   5.1424285283  0.7782721415  0.5777299145
C   5.1125019795 -0.4172434723 -0.1016285805
S   3.4706663119 -0.8703922947 -0.4481445482
C   6.2202398580 -1.3092069746 -0.4429110896
C   7.5333428542 -0.8090733708 -0.7380471059
C   8.5866687841 -1.7207961686 -1.1233345408
C   8.3521473130 -3.1238101895 -1.1766310640
C   7.1048757135 -3.5673507439 -0.8551701735
C   6.0563562908 -2.6785343599 -0.4945530904
N   7.9414566113  0.4590629919 -0.7250781055
S   9.4926304652  0.4693078911 -1.1778433250
N   9.7412076732 -1.1142234989 -1.4005723757
H   0.8498143129 -0.0835067738 -1.5205541753
H  -5.1063884762  1.5129627751  2.1574276589
H  -6.6809086309  0.8053300319  0.1962799114
H  -1.3528297695 -1.0326378575 -2.5841443760
H  -2.7340113550 -0.0344063836 -3.0693059566
H  -1.0973951009  0.6534616426 -3.0356348731
H  -1.4446173708  2.0693938084  3.5048042017
H  -2.9585653519  2.8519396499  3.0159725094
H  -2.9832460502  1.1996526640  3.6293184554
H   3.6832706574  2.2487418657  1.3641040947
H   6.0829375295  1.2508012029  0.8430910942
H   9.1580314991 -3.7922735252 -1.4638316840
H   6.8884741529 -4.6319543684 -0.8765001180
H   5.0884056698 -3.0972067194 -0.2379008362
42
Scanning combination 67/73: [509.9814]  Energy = -2548.7116195613
C  -0.8484586773  0.6108741672 -0.2694850034
C  -0.9945958032  1.1623712911  1.0337949558
C  -2.2406287661  1.3870162470  1.6125235820
C  -3.3713775945  1.0854162001  0.8248609559
C  -3.2106903457  0.6152025200 -0.5073206963
C  -1.9672287582  0.4004498300 -1.0923419404
C   0.5226947154  0.3534605808 -0.5836211069
C   1.3996087273  0.7514634040  0.3721406953
S   0.5839504776  1.4524962436  1.7526659412
C  -4.7644377480  1.1844188595  1.1814069348
C  -5.5988358875  0.8247912040  0.1827937406
S  -4.7627920059  0.3438660208 -1.2564373737
C  -1.7902448327 -0.0284976163 -2.5220409849
C  -2.4051664208  1.9064042318  3.0146858593
C   2.8414531327  0.5476797465  0.3274560392
C   3.8536550973  1.3034375591  0.8602654139
C   5.1404360493  0.7685838918  0.5932578155
C   5.1108913664 -0.4218186344 -0.0939677234
S   3.4697833500 -0.8629009394 -0.4628955565
C   6.2210046357 -1.3082361000 -0.4429379070
C   7.5341645201 -0.8067621783 -0.7404345418
C   8.5879874693 -1.7194839295 -1.1241209159
C   8.3534229799 -3.1225761603 -1.1768561205
C   7.1052873592 -3.5657670309 -0.8574167760
C   6.0566284175 -2.6766006078 -0.4989368335
N   7.9441773344  0.4608150389 -0.7266192103
S   9.4971422978  0.4693822595 -1.1742247139
N   9.7441946165 -1.1143179086 -1.3979745690
H   0.8491064178 -0.0933152747 -1.5168573011
H  -5.1036585486  1.5147508948  2.1581197964
H  -6.6816503024  0.8098363187  0.1985829582
H  -1.3567982719 -1.0346227312 -2.5807323834
H  -2.7367452497 -0.0367567243 -3.0683004909
H  -1.1002981171  0.6479992116 -3.0420516137
H  -1.4412678995  2.0704802264  3.5022822297
H  -2.9568548219  2.8548327262  3.0184909542
H  -2.9802023650  1.1996345662  3.6267168600
H   3.6771754927  2.2366496648  1.3816449079
H   6.0802654553  1.2452519608  0.8490589470
H   9.1588656785 -3.7922425719 -1.4621476522
H   6.8885788598 -4.6301295777 -0.8757072832
H   5.0886579689 -3.0946361523 -0.2409197689
42
Scanning combination 68/73: [514.9814]  Energy = -2548.7125417942
C  -0.8585868082  0.6198157221 -0.3266450102
C  -0.9872257166  1.1717995512  0.9784531464
C  -2.2175043874  1.4156645948  1.5793654086
C  -3.3632837891  1.1172815538  0.8164801507
C  -3.2297391100  0.6079424940 -0.5043775824
C  -1.9986190484  0.3732954024 -1.1119027714
C   0.5120666102  0.3634905908 -0.6571401433
C   1.3931449085  0.7185025330  0.3152427739
S   0.5910060974  1.4253929233  1.6984050722
C  -4.7472949514  1.2463025571  1.1949446797
C  -5.6038229871  0.8592211174  0.2270305195
S  -4.7998933817  0.3225522334 -1.2114267386
C  -1.8632189761 -0.1328721312 -2.5212091940
C  -2.3440251860  1.9431248645  2.9830013477
C   2.8341066392  0.5266187166  0.3059257060
C   3.8163453085  1.2181375951  0.9696268350
C   5.1171035882  0.7102178901  0.7110672036
C   5.1269096359 -0.3758472882 -0.1308502019
S   3.5105759559 -0.7505093526 -0.6491289741
C   6.2393638011 -1.2574265588 -0.4891052926
C   7.5643641309 -0.7711609654 -0.7494453942
C   8.6176170086 -1.6991503369 -1.0968493115
C   8.3677726258 -3.0989231326 -1.1574652864
C   7.1014399393 -3.5257772897 -0.8934777854
C   6.0552780613 -2.6213701159 -0.5720482261
N   7.9892282945  0.4922313238 -0.7313848737
S   9.5568363976  0.4772941388 -1.1267737944
N   9.7910736975 -1.1109798864 -1.3334489986
H   0.8238831180 -0.0726014854 -1.6008855584
H  -5.0587965560  1.6108991893  2.1690263592
H  -6.6865530975  0.8560780376  0.2653628546
H  -1.4561779384 -1.1523451211 -2.5381864108
H  -2.8230464357 -0.1470815115 -3.0445416844
H  -1.1708365617  0.4991589004 -3.0907965871
H  -1.3665519055  2.1034865786  3.4438327109
H  -2.8879871659  2.8954244401  2.9979044608
H  -2.9034513157  1.2430509090  3.6166668641
H   3.6096557755  2.0640917246  1.6157201992
H   6.0339267942  1.1184459171  1.1213487154
H   9.1740808246 -3.7780620035 -1.4161867262
H   6.8689869808 -4.5861038039 -0.9246429343
H   5.0690491369 -3.0204097565 -0.3550853865
42
Scanning combination 69/73: [519.9814]  Energy = -2548.7121810669
C  -0.8607195352  0.6029115768 -0.3169863231
C  -0.9878161372  1.1669363790  0.9827658727
C  -2.2186424507  1.4140017263  1.5810171667
C  -3.3637377980  1.1167446996  0.8166853387
C  -3.2306569795  0.6105503176 -0.5055657027
C  -1.9989409123  0.3673769332 -1.1082106275
C   0.5096079931  0.3530567349 -0.6520345861
C   1.3963647323  0.7453436804  0.2998591843
S   0.5933794944  1.4387137344  1.6926678652
C  -4.7475608728  1.2441533475  1.1964687923
C  -5.6040973758  0.8634262449  0.2263574908
S  -4.8011502428  0.3239988320 -1.2113592125
C  -1.8630567369 -0.1336469339 -2.5193114489
C  -2.3449885509  1.9453488111  2.9830623348
C   2.8374196491  0.5512269664  0.2805603742
C   3.8175680158  1.2086390269  0.9783782633
C   5.1163692408  0.6963747878  0.7230037947
C   5.1257357444 -0.3792535101 -0.1313802735
S   3.5101874731 -0.7366909467 -0.6670391707
C   6.2395639357 -1.2597461746 -0.4880230391
C   7.5644331439 -0.7719128027 -0.7457868929
C   8.6185934728 -1.6983707759 -1.0955654334
C   8.3684122950 -3.0981215285 -1.1630534529
C   7.1033314343 -3.5267533820 -0.8954693133
C   6.0572921097 -2.6234501331 -0.5699438294
N   7.9871471670  0.4922449442 -0.7285004104
S   9.5547942040  0.4796613284 -1.1238172948
N   9.7911828680 -1.1082262592 -1.3319739695
H   0.8220033236 -0.0852783119 -1.5936036872
H  -5.0613445460  1.6128679309  2.1683389398
H  -6.6866291613  0.8576464063  0.2653045720
H  -1.4562986040 -1.1525565587 -2.5373256682
H  -2.8228912280 -0.1475830453 -3.0421318383
H  -1.1718246820  0.4979650235 -3.0908477298
H  -1.3662518164  2.1061931792  3.4419839209
H  -2.8894049547  2.8977756138  2.9968984818
H  -2.9050266404  1.2441262796  3.6149530668
H   3.6132296099  2.0546505052  1.6242318945
H   6.0334354420  1.1154117572  1.1219702810
H   9.1766485541 -3.7776424397 -1.4147287724
H   6.8713502351 -4.5872990123 -0.9281951161
H   5.0701890986 -3.0219141959 -0.3572536993
42
Scanning combination 70/73: [524.9814]  Energy = -2548.7119266743
C  -0.8613784155  0.5925024891 -0.3159935744
C  -0.9855504409  1.1790126095  0.9737552526
C  -2.2157239150  1.4099568292  1.5820413891
C  -3.3640964899  1.1057204734  0.8242566740
C  -3.2323919784  0.5924749467 -0.4951796342
C  -2.0022971874  0.3441998667 -1.0985349307
C   0.5077152071  0.3362485925 -0.6522264451
C   1.3997392697  0.7675372887  0.2793320758
S   0.5996817646  1.5089221601  1.6495355677
C  -4.7483913462  1.2482408837  1.1991027579
C  -5.6055871281  0.8725818409  0.2268659059
S  -4.8028956420  0.3293144447 -1.2092800529
C  -1.8669012213 -0.1509688325 -2.5111070925
C  -2.3430792550  1.9497802148  2.9807129000
C   2.8422136428  0.5826506503  0.2577519159
C   3.8227519752  1.2043840743  0.9898062517
C   5.1169939693  0.6810594512  0.7338025605
C   5.1244945977 -0.3664251331 -0.1553036368
S   3.5171178826 -0.6591031959 -0.7495690148
C   6.2348635613 -1.2619652992 -0.4931855320
C   7.5607591251 -0.7736636060 -0.7409500806
C   8.6177718066 -1.6948082958 -1.0925744134
C   8.3717930614 -3.0946747115 -1.1634703220
C   7.1066212465 -3.5264652096 -0.9023905152
C   6.0554101387 -2.6267903976 -0.5769652196
N   7.9800803904  0.4915360224 -0.7133716281
S   9.5476364046  0.4859995044 -1.1065216078
N   9.7889725698 -1.0998944658 -1.3231675169
H   0.8095460551 -0.1445396454 -1.5767392689
H  -5.0635998842  1.6184188837  2.1699760671
H  -6.6881485807  0.8733436332  0.2636999353
H  -1.4562947181 -1.1685160518 -2.5424967772
H  -2.8272491659 -0.1593584116 -3.0330734088
H  -1.1769750633  0.4918000521 -3.0715193140
H  -1.3659993392  2.1161261931  3.4406260786
H  -2.8883436900  2.9017336354  2.9857353483
H  -2.9050862492  1.2556295992  3.6184397706
H   3.6274281123  2.0239147014  1.6723176387
H   6.0322934301  1.0529922711  1.1805978401
H   9.1827901343 -3.7699984955 -1.4188640191
H   6.8804200725 -4.5884444833 -0.9412219130
H   5.0700953024 -3.0315643145 -0.3682498597
42
Scanning combination 71/73: [529.9814]  Energy = -2548.7110889012
C  -0.8621822113  0.5786748040 -0.3083596687
C  -0.9842824403  1.1792863250  0.9749740279
C  -2.2149217319  1.4146839350  1.5805155126
C  -3.3633092008  1.1086015987  0.8229104862
C  -3.2326866061  0.5931595631 -0.4957656058
C  -2.0022624549  0.3386121271 -1.0957624988
C   0.5068126219  0.3255686304 -0.6466027714
C   1.4027167178  0.7932532314  0.2633110571
S   0.6028692481  1.5182758463  1.6445600353
C  -4.7475375274  1.2470731144  1.1997135283
C  -5.6055624958  0.8716764269  0.2284190518
S  -4.8040607015  0.3256319095 -1.2074739612
C  -1.8672387086 -0.1522325406 -2.5104215662
C  -2.3422597919  1.9525271497  2.9799709831
C   2.8452957187  0.6065489789  0.2344510476
C   3.8207549579  1.1926635111  1.0009149000
C   5.1134739843  0.6641387284  0.7501810927
C   5.1214876005 -0.3707012963 -0.1528510446
S   3.5165079047 -0.6491899552 -0.7607855784
C   6.2334852874 -1.2602255966 -0.5003164078
C   7.5607817250 -0.7715979009 -0.7430806785
C   8.6187687377 -1.6933555907 -1.0916257511
C   8.3715525660 -3.0932139191 -1.1636636305
C   7.1062654835 -3.5247587155 -0.9032388701
C   6.0545362208 -2.6246340352 -0.5818117506
N   7.9813833578  0.4932890061 -0.7130165821
S   9.5501250782  0.4869675558 -1.1024506460
N   9.7905927019 -1.0989156546 -1.3210683174
H   0.8093576337 -0.1562776757 -1.5705389460
H  -5.0619069165  1.6191016163  2.1700839637
H  -6.6883572556  0.8777804816  0.2636414845
H  -1.4578787862 -1.1696103423 -2.5382518320
H  -2.8273040184 -0.1627989370 -3.0331663417
H  -1.1775286976  0.4869751186 -3.0760625009
H  -1.3641654376  2.1168379984  3.4387239118
H  -2.8875944791  2.9044726320  2.9857850074
H  -2.9038181108  1.2564015256  3.6164119032
H   3.6255343718  2.0122118853  1.6844545884
H   6.0300667196  1.0458794128  1.1860031043
H   9.1818852465 -3.7693760638 -1.4188165387
H   6.8786574746 -4.5863231281 -0.9418315126
H   5.0691462240 -3.0281809978 -0.3716625308
42
Scanning combination 72/73: [534.9814]  Energy = -2548.7110790962
C  -0.8567511449  0.5941619314 -0.3289539862
C  -0.9754562733  1.2284931392  0.9390052329
C  -2.2011932154  1.4457184389  1.5589021248
C  -3.3528445104  1.1115607263  0.8198557233
C  -3.2306407301  0.5692706259 -0.4886495541
C  -2.0028328511  0.3132424565 -1.0948617943
C   0.5108016163  0.3277505430 -0.6582520294
C   1.4052873611  0.8029924045  0.2487333537
S   0.6103865803  1.6121513042  1.5861800622
C  -4.7331086918  1.2551973327  1.2063516318
C  -5.5994839741  0.8685606400  0.2457583510
S  -4.8081239600  0.2822201606 -1.1802921763
C  -1.8760573552 -0.2114601057 -2.4986751363
C  -2.3163759841  1.9819538334  2.9590432666
C   2.8429760927  0.6093344734  0.2339418959
C   3.8031666810  1.1357647234  1.0616041463
C   5.0929301661  0.6021305824  0.8139636147
C   5.1184293722 -0.3460248813 -0.1780347717
S   3.5377866241 -0.5360646420 -0.8731510571
C   6.2277756371 -1.2306435701 -0.5395561369
C   7.5602785848 -0.7482390855 -0.7571934918
C   8.6179142683 -1.6775872567 -1.0853086035
C   8.3594103676 -3.0754239330 -1.1684222616
C   7.0862414977 -3.4993930943 -0.9341029323
C   6.0366835333 -2.5917869904 -0.6324787595
N   7.9879584273  0.5142640461 -0.7158394661
S   9.5664693193  0.4962428004 -1.0657664810
N   9.7998832359 -1.0912694258 -1.2834736064
H   0.8144965653 -0.2072428612 -1.5532751470
H  -5.0387875602  1.6477348896  2.1707285666
H  -6.6810607839  0.9055065603  0.2786508723
H  -1.4743095568 -1.2321398305 -2.5067536802
H  -2.8373368973 -0.2275524902 -3.0189975585
H  -1.1849916553  0.4108058229 -3.0811969033
H  -1.3329161846  2.1358523737  3.4103268478
H  -2.8556913558  2.9372964690  2.9745838375
H  -2.8765779853  1.2826521758  3.5927263120
H   3.5995139217  1.9045539213  1.7988447606
H   5.9918394747  0.8988108947  1.3419303910
H   9.1688654944 -3.7591155187 -1.4045032048
H   6.8507353672 -4.5588796475 -0.9723990257
H   5.0419104984 -2.9824991673 -0.4445930591
42
Scanning combination 73/73: [539.9814]  Energy = -2548.7104756588
C  -0.8573495572  0.5811086668 -0.3267775181
C  -0.9747624403  1.2158828185  0.9403285314
C  -2.1995999594  1.4409914573  1.5612182457
C  -3.3527232705  1.1202374795  0.8178461726
C  -3.2301317889  0.5699533986 -0.4876418880
C  -2.0039738068  0.3027448245 -1.0910432051
C   0.5112628203  0.3224237597 -0.6662042843
C   1.4088124235  0.8331557594  0.2195629230
S   0.6116671627  1.6225141005  1.5675994415
C  -4.7336367279  1.2692910527  1.2015613076
C  -5.5991928213  0.8734987482  0.2436057283
S  -4.8069113569  0.2909078796 -1.1831680068
C  -1.8785443864 -0.2262013999 -2.4922206975
C  -2.3147088883  1.9888959243  2.9585103174
C   2.8494710183  0.6469771917  0.2149979943
C   3.8012050953  1.1344063529  1.0768823559
C   5.0927121166  0.6020776308  0.8249982193
C   5.1197280050 -0.3386387147 -0.1743419768
S   3.5441957021 -0.5055689994 -0.8837642966
C   6.2260912249 -1.2325051624 -0.5342356272
C   7.5590635840 -0.7505518180 -0.7533123741
C   8.6181878353 -1.6780423954 -1.0818979836
C   8.3631793073 -3.0754026460 -1.1681339848
C   7.0883045640 -3.4993373941 -0.9450905818
C   6.0357540449 -2.5933199676 -0.6423627389
N   7.9861301416  0.5122397834 -0.7138653904
S   9.5643958412  0.4956979945 -1.0649130338
N   9.7997470196 -1.0916525881 -1.2797221689
H   0.8043744564 -0.2202488852 -1.5592483523
H  -5.0406118170  1.6600494391  2.1662629442
H  -6.6811743067  0.8825994009  0.2855579167
H  -1.4761932806 -1.2468871571 -2.5000671730
H  -2.8406321338 -0.2394086021 -3.0109419118
H  -1.1866973734  0.3967044331 -3.0724033375
H  -1.3324463227  2.1467786428  3.4108298180
H  -2.8527379803  2.9452366588  2.9670323785
H  -2.8769053591  1.2989939525  3.6004963638
H   3.5915551214  1.8661213525  1.8490832050
H   5.9888733385  0.8817739677  1.3653852188
H   9.1754899270 -3.7558553807 -1.4048558395
H   6.8544351406 -4.5589208328 -0.9955171793
H   5.0414977089 -2.9898199665 -0.4636293637
