42
Scanning combination 1/73: [359.8250]  Energy = -2548.7148309404
C  -0.7222588718  0.9647953976  0.2244851087
C  -1.4269066623 -0.2687095842  0.1832189915
C  -2.8144679443 -0.3500723584  0.2843137517
C  -3.5193842653  0.8608385361  0.4328774299
C  -2.8094855373  2.0920263968  0.4731268540
C  -1.4230105465  2.1754494854  0.3721232108
C   0.6951697747  0.7803067675  0.1012055771
C   1.0784493999 -0.5203554899 -0.0291268690
S  -0.3022414445 -1.6039729977 -0.0072295942
C  -4.9421414003  1.0658170480  0.5592560058
C  -5.2828243330  2.3660984976  0.6863608958
S  -3.9155627185  3.4302400711  0.6625485848
C  -0.6831869210  3.4802967575  0.4156992086
C  -3.5444136006 -1.6642023944  0.2390593042
C   2.4336136852 -1.0334804640 -0.1723899598
C   2.8746133255 -2.3288293568 -0.3063668174
C   4.2845398316 -2.4339049732 -0.4209426330
C   4.9349207694 -1.2208693277 -0.3757332062
S   3.7736992993  0.0639256437 -0.1888042215
C   6.3602077876 -0.8936724087 -0.4567937883
C   7.3921433100 -1.8883751080 -0.6127316133
C   8.7829020710 -1.4860786402 -0.6851078919
C   9.1501312508 -0.1132326206 -0.6040093428
C   8.1513780849  0.7986694235 -0.4570394236
C   6.7865424588  0.4192125444 -0.3848538018
N   7.2493942844 -3.2082597285 -0.7063459949
S   8.7276419717 -3.8474407642 -0.8676269218
N   9.6304201865 -2.5049420299 -0.8291328234
H   1.3985739596  1.6085577497  0.1117095885
H  -5.6664283203  0.2560950266  0.5529842705
H  -6.2778815419  2.7792472662  0.7956186633
H  -0.1007807836  3.6230910952 -0.5021252722
H  -1.3568932064  4.3337519512  0.5292783772
H   0.0280655621  3.4918779108  1.2500062662
H  -2.8468858426 -2.4962536119  0.1175153388
H  -4.1175725860 -1.8308088308  1.1596987505
H  -4.2580526546 -1.6922706149 -0.5938451313
H   2.2052923476 -3.1824905566 -0.3221190842
H   4.8398601762 -3.3591350140 -0.5347082072
H   10.1954400521  0.1712571774 -0.6597465103
H   8.3853922500  1.8584932464 -0.3906416536
H   6.0491875043  1.2062099039 -0.2672652233
42
Scanning combination 2/73: [364.8250]  Energy = -2548.7151784056
C  -0.7188149012  0.9645075752  0.2179537416
C  -1.4222736195 -0.2719301995  0.1789348460
C  -2.8057043117 -0.3594910717  0.2945893080
C  -3.5041112423  0.8536864992  0.4492876411
C  -2.7981853860  2.0873994332  0.4829655419
C  -1.4129990942  2.1785442549  0.3718901678
C   0.6941395742  0.7720331441  0.0931744694
C   1.0716136084 -0.5292515489 -0.0384539442
S  -0.3059240922 -1.6090055196 -0.0269060711
C  -4.9254792895  1.0535292863  0.5707838956
C  -5.2732240815  2.3519855249  0.6877037125
S  -3.9103338097  3.4208232734  0.6597945723
C  -0.6721090321  3.4868962211  0.4142901689
C  -3.5493185601 -1.6669580846  0.2491048751
C   2.4248551550 -1.0369821233 -0.1731191411
C   2.8776939369 -2.3279173877 -0.3061839775
C   4.2866385671 -2.4130362832 -0.4189894180
C   4.9231611610 -1.1925721395 -0.3720588821
S   3.7500164539  0.0784713752 -0.1844151333
C   6.3478075968 -0.8697993321 -0.4538619313
C   7.3666231776 -1.8782129343 -0.6099812353
C   8.7615103543 -1.4915145066 -0.6839176691
C   9.1479112367 -0.1239865249 -0.6047026651
C   8.1584337039  0.8004935524 -0.4574960049
C   6.7868527495  0.4387423992 -0.3833709748
N   7.2082967460 -3.1969421345 -0.7023883294
S   8.6794852241 -3.8528587710 -0.8645272349
N   9.5965580743 -2.5203902415 -0.8278543860
H   1.4059120616  1.5905287334  0.1104940238
H  -5.6396488601  0.2362524449  0.5550090948
H  -6.2702778406  2.7626674598  0.7880492584
H  -0.0890332207  3.6383307344 -0.5027481646
H  -1.3485750117  4.3378095415  0.5292571492
H   0.0384065980  3.5048543992  1.2500028053
H  -2.8687223234 -2.5204280801  0.2015842220
H  -4.1830018584 -1.7899342171  1.1369518592
H  -4.2109359675 -1.7067407633 -0.6248931271
H   2.2199009720 -3.1893783528 -0.3236215563
H   4.8501380991 -3.3314726296 -0.5334991405
H   10.1986201371  0.1430342992 -0.6622723597
H   8.4080825132  1.8555204555 -0.3927348204
H   6.0590117056  1.2356122334 -0.2657946688
42
Scanning combination 3/73: [369.8250]  Energy = -2548.7151720578
C  -0.7196459880  0.9635773316  0.2171488302
C  -1.4226113219 -0.2721280056  0.1772405930
C  -2.8052744208 -0.3585817887  0.3047026845
C  -3.5062902022  0.8535997534  0.4568947382
C  -2.8008195938  2.0873885692  0.4868014547
C  -1.4158326446  2.1754139846  0.3733631223
C   0.6939539565  0.7735089155  0.0914630748
C   1.0724524266 -0.5268465545 -0.0429599947
S  -0.3058849540 -1.6073108634 -0.0387590093
C  -4.9283211954  1.0550150576  0.5767175778
C  -5.2762578342  2.3541663057  0.6881395899
S  -3.9121851579  3.4221798628  0.6638785168
C  -0.6730073725  3.4806055296  0.4158260589
C  -3.5449467666 -1.6675822287  0.2572173300
C   2.4265652197 -1.0330162867 -0.1787901801
C   2.8807918949 -2.3237445115 -0.3097112785
C   4.2896140342 -2.4090183118 -0.4189021818
C   4.9242232507 -1.1873319143 -0.3712064462
S   3.7511447558  0.0834963489 -0.1868489172
C   6.3476378376 -0.8642635143 -0.4525169967
C   7.3622896742 -1.8754766183 -0.6090456126
C   8.7582414618 -1.4951927626 -0.6839065408
C   9.1492568671 -0.1286143444 -0.6052288257
C   8.1630969729  0.7990772952 -0.4579874276
C   6.7904712367  0.4431830836 -0.3829343764
N   7.1966434894 -3.1931646716 -0.7010747845
S   8.6641968729 -3.8562132358 -0.8637603081
N   9.5879071623 -2.5282631970 -0.8279418452
H   1.4047074797  1.5936848709  0.1078615834
H  -5.6442808520  0.2393467157  0.5654697044
H  -6.2737036429  2.7641117157  0.7893339678
H  -0.0928294482  3.6252092332 -0.5038013997
H  -1.3499851882  4.3309179855  0.5292852557
H   0.0390194566  3.4977628347  1.2506652692
H  -2.8631568132 -2.5204621988  0.2869205212
H  -4.2277503891 -1.7566690776  1.1103640343
H  -4.1495287529 -1.7479144048 -0.6554895649
H   2.2232248765 -3.1852368407 -0.3249593967
H   4.8556776375 -3.3266643634 -0.5313272953
H   10.2003731725  0.1363809252 -0.6630180410
H   8.4173040941  1.8532659202 -0.3938016651
H   6.0659862990  1.2430829450 -0.2656520484
42
Scanning combination 4/73: [374.8250]  Energy = -2548.7150855118
C  -0.7222347147  0.9644186171  0.2135618758
C  -1.4246508521 -0.2720486005  0.1746435686
C  -2.8058317191 -0.3611747931  0.3150180936
C  -3.5060620078  0.8511194474  0.4671589648
C  -2.8010457216  2.0858184193  0.4919740025
C  -1.4168662678  2.1766384087  0.3739849661
C   0.6907190623  0.7746727298  0.0874696026
C   1.0686000286 -0.5255118096 -0.0487712240
S  -0.3092443160 -1.6066740622 -0.0480014371
C  -4.9283277610  1.0520078462  0.5845494235
C  -5.2758049903  2.3518249389  0.6925326874
S  -3.9124659401  3.4201757042  0.6640096889
C  -0.6730113210  3.4825161724  0.4161945606
C  -3.5433098717 -1.6721828444  0.2687938872
C   2.4233421680 -1.0292532582 -0.1818027962
C   2.8792793530 -2.3192253905 -0.3107110684
C   4.2880872870 -2.4016824445 -0.4182870460
C   4.9220022100 -1.1798090780 -0.3721174735
S   3.7466775289  0.0900269505 -0.1903513222
C   6.3471571254 -0.8607536964 -0.4527237234
C   7.3600161392 -1.8750949561 -0.6086002814
C   8.7569708870 -1.4984530753 -0.6838917611
C   9.1520204230 -0.1333002309 -0.6056293073
C   8.1685132208  0.7972787655 -0.4582217388
C   6.7946536843  0.4451943217 -0.3829382998
N   7.1922630619 -3.1926659087 -0.7000394839
S   8.6585273236 -3.8588649822 -0.8633450534
N   9.5848863884 -2.5328315951 -0.8281792122
H   1.4020097951  1.5943636012  0.1080137638
H  -5.6449034953  0.2369484104  0.5668025927
H  -6.2723760553  2.7632477235  0.7913463324
H  -0.0918915565  3.6273522490 -0.5028674955
H  -1.3464229758  4.3359097797  0.5300199198
H   0.0396641060  3.4983524849  1.2505476720
H  -2.8668341949 -2.5227752631  0.3763481718
H  -4.2841822366 -1.7278388916  1.0756160629
H  -4.0845270393 -1.7891278541 -0.6787859237
H   2.2243996516 -3.1827802537 -0.3281301452
H   4.8551449532 -3.3186612971 -0.5291515775
H   10.2042358267  0.1266312607 -0.6643082956
H   8.4261730995  1.8506929993 -0.3945517790
H   6.0725550801  1.2471591833 -0.2651838793
42
Scanning combination 5/73: [379.8250]  Energy = -2548.7150337452
C  -0.7238024095  0.9645111673  0.2179241175
C  -1.4256319159 -0.2718107743  0.1767935173
C  -2.8070352382 -0.3604492085  0.3169239699
C  -3.5079753745  0.8518109710  0.4677782541
C  -2.8037606000  2.0866204688  0.4951465588
C  -1.4192076753  2.1760126034  0.3791910171
C   0.6890320700  0.7764052161  0.0856703771
C   1.0674775073 -0.5230541131 -0.0555920135
S  -0.3104178870 -1.6051531065 -0.0543159181
C  -4.9303012836  1.0528017930  0.5882014032
C  -5.2788115334  2.3519794940  0.6978202305
S  -3.9155280839  3.4204991166  0.6702714505
C  -0.6754826754  3.4811789598  0.4176307856
C  -3.5422678807 -1.6724021340  0.2778824453
C   2.4230835131 -1.0254587998 -0.1888439114
C   2.8799518833 -2.3153542612 -0.3146985852
C   4.2890112092 -2.3980005232 -0.4192475812
C   4.9223272918 -1.1755635887 -0.3734068532
S   3.7465462877  0.0942848808 -0.1957854405
C   6.3475979633 -0.8572925724 -0.4525302183
C   7.3573032530 -1.8743853293 -0.6083171125
C   8.7554526253 -1.5024882768 -0.6841049845
C   9.1540424350 -0.1383327015 -0.6062420814
C   8.1733264395  0.7952205253 -0.4585268883
C   6.7982393827  0.4474808600 -0.3827660779
N   7.1844216707 -3.1912208218 -0.6991838650
S   8.6479487456 -3.8630311468 -0.8623706259
N   9.5792383659 -2.5403521257 -0.8280390199
H   1.3993260117  1.5969796381  0.1037879231
H  -5.6465040187  0.2376395907  0.5754360341
H  -6.2766853344  2.7612346154  0.7949611538
H  -0.0953489319  3.6242390279 -0.5025775635
H  -1.3500487904  4.3335851510  0.5312694446
H   0.0379327663  3.4975086665  1.2511101354
H  -2.8764832069 -2.5159927617  0.4784478097
H  -4.3445724816 -1.6866244548  1.0236897545
H  -4.0103223425 -1.8351466636 -0.7015800488
H   2.2249078851 -3.1787632628 -0.3303558035
H   4.8572959714 -3.3147643773 -0.5271662962
H   10.2067924197  0.1199273872 -0.6650050761
H   8.4343736400  1.8478223893 -0.3948681064
H   6.0789348965  1.2520238690 -0.2650055156
42
Scanning combination 6/73: [384.8250]  Energy = -2548.7149490768
C  -0.7256992770  0.9669814657  0.2156782276
C  -1.4274301977 -0.2698818689  0.1747424741
C  -2.8076913557 -0.3613300318  0.3229428986
C  -3.5085895988  0.8507384121  0.4739990850
C  -2.8049884044  2.0868102327  0.4992322787
C  -1.4207535388  2.1782137056  0.3798396172
C   0.6871567215  0.7789875941  0.0824189129
C   1.0650524878 -0.5208035429 -0.0594291647
S  -0.3130136401 -1.6023890906 -0.0592783414
C  -4.9311481326  1.0531883822  0.5949495005
C  -5.2792686913  2.3516235684  0.7025786282
S  -3.9168044608  3.4207763671  0.6719585307
C  -0.6770191422  3.4838240996  0.4185299275
C  -3.5405710438 -1.6760904588  0.2858186274
C   2.4207130888 -1.0228990246 -0.1914988021
C   2.8783703883 -2.3126575699 -0.3160664844
C   4.2874198825 -2.3940926939 -0.4197906935
C   4.9206138757 -1.1717477502 -0.3752512808
S   3.7438958624  0.0978913987 -0.2002221574
C   6.3469272956 -0.8560595658 -0.4533210538
C   7.3555442950 -1.8749973993 -0.6083797140
C   8.7542774616 -1.5051644485 -0.6840754440
C   9.1553303922 -0.1419063830 -0.6063531275
C   8.1761306523  0.7932594851 -0.4586179643
C   6.8003258537  0.4477299818 -0.3830767821
N   7.1815010549 -3.1917594695 -0.6988247157
S   8.6443519149 -3.8653189239 -0.8619527259
N   9.5770814498 -2.5437228176 -0.8278832124
H   1.3986164715  1.5986115707  0.1028577342
H  -5.6491323852  0.2391536182  0.5803822712
H  -6.2773489835  2.7617308786  0.7985994430
H  -0.0966442325  3.6270421823 -0.5015782226
H  -1.3504698557  4.3370735060  0.5329807874
H   0.0365282885  3.4990836612  1.2519788248
H  -2.8932447828 -2.5117363316  0.5665454955
H  -4.3911302940 -1.6606297537  0.9749512351
H  -3.9385749573 -1.8805374384 -0.7172111966
H   2.2250844786 -3.1773224392 -0.3329577886
H   4.8561317148 -3.3106045543 -0.5263155180
H   10.2087423074  0.1133367903 -0.6654337557
H   8.4391513338  1.8453459247 -0.3949908659
H   6.0824533681  1.2534795079 -0.2649517598
42
Scanning combination 7/73: [389.8250]  Energy = -2548.7148857170
C  -0.7267742817  0.9681684201  0.2139885101
C  -1.4272906006 -0.2684309756  0.1762708693
C  -2.8076733667 -0.3595459124  0.3272011359
C  -3.5098908947  0.8514721228  0.4808350685
C  -2.8059980351  2.0871345208  0.5032144257
C  -1.4229331515  2.1786482584  0.3791956474
C   0.6860305362  0.7807551755  0.0796748335
C   1.0641581197 -0.5193623235 -0.0629100016
S  -0.3145862997 -1.6004336394 -0.0662490255
C  -4.9324663074  1.0532037855  0.6017755664
C  -5.2808402976  2.3524288034  0.7047956127
S  -3.9181028687  3.4207797211  0.6749852980
C  -0.6793089830  3.4841000913  0.4201122476
C  -3.5338395274 -1.6760569533  0.2933996924
C   2.4201309670 -1.0201592093 -0.1962118372
C   2.8777767261 -2.3103281148 -0.3189988665
C   4.2870112343 -2.3923549808 -0.4208667122
C   4.9202827685 -1.1700758763 -0.3765669259
S   3.7438300754  0.1001786615 -0.2039669722
C   6.3466760913 -0.8549421576 -0.4537860482
C   7.3537690024 -1.8752764156 -0.6086661737
C   8.7530865576 -1.5078822453 -0.6842038318
C   9.1560457808 -0.1450443405 -0.6065113357
C   8.1779471278  0.7916342464 -0.4587487118
C   6.8016881819  0.4481914512 -0.3833729557
N   7.1770634837 -3.1916449768 -0.6988318806
S   8.6385425759 -3.8680771838 -0.8613726428
N   9.5738051185 -2.5481907435 -0.8275096546
H   1.3958324011  1.6010456661  0.1005991308
H  -5.6520654101  0.2410780403  0.5898536775
H  -6.2785691891  2.7617371934  0.8032513395
H  -0.1001423517  3.6272580583 -0.5003133597
H  -1.3536825822  4.3364374346  0.5344418599
H   0.0350278215  3.5003629796  1.2531401368
H  -2.9065557590 -2.4940243675  0.6587204895
H  -4.4318554879 -1.6401660309  0.9184831352
H  -3.8506112050 -1.9333925108 -0.7237863010
H   2.2239318645 -3.1742493230 -0.3338966208
H   4.8556295941 -3.3092154226 -0.5258347443
H   10.2094990430  0.1097028059 -0.6652711237
H   8.4426886250  1.8432180940 -0.3948977857
H   6.0851005222  1.2552156439 -0.2653206633
42
Scanning combination 8/73: [394.8250]  Energy = -2548.7148211950
C  -0.7278668529  0.9707707631  0.2159342658
C  -1.4288336929 -0.2664395258  0.1747002062
C  -2.8086144341 -0.3608994746  0.3326674875
C  -3.5101972069  0.8504354869  0.4806578858
C  -2.8076464531  2.0872190425  0.4999936601
C  -1.4239042684  2.1807129770  0.3840338009
C   0.6852172665  0.7839498250  0.0809152964
C   1.0622186472 -0.5155243510 -0.0672079301
S  -0.3156683926 -1.5968825178 -0.0659546439
C  -4.9328407419  1.0532144874  0.6021030213
C  -5.2811051399  2.3517767918  0.7122998456
S  -3.9188019465  3.4202163939  0.6776748855
C  -0.6809436536  3.4868412177  0.4214767304
C  -3.5353861327 -1.6783044743  0.3033626368
C   2.4179360246 -1.0180621515 -0.1994150684
C   2.8757962276 -2.3082120565 -0.3195810885
C   4.2850181105 -2.3899111758 -0.4211255800
C   4.9186644810 -1.1677820189 -0.3785673819
S   3.7419365958  0.1024943807 -0.2075828737
C   6.3458347773 -0.8545442454 -0.4547874080
C   7.3522182575 -1.8761155428 -0.6087638596
C   8.7518695393 -1.5097853212 -0.6839451838
C   9.1563416540 -0.1477595097 -0.6062918892
C   8.1794601250  0.7900082213 -0.4587337999
C   6.8025974213  0.4479663766 -0.3838030987
N   7.1750975010 -3.1924835893 -0.6987914085
S   8.6363363682 -3.8697059998 -0.8613288934
N   9.5722417687 -2.5503866771 -0.8272946934
H   1.3978241029  1.6029233905  0.0972595998
H  -5.6504119321  0.2398434365  0.5963710577
H  -6.2789403920  2.7620904471  0.8071056764
H  -0.1021152065  3.6296389197 -0.4997103291
H  -1.3546097528  4.3398975363  0.5352227377
H   0.0339448552  3.5021327427  1.2536470916
H  -2.9383532439 -2.4795772434  0.7467048418
H  -4.4751813207 -1.6120749505  0.8598488811
H  -3.7911350773 -1.9733508262 -0.7218864482
H   2.2240769468 -3.1741067924 -0.3364246125
H   4.8541051546 -3.3064774477 -0.5256593273
H   10.2105010438  0.1043942051 -0.6653316638
H   8.4454355235  1.8412874451 -0.3950178808
H   6.0868974840  1.2557186585 -0.2656124177
42
Scanning combination 9/73: [399.8250]  Energy = -2548.7148797566
C  -0.7308855258  0.9720873796  0.2232261488
C  -1.4327952047 -0.2642612141  0.1826668400
C  -2.8133834737 -0.3576380605  0.3289787036
C  -3.5153463132  0.8537570305  0.4768457316
C  -2.8106686827  2.0905273703  0.5020958779
C  -1.4275091392  2.1827479534  0.3871019660
C   0.6813467888  0.7849207368  0.0783693038
C   1.0576985766 -0.5147743773 -0.0712633809
S  -0.3218842289 -1.5954561433 -0.0625504319
C  -4.9373820961  1.0581871832  0.6076886535
C  -5.2839305577  2.3572775395  0.7204904751
S  -3.9211939605  3.4249493631  0.6825666806
C  -0.6843275766  3.4891593429  0.4224877583
C  -3.5265570321 -1.6821876144  0.3078547911
C   2.4143848681 -1.0157202840 -0.2047954687
C   2.8728546662 -2.3056219423 -0.3231244464
C   4.2821208944 -2.3872675051 -0.4234195962
C   4.9158558338 -1.1650057583 -0.3817524033
S   3.7386154175  0.1054719968 -0.2138322248
C   6.3437419813 -0.8537168880 -0.4565752135
C   7.3484824409 -1.8770575009 -0.6096514280
C   8.7491755035 -1.5140400377 -0.6839722681
C   9.1562545727 -0.1525972478 -0.6060459004
C   8.1812155300  0.7866874855 -0.4589082073
C   6.8033452628  0.4479132963 -0.3848946411
N   7.1684653648 -3.1930880005 -0.6993032185
S   8.6281532130 -3.8738349064 -0.8606319292
N   9.5671113344 -2.5566578862 -0.8264555195
H   1.3921528222  1.6053359862  0.0929575970
H  -5.6584160765  0.2480606256  0.6047341721
H  -6.2817691578  2.7668804964  0.8164511373
H  -0.1059570456  3.6334614719 -0.4988716393
H  -1.3590748638  4.3411395583  0.5377529776
H   0.0302661440  3.5037422449  1.2546724453
H  -2.9606855734 -2.4500891090  0.8453593496
H  -4.5173177149 -1.6036549422  0.7649574140
H  -3.6684596230 -2.0298567253 -0.7227812708
H   2.2202659014 -3.1708482163 -0.3386413382
H   4.8510983559 -3.3039835432 -0.5260403503
H   10.2109676363  0.0982577154 -0.6643978816
H   8.4494292567  1.8375446522 -0.3947502055
H   6.0896006334  1.2572495335 -0.2667996387
42
Scanning combination 10/73: [404.8250]  Energy = -2548.7149282450
C  -0.7326611255  0.9766142708  0.2151260704
C  -1.4325061533 -0.2598952963  0.1790191152
C  -2.8120750935 -0.3562556589  0.3347207619
C  -3.5152653608  0.8534839629  0.4889961904
C  -2.8130256479  2.0912354978  0.5111287318
C  -1.4291156649  2.1863430797  0.3853079452
C   0.6794832678  0.7878097133  0.0740100326
C   1.0556780699 -0.5125309757 -0.0697489064
S  -0.3245863768 -1.5921341969 -0.0666977837
C  -4.9386528573  1.0598936371  0.6152499034
C  -5.2857540836  2.3588665733  0.7208512540
S  -3.9231566047  3.4261122672  0.6818139029
C  -0.6864970272  3.4919804990  0.4230377014
C  -3.5126517195 -1.6871931050  0.3165053458
C   2.4120449167 -1.0144391285 -0.2036708497
C   2.8705086754 -2.3044023941 -0.3246303916
C   4.2798325950 -2.3859937875 -0.4256879717
C   4.9137706157 -1.1639214647 -0.3839281352
S   3.7364381123  0.1067690085 -0.2176278231
C   6.3419486357 -0.8538170756 -0.4572044972
C   7.3457639301 -1.8779721271 -0.6099962055
C   8.7466986522 -1.5162329403 -0.6838717951
C   9.1548551514 -0.1550724369 -0.6058778570
C   8.1808388241  0.7849130430 -0.4590483040
C   6.8026112262  0.4477357680 -0.3853354041
N   7.1646206899 -3.1939066207 -0.6999208741
S   8.6238479540 -3.8758890735 -0.8604878542
N   9.5638591954 -2.5595277166 -0.8258894453
H   1.3925412580  1.6066485475  0.0931830724
H  -5.6608573973  0.2509105659  0.6081191519
H  -6.2833119996  2.7693046570  0.8221179808
H  -0.1075011819  3.6352315285 -0.4984635236
H  -1.3601763875  4.3445751066  0.5404678127
H   0.0287946523  3.5059180907  1.2554305319
H  -2.9848274020 -2.4331867568  0.9222483946
H  -4.5298207162 -1.5995463836  0.7062549284
H  -3.5796663084 -2.0771832463 -0.7070327026
H   2.2182831019 -3.1697275418 -0.3403019975
H   4.8485402074 -3.3032009717 -0.5262681007
H   10.2100127084  0.0944448588 -0.6635975293
H   8.4498280725  1.8356737397 -0.3946268989
H   6.0894876005  1.2575072294 -0.2678195543
42
Scanning combination 11/73: [409.8250]  Energy = -2548.7150156254
C  -0.7324407251  0.9789645510  0.2168288279
C  -1.4318917798 -0.2577386530  0.1834100177
C  -2.8110471539 -0.3558801096  0.3403336029
C  -3.5156055839  0.8532836416  0.4915111810
C  -2.8129243278  2.0918944785  0.5091249418
C  -1.4302812888  2.1880816534  0.3848014362
C   0.6796963752  0.7913890699  0.0728289549
C   1.0554678133 -0.5088503229 -0.0746272448
S  -0.3243234006 -1.5884318515 -0.0696972917
C  -4.9384854695  1.0591276486  0.6208607919
C  -5.2855201222  2.3576551353  0.7262151017
S  -3.9233496151  3.4257902082  0.6882587159
C  -0.6879177398  3.4942517058  0.4244908483
C  -3.5047640464 -1.6894251314  0.3260748005
C   2.4110890511 -1.0114139356 -0.2101987313
C   2.8682925220 -2.3020137895 -0.3275433679
C   4.2775415767 -2.3851862544 -0.4259840958
C   4.9123889628 -1.1636535191 -0.3839181902
S   3.7364150858  0.1083056747 -0.2190569942
C   6.3404397435 -0.8539109469 -0.4583671960
C   7.3432034234 -1.8791091933 -0.6110215960
C   8.7444129320 -1.5185811599 -0.6839401557
C   9.1537611586 -0.1578877609 -0.6054919211
C   8.1802680292  0.7832895538 -0.4592965327
C   6.8018576290  0.4470468229 -0.3866324934
N   7.1607256398 -3.1947960302 -0.7007470353
S   8.6193557653 -3.8781906690 -0.8602325555
N   9.5606082585 -2.5626977145 -0.8252839383
H   1.3913704665  1.6109658489  0.0895084110
H  -5.6612220202  0.2497473712  0.6198494295
H  -6.2834632830  2.7677900161  0.8251535272
H  -0.1109023648  3.6384342488 -0.4973761491
H  -1.3628606536  4.3457533711  0.5413555200
H   0.0280333296  3.5094730031  1.2561513300
H  -3.0186374692 -2.3999184695  1.0036735772
H  -4.5508554787 -1.5957158382  0.6282449797
H  -3.4876887963 -2.1274735216 -0.6781697860
H   2.2151770035 -3.1668087995 -0.3398273659
H   4.8456948502 -3.3027740442 -0.5275884508
H   10.2088477437  0.0911450918 -0.6626155389
H   8.4502694471  1.8335561174 -0.3943629328
H   6.0892513310  1.2575157327 -0.2689175196
42
Scanning combination 12/73: [414.8250]  Energy = -2548.7150662893
C  -0.7314642138  0.9815869722  0.2226097844
C  -1.4307047721 -0.2554931644  0.1857315868
C  -2.8110900509 -0.3537206733  0.3374584904
C  -3.5160467833  0.8543244182  0.4859558343
C  -2.8139239596  2.0933622684  0.5074604698
C  -1.4307924729  2.1899020202  0.3897866948
C   0.6802224644  0.7955750312  0.0723801825
C   1.0564912375 -0.5041020278 -0.0757254298
S  -0.3205705691 -1.5862388409 -0.0542681752
C  -4.9389131310  1.0579335245  0.6238373942
C  -5.2861625223  2.3559197955  0.7365570712
S  -3.9251449454  3.4255881588  0.6913321726
C  -0.6910117771  3.4975360372  0.4249842835
C  -3.5016502385 -1.6897593603  0.3317443208
C   2.4111874675 -1.0075492556 -0.2120255448
C   2.8660506787 -2.2987658480 -0.3288343862
C   4.2749256901 -2.3838642110 -0.4279994347
C   4.9110132599 -1.1628126893 -0.3876202973
S   3.7369879717  0.1109612600 -0.2246175019
C   6.3392933554 -0.8546846470 -0.4598669396
C   7.3413058318 -1.8807339398 -0.6113946344
C   8.7428992779 -1.5214517311 -0.6836187094
C   9.1533249018 -0.1610684667 -0.6050175978
C   8.1805412770  0.7811080702 -0.4593181280
C   6.8017723512  0.4458550257 -0.3874201803
N   7.1576594283 -3.1962227892 -0.7013712423
S   8.6156654501 -3.8809775872 -0.8605668630
N   9.5581770766 -2.5663534974 -0.8249322999
H   1.3907285687  1.6164069073  0.0823649964
H  -5.6597383889  0.2469486839  0.6315534771
H  -6.2841631887  2.7657128044  0.8344911614
H  -0.1141805800  3.6426383034 -0.4970375403
H  -1.3654875676  4.3494821848  0.5425706807
H   0.0253756048  3.5128250148  1.2553761490
H  -3.0699015457 -2.3612891357  1.0819867258
H  -4.5696961913 -1.5942091581  0.5447929218
H  -3.4006302013 -2.1806394459 -0.6422343958
H   2.2119861094 -3.1628751029 -0.3433956685
H   4.8424556994 -3.3018659150 -0.5277536511
H   10.2087292809  0.0867470009 -0.6617637808
H   8.4515362994  1.8311908047 -0.3946469850
H   6.0899081900  1.2570745880 -0.2702932606
42
Scanning combination 13/73: [419.8250]  Energy = -2548.7149361426
C  -0.7337131077  0.9837116604  0.2118749428
C  -1.4323471318 -0.2538146231  0.1795991358
C  -2.8093719927 -0.3544427286  0.3514990390
C  -3.5154260648  0.8541898482  0.4994742097
C  -2.8149355966  2.0939385290  0.5120574950
C  -1.4326280905  2.1916093568  0.3839737338
C   0.6786835580  0.7968865662  0.0706357904
C   1.0559015904 -0.5035207795 -0.0697687097
S  -0.3217460317 -1.5851475237 -0.0532380101
C  -4.9389957053  1.0578506577  0.6282023678
C  -5.2877001660  2.3557490466  0.7333446376
S  -3.9271167516  3.4259473642  0.6902147419
C  -0.6917972174  3.4982914592  0.4254100398
C  -3.5029478133 -1.6886630404  0.3323150895
C   2.4107001848 -1.0063768977 -0.2106421564
C   2.8655449469 -2.2974055263 -0.3298984779
C   4.2744840996 -2.3832218357 -0.4292735639
C   4.9109771194 -1.1624320591 -0.3886645662
S   3.7370754647  0.1117981423 -0.2263413928
C   6.3394002563 -0.8548380139 -0.4605289277
C   7.3409235053 -1.8813364680 -0.6119183428
C   8.7426237943 -1.5225930383 -0.6837774736
C   9.1534815428 -0.1623531701 -0.6050381599
C   8.1810824907  0.7802166948 -0.4594780027
C   6.8022328750  0.4455391113 -0.3879085838
N   7.1567296633 -3.1967600548 -0.7018676139
S   8.6145308381 -3.8820886352 -0.8604654668
N   9.5575364276 -2.5678328592 -0.8246701536
H   1.3892349673  1.6174496851  0.0823107731
H  -5.6586488889  0.2456746113  0.6303211070
H  -6.2851541074  2.7650342259  0.8412845060
H  -0.1158414236  3.6436169867 -0.4966710630
H  -1.3670829748  4.3492679782  0.5434004329
H   0.0253528771  3.5141702810  1.2560551357
H  -3.1222701862 -2.3469707033  1.1210655995
H  -4.5775361425 -1.5747952934  0.4993234573
H  -3.3688384588 -2.2011151633 -0.6264957520
H   2.2111384839 -3.1612040298 -0.3437237607
H   4.8415194383 -3.3017170230 -0.5283956045
H   10.2089353084  0.0852157737 -0.6613056820
H   8.4523432350  1.8301833843 -0.3945618207
H   6.0904712389  1.2568713452 -0.2709626478
42
Scanning combination 14/73: [424.8250]  Energy = -2548.7148389870
C  -0.7343044279  0.9856338986  0.2091545134
C  -1.4316878950 -0.2528294792  0.1788281082
C  -2.8082501442 -0.3540418207  0.3561819100
C  -3.5145847391  0.8534379374  0.5088991292
C  -2.8151896747  2.0936863759  0.5171918098
C  -1.4336830162  2.1925703691  0.3848017390
C   0.6780411372  0.7996454835  0.0647544563
C   1.0552461791 -0.5004409228 -0.0783213543
S  -0.3213689020 -1.5831633587 -0.0587379871
C  -4.9380909576  1.0561971855  0.6394666830
C  -5.2876786143  2.3548715586  0.7430675425
S  -3.9280901388  3.4254151751  0.6919081673
C  -0.6941096666  3.5002997586  0.4240264389
C  -3.5040786812 -1.6875953628  0.3407891109
C   2.4101591397 -1.0045350934 -0.2112513925
C   2.8642200277 -2.2961536837 -0.3283534980
C   4.2730229445 -2.3820323424 -0.4294430837
C   4.9100968865 -1.1615472469 -0.3899212427
S   3.7369231913  0.1130235963 -0.2252631608
C   6.3388109595 -0.8549764265 -0.4620855817
C   7.3399344139 -1.8821095894 -0.6127096806
C   8.7419442604 -1.5241798537 -0.6837678960
C   9.1537412972 -0.1642731467 -0.6048112545
C   8.1817695563  0.7787824370 -0.4596765013
C   6.8026378564  0.4449956166 -0.3889411138
N   7.1551789816 -3.1974605155 -0.7025545635
S   8.6127177340 -3.8835522548 -0.8604948722
N   9.5563781148 -2.5697968248 -0.8243046692
H   1.3886572068  1.6202346068  0.0800366059
H  -5.6590097401  0.2456453814  0.6394734285
H  -6.2860798711  2.7630823117  0.8410409649
H  -0.1173803154  3.6476849989 -0.4974508629
H  -1.3689706566  4.3517141476  0.5433686672
H   0.0223701567  3.5137602474  1.2548872670
H  -3.1925496774 -2.3225900352  1.1776302275
H  -4.5876021124 -1.5611123433  0.4095029007
H  -3.2947846495 -2.2348269741 -0.5831012317
H   2.2095912623 -3.1598100692 -0.3436906466
H   4.8395440160 -3.3005088134 -0.5307471987
H   10.2093994421  0.0826119628 -0.6607693942
H   8.4537000049  1.8285278548 -0.3945640637
H   6.0914283603  1.2568125654 -0.2719755419
42
Scanning combination 15/73: [429.8250]  Energy = -2548.7148630077
C  -0.7357943239  0.9866588683  0.2114964199
C  -1.4331637866 -0.2517851203  0.1852179264
C  -2.8108244641 -0.3521660988  0.3533881040
C  -3.5160849035  0.8550339462  0.5113766488
C  -2.8164136201  2.0954563298  0.5190016630
C  -1.4347364429  2.1937095311  0.3858449362
C   0.6764057971  0.8007755010  0.0644705672
C   1.0543620571 -0.4993860144 -0.0759738897
S  -0.3227595118 -1.5823061439 -0.0524404249
C  -4.9392001788  1.0576210215  0.6445700548
C  -5.2889950707  2.3552508846  0.7458832026
S  -3.9295314318  3.4264348920  0.6996544720
C  -0.6949668354  3.5015098763  0.4248219081
C  -3.5065771106 -1.6863472480  0.3371012535
C   2.4096162406 -1.0017677044 -0.2165341702
C   2.8635324650 -2.2933912862 -0.3339235538
C   4.2724696868 -2.3810907885 -0.4314886959
C   4.9102522086 -1.1610894411 -0.3893994165
S   3.7375980697  0.1147042743 -0.2284503745
C   6.3389203560 -0.8552238489 -0.4615180085
C   7.3389392838 -1.8830458035 -0.6133074583
C   8.7411283458 -1.5262303274 -0.6840675945
C   9.1536473571 -0.1664938213 -0.6049508132
C   8.1825128588  0.7774639840 -0.4602952203
C   6.8031821994  0.4447052376 -0.3895453755
N   7.1528868873 -3.1981901285 -0.7038672735
S   8.6098995883 -3.8856027480 -0.8606677363
N   9.5547200335 -2.5726748791 -0.8238819159
H   1.3861143261  1.6221890935  0.0711112599
H  -5.6576143791  0.2441961766  0.6597316257
H  -6.2873423951  2.7633986841  0.8510129774
H  -0.1210478417  3.6474833207 -0.4984944446
H  -1.3719842764  4.3510066085  0.5439630532
H   0.0234549540  3.5197403958  1.2543459775
H  -3.2595278415 -2.2726797962  1.2283005604
H  -4.5923161540 -1.5596666103  0.3093450125
H  -3.2186061658 -2.2854943729 -0.5319762479
H   2.2081008502 -3.1562864973 -0.3434549370
H   4.8382488627 -3.3004415981 -0.5302855375
H   10.2095358544  0.0795685203 -0.6598328899
H   8.4551175745  1.8270653052 -0.3947537310
H   6.0922938038  1.2569402860 -0.2736545754
42
Scanning combination 16/73: [434.8250]  Energy = -2548.7149994427
C  -0.7360576288  0.9881008249  0.2233068973
C  -1.4330385417 -0.2500702897  0.1995087605
C  -2.8146436476 -0.3486508655  0.3357459676
C  -3.5205019544  0.8575619560  0.4954871139
C  -2.8201123854  2.0972716540  0.5113505434
C  -1.4372253999  2.1958235763  0.3867808471
C   0.6751368256  0.8036573351  0.0659828446
C   1.0538621979 -0.4965409115 -0.0714854312
S  -0.3199017488 -1.5825557136 -0.0187550613
C  -4.9418474911  1.0577239144  0.6507765258
C  -5.2902427011  2.3555781009  0.7664879016
S  -3.9316111075  3.4275167188  0.7063138170
C  -0.6994225319  3.5045247199  0.4215449666
C  -3.5034246565 -1.6849981925  0.3303508195
C   2.4086220616 -0.9990655813 -0.2162204313
C   2.8614575892 -2.2906152439 -0.3339725302
C   4.2699015106 -2.3789446190 -0.4341102089
C   4.9083762795 -1.1590751775 -0.3942123159
S   3.7365442174  0.1174275981 -0.2332574347
C   6.3375533446 -0.8552106973 -0.4644939333
C   7.3363466920 -1.8845019003 -0.6146445975
C   8.7391644882 -1.5298583759 -0.6841656092
C   9.1536746965 -0.1707454244 -0.6047227705
C   8.1838831505  0.7744802414 -0.4608025057
C   6.8038642068  0.4440149605 -0.3913539612
N   7.1485602730 -3.1994454156 -0.7050665337
S   8.6047061455 -3.8889995044 -0.8606656077
N   9.5513617002 -2.5774419357 -0.8232790918
H   1.3833202513  1.6265016687  0.0596443970
H  -5.6597471114  0.2448800067  0.6783056553
H  -6.2874958639  2.7631572475  0.8778085447
H  -0.1253653707  3.6533421372 -0.5017138293
H  -1.3758081142  4.3542837507  0.5430232857
H   0.0193103153  3.5200832496  1.2503189051
H  -3.3458508832 -2.2119714327  1.2794481526
H  -4.5814450492 -1.5839472797  0.1791778829
H  -3.1130833927 -2.3268260368 -0.4649552414
H   2.2049058811 -3.1531732421 -0.3469503374
H   4.8353458601 -3.2983460285 -0.5329432998
H   10.2101207592  0.0735316937 -0.6585004914
H   8.4581147038  1.8236949668 -0.3949168354
H   6.0942584794  1.2573546693 -0.2757536302
42
Scanning combination 17/73: [439.8250]  Energy = -2548.7148093933
C  -0.7377378893  0.9901541519  0.2119961272
C  -1.4350126206 -0.2482504267  0.1859644584
C  -2.8122534080 -0.3491462064  0.3529238305
C  -3.5197782338  0.8572476307  0.5065345141
C  -2.8205904873  2.0979156910  0.5135449699
C  -1.4383371850  2.1968776180  0.3838358147
C   0.6745413560  0.8045582081  0.0650177608
C   1.0537110269 -0.4963281527 -0.0661458227
S  -0.3203997415 -1.5818118766 -0.0189527859
C  -4.9417091357  1.0576162364  0.6536517753
C  -5.2911166757  2.3554612317  0.7658869463
S  -3.9331176603  3.4278193473  0.7047874519
C  -0.6998179435  3.5051493153  0.4222154280
C  -3.5045019672 -1.6841115765  0.3314348662
C   2.4081810941 -0.9987443410 -0.2132496707
C   2.8609630862 -2.2904374849 -0.3334377341
C   4.2694542484 -2.3784663478 -0.4345622478
C   4.9078971997 -1.1587200002 -0.3950702881
S   3.7359792023  0.1177921082 -0.2337128975
C   6.3372931824 -0.8551187464 -0.4654818490
C   7.3360716830 -1.8847539583 -0.6148746398
C   8.7390350854 -1.5303646454 -0.6839207103
C   9.1539469187 -0.1714500741 -0.6042660004
C   8.1841043904  0.7740959066 -0.4606195167
C   6.8040266619  0.4437455136 -0.3918786254
N   7.1481286905 -3.1996392192 -0.7050555486
S   8.6041304015 -3.8894378996 -0.8609263055
N   9.5510461558 -2.5780564777 -0.8232884292
H   1.3831996513  1.6267414973  0.0605967607
H  -5.6597304545  0.2445088200  0.6756773353
H  -6.2879023876  2.7626125481  0.8821967726
H  -0.1273635362  3.6526211105 -0.5018638019
H  -1.3762275713  4.3550524835  0.5427886581
H   0.0201634996  3.5214182351  1.2503539287
H  -3.3991584595 -2.1963824577  1.2961269535
H  -4.5770522683 -1.5684293860  0.1488220483
H  -3.0991670318 -2.3401299216 -0.4438997605
H   2.2046042203 -3.1528754938 -0.3473568548
H   4.8349094939 -3.2979003040 -0.5337978020
H   10.2102630841  0.0728420950 -0.6585934194
H   8.4585684526  1.8231553860 -0.3951654730
H   6.0945657219  1.2572420394 -0.2760181132
42
Scanning combination 18/73: [444.8250]  Energy = -2548.7149168009
C  -0.7366602556  0.9902296352  0.2229071317
C  -1.4319495341 -0.2495013473  0.2024199964
C  -2.8134836037 -0.3470197252  0.3381617898
C  -3.5193492308  0.8584282373  0.5038673830
C  -2.8208822247  2.0983368434  0.5160147878
C  -1.4385682167  2.1973856057  0.3862466602
C   0.6744363679  0.8079984982  0.0633846164
C   1.0555111075 -0.4912768198 -0.0719858537
S  -0.3156673911 -1.5801580227 -0.0211147382
C  -4.9396465996  1.0537983867  0.6649496731
C  -5.2906841770  2.3503627011  0.7807726421
S  -3.9348707686  3.4257241191  0.7150569710
C  -0.7025831680  3.5071650312  0.4183616936
C  -3.5159721506 -1.6768712840  0.3296354756
C   2.4098107095 -0.9936728581 -0.2154186931
C   2.8602778890 -2.2864189609 -0.3335990275
C   4.2683953609 -2.3765702268 -0.4356695162
C   4.9082572092 -1.1577261521 -0.3948421990
S   3.7388726666  0.1205934148 -0.2301797873
C   6.3374413952 -0.8553615502 -0.4667014903
C   7.3347094804 -1.8861072689 -0.6164220814
C   8.7379971782 -1.5333609034 -0.6843180096
C   9.1542193026 -0.1748277147 -0.6043355842
C   8.1854630594  0.7719773088 -0.4616878293
C   6.8050748023  0.4432492927 -0.3937716512
N   7.1449988682 -3.2006982130 -0.7072716108
S   8.6002966663 -3.8923180017 -0.8614591685
N   9.5488118737 -2.5821220736 -0.8227460910
H   1.3803401860  1.6326517476  0.0534343247
H  -5.6533611487  0.2368044292  0.6964571606
H  -6.2885316268  2.7562901187  0.8948042537
H  -0.1321948466  3.6559459769 -0.5068373820
H  -1.3801915021  4.3559164282  0.5399731353
H   0.0187122179  3.5257203231  1.2449016875
H  -3.5185635884 -2.1349422249  1.3267274220
H  -4.5588391285 -1.5762060780  0.0140648796
H  -3.0212960161 -2.3806593926 -0.3455897443
H   2.2014961990 -3.1468252033 -0.3445027209
H   4.8323934115 -3.2966016346 -0.5380058022
H   10.2108740418  0.0681677734 -0.6573306114
H   8.4610434819  1.8207396581 -0.3957029485
H   6.0962413362  1.2574604273 -0.2789357495
42
Scanning combination 19/73: [449.8250]  Energy = -2548.7148504013
C  -0.7387465257  0.9921512977  0.2113968933
C  -1.4343679756 -0.2481088379  0.1879941675
C  -2.8122075747 -0.3493750032  0.3527797433
C  -3.5186307977  0.8579870709  0.5137180991
C  -2.8217834954  2.0985898310  0.5199910684
C  -1.4400580801  2.1983254689  0.3838294143
C   0.6735003078  0.8093983509  0.0621989799
C   1.0555615697 -0.4906230621 -0.0668429432
S  -0.3156582236 -1.5793584019 -0.0214906727
C  -4.9398960262  1.0536705839  0.6680099294
C  -5.2923253013  2.3509181333  0.7810937726
S  -3.9366855525  3.4264551688  0.7131894223
C  -0.7030738889  3.5080336879  0.4182891146
C  -3.5183123081 -1.6764677290  0.3339968633
C   2.4096099592 -0.9934708300 -0.2118159973
C   2.8598786108 -2.2859306328 -0.3331763370
C   4.2679617932 -2.3760186272 -0.4365839020
C   4.9079995775 -1.1571441817 -0.3962568449
S   3.7384481245  0.1211378837 -0.2318635583
C   6.3374763305 -0.8553692775 -0.4671920730
C   7.3347030975 -1.8863804344 -0.6163694994
C   8.7381376388 -1.5339456459 -0.6841727756
C   9.1547446710 -0.1755452315 -0.6041998953
C   8.1861317679  0.7714210649 -0.4617067581
C   6.8056121535  0.4430159627 -0.3939668681
N   7.1448377735 -3.2009508869 -0.7072843608
S   8.6000002621 -3.8928136027 -0.8618285487
N   9.5487662282 -2.5828039298 -0.8228820529
H   1.3805166598  1.6328662431  0.0557920532
H  -5.6528400508  0.2367585118  0.6944138781
H  -6.2895925547  2.7557731291  0.9006154148
H  -0.1333625047  3.6554724718 -0.5074953358
H  -1.3805998017  4.3568522292  0.5402062383
H   0.0191039860  3.5268136346  1.2444443315
H  -3.5777989615 -2.1149228684  1.3385236605
H  -4.5462703094 -1.5613589582 -0.0243473136
H  -3.0109314211 -2.3952437905 -0.3171234975
H   2.2010117874 -3.1465190362 -0.3461571372
H   4.8320651637 -3.2960522083 -0.5379493310
H   10.2114562112  0.0672916666 -0.6573098550
H   8.4619199303  1.8201268571 -0.3961281558
H   6.0969705826  1.2574044365 -0.2792931117
42
Scanning combination 20/73: [454.8250]  Energy = -2548.7148092443
C  -0.7396292029  0.9928750887  0.2056087835
C  -1.4342352781 -0.2475108760  0.1857991003
C  -2.8109640518 -0.3501580900  0.3612076957
C  -3.5175559540  0.8579188512  0.5250813130
C  -2.8218738664  2.0983257413  0.5250488732
C  -1.4406985731  2.1993924077  0.3810307046
C   0.6729787127  0.8111059610  0.0577524979
C   1.0557752178 -0.4886374521 -0.0716137579
S  -0.3153708762 -1.5776467909 -0.0329181491
C  -4.9388405503  1.0523136384  0.6770514907
C  -5.2922106447  2.3497274002  0.7861075006
S  -3.9378940261  3.4264220138  0.7145013047
C  -0.7042317369  3.5090066277  0.4161055139
C  -3.5260964026 -1.6733204860  0.3382372297
C   2.4099874441 -0.9921777833 -0.2112420810
C   2.8596464717 -2.2848424259 -0.3321461302
C   4.2675787862 -2.3752597692 -0.4365540573
C   4.9079865336 -1.1565711681 -0.3965666975
S   3.7389972237  0.1220183407 -0.2306473599
C   6.3375554834 -0.8553622628 -0.4680044599
C   7.3344693980 -1.8867530164 -0.6168778041
C   8.7380687222 -1.5348334014 -0.6843292829
C   9.1552001411 -0.1766053936 -0.6042167281
C   8.1868819935  0.7706958715 -0.4620039347
C   6.8062152096  0.4428232969 -0.3946563680
N   7.1442052977 -3.2012761898 -0.7076873319
S   8.5991718414 -3.8936358076 -0.8619308755
N   9.5483722086 -2.5839490582 -0.8228724420
H   1.3801090409  1.6347499384  0.0578028839
H  -5.6531168638  0.2359156692  0.6984576415
H  -6.2902314273  2.7542266447  0.9034628629
H  -0.1339681955  3.6579303951 -0.5090194333
H  -1.3815272937  4.3578355951  0.5396949234
H   0.0172938823  3.5259707936  1.2427938030
H  -3.6626147032 -2.0863768203  1.3457953309
H  -4.5239221778 -1.5517956385 -0.0952423800
H  -2.9845211763 -2.4150382744 -0.2543213963
H   2.2003500221 -3.1450951363 -0.3461596579
H   4.8311874871 -3.2953970446 -0.5392520050
H   10.2120186123  0.0657962310 -0.6570836200
H   8.4630828796  1.8192826774 -0.3963316722
H   6.0979387112  1.2575045486 -0.2799202097
42
Scanning combination 21/73: [459.8250]  Energy = -2548.7150485271
C  -0.7399781158  0.9914422598  0.2214268610
C  -1.4342523072 -0.2501524655  0.2040872055
C  -2.8149923302 -0.3480474338  0.3463870686
C  -3.5194784966  0.8595946000  0.5154886624
C  -2.8223856104  2.0994297455  0.5278210336
C  -1.4412087928  2.1992805217  0.3869077286
C   0.6710849589  0.8128593647  0.0562422678
C   1.0554519754 -0.4856727257 -0.0792988223
S  -0.3143098438 -1.5768316081 -0.0376216459
C  -4.9381036000  1.0520741049  0.6859327956
C  -5.2925290041  2.3491064680  0.7995449862
S  -3.9386895833  3.4265373657  0.7244779762
C  -0.7056013276  3.5100455918  0.4142012317
C  -3.5372219156 -1.6679431213  0.3270006063
C   2.4101087096 -0.9884378242 -0.2172084489
C   2.8590090715 -2.2817352639 -0.3350391918
C   4.2670426707 -2.3734848117 -0.4371665818
C   4.9083350321 -1.1553287165 -0.3965057012
S   3.7402365626  0.1244076239 -0.2313932662
C   6.3381387026 -0.8553843150 -0.4681294340
C   7.3341303875 -1.8876245897 -0.6173351051
C   8.7380447694 -1.5369131352 -0.6845390820
C   9.1562851401 -0.1790204363 -0.6044131041
C   8.1887402369  0.7691423631 -0.4626916049
C   6.8077934856  0.4424581677 -0.3954545926
N   7.1427177883 -3.2019493870 -0.7086554380
S   8.5971222272 -3.8955731459 -0.8625370057
N   9.5474663620 -2.5867326076 -0.8229353605
H   1.3764924149  1.6376924759  0.0534922283
H  -5.6478092477  0.2327962527  0.7193286601
H  -6.2912097136  2.7531221337  0.9132860396
H  -0.1377897258  3.6578876140 -0.5129926536
H  -1.3840599987  4.3583344980  0.5375664827
H   0.0177993207  3.5304033673  1.2391618131
H  -3.7740415973 -2.0120714563  1.3414267738
H  -4.4879676874 -1.5829785498 -0.2104944637
H  -2.9350231866 -2.4439728116 -0.1542830865
H   2.1981079314 -3.1407072589 -0.3467460092
H   4.8298425396 -3.2941934961 -0.5392749625
H   10.2133342929  0.0625094329 -0.6568086804
H   8.4657702693  1.8175144549 -0.3971651291
H   6.1000771870  1.2577299337 -0.2815565067
42
Scanning combination 22/73: [464.8250]  Energy = -2548.7149667198
C  -0.7416777786  0.9923641063  0.2127229845
C  -1.4375652798 -0.2481971988  0.1865184027
C  -2.8144187178 -0.3481902911  0.3609101834
C  -3.5194887843  0.8594896957  0.5260814736
C  -2.8232499939  2.0996994994  0.5278865979
C  -1.4417680259  2.1993279824  0.3863709283
C   0.6708579465  0.8126994206  0.0590941053
C   1.0551483485 -0.4857146733 -0.0758913894
S  -0.3154599587 -1.5764546956 -0.0369401298
C  -4.9393694427  1.0521296544  0.6861561047
C  -5.2930953519  2.3493262544  0.7985558115
S  -3.9392110922  3.4271406766  0.7247145708
C  -0.7059028684  3.5098566746  0.4148832540
C  -3.5397331927 -1.6658934441  0.3302581385
C   2.4099025731 -0.9881994523 -0.2169967753
C   2.8587948534 -2.2813136051 -0.3356345511
C   4.2668448340 -2.3732499293 -0.4375208929
C   4.9082456834 -1.1551376614 -0.3969841516
S   3.7401317338  0.1247400160 -0.2326895976
C   6.3381425785 -0.8553627633 -0.4683372865
C   7.3340377303 -1.8877337124 -0.6173832410
C   8.7380151214 -1.5372412332 -0.6845469128
C   9.1564494829 -0.1794123689 -0.6043997166
C   8.1890431384  0.7688970243 -0.4627440832
C   6.8080180560  0.4424130747 -0.3955951671
N   7.1424458201 -3.2020376438 -0.7086508760
S   8.5967364716 -3.8958792676 -0.8625984383
N   9.5472799332 -2.5871800636 -0.8229781796
H   1.3761516667  1.6379813315  0.0538129195
H  -5.6485919713  0.2315050814  0.7187827209
H  -6.2911483254  2.7530401918  0.9177150916
H  -0.1391761091  3.6570533096 -0.5128738733
H  -1.3841833803  4.3581769678  0.5372685684
H   0.0184251510  3.5312631130  1.2389306785
H  -3.8284415757 -1.9866677397  1.3379044914
H  -4.4706637160 -1.5744430675 -0.2419720537
H  -2.9357435406 -2.4536921289 -0.1243085388
H   2.1979600046 -3.1403576846 -0.3475385536
H   4.8297497596 -3.2939501058 -0.5391462479
H   10.2135437722  0.0619279498 -0.6568138575
H   8.4662541357  1.8172381114 -0.3972870834
H   6.1004608482  1.2578208765 -0.2816700889
42
Scanning combination 23/73: [469.8250]  Energy = -2548.7151897901
C  -0.7422009699  0.9928449807  0.2189578612
C  -1.4356983371 -0.2492895291  0.2036630618
C  -2.8160475184 -0.3454035188  0.3479594584
C  -3.5204440508  0.8617670559  0.5248474872
C  -2.8240188053  2.1013145019  0.5328735838
C  -1.4431734668  2.2002205605  0.3864011011
C   0.6692666539  0.8148583869  0.0532408184
C   1.0540787604 -0.4833342107 -0.0840545865
S  -0.3155752214 -1.5750215374 -0.0464873479
C  -4.9380416693  1.0515829120  0.6990021823
C  -5.2936986207  2.3484354500  0.8132589057
S  -3.9409980574  3.4278087119  0.7318135291
C  -0.7079123582  3.5111006679  0.4115542255
C  -3.5479792528 -1.6594312000  0.3247216011
C   2.4090191280 -0.9860547783 -0.2187547260
C   2.8574647761 -2.2797761240 -0.3359568368
C   4.2655290359 -2.3716666307 -0.4382063984
C   4.9073278547 -1.1538419365 -0.3984401528
S   3.7395608828  0.1264295643 -0.2337823553
C   6.3376209448 -0.8551011152 -0.4696147434
C   7.3329079537 -1.8882785298 -0.6180394691
C   8.7372480375 -1.5389943991 -0.6847933242
C   9.1569094448 -0.1815568530 -0.6045399480
C   8.1902461430  0.7674133882 -0.4631716397
C   6.8088295255  0.4422345671 -0.3965143987
N   7.1404008808 -3.2024697576 -0.7090256147
S   8.5941946930 -3.8974858421 -0.8625918773
N   9.5457397816 -2.5895377674 -0.8229499002
H   1.3745972188  1.6397175581  0.0551438004
H  -5.6447398180  0.2286275977  0.7316622686
H  -6.2924031088  2.7512735279  0.9280005277
H  -0.1407754181  3.6595325000 -0.5159713983
H  -1.3858841606  4.3594511890  0.5363107200
H   0.0159040737  3.5304832768  1.2359331163
H  -3.9391543675 -1.9195638581  1.3166863292
H  -4.4105914037 -1.6040494610 -0.3488098848
H  -2.9005126447 -2.4755995924 -0.0093294960
H   2.1961679900 -3.1383205786 -0.3493888357
H   4.8282291096 -3.2924824828 -0.5401798803
H   10.2142872565  0.0587979670 -0.6566977146
H   8.4684286371  1.8155278723 -0.3976420663
H   6.1021227873  1.2583242347 -0.2825224570
42
Scanning combination 24/73: [474.8250]  Energy = -2548.7151161188
C  -0.7440886899  0.9931951082  0.2115432180
C  -1.4402005713 -0.2474082421  0.1846557846
C  -2.8163284873 -0.3462148659  0.3652170033
C  -3.5206837963  0.8617231330  0.5358658471
C  -2.8246385493  2.1012901912  0.5328835842
C  -1.4437612963  2.2003642488  0.3864846454
C   0.6686857366  0.8139718417  0.0575424309
C   1.0532781615 -0.4832237840 -0.0809298205
S  -0.3175844188 -1.5744580043 -0.0468929557
C  -4.9395571131  1.0516927299  0.6991932409
C  -5.2943866548  2.3492328831  0.8108557326
S  -3.9411186442  3.4281933833  0.7328617826
C  -0.7078012367  3.5109173590  0.4128968312
C  -3.5519307358 -1.6573311997  0.3262431390
C   2.4088002179 -0.9860503535 -0.2206496103
C   2.8574923101 -2.2787946653 -0.3375999534
C   4.2654122335 -2.3717104798 -0.4384612141
C   4.9074410759 -1.1536597380 -0.3981962394
S   3.7395621546  0.1266896293 -0.2347015993
C   6.3376873690 -0.8550292954 -0.4694387801
C   7.3327824550 -1.8884212716 -0.6181230674
C   8.7371551270 -1.5392600317 -0.6848688683
C   9.1569775950 -0.1819740869 -0.6046234830
C   8.1903011085  0.7674167905 -0.4632721867
C   6.8088941430  0.4421239263 -0.3966008629
N   7.1400631397 -3.2025508483 -0.7091947256
S   8.5937329494 -3.8977990169 -0.8626021543
N   9.5454878314 -2.5899750096 -0.8229149873
H   1.3737152404  1.6399513317  0.0540336156
H  -5.6469169777  0.2291937474  0.7318971218
H  -6.2920450010  2.7519873596  0.9322319542
H  -0.1424315989  3.6580793405 -0.5156806095
H  -1.3860713422  4.3590543488  0.5357994756
H   0.0175742356  3.5323990604  1.2360126623
H  -3.9888581391 -1.8961361346  1.3040390353
H  -4.3888504051 -1.6010502931 -0.3812362709
H  -2.9065532369 -2.4837907514  0.0248328059
H   2.1959474928 -3.1377919825 -0.3493658092
H   4.8281282602 -3.2924724394 -0.5399265088
H   10.2142600287  0.0583564944 -0.6566557908
H   8.4686393016  1.8153293064 -0.3976814285
H   6.1022469764  1.2583972991 -0.2827290623
42
Scanning combination 25/73: [479.8250]  Energy = -2548.7153034860
C  -0.7455502025  0.9937645297  0.2227040437
C  -1.4404262348 -0.2476625367  0.2008891101
C  -2.8216946670 -0.3411548083  0.3499284452
C  -3.5234850894  0.8654000551  0.5299762650
C  -2.8272694909  2.1045987620  0.5358211934
C  -1.4452314842  2.2010226429  0.3897629326
C   0.6656914191  0.8141629494  0.0570249642
C   1.0499987172 -0.4834572925 -0.0854610551
S  -0.3208285283 -1.5744383519 -0.0464662272
C  -4.9419618159  1.0551441292  0.7062935019
C  -5.2954254843  2.3524239105  0.8233285003
S  -3.9422757302  3.4316255133  0.7421286031
C  -0.7099273264  3.5113237263  0.4114162900
C  -3.5603384095 -1.6512752935  0.3225129673
C   2.4057508918 -0.9847385351 -0.2233859175
C   2.8548663094 -2.2778537512 -0.3387161677
C   4.2630204097 -2.3698916260 -0.4394209203
C   4.9050141521 -1.1521410059 -0.4002386044
S   3.7365783370  0.1282147180 -0.2372173667
C   6.3360487145 -0.8547640323 -0.4707058707
C   7.3307664748 -1.8889548337 -0.6185168586
C   8.7355798021 -1.5410586942 -0.6848391995
C   9.1566723815 -0.1841179770 -0.6045515966
C   8.1907818712  0.7657408164 -0.4635392100
C   6.8089031512  0.4419006297 -0.3973877650
N   7.1372505297 -3.2029890529 -0.7094433674
S   8.5904312474 -3.8993865332 -0.8627510208
N   9.5431858286 -2.5923220490 -0.8228571127
H   1.3695090640  1.6404541001  0.0534634732
H  -5.6496451958  0.2324398756  0.7367751918
H  -6.2926158163  2.7561967585  0.9464374315
H  -0.1460654298  3.6571121421 -0.5182015425
H  -1.3877557831  4.3596758580  0.5346582714
H   0.0162289334  3.5329153523  1.2334781492
H  -4.0933284063 -1.8217765141  1.2659237828
H  -4.3185948027 -1.6492752367 -0.4697432767
H  -2.8883202333 -2.4964923592  0.1542693737
H   2.1934123965 -3.1363511019 -0.3520723762
H   4.8257469589 -3.2907487208 -0.5407036453
H   10.2142848722  0.0552124292 -0.6566301956
H   8.4700857500  1.8135444974 -0.3981633560
H   6.1031506689  1.2588481810 -0.2835872294
42
Scanning combination 26/73: [484.8250]  Energy = -2548.7151347154
C  -0.7478533269  0.9936346231  0.2143298079
C  -1.4450346753 -0.2464489972  0.1851159834
C  -2.8210174240 -0.3434776853  0.3689940206
C  -3.5243080991  0.8651204482  0.5380257509
C  -2.8274986972  2.1039113858  0.5372375191
C  -1.4461148601  2.2013761422  0.3896537854
C   0.6648085980  0.8146721915  0.0578370519
C   1.0495787820 -0.4827866410 -0.0821800617
S  -0.3221903000 -1.5734996031 -0.0487475355
C  -4.9427581990  1.0562524399  0.7062788600
C  -5.2957961978  2.3527422251  0.8223802421
S  -3.9421769114  3.4312917381  0.7420332277
C  -0.7098181886  3.5115534458  0.4120080036
C  -3.5643835262 -1.6503042803  0.3222645728
C   2.4053854308 -0.9846236801 -0.2231743543
C   2.8546213642 -2.2775957589 -0.3399859291
C   4.2628814227 -2.3699579468 -0.4400739281
C   4.9049898863 -1.1521763452 -0.4000991410
S   3.7365104637  0.1282205514 -0.2381493321
C   6.3359539337 -0.8547536429 -0.4704680453
C   7.3305080335 -1.8890022549 -0.6185887822
C   8.7353385010 -1.5412464796 -0.6849463777
C   9.1564793188 -0.1843264148 -0.6046559146
C   8.1906945607  0.7656832113 -0.4636661997
C   6.8087945375  0.4419356142 -0.3974224636
N   7.1368255295 -3.2030177028 -0.7096113698
S   8.5899385512 -3.8995829723 -0.8626873026
N   9.5428216360 -2.5926074098 -0.8227913551
H   1.3698744647  1.6403245356  0.0540025824
H  -5.6504368403  0.2334642222  0.7356011255
H  -6.2930850599  2.7569140930  0.9487941732
H  -0.1463742421  3.6566030795 -0.5182368926
H  -1.3877598270  4.3600399166  0.5348720664
H   0.0171991920  3.5341872192  1.2336033114
H  -4.1401810718 -1.7977255042  1.2448038393
H  -4.2965411046 -1.6458422847 -0.4972521904
H  -2.8969379380 -2.5016167151  0.1789165941
H   2.1933058506 -3.1363890724 -0.3521138884
H   4.8257602654 -3.2908480988 -0.5404585188
H   10.2141294644  0.0548911875 -0.6565345825
H   8.4700856662  1.8134403193 -0.3981261976
H   6.1030793068  1.2589367601 -0.2837437708
42
Scanning combination 27/73: [489.8250]  Energy = -2548.7152750844
C  -0.7496495105  0.9974182337  0.2238717024
C  -1.4476308236 -0.2423019756  0.1982781777
C  -2.8270211881 -0.3360538680  0.3571678133
C  -3.5282652533  0.8723071316  0.5321891174
C  -2.8288921784  2.1100636067  0.5409541702
C  -1.4476977526  2.2060193647  0.3941152168
C   0.6621826603  0.8176320778  0.0600562592
C   1.0451945201 -0.4805117415 -0.0839884042
S  -0.3274910563 -1.5695352303 -0.0478949126
C  -4.9454531632  1.0644504875  0.7085632178
C  -5.2965073031  2.3614062092  0.8338629437
S  -3.9409605807  3.4379610181  0.7578708991
C  -0.7104946199  3.5155761645  0.4118304708
C  -3.5654713238 -1.6465735149  0.3300382121
C   2.4003209713 -0.9825743214 -0.2283183399
C   2.8494953669 -2.2759639874 -0.3440097244
C   4.2579586655 -2.3687186294 -0.4424663328
C   4.9005423334 -1.1512150001 -0.4019572529
S   3.7322702954  0.1295707874 -0.2416735437
C   6.3318313247 -0.8546429647 -0.4715979544
C   7.3253605116 -1.8898897627 -0.6194567720
C   8.7306127257 -1.5438602957 -0.6851500637
C   9.1532382944 -0.1874393372 -0.6047399571
C   8.1886101470  0.7636025221 -0.4642481050
C   6.8061720090  0.4416499830 -0.3985649251
N   7.1301403118 -3.2036797526 -0.7105339589
S   8.5824881911 -3.9020535467 -0.8625155810
N   9.5369093563 -2.5962356268 -0.8222684781
H   1.3681870678  1.6418489103  0.0525248566
H  -5.6541071775  0.2427040904  0.7343324963
H  -6.2929030751  2.7645023308  0.9659532196
H  -0.1495353393  3.6581576381 -0.5201096163
H  -1.3873540243  4.3647639595  0.5340436237
H   0.0189039140  3.5400136728  1.2310801474
H  -4.2281146578 -1.7355880822  1.1993828142
H  -4.1934998103 -1.7262994495 -0.5664905193
H  -2.8799588363 -2.4966174385  0.3334284621
H   2.1890313810 -3.1352819773 -0.3546727039
H   4.8211203005 -3.2896041186 -0.5419858054
H   10.2113194461  0.0503407513 -0.6559031525
H   8.4693487848  1.8110638180 -0.3983676724
H   6.1015427931  1.2596222270 -0.2853568597
42
Scanning combination 28/73: [494.8250]  Energy = -2548.7150903994
C  -0.7509092456  0.9990160764  0.2137935354
C  -1.4489513592 -0.2402111086  0.1841314657
C  -2.8245131206 -0.3372367991  0.3703587567
C  -3.5276199101  0.8720429083  0.5407599691
C  -2.8292929997  2.1102787680  0.5444233756
C  -1.4484880629  2.2071605673  0.3921567403
C   0.6613280146  0.8177589031  0.0584432063
C   1.0446021114 -0.4805218410 -0.0807413723
S  -0.3286149913 -1.5691759675 -0.0493329851
C  -4.9460892554  1.0646310560  0.7098031917
C  -5.2973556707  2.3619285655  0.8334284052
S  -3.9420786393  3.4384186344  0.7568224816
C  -0.7108335401  3.5163443319  0.4119876136
C  -3.5634878833 -1.6468816437  0.3259413752
C   2.3998873830 -0.9825779281 -0.2246584949
C   2.8488839829 -2.2756056788 -0.3432354962
C   4.2571209332 -2.3681544036 -0.4435486056
C   4.8996711818 -1.1506345113 -0.4036683725
S   3.7312936499  0.1301486666 -0.2431232935
C   6.3311624473 -0.8546782747 -0.4721887152
C   7.3246019440 -1.8901866460 -0.6194234051
C   8.7299475812 -1.5444098772 -0.6850045109
C   9.1527863393 -0.1879897250 -0.6046083994
C   8.1882331809  0.7632007746 -0.4641667234
C   6.8057738057  0.4414401422 -0.3986727527
N   7.1292391020 -3.2039806217 -0.7104921086
S   8.5814834342 -3.9025517635 -0.8626663157
N   9.5361032167 -2.5968632299 -0.8222962735
H   1.3669916727  1.6423957750  0.0556339277
H  -5.6571508926  0.2448464617  0.7286246086
H  -6.2927892351  2.7663754096  0.9692883280
H  -0.1499184992  3.6581493091 -0.5201228120
H  -1.3874352892  4.3657867173  0.5349555551
H   0.0187656762  3.5405638405  1.2312917617
H  -4.2716384585 -1.7185340718  1.1588439571
H  -4.1620023142 -1.7210388168 -0.5924041872
H  -2.8878925398 -2.5048298942  0.3617180555
H   2.1878770571 -3.1344400489 -0.3562733816
H   4.8198087812 -3.2893616117 -0.5422565289
H   10.2108450058  0.0497565201 -0.6558799163
H   8.4690293158  1.8106502578 -0.3985616012
H   6.1011287453  1.2594059811 -0.2855654134
42
Scanning combination 29/73: [499.8250]  Energy = -2548.7150645310
C  -0.7508669636  1.0016019120  0.2259796404
C  -1.4488923298 -0.2376837493  0.1988852584
C  -2.8279878630 -0.3313606323  0.3636051608
C  -3.5285201192  0.8770262083  0.5397674177
C  -2.8290336381  2.1142282047  0.5493914330
C  -1.4485453551  2.2101853536  0.3979729528
C   0.6603687171  0.8218626123  0.0572082589
C   1.0416190657 -0.4757209242 -0.0918270336
S  -0.3320393193 -1.5642106312 -0.0606880840
C  -4.9458288826  1.0693571505  0.7137246086
C  -5.2969015884  2.3654347146  0.8431215294
S  -3.9409429568  3.4412206024  0.7698836883
C  -0.7118128906  3.5203202550  0.4115798856
C  -3.5643502616 -1.6418087457  0.3237635783
C   2.3962878295 -0.9804456860 -0.2311151793
C   2.8444393074 -2.2741533560 -0.3455479471
C   4.2527447270 -2.3673672535 -0.4445906212
C   4.8961041470 -1.1501723768 -0.4038945219
S   3.7287012376  0.1310015791 -0.2420080187
C   6.3275934288 -0.8549741141 -0.4734135355
C   7.3201718271 -1.8912583039 -0.6206616228
C   8.7257721718 -1.5466073515 -0.6853391651
C   9.1498120847 -0.1906424634 -0.6046890427
C   8.1859375485  0.7613627747 -0.4648376899
C   6.8031686909  0.4408171892 -0.4000947830
N   7.1237778556 -3.2048999528 -0.7117867018
S   8.5756031878 -3.9046438632 -0.8625881045
N   9.5311884394 -2.5997084549 -0.8217391114
H   1.3681720831  1.6453537323  0.0541058939
H  -5.6560445753  0.2493457895  0.7300037639
H  -6.2938507643  2.7683543450  0.9714409811
H  -0.1516132652  3.6624001958 -0.5212638260
H  -1.3889418784  4.3696576910  0.5348380474
H   0.0179760887  3.5433331765  1.2304066316
H  -4.3470023205 -1.6683827112  1.0900363565
H  -4.0595042116 -1.7877858825 -0.6453633432
H  -2.8914335400 -2.4869807605  0.4856034151
H   2.1832892825 -3.1332993471 -0.3564425498
H   4.8150661389 -3.2885832955 -0.5453912506
H   10.2080932211  0.0461707195 -0.6550959351
H   8.4676247243  1.8084379621 -0.3987320920
H   6.0991899347  1.2593833096 -0.2873820385
42
Scanning combination 30/73: [504.8250]  Energy = -2548.7148499841
C  -0.7516453736  1.0043560943  0.2155213939
C  -1.4503414453 -0.2340100882  0.1803322028
C  -2.8252670858 -0.3320724945  0.3732627997
C  -3.5280811181  0.8765068801  0.5452597102
C  -2.8294513430  2.1147461472  0.5517978183
C  -1.4493189962  2.2117212112  0.3966848627
C   0.6602408840  0.8216835021  0.0586155959
C   1.0413706610 -0.4765876433 -0.0853163788
S  -0.3333676995 -1.5633980183 -0.0595387884
C  -4.9467365047  1.0692209597  0.7130964845
C  -5.2977214342  2.3663966031  0.8401982254
S  -3.9418181128  3.4421457629  0.7697503132
C  -0.7118639337  3.5210414111  0.4132789755
C  -3.5606599153 -1.6433823509  0.3139365018
C   2.3960666424 -0.9800015034 -0.2291237746
C   2.8440755616 -2.2733771467 -0.3465107773
C   4.2521839313 -2.3671606539 -0.4457376807
C   4.8956752888 -1.1501559965 -0.4050586532
S   3.7284868189  0.1315279046 -0.2445671273
C   6.3272294395 -0.8551791113 -0.4735794167
C   7.3197097287 -1.8915886743 -0.6205401564
C   8.7253697766 -1.5471018881 -0.6852103596
C   9.1493854268 -0.1911051854 -0.6045726889
C   8.1855673916  0.7611289405 -0.4648261247
C   6.8027995445  0.4405433900 -0.4001599487
N   7.1230737804 -3.2051484209 -0.7117766523
S   8.5747195725 -3.9051547501 -0.8628172760
N   9.5305890321 -2.6003891676 -0.8218274099
H   1.3667928950  1.6456298932  0.0559052785
H  -5.6595940320  0.2514167341  0.7272744221
H  -6.2932291990  2.7699420634  0.9757772947
H  -0.1528840617  3.6613526530 -0.5202108975
H  -1.3883545026  4.3705553908  0.5358795497
H   0.0194167979  3.5464574048  1.2309320370
H  -4.3823908128 -1.6562853204  1.0369887993
H  -4.0217536664 -1.7894186650 -0.6729242211
H  -2.9024283603 -2.4933459726  0.5065980561
H   2.1828204018 -3.1320870388 -0.3581330774
H   4.8142222175 -3.2887063180 -0.5449726732
H   10.2076607240  0.0456226949 -0.6550753737
H   8.4673951517  1.8082370883 -0.3989670528
H   6.0988940719  1.2592377848 -0.2875899586
42
Scanning combination 31/73: [509.8250]  Energy = -2548.7149178141
C  -0.7530645819  1.0067119934  0.2261965364
C  -1.4525831085 -0.2318109159  0.1959353019
C  -2.8317122173 -0.3271046977  0.3607019647
C  -3.5307325320  0.8813186652  0.5426892128
C  -2.8302943735  2.1194135809  0.5558315963
C  -1.4501379489  2.2155560042  0.4007948842
C   0.6581359663  0.8251084642  0.0565704968
C   1.0372137050 -0.4728611220 -0.0963709574
S  -0.3387566091 -1.5583097316 -0.0710504083
C  -4.9482091038  1.0778158054  0.7194096593
C  -5.2973233275  2.3737125328  0.8507917988
S  -3.9405499664  3.4477368739  0.7796327675
C  -0.7129728442  3.5253215381  0.4135324761
C  -3.5613607295 -1.6418322201  0.3085472136
C   2.3916967636 -0.9785306356 -0.2354094697
C   2.8395081249 -2.2723847399 -0.3491506851
C   4.2477946295 -2.3660732164 -0.4468597894
C   4.8917967163 -1.1493028132 -0.4058538554
S   3.7247569636  0.1324574832 -0.2450962021
C   6.3237906149 -0.8555497981 -0.4748828317
C   7.3157719585 -1.8927093468 -0.6215982712
C   8.7218141290 -1.5492290388 -0.6855280752
C   9.1469710549 -0.1936303302 -0.6046463204
C   8.1837437769  0.7591299482 -0.4654469769
C   6.8006408239  0.4396821019 -0.4014933083
N   7.1185540505 -3.2062150350 -0.7127571725
S   8.5699175449 -3.9071241253 -0.8627972611
N   9.5265146616 -2.6029363576 -0.8214913012
H   1.3666006599  1.6482016079  0.0569401412
H  -5.6636352206  0.2625090284  0.7352068018
H  -6.2939049617  2.7783283276  0.9796906831
H  -0.1535616323  3.6665550751 -0.5200384900
H  -1.3901324801  4.3744826300  0.5376177669
H   0.0172952158  3.5471263647  1.2320176536
H  -4.4506209495 -1.6179980984  0.9455612416
H  -3.9066356377 -1.8645358530 -0.7092700963
H  -2.9230855773 -2.4670172465  0.6347022599
H   2.1783333766 -3.1313261044 -0.3600721950
H   4.8092390749 -3.2877417513 -0.5471779441
H   10.2054951322  0.0423443389 -0.6544475306
H   8.4662824016  1.8060025987 -0.3992213834
H   6.0973419728  1.2588960126 -0.2890988204
42
Scanning combination 32/73: [514.8250]  Energy = -2548.7146739417
C  -0.7550094410  1.0082692818  0.2156264147
C  -1.4553694447 -0.2288558337  0.1767652669
C  -2.8301979786 -0.3267747557  0.3735150035
C  -3.5312003608  0.8813245838  0.5499043287
C  -2.8310222524  2.1192320642  0.5575588522
C  -1.4511824176  2.2159764723  0.3996300454
C   0.6567968054  0.8247538678  0.0577571970
C   1.0360071888 -0.4736561372 -0.0911105102
S  -0.3409841672 -1.5579639522 -0.0713764558
C  -4.9498992009  1.0786531439  0.7189735589
C  -5.2977535311  2.3752555626  0.8481680952
S  -3.9399555301  3.4480771027  0.7791122029
C  -0.7132609241  3.5249348435  0.4153600558
C  -3.5604552696 -1.6401179097  0.3054026945
C   2.3909654602 -0.9779340474 -0.2336878924
C   2.8387878182 -2.2715335106 -0.3498936618
C   4.2471159266 -2.3661111023 -0.4479023954
C   4.8914515751 -1.1496155659 -0.4069714995
S   3.7246919209  0.1327106799 -0.2472254511
C   6.3234889643 -0.8557190848 -0.4748996249
C   7.3153648989 -1.8929142153 -0.6214222210
C   8.7213835794 -1.5495481905 -0.6854042237
C   9.1465111208 -0.1939356291 -0.6045962066
C   8.1833476200  0.7590368394 -0.4653994589
C   6.8002500868  0.4395400843 -0.4013976227
N   7.1178318213 -3.2063255105 -0.7127420124
S   8.5690233950 -3.9074658074 -0.8629680126
N   9.5258704320 -2.6034356285 -0.8215301723
H   1.3648761336  1.6475825384  0.0583091364
H  -5.6662172116  0.2637799960  0.7339261996
H  -6.2933630305  2.7798131891  0.9833442236
H  -0.1549324501  3.6654424570 -0.5184797838
H  -1.3890200977  4.3749418291  0.5384215810
H   0.0186974807  3.5502378996  1.2323204160
H  -4.4807680088 -1.6033784774  0.8951334307
H  -3.8694548239 -1.8655896121 -0.7250246642
H  -2.9447030310 -2.4705561181  0.6562974718
H   2.1780625151 -3.1305966463 -0.3614927935
H   4.8088639240 -3.2879184504 -0.5467328268
H   10.2050238381  0.0419006006 -0.6544490552
H   8.4660404409  1.8059045857 -0.3994090335
H   6.0970102182  1.2589114503 -0.2892747493
42
Scanning combination 33/73: [519.8250]  Energy = -2548.7144430929
C  -0.7568222795  1.0106622029  0.2069558342
C  -1.4564123883 -0.2271504026  0.1717981865
C  -2.8288475375 -0.3251883556  0.3776680908
C  -3.5306843451  0.8815446855  0.5584684207
C  -2.8312232637  2.1200017179  0.5630135074
C  -1.4524838534  2.2177422597  0.3970128595
C   0.6550676458  0.8258962405  0.0525017481
C   1.0335296066 -0.4731004738 -0.0940972766
S  -0.3445702330 -1.5560291095 -0.0826753200
C  -4.9501867231  1.0807566345  0.7247732695
C  -5.2978392036  2.3775558719  0.8509262525
S  -3.9400561337  3.4494194391  0.7793561725
C  -0.7140343365  3.5263904020  0.4154438708
C  -3.5597883313 -1.6360305983  0.3019690363
C   2.3889013178 -0.9779216521 -0.2318312668
C   2.8368545502 -2.2713173626 -0.3492390893
C   4.2451944953 -2.3655669136 -0.4486873018
C   4.8895764084 -1.1490586847 -0.4085066887
S   3.7225027390  0.1330929141 -0.2481965134
C   6.3219649787 -0.8557753412 -0.4757854374
C   7.3137974663 -1.8932800585 -0.6215666417
C   8.7199931337 -1.5502844436 -0.6852794122
C   9.1455002028 -0.1947733252 -0.6044133339
C   8.1825353983  0.7583386336 -0.4653980123
C   6.7992820727  0.4392569756 -0.4017816024
N   7.1161130429 -3.2066966358 -0.7127507332
S   8.5671830647 -3.9081247996 -0.8630651363
N   9.5242886401 -2.6042897546 -0.8215108230
H   1.3640498843  1.6478092302  0.0623668217
H  -5.6698106897  0.2685687929  0.7336240732
H  -6.2933004265  2.7832580528  0.9854451052
H  -0.1547213934  3.6671634254 -0.5177759315
H  -1.3891671845  4.3768033047  0.5402299348
H   0.0173282504  3.5497290920  1.2332165113
H  -4.5168032746 -1.5728083720  0.8261098222
H  -3.7919255579 -1.8792579472 -0.7442766480
H  -2.9820062792 -2.4677804336  0.7140634809
H   2.1763615304 -3.1305318602 -0.3634939989
H   4.8068147972 -3.2874526384 -0.5475093842
H   10.2040735524  0.0408955392 -0.6543758817
H   8.4654028411  1.8051779366 -0.3995877250
H   6.0962208017  1.2587289194 -0.2895713712
42
Scanning combination 34/73: [524.8250]  Energy = -2548.7149763161
C  -0.7568722590  1.0160502152  0.2276347300
C  -1.4591222337 -0.2183507530  0.1840291697
C  -2.8397417788 -0.3136965264  0.3324288299
C  -3.5381524158  0.8908226041  0.5344529891
C  -2.8334293431  2.1276777733  0.5599100223
C  -1.4529490930  2.2246089690  0.4079194696
C   0.6530438106  0.8291963429  0.0617071695
C   1.0270444760 -0.4701427235 -0.0973689054
S  -0.3536496451 -1.5495554495 -0.0786299147
C  -4.9555982727  1.0924564297  0.7223680523
C  -5.2970716670  2.3890548780  0.8639555006
S  -3.9363524681  3.4577250606  0.7975639254
C  -0.7137462986  3.5328980199  0.4223654689
C  -3.5387783207 -1.6430071585  0.2719518949
C   2.3806815639 -0.9763515709 -0.2446514220
C   2.8285652206 -2.2701779531 -0.3578518985
C   4.2371636886 -2.3649252766 -0.4517560820
C   4.8820234313 -1.1486776565 -0.4114331852
S   3.7151030922  0.1339641439 -0.2564852890
C   6.3147868060 -0.8563465514 -0.4769508195
C   7.3057944230 -1.8948314629 -0.6221067560
C   8.7123772371 -1.5532285656 -0.6851140666
C   9.1393428117 -0.1982974945 -0.6041157887
C   8.1771337926  0.7558464834 -0.4657490203
C   6.7934900000  0.4380804244 -0.4028869330
N   7.1069342687 -3.2080195658 -0.7134586939
S   8.5573651060 -3.9108656304 -0.8631712577
N   9.5157194843 -2.6079830917 -0.8210374346
H   1.3634805187  1.6498520254  0.0590677634
H  -5.6759148112  0.2810666110  0.7479857179
H  -6.2904604059  2.7974060733  1.0052449056
H  -0.1576971093  3.6701888071 -0.5134791804
H  -1.3879472428  4.3846521590  0.5440979850
H   0.0206949666  3.5592891014  1.2375063593
H  -4.5561819725 -1.5793235267  0.6647145993
H  -3.6034363424 -2.0142411955 -0.7572832848
H  -3.0023915059 -2.3963275381  0.8572226503
H   2.1685859526 -3.1299699441 -0.3701236385
H   4.7987347701 -3.2870883388 -0.5477274122
H   10.1981526838  0.0362697284 -0.6536276114
H   8.4612109796  1.8022999322 -0.4000672298
H   6.0914109248  1.2585265620 -0.2912620163
42
Scanning combination 35/73: [529.8250]  Energy = -2548.7149422818
C  -0.7581195651  1.0178649052  0.2165150095
C  -1.4608052031 -0.2165516856  0.1692784888
C  -2.8383019447 -0.3153597381  0.3471207122
C  -3.5371419762  0.8901396491  0.5409515217
C  -2.8332561326  2.1277909095  0.5610093295
C  -1.4535779290  2.2252782159  0.4049859145
C   0.6529785100  0.8299865053  0.0590620726
C   1.0271627851 -0.4696281604 -0.0958544953
S  -0.3539476093 -1.5482763671 -0.0830230558
C  -4.9552610250  1.0926330026  0.7222167771
C  -5.2975536756  2.3890661134  0.8646193450
S  -3.9371452614  3.4579614741  0.7963572163
C  -0.7141501920  3.5334183494  0.4220150390
C  -3.5400068928 -1.6432564244  0.2674990640
C   2.3808374072 -0.9762891960 -0.2412048585
C   2.8282633184 -2.2700565642 -0.3572733873
C   4.2367317787 -2.3649680869 -0.4528600351
C   4.8817231481 -1.1487593571 -0.4124451923
S   3.7150765659  0.1340892045 -0.2571572233
C   6.3144084524 -0.8564881803 -0.4773254527
C   7.3052632347 -1.8950367115 -0.6222909297
C   8.7118207313 -1.5535346033 -0.6852101818
C   9.1387443100 -0.1985444918 -0.6041821886
C   8.1766587122  0.7556637542 -0.4658021138
C   6.7930153133  0.4380282295 -0.4030142161
N   7.1062144443 -3.2082229996 -0.7135705159
S   8.5565945573 -3.9112169611 -0.8630251878
N   9.5150602214 -2.6084093584 -0.8209410246
H   1.3641383240  1.6501417599  0.0629503417
H  -5.6764541503  0.2824107923  0.7443879374
H  -6.2908139812  2.7971586079  1.0077744839
H  -0.1567955866  3.6715442120 -0.5128432193
H  -1.3882819032  4.3847709932  0.5455088464
H   0.0191688692  3.5579550620  1.2378813777
H  -4.5777265240 -1.5728751597  0.6034516070
H  -3.5585333234 -2.0112882026 -0.7664412159
H  -3.0347200548 -2.3998544036  0.8739502550
H   2.1680746270 -3.1295481555 -0.3708834311
H   4.7981592983 -3.2872877860 -0.5482673536
H   10.1975953618  0.0359221801 -0.6534698672
H   8.4607321711  1.8021377913 -0.3999369172
H   6.0908767565  1.2584190392 -0.2913891040
42
Scanning combination 36/73: [534.8250]  Energy = -2548.7149958366
C  -0.7561407381  1.0215785927  0.2170347578
C  -1.4572769592 -0.2143603188  0.1784003975
C  -2.8370074844 -0.3111334597  0.3369169493
C  -3.5352784486  0.8923139832  0.5402359967
C  -2.8323637818  2.1308962853  0.5629498825
C  -1.4536036620  2.2285476904  0.4005404223
C   0.6548552814  0.8351493120  0.0529791937
C   1.0282494016 -0.4647116285 -0.1057076935
S  -0.3520682054 -1.5433434638 -0.0931815025
C  -4.9531627523  1.0924822923  0.7278889599
C  -5.2966963258  2.3879007040  0.8732534537
S  -3.9383913342  3.4593333719  0.8016435398
C  -0.7154533238  3.5371474916  0.4209008495
C  -3.5377986675 -1.6394049383  0.2564962468
C   2.3804328652 -0.9742496084 -0.2434029412
C   2.8255731539 -2.2690305724 -0.3575230493
C   4.2336707323 -2.3647838486 -0.4540890861
C   4.8795054065 -1.1490225874 -0.4128969984
S   3.7148950228  0.1346782066 -0.2543134276
C   6.3118301537 -0.8572867935 -0.4791082089
C   7.3021572153 -1.8962612144 -0.6238985960
C   8.7088150424 -1.5551653809 -0.6857332795
C   9.1361807956 -0.2003644892 -0.6043165514
C   8.1742391043  0.7543303448 -0.4662947854
C   6.7905935211  0.4370050407 -0.4045050171
N   7.1026423952 -3.2093574142 -0.7148531098
S   8.5529218207 -3.9129223833 -0.8625434613
N   9.5117998347 -2.6104145415 -0.8202519816
H   1.3665665521  1.6548860741  0.0672883935
H  -5.6748294016  0.2824440125  0.7424470560
H  -6.2907214247  2.7954429842  1.0138598021
H  -0.1543415806  3.6802110778 -0.5109761956
H  -1.3903634195  4.3874888775  0.5481445495
H   0.0138065035  3.5536734322  1.2402814423
H  -4.6015080287 -1.5575440011  0.4910952732
H  -3.4661107057 -2.0501875206 -0.7566414795
H  -3.0975119596 -2.3699177792  0.9432921924
H   2.1641277876 -3.1276148146 -0.3701224970
H   4.7937731972 -3.2873319704 -0.5527921337
H   10.1950359747  0.0338858090 -0.6526938596
H   8.4586174134  1.8005612304 -0.3994678628
H   6.0885292967  1.2575250739 -0.2927707475
42
Scanning combination 37/73: [539.8250]  Energy = -2548.7150632793
C  -0.7588784611  1.0235574188  0.2164424055
C  -1.4590396070 -0.2121545641  0.1743192502
C  -2.8391159690 -0.3105366282  0.3209226775
C  -3.5378148110  0.8918331457  0.5331039057
C  -2.8344011202  2.1300176901  0.5612358044
C  -1.4554373771  2.2305099880  0.4031262352
C   0.6516518014  0.8378464239  0.0528920000
C   1.0261575986 -0.4614570375 -0.1046277468
S  -0.3530985305 -1.5414326848 -0.0883367283
C  -4.9543396081  1.0919052878  0.7266034653
C  -5.2971269352  2.3868703554  0.8806624241
S  -3.9380847710  3.4575320431  0.8092083402
C  -0.7165036531  3.5395802953  0.4242224529
C  -3.5321218678 -1.6416343936  0.2327457438
C   2.3787664096 -0.9710709286 -0.2428925131
C   2.8227690347 -2.2661402054 -0.3589748269
C   4.2308746685 -2.3641128130 -0.4565246607
C   4.8781439231 -1.1491169244 -0.4157460475
S   3.7148661476  0.1361471542 -0.2575342123
C   6.3107133073 -0.8584198874 -0.4802403116
C   7.3005679907 -1.8977125319 -0.6241032091
C   8.7073166558 -1.5571447460 -0.6854551913
C   9.1349951103 -0.2023383304 -0.6039825942
C   8.1735119185  0.7525945221 -0.4665643391
C   6.7897640593  0.4358907518 -0.4052777423
N   7.1004717293 -3.2107496897 -0.7155236819
S   8.5505179627 -3.9147383924 -0.8634463102
N   9.5098914715 -2.6126273782 -0.8203448586
H   1.3630538919  1.6576008175  0.0661054022
H  -5.6720094402  0.2785961804  0.7471830110
H  -6.2905441872  2.7943200668  1.0247266510
H  -0.1553053661  3.6832894448 -0.5078049580
H  -1.3902276489  4.3908741551  0.5511382519
H   0.0139416047  3.5600267577  1.2426985170
H  -4.6116476751 -1.5446164907  0.3725298848
H  -3.3572588091 -2.1100163687 -0.7428688442
H  -3.1627028552 -2.3344329362  0.9954322685
H   2.1601591121 -3.1237960687 -0.3742720860
H   4.7901776086 -3.2874448246 -0.5542042587
H   10.1939740102  0.0315684767 -0.6523195005
H   8.4579819112  1.7989291715 -0.4003867289
H   6.0877172297  1.2564444703 -0.2942513972
42
Scanning combination 38/73: [544.8250]  Energy = -2548.7151219600
C  -0.7546590427  1.0291289517  0.2122339050
C  -1.4521355215 -0.2075730161  0.1703661902
C  -2.8329376705 -0.3089680294  0.3076893769
C  -3.5349850334  0.8903487936  0.5238894733
C  -2.8349260349  2.1305604933  0.5560183195
C  -1.4558166484  2.2334530492  0.3971333964
C   0.6562285802  0.8422709931  0.0541626449
C   1.0309460090 -0.4568742673 -0.1004688670
S  -0.3459346295 -1.5382313906 -0.0791702871
C  -4.9522212176  1.0841337621  0.7222983332
C  -5.2975726897  2.3774704544  0.8856471156
S  -3.9422956354  3.4534322140  0.8157821831
C  -0.7196857591  3.5427418373  0.4256611050
C  -3.5185244831 -1.6440443366  0.2190570046
C   2.3822302750 -0.9670261080 -0.2417568133
C   2.8231149640 -2.2627315066 -0.3599805877
C   4.2303858984 -2.3635186215 -0.4594507687
C   4.8791012258 -1.1493657812 -0.4182253193
S   3.7190733075  0.1380787180 -0.2572381156
C   6.3110334535 -0.8594309701 -0.4828121299
C   7.2995274208 -1.8995116007 -0.6258605486
C   8.7063286944 -1.5598920465 -0.6860611289
C   9.1344918559 -0.2052305930 -0.6041712504
C   8.1737745620  0.7506451174 -0.4673365506
C   6.7899970185  0.4348296254 -0.4072056145
N   7.0980437989 -3.2123356672 -0.7170158708
S   8.5475627780 -3.9175538429 -0.8636066841
N   9.5080228599 -2.6162384961 -0.8201057602
H   1.3660558612  1.6634585310  0.0673662997
H  -5.6689836823  0.2693964701  0.7385214832
H  -6.2906120770  2.7811690440  1.0423688947
H  -0.1566551707  3.6909157744 -0.5040082117
H  -1.3953185578  4.3916239547  0.5542057287
H   0.0083691426  3.5597944722  1.2461709666
H  -4.6056828519 -1.5475172784  0.2623311399
H  -3.2656447554 -2.1485323976 -0.7200743284
H  -3.2166126468 -2.3035712973  1.0407874130
H   2.1579329152 -3.1182512433 -0.3762617630
H   4.7876952327 -3.2878187517 -0.5593557755
H   10.1936175666  0.0279785005 -0.6516759531
H   8.4587595960  1.7968290466 -0.4006969179
H   6.0880852922  1.2555866767 -0.2963281290
42
Scanning combination 39/73: [549.8250]  Energy = -2548.7150727862
C  -0.7540920912  1.0306819417  0.2049554603
C  -1.4506762268 -0.2064827511  0.1623002191
C  -2.8308039193 -0.3113074058  0.3065195307
C  -3.5335076857  0.8866353834  0.5251004832
C  -2.8341599296  2.1271759752  0.5583952383
C  -1.4560443590  2.2340641601  0.3955600805
C   0.6580621332  0.8464134210  0.0522064012
C   1.0342555799 -0.4528627826 -0.0979645014
S  -0.3416184734 -1.5357370312 -0.0809462439
C  -4.9503554386  1.0785896050  0.7226499089
C  -5.2970934346  2.3709956157  0.8863272669
S  -3.9430752888  3.4482746643  0.8175433209
C  -0.7214877552  3.5450518039  0.4271875890
C  -3.5123777095 -1.6475331209  0.2128222517
C   2.3846449823 -0.9643291724 -0.2394970035
C   2.8237651939 -2.2610769064 -0.3608460864
C   4.2309737745 -2.3623321939 -0.4615600993
C   4.8805798419 -1.1489334270 -0.4190206064
S   3.7220159306  0.1394552459 -0.2565252655
C   6.3125927330 -0.8599266662 -0.4833427180
C   7.3005083712 -1.9004492867 -0.6265016255
C   8.7074750014 -1.5613666913 -0.6863644271
C   9.1362186405 -0.2069324833 -0.6044855357
C   8.1759896216  0.7492557343 -0.4680691499
C   6.7920677758  0.4341708194 -0.4080685188
N   7.0985436479 -3.2131600849 -0.7181833523
S   8.5478819884 -3.9189132393 -0.8643021056
N   9.5088241322 -2.6180078657 -0.8201956594
H   1.3687908426  1.6673902478  0.0674613688
H  -5.6662042663  0.2630202156  0.7372687182
H  -6.2900513413  2.7731977677  1.0465729481
H  -0.1585427437  3.6933865130 -0.5026190081
H  -1.3981799195  4.3938103383  0.5559401524
H   0.0068970695  3.5638675168  1.2479450667
H  -4.6007549646 -1.5508635921  0.1740928773
H  -3.1942421639 -2.1687900812 -0.6949082264
H  -3.2538522684 -2.2946177569  1.0602893685
H   2.1573916429 -3.1154256524 -0.3771357851
H   4.7874260762 -3.2871716307 -0.5618026280
H   10.1955717711  0.0257497867 -0.6514963742
H   8.4613496662  1.7953674754 -0.4015073166
H   6.0904602455  1.2552204243 -0.2979921549
42
Scanning combination 40/73: [554.8250]  Energy = -2548.7150897139
C  -0.7526540719  1.0316851912  0.2112524779
C  -1.4483071403 -0.2062768197  0.1662860278
C  -2.8289697014 -0.3114966165  0.2974480826
C  -3.5326035910  0.8851679535  0.5221347964
C  -2.8352609529  2.1266895687  0.5584331755
C  -1.4564880477  2.2345417062  0.3989493704
C   0.6589329113  0.8493365964  0.0502299184
C   1.0361830645 -0.4495230462 -0.1052539475
S  -0.3383631434 -1.5341605840 -0.0817684921
C  -4.9489093572  1.0735499672  0.7255325060
C  -5.2983299467  2.3648763726  0.8955976968
S  -3.9465124155  3.4451846530  0.8253250063
C  -0.7243859132  3.5468223486  0.4275770444
C  -3.5138208901 -1.6456549104  0.1963878481
C   2.3874711199 -0.9603545055 -0.2434059690
C   2.8256667290 -2.2570512265 -0.3631240281
C   4.2326884680 -2.3605673927 -0.4629648211
C   4.8836115907 -1.1477614027 -0.4189872304
S   3.7263218081  0.1418641032 -0.2549421231
C   6.3158054723 -0.8602633860 -0.4842905548
C   7.3028561517 -1.9016198168 -0.6276323263
C   8.7101058110 -1.5637497635 -0.6870358234
C   9.1399415682 -0.2095827282 -0.6050014862
C   8.1803768063  0.7475241981 -0.4692280762
C   6.7962485717  0.4334953177 -0.4096114644
N   7.0997695835 -3.2141648458 -0.7195922046
S   8.5485602095 -3.9211468316 -0.8651948383
N   9.5106129219 -2.6210465763 -0.8206136639
H   1.3685989743  1.6708878316  0.0636224854
H  -5.6618054016  0.2558478695  0.7449343011
H  -6.2933386654  2.7639553801  1.0507705387
H  -0.1606332820  3.6981359976 -0.5015972563
H  -1.4034875127  4.3933969650  0.5567045577
H   0.0025087155  3.5657902039  1.2491480847
H  -4.5927105031 -1.5371764093  0.0602382927
H  -3.1265948560 -2.2181558805 -0.6528844416
H  -3.3455866568 -2.2460762346  1.0978788867
H   2.1578298021 -3.1105674439 -0.3787891669
H   4.7880553411 -3.2858149381 -0.5647823735
H   10.1994079686  0.0222698435 -0.6515062575
H   8.4665335685  1.7934053506 -0.4027301401
H   6.0951212282  1.2550415692 -0.3000662807
42
Scanning combination 41/73: [559.8250]  Energy = -2548.7150348777
C  -0.7528295196  1.0327406174  0.2089903564
C  -1.4474650243 -0.2056833126  0.1617201519
C  -2.8281375245 -0.3109441928  0.2887916636
C  -3.5329955938  0.8842087062  0.5188807085
C  -2.8369127571  2.1261425026  0.5570045337
C  -1.4580189465  2.2346891940  0.3975311882
C   0.6590547219  0.8507398243  0.0510627722
C   1.0376565879 -0.4479310068 -0.1033020865
S  -0.3356156609 -1.5342325561 -0.0769298034
C  -4.9490919837  1.0696543174  0.7252551295
C  -5.2995326295  2.3607631122  0.9012594364
S  -3.9488666374  3.4424731423  0.8319225328
C  -0.7270835007  3.5475448749  0.4286947470
C  -3.5160743920 -1.6432375926  0.1814048121
C   2.3891170564 -0.9577852671 -0.2438559542
C   2.8268726879 -2.2544386558 -0.3647520332
C   4.2338155019 -2.3584656778 -0.4647882717
C   4.8852846623 -1.1459296583 -0.4207235469
S   3.7283310877  0.1441840453 -0.2561745056
C   6.3179420598 -0.8597915916 -0.4856837019
C   7.3042796019 -1.9021468727 -0.6284337583
C   8.7119508126 -1.5656897691 -0.6875425642
C   9.1431664101 -0.2119694628 -0.6055005628
C   8.1844017498  0.7460711915 -0.4700432396
C   6.7998727101  0.4333753455 -0.4108062475
N   7.1001038342 -3.2145256367 -0.7202327879
S   8.5482411930 -3.9229072303 -0.8656914677
N   9.5115127909 -2.6236992063 -0.8210324434
H   1.3674741344  1.6731232135  0.0621363135
H  -5.6603241788  0.2508830724  0.7449685712
H  -6.2938430578  2.7582336614  1.0625862291
H  -0.1631114457  3.7002630573 -0.5000171440
H  -1.4071960498  4.3933312100  0.5577259839
H  -0.0004473152  3.5667625075  1.2506118908
H  -4.5803306360 -1.5303720030 -0.0444487763
H  -3.0636682890 -2.2525898873 -0.6091426809
H  -3.4339807436 -2.2090351113  1.1154816427
H   2.1584473781 -3.1075536929 -0.3822895468
H   4.7888925434 -3.2837879149 -0.5670958987
H   10.2028543962  0.0188232934 -0.6518889500
H   8.4716553536  1.7916533198 -0.4037000643
H   6.0996386383  1.2557005120 -0.3013223036
42
Scanning combination 42/73: [564.8250]  Energy = -2548.7148267084
C  -0.7515652259  1.0355645699  0.1991598752
C  -1.4457853173 -0.2023325478  0.1433918721
C  -2.8235472946 -0.3131043879  0.2953017772
C  -3.5308943869  0.8821940572  0.5203934415
C  -2.8362422982  2.1248635547  0.5589130257
C  -1.4578557305  2.2355167792  0.3965108960
C   0.6611145187  0.8523995183  0.0538144171
C   1.0402839210 -0.4468747089 -0.0947670730
S  -0.3320226810 -1.5331901391 -0.0739680528
C  -4.9478468889  1.0673289517  0.7224296966
C  -5.2992309024  2.3571577194  0.8989538192
S  -3.9494746733  3.4403680157  0.8327697192
C  -0.7279353816  3.5482657832  0.4304239846
C  -3.5093023685 -1.6467078683  0.1798174324
C   2.3904513512 -0.9565965120 -0.2431090677
C   2.8274018059 -2.2532236683 -0.3676713150
C   4.2342911180 -2.3574444147 -0.4667679404
C   4.8861103742 -1.1452047725 -0.4204994731
S   3.7294043429  0.1452509601 -0.2572770590
C   6.3188584659 -0.8595909824 -0.4854199786
C   7.3046904464 -1.9023033531 -0.6288803183
C   8.7124982537 -1.5664454148 -0.6879920102
C   9.1442824410 -0.2129216500 -0.6059894602
C   8.1859552803  0.7454796819 -0.4706693978
C   6.8012810798  0.4334378537 -0.4112457105
N   7.0999461353 -3.2145784188 -0.7209403695
S   8.5478314549 -3.9236226622 -0.8657516306
N   9.5116441159 -2.6248364154 -0.8210184601
H   1.3688812423  1.6750617525  0.0618501607
H  -5.6587929413  0.2471381995  0.7418474699
H  -6.2929225338  2.7544565041  1.0694162022
H  -0.1652623147  3.6990381328 -0.4990823422
H  -1.4086273049  4.3936784872  0.5583931122
H  -0.0002238595  3.5691660350  1.2515567210
H  -4.5576497827 -1.5324170898 -0.1103918773
H  -3.0195030905 -2.2595227957 -0.5852117177
H  -3.4680678524 -2.2078461755  1.1207047635
H   2.1589286678 -3.1063806015 -0.3825855481
H   4.7893443095 -3.2829619309 -0.5677552039
H   10.2041306468  0.0173862529 -0.6519059350
H   8.4736689666  1.7909149754 -0.4039403307
H   6.1013636705  1.2560553034 -0.3021288828
42
Scanning combination 43/73: [569.8250]  Energy = -2548.7150044495
C  -0.7494215474  1.0339833219  0.2115684651
C  -1.4424452719 -0.2060944342  0.1573795047
C  -2.8241933904 -0.3122863020  0.2768662000
C  -3.5285144116  0.8825091382  0.5173417258
C  -2.8350886299  2.1246970326  0.5623295723
C  -1.4561867796  2.2353433559  0.4005529804
C   0.6632514141  0.8570798582  0.0508690086
C   1.0450527722 -0.4399598688 -0.1080017047
S  -0.3247532073 -1.5300760158 -0.0900062686
C  -4.9433785383  1.0618482034  0.7290946971
C  -5.2988108710  2.3506813659  0.9095621737
S  -3.9513799914  3.4373023865  0.8422311237
C  -0.7284175864  3.5501582392  0.4295650157
C  -3.5264872582 -1.6377607055  0.1557104184
C   2.3955766663 -0.9509365068 -0.2491862455
C   2.8305199492 -2.2487241753 -0.3697283624
C   4.2372767586 -2.3551232890 -0.4673975333
C   4.8904727922 -1.1436903257 -0.4194777547
S   3.7361508150  0.1484370124 -0.2540693102
C   6.3228642531 -0.8593235169 -0.4860699265
C   7.3072692347 -1.9029441526 -0.6301016092
C   8.7152243556 -1.5682861664 -0.6888764813
C   9.1479784812 -0.2150225359 -0.6068181614
C   8.1905495980  0.7443041934 -0.4718894550
C   6.8057748613  0.4335463423 -0.4125982177
N   7.1011511167 -3.2150304263 -0.7222913643
S   8.5484728954 -3.9253861060 -0.8662255499
N   9.5134213659 -2.6274593681 -0.8212973031
H   1.3699113766  1.6814527075  0.0595649423
H  -5.6481699472  0.2371635805  0.7509246233
H  -6.2951354831  2.7440541164  1.0708211867
H  -0.1646799834  3.7043681254 -0.4993340107
H  -1.4116321889  4.3938456548  0.5580093122
H  -0.0021943315  3.5706924037  1.2518640507
H  -4.5376986764 -1.5148656872 -0.2428695688
H  -2.9833287464 -2.3115744127 -0.5145245681
H  -3.6140131376 -2.1362671069  1.1290661027
H   2.1600489551 -3.1005451774 -0.3823388238
H   4.7907298065 -3.2813014679 -0.5710516291
H   10.2079993955  0.0144838879 -0.6521058669
H   8.4789313849  1.7895000531 -0.4047745101
H   6.1061130279  1.2564276697 -0.3038265357
42
Scanning combination 44/73: [574.8250]  Energy = -2548.7150510305
C  -0.7508198263  1.0335820304  0.2076884812
C  -1.4437391792 -0.2062823761  0.1514567049
C  -2.8248732240 -0.3129265575  0.2740637877
C  -3.5295050580  0.8810681197  0.5179445190
C  -2.8355754973  2.1226295858  0.5618336926
C  -1.4575697513  2.2341391719  0.3976012492
C   0.6622373723  0.8585658016  0.0501893363
C   1.0462289923 -0.4373134190 -0.1115508595
S  -0.3232007526 -1.5284506139 -0.0967757660
C  -4.9433715119  1.0593128528  0.7313590091
C  -5.2982712732  2.3485867862  0.9148379161
S  -3.9502856166  3.4347621665  0.8468753474
C  -0.7298003677  3.5490223270  0.4296648378
C  -3.5317456719 -1.6356580271  0.1470846497
C   2.3980824805 -0.9470751143 -0.2489630015
C   2.8327199949 -2.2450217099 -0.3691488882
C   4.2393584820 -2.3533699382 -0.4684572522
C   4.8934224962 -1.1423540506 -0.4222273497
S   3.7402634823  0.1507698805 -0.2548244530
C   6.3260166942 -0.8588933843 -0.4877153165
C   7.3098488534 -1.9029927406 -0.6306136923
C   8.7180765834 -1.5696077012 -0.6892660856
C   9.1516665489 -0.2164634272 -0.6073181407
C   8.1951392231  0.7434452999 -0.4723736245
C   6.8099687534  0.4338360932 -0.4132997823
N   7.1025521203 -3.2149362784 -0.7224832893
S   8.5491685101 -3.9265778095 -0.8666926616
N   9.5153081566 -2.6295010134 -0.8218050797
H   1.3681637146  1.6828406168  0.0648102843
H  -5.6469812117  0.2338665047  0.7470642510
H  -6.2942095491  2.7397020055  1.0802134972
H  -0.1644989976  3.7075914695 -0.4972639324
H  -1.4121569482  4.3927131166  0.5590505478
H  -0.0045254021  3.5703001005  1.2525787710
H  -4.5104626238 -1.5182370802 -0.3292731373
H  -2.9455201104 -2.3388695762 -0.4510011458
H  -3.7005723049 -2.1030466796  1.1249514017
H   2.1619941682 -3.0963047626 -0.3861227992
H   4.7928903676 -3.2794629925 -0.5731463170
H   10.2120690643  0.0117674977 -0.6526775974
H   8.4846234333  1.7886174020 -0.4057034887
H   6.1113337883  1.2574712453 -0.3046332012
42
Scanning combination 45/73: [579.8250]  Energy = -2548.7149627560
C  -0.7499239531  1.0348281465  0.1946095004
C  -1.4412071574 -0.2048719915  0.1330181954
C  -2.8206615383 -0.3169858547  0.2807630546
C  -3.5272644763  0.8767523984  0.5192054160
C  -2.8355814632  2.1189076146  0.5630146158
C  -1.4568527584  2.2334431567  0.3964937740
C   0.6640823727  0.8591250328  0.0506363595
C   1.0496290219 -0.4360816493 -0.1034152449
S  -0.3177748258 -1.5283699069 -0.0972261770
C  -4.9428656965  1.0551553917  0.7276182577
C  -5.2977598451  2.3443372703  0.9124302164
S  -3.9503406767  3.4308814234  0.8481022556
C  -0.7312479301  3.5483869288  0.4329204781
C  -3.5261136622 -1.6395006033  0.1507915521
C   2.4003565975 -0.9461604673 -0.2458926355
C   2.8337009446 -2.2438668756 -0.3712604365
C   4.2399182486 -2.3511477295 -0.4709192943
C   4.8941451685 -1.1406461047 -0.4239902722
S   3.7409357854  0.1528017736 -0.2583905709
C   6.3274549872 -0.8580269957 -0.4877586961
C   7.3109327875 -1.9031003917 -0.6303823423
C   8.7194792149 -1.5701700839 -0.6891505227
C   9.1541105186 -0.2176673279 -0.6074203278
C   8.1977689973  0.7430054421 -0.4726394802
C   6.8124392371  0.4338016487 -0.4135094867
N   7.1032490069 -3.2147870889 -0.7225980063
S   8.5495380284 -3.9270680293 -0.8673246322
N   9.5162519555 -2.6304350022 -0.8221895775
H   1.3692890881  1.6852924976  0.0677085452
H  -5.6489036605  0.2313817188  0.7439985996
H  -6.2918203605  2.7362382103  1.0884101627
H  -0.1683605402  3.7020491123 -0.4958166110
H  -1.4136949585  4.3922998255  0.5610423884
H  -0.0040989676  3.5734342826  1.2544377285
H  -4.4744143260 -1.5247338189 -0.3852615147
H  -2.9055835096 -2.3504466365 -0.4042735950
H  -3.7405632428 -2.0904790335  1.1278306434
H   2.1622136878 -3.0947213417 -0.3894147984
H   4.7936567943 -3.2776905464 -0.5726019192
H   10.2144873575  0.0102643166 -0.6532386705
H   8.4879208948  1.7877732701 -0.4065607246
H   6.1142763805  1.2581279783 -0.3051889593
42
Scanning combination 46/73: [584.8250]  Energy = -2548.7152341658
C  -0.7481231621  1.0335078066  0.2078491439
C  -1.4395343681 -0.2074690470  0.1402986763
C  -2.8217256955 -0.3146912004  0.2557845261
C  -3.5262496716  0.8777140336  0.5110800323
C  -2.8347914259  2.1195536042  0.5651849527
C  -1.4559408463  2.2332510238  0.4032856211
C   0.6654557687  0.8611710707  0.0528822451
C   1.0526183534 -0.4327904291 -0.1134751737
S  -0.3143179534 -1.5269610683 -0.1082863272
C  -4.9397661112  1.0508054474  0.7309829598
C  -5.2972649645  2.3375313108  0.9225584024
S  -3.9524527167  3.4283124260  0.8597840083
C  -0.7309584966  3.5493999770  0.4345616629
C  -3.5417946982 -1.6296079133  0.1248947492
C   2.4046239575 -0.9406362271 -0.2548912092
C   2.8380598208 -2.2386771018 -0.3758636760
C   4.2445578244 -2.3478395100 -0.4720682119
C   4.8996105484 -1.1377700826 -0.4238560007
S   3.7469629445  0.1567510757 -0.2584402591
C   6.3330876552 -0.8568393474 -0.4888295732
C   7.3151774627 -1.9031717873 -0.6316116396
C   8.7240394846 -1.5720044791 -0.6900691169
C   9.1600702932 -0.2198987514 -0.6081927696
C   8.2049002542  0.7420367439 -0.4737157677
C   6.8193096653  0.4345706037 -0.4149178196
N   7.1058968690 -3.2146964220 -0.7235651259
S   8.5514015905 -3.9287039512 -0.8678147793
N   9.5196178751 -2.6331877264 -0.8227253240
H   1.3678999424  1.6889283363  0.0667331014
H  -5.6395921028  0.2208445927  0.7514623194
H  -6.2930991200  2.7280829669  1.0940880435
H  -0.1682445251  3.7043614859 -0.4944452518
H  -1.4164331464  4.3911858303  0.5612653423
H  -0.0047332123  3.5747650077  1.2565974119
H  -4.4304875661 -1.5264395717 -0.5082855899
H  -2.8967463678 -2.3987381271 -0.3086231726
H  -3.8868050116 -1.9931066834  1.1005590841
H   2.1652669473 -3.0882676007 -0.3917231507
H   4.7967926136 -3.2751126046 -0.5750338397
H   10.2205474114  0.0070311807 -0.6539239827
H   8.4959632844  1.7864931531 -0.4076196849
H   6.1217391358  1.2593585931 -0.3066358705
42
Scanning combination 47/73: [589.8250]  Energy = -2548.7151913399
C  -0.7489462775  1.0350268723  0.1930166026
C  -1.4402668500 -0.2066315292  0.1265806011
C  -2.8194774605 -0.3183072933  0.2688510490
C  -3.5252609883  0.8745298550  0.5164388621
C  -2.8343304061  2.1180609116  0.5651378231
C  -1.4567981290  2.2327292119  0.3967547650
C   0.6664789276  0.8622529653  0.0502452299
C   1.0546033826 -0.4325457169 -0.1087798853
S  -0.3120058144 -1.5262514412 -0.1117468297
C  -4.9397015412  1.0487321478  0.7296552434
C  -5.2973111143  2.3357390153  0.9220866436
S  -3.9526159829  3.4266781044  0.8592413419
C  -0.7318701631  3.5490595606  0.4352014367
C  -3.5364431625 -1.6360187140  0.1347134885
C   2.4061578252 -0.9407101500 -0.2499922296
C   2.8390482649 -2.2383234456 -0.3754717481
C   4.2453922858 -2.3468739810 -0.4739733108
C   4.9003678503 -1.1362989099 -0.4262564120
S   3.7474431362  0.1577861425 -0.2609181538
C   6.3340493215 -0.8561147218 -0.4897103536
C   7.3159757492 -1.9028423783 -0.6317067269
C   8.7250619133 -1.5724488582 -0.6901751794
C   9.1619703072 -0.2206231841 -0.6084281405
C   8.2071414291  0.7416897489 -0.4739630785
C   6.8212702663  0.4349336235 -0.4152595844
N   7.1062663807 -3.2143681542 -0.7234968103
S   8.5514552483 -3.9289757214 -0.8679403655
N   9.5202024298 -2.6338601927 -0.8229477701
H   1.3693305026  1.6890942831  0.0737029750
H  -5.6407673373  0.2200188016  0.7403728374
H  -6.2916209383  2.7255718084  1.1022682706
H  -0.1680129151  3.7044382754 -0.4927736184
H  -1.4172954323  4.3905692218  0.5636460221
H  -0.0066433611  3.5729194029  1.2584957218
H  -4.3877751016 -1.5476671129 -0.5506319613
H  -2.8632656007 -2.4025626075 -0.2608668195
H  -3.9181057943 -1.9926925002  1.0988876939
H   2.1658722936 -3.0878683568 -0.3952031811
H   4.7978303950 -3.2736831782 -0.5759036300
H   10.2225819588  0.0056642327 -0.6541948291
H   8.4988852515  1.7859193843 -0.4079927898
H   6.1244000587  1.2602712280 -0.3068323384
42
Scanning combination 48/73: [594.8250]  Energy = -2548.7152426595
C  -0.7476404993  1.0340333239  0.1959042745
C  -1.4379398169 -0.2080488534  0.1318828750
C  -2.8189119174 -0.3177715112  0.2646681265
C  -3.5238468529  0.8737943760  0.5209333539
C  -2.8333632311  2.1166680079  0.5714761648
C  -1.4561680869  2.2320061487  0.3979587724
C   0.6675119973  0.8640374203  0.0457936570
C   1.0563231380 -0.4297048483 -0.1199604060
S  -0.3105898568 -1.5238127282 -0.1314531655
C  -4.9378310940  1.0450720141  0.7357440269
C  -5.2968980308  2.3314957050  0.9265703150
S  -3.9533795762  3.4242222601  0.8633929672
C  -0.7323571162  3.5488531156  0.4348493094
C  -3.5396730188 -1.6324326088  0.1216848438
C   2.4085441967 -0.9382544532 -0.2548157574
C   2.8412089920 -2.2363833157 -0.3774221761
C   4.2475863667 -2.3453736257 -0.4745341433
C   4.9028349332 -1.1351683413 -0.4254158517
S   3.7506316299  0.1593368459 -0.2584783884
C   6.3363747724 -0.8554653891 -0.4901078001
C   7.3174495372 -1.9027552178 -0.6326100386
C   8.7266698113 -1.5731647890 -0.6908017561
C   9.1641641594 -0.2215109772 -0.6089712021
C   8.2099697751  0.7413283114 -0.4746285886
C   6.8239644518  0.4354853054 -0.4160364893
N   7.1068723518 -3.2141479185 -0.7243554012
S   8.5516849491 -3.9296963022 -0.8679049999
N   9.5211888280 -2.6351583869 -0.8229229371
H   1.3701516057  1.6912586293  0.0749300988
H  -5.6381045990  0.2154315372  0.7396537650
H  -6.2924608335  2.7208828309  1.1009323431
H  -0.1667820172  3.7069038318 -0.4918877135
H  -1.4187340043  4.3897630774  0.5640966436
H  -0.0089103175  3.5706971175  1.2596679354
H  -4.3298388476 -1.5578366129 -0.6357243120
H  -2.8530776925 -2.4223351974 -0.1922371912
H  -4.0151407295 -1.9444452554  1.0622433690
H   2.1675703596 -3.0855720041 -0.3948525482
H   4.7994486558 -3.2724571821 -0.5781990843
H   10.2249744208  0.0042060339 -0.6543045662
H   8.5022311066  1.7854200070 -0.4081767098
H   6.1273552417  1.2610372658 -0.3077598293
42
Scanning combination 49/73: [599.8250]  Energy = -2548.7153039330
C  -0.7471857123  1.0315885047  0.1992002667
C  -1.4362971751 -0.2102733325  0.1248975543
C  -2.8169789209 -0.3219194689  0.2488761519
C  -3.5258632163  0.8683924245  0.5056258465
C  -2.8353448968  2.1112168214  0.5668604864
C  -1.4575403854  2.2284345387  0.4015103704
C   0.6672522028  0.8626209375  0.0488383501
C   1.0574062016 -0.4297449280 -0.1239887196
S  -0.3081363039 -1.5250659030 -0.1394166978
C  -4.9398504714  1.0384831570  0.7269343167
C  -5.2972395042  2.3246274687  0.9296345571
S  -3.9533710226  3.4167929271  0.8746253789
C  -0.7347818492  3.5458040162  0.4391571814
C  -3.5325243161 -1.6399462121  0.1140596016
C   2.4103477272 -0.9355761774 -0.2604792461
C   2.8432311631 -2.2335385291 -0.3815886414
C   4.2495823573 -2.3429706790 -0.4761966663
C   4.9050730106 -1.1329570741 -0.4271829441
S   3.7526155635  0.1620633623 -0.2624949537
C   6.3391493226 -0.8544608495 -0.4907613134
C   7.3197348505 -1.9025476299 -0.6327714359
C   8.7293136006 -1.5740595531 -0.6909738151
C   9.1678363389 -0.2227538530 -0.6092243385
C   8.2143138805  0.7408225719 -0.4750886885
C   6.8279641373  0.4359872613 -0.4166012675
N   7.1083096760 -3.2137834212 -0.7245411217
S   8.5525476440 -3.9304360064 -0.8685143025
N   9.5230539067 -2.6366291438 -0.8234332867
H   1.3667563113  1.6918551623  0.0767562041
H  -5.6423100910  0.2107420854  0.7328102811
H  -6.2914656537  2.7151355142  1.1078803474
H  -0.1699792358  3.7029992066 -0.4879687142
H  -1.4209690430  4.3868480355  0.5662494189
H  -0.0103060069  3.5710914685  1.2628191588
H  -4.2580131297 -1.6077626561 -0.7087801343
H  -2.8326130927 -2.4567421542 -0.0817424081
H  -4.0919072328 -1.8828868721  1.0259926025
H   2.1692457978 -3.0822495133 -0.4000967223
H   4.8013472327 -3.2702201237 -0.5784351248
H   10.2288182737  0.0021259842 -0.6548098037
H   8.5074354800  1.7847314721 -0.4091415954
H   6.1321220174  1.2622091910 -0.3084866543
42
Scanning combination 50/73: [604.8250]  Energy = -2548.7151426429
C  -0.7472977792  1.0327047301  0.1890849334
C  -1.4364232339 -0.2085062034  0.1109556914
C  -2.8147385093 -0.3226853467  0.2635716937
C  -3.5233945220  0.8677252090  0.5168377248
C  -2.8343731512  2.1109439740  0.5705131324
C  -1.4572951962  2.2284013620  0.3993753820
C   0.6681134665  0.8633793364  0.0479931327
C   1.0584600303 -0.4291227539 -0.1225244895
S  -0.3070864041 -1.5242199139 -0.1445256391
C  -4.9385236814  1.0376308968  0.7277955632
C  -5.2972579793  2.3235746161  0.9271843852
S  -3.9535737645  3.4162978229  0.8730276979
C  -0.7351092819  3.5454371265  0.4397565847
C  -3.5346262656 -1.6365576525  0.1130196847
C   2.4111306061 -0.9353863523 -0.2599544489
C   2.8437547437 -2.2333287607 -0.3825216389
C   4.2501370486 -2.3427524350 -0.4771210293
C   4.9056841480 -1.1327632328 -0.4278120639
S   3.7532986336  0.1622695659 -0.2636167968
C   6.3397094853 -0.8543327837 -0.4909528627
C   7.3201459556 -1.9023691601 -0.6328979992
C   8.7297121332 -1.5742646664 -0.6910919790
C   9.1684070077 -0.2228430973 -0.6093337069
C   8.2151750890  0.7406150152 -0.4752188699
C   6.8287491072  0.4363088741 -0.4167196189
N   7.1084416172 -3.2136487786 -0.7246378323
S   8.5525752566 -3.9305321789 -0.8684865737
N   9.5232794040 -2.6368962012 -0.8234472619
H   1.3685392156  1.6918278159  0.0790249933
H  -5.6404633779  0.2094978955  0.7256543006
H  -6.2915186508  2.7118461294  1.1097759432
H  -0.1700153506  3.7030242535 -0.4870576669
H  -1.4219478841  4.3860065315  0.5672700167
H  -0.0111589747  3.5701386410  1.2640506586
H  -4.2169507928 -1.6185513011 -0.7471879119
H  -2.8266541909 -2.4522386606 -0.0602604665
H  -4.1265963056 -1.8802360818  1.0030820501
H   2.1698185287 -3.0822036990 -0.4012227600
H   4.8022976383 -3.2699443899 -0.5786859781
H   10.2295357403  0.0016797292 -0.6548648388
H   8.5084884888  1.7846408985 -0.4091941625
H   6.1330534504  1.2625420549 -0.3086411776
42
Scanning combination 51/73: [609.8250]  Energy = -2548.7151639515
C  -0.7445929491  1.0324868491  0.2003289608
C  -1.4330755768 -0.2093173990  0.1197407465
C  -2.8125979374 -0.3228072002  0.2550825606
C  -3.5220993022  0.8664654008  0.5129436682
C  -2.8334673676  2.1089247147  0.5762734032
C  -1.4561394745  2.2278217239  0.4076801247
C   0.6702227028  0.8660446168  0.0457997391
C   1.0603995106 -0.4250968185 -0.1362389320
S  -0.3057594319 -1.5205196169 -0.1620206761
C  -4.9370360663  1.0341719728  0.7262382719
C  -5.2972116204  2.3183387853  0.9316405616
S  -3.9539342880  3.4119938934  0.8833299826
C  -0.7351758018  3.5463096286  0.4433805487
C  -3.5347064777 -1.6338284954  0.1007030447
C   2.4137051294 -0.9322589753 -0.2692149746
C   2.8467055966 -2.2306920837 -0.3878427399
C   4.2534385515 -2.3409243053 -0.4793228811
C   4.9093430960 -1.1311977290 -0.4291642339
S   3.7572072277  0.1642718958 -0.2662790786
C   6.3434798291 -0.8531882128 -0.4919029135
C   7.3229533523 -1.9022392893 -0.6337830740
C   8.7327083757 -1.5750396819 -0.6916453864
C   9.1724537902 -0.2242374034 -0.6098786540
C   8.2197650957  0.7403962251 -0.4758553291
C   6.8331996622  0.4368489714 -0.4176605606
N   7.1101841709 -3.2132537830 -0.7254123724
S   8.5537827584 -3.9313013010 -0.8686165272
N   9.5254560739 -2.6383965515 -0.8235399937
H   1.3720000396  1.6936441803  0.0791262190
H  -5.6372744954  0.2051011169  0.7168747910
H  -6.2942709858  2.7036094595  1.1065893061
H  -0.1687726312  3.7055258149 -0.4830180083
H  -1.4233543762  4.3858476621  0.5704219205
H  -0.0124763157  3.5714973939  1.2685420382
H  -4.1374504823 -1.6449753273 -0.8171453921
H  -2.8362458704 -2.4737147159  0.0540126400
H  -4.2199075081 -1.8052749587  0.9378065269
H   2.1731271210 -3.0799167387 -0.4055779331
H   4.8055941526 -3.2682861454 -0.5805674011
H   10.2335586309 -0.0002964278 -0.6551028174
H   8.5139020132  1.7838745942 -0.4095946683
H   6.1379890237  1.2637121758 -0.3097094352
42
Scanning combination 52/73: [614.8250]  Energy = -2548.7149949724
C  -0.7463213718  1.0331336516  0.1864995664
C  -1.4352268277 -0.2083774305  0.1031247562
C  -2.8127465545 -0.3267513405  0.2673233110
C  -3.5208468163  0.8635085166  0.5182875942
C  -2.8326522109  2.1070538514  0.5787944607
C  -1.4557930605  2.2276811506  0.4046904309
C   0.6701320152  0.8659871197  0.0446182354
C   1.0613477180 -0.4254242791 -0.1316725817
S  -0.3050486776 -1.5201828718 -0.1657498452
C  -4.9367827389  1.0335628927  0.7231819820
C  -5.2967947911  2.3179786097  0.9282060383
S  -3.9528878263  3.4108621116  0.8845820011
C  -0.7352654674  3.5461078545  0.4470237919
C  -3.5304786024 -1.6413227434  0.1156880892
C   2.4147433484 -0.9318618732 -0.2674670705
C   2.8474955574 -2.2298797374 -0.3896423080
C   4.2541647475 -2.3396990379 -0.4817693899
C   4.9100248140 -1.1298778603 -0.4321513826
S   3.7575089500  0.1655882426 -0.2709944011
C   6.3445671206 -0.8527173281 -0.4928762704
C   7.3239991100 -1.9020303853 -0.6338428985
C   8.7339616132 -1.5754245315 -0.6915909621
C   9.1741241264 -0.2245801333 -0.6098212804
C   8.2219308161  0.7399521661 -0.4759063350
C   6.8350149080  0.4371110617 -0.4179539907
N   7.1110111521 -3.2130614628 -0.7253652365
S   8.5544116145 -3.9314989661 -0.8688288701
N   9.5264467214 -2.6388982381 -0.8236996361
H   1.3717715175  1.6936452569  0.0839825896
H  -5.6391883666  0.2062678870  0.7056689296
H  -6.2923768920  2.7032209621  1.1097332857
H  -0.1692918506  3.7044898198 -0.4793515566
H  -1.4238479418  4.3855583242  0.5741028103
H  -0.0123653644  3.5727886040  1.2724113290
H  -4.0813121152 -1.6807266380 -0.8327667588
H  -2.8216452834 -2.4734636533  0.1219433346
H  -4.2500951112 -1.8031845434  0.9269486178
H   2.1735936958 -3.0787406156 -0.4102064913
H   4.8063047281 -3.2671288374 -0.5808665968
H   10.2354932224 -0.0011661896 -0.6552599811
H   8.5163596907  1.7835474440 -0.4099222126
H   6.1402842330  1.2642267067 -0.3099762887
42
Scanning combination 53/73: [619.8250]  Energy = -2548.7149373347
C  -0.7449214858  1.0322358623  0.1939084722
C  -1.4335007335 -0.2094776695  0.1125678530
C  -2.8124634491 -0.3246336010  0.2559175613
C  -3.5217408674  0.8630411427  0.5167614896
C  -2.8319732770  2.1059181346  0.5837122647
C  -1.4561764707  2.2261136929  0.4088134747
C   0.6707609648  0.8668026652  0.0406434763
C   1.0611868651 -0.4237315144 -0.1448804166
S  -0.3065546299 -1.5175287409 -0.1850435613
C  -4.9373181091  1.0324105246  0.7256768758
C  -5.2969140087  2.3160514948  0.9313725750
S  -3.9529770037  3.4086982006  0.8901295341
C  -0.7361082057  3.5452181999  0.4495764903
C  -3.5259881974 -1.6394606049  0.0994512894
C   2.4149977584 -0.9304044282 -0.2755507477
C   2.8485349384 -2.2288200515 -0.3940418215
C   4.2553293137 -2.3382882373 -0.4835161559
C   4.9112045097 -1.1287488886 -0.4324750613
S   3.7583832112  0.1666237645 -0.2715605634
C   6.3459425279 -0.8518757312 -0.4936596432
C   7.3251047725 -1.9016588195 -0.6349520013
C   8.7352332624 -1.5758260697 -0.6921583251
C   9.1763678699 -0.2253772447 -0.6102303845
C   8.2241427953  0.7399636327 -0.4764352654
C   6.8372686452  0.4376311083 -0.4189133250
N   7.1114857892 -3.2125964018 -0.7264064113
S   8.5546002523 -3.9318658978 -0.8685839498
N   9.5272612056 -2.6396875270 -0.8233494059
H   1.3726146528  1.6940438001  0.0840446621
H  -5.6419101283  0.2068465504  0.7068091733
H  -6.2940763837  2.7019344661  1.1042983874
H  -0.1681061077  3.7058072755 -0.4752342506
H  -1.4248677596  4.3842645686  0.5773264577
H  -0.0152566373  3.5690447198  1.2763109475
H  -3.9853097768 -1.7141223387 -0.8938245823
H  -2.8366440640 -2.4802709756  0.2005566160
H  -4.3219081900 -1.7540670197  0.8438045551
H   2.1754026573 -3.0783019045 -0.4120881896
H   4.8078612174 -3.2656581163 -0.5833245882
H   10.2375925369 -0.0024417292 -0.6549374627
H   8.5194374836  1.7830821250 -0.4097625693
H   6.1429347031  1.2652039678 -0.3110658328
42
Scanning combination 54/73: [624.8250]  Energy = -2548.7149459773
C  -0.7438704286  1.0326200540  0.1966219413
C  -1.4318476386 -0.2079981551  0.1063525191
C  -2.8111583896 -0.3247581969  0.2460432729
C  -3.5219967577  0.8623349754  0.5066026157
C  -2.8331515764  2.1050824896  0.5797369787
C  -1.4557926447  2.2259114855  0.4126133227
C   0.6709021574  0.8660964059  0.0426904637
C   1.0608060213 -0.4236070067 -0.1491787826
S  -0.3070476210 -1.5171667506 -0.1890638008
C  -4.9379755960  1.0311662097  0.7198277600
C  -5.2967715970  2.3145700994  0.9333988510
S  -3.9524403475  3.4062845391  0.8959503902
C  -0.7361947195  3.5446490571  0.4558197563
C  -3.5184400740 -1.6442400700  0.0947226851
C   2.4153873163 -0.9290009259 -0.2805530109
C   2.8495488213 -2.2269314623 -0.3982549376
C   4.2564859439 -2.3368991985 -0.4867187389
C   4.9123374974 -1.1271685479 -0.4367079540
S   3.7590506242  0.1683081789 -0.2781839681
C   6.3473865178 -0.8511516102 -0.4954541394
C   7.3261211521 -1.9013082876 -0.6353791231
C   8.7364881741 -1.5763041349 -0.6920488474
C   9.1779401946 -0.2258693198 -0.6099574725
C   8.2266121153  0.7395409702 -0.4765463738
C   6.8393133681  0.4383134280 -0.4197033312
N   7.1118732924 -3.2122239595 -0.7267422705
S   8.5546213276 -3.9322351086 -0.8689215029
N   9.5279654589 -2.6406146187 -0.8233547863
H   1.3720664617  1.6934961968  0.0865472337
H  -5.6432882647  0.2068223633  0.7047855408
H  -6.2934080290  2.7003151085  1.1078233819
H  -0.1674840723  3.7065338724 -0.4684783372
H  -1.4251860445  4.3833735877  0.5830863680
H  -0.0158333710  3.5692837784  1.2829367205
H  -3.9023905358 -1.7759470187 -0.9252564729
H  -2.8484038665 -2.4828366492  0.3033308533
H  -4.3731621010 -1.7116661326  0.7746799204
H   2.1766053277 -3.0763894057 -0.4195291014
H   4.8089790912 -3.2643534189 -0.5847487580
H   10.2396106234 -0.0036648832 -0.6546545578
H   8.5222589261  1.7828662082 -0.4100963227
H   6.1454506352  1.2661034387 -0.3119272781
42
Scanning combination 55/73: [629.8250]  Energy = -2548.7148751670
C  -0.7443961339  1.0331827041  0.1938300251
C  -1.4322688723 -0.2072532626  0.1010441939
C  -2.8105179587 -0.3259363767  0.2485098329
C  -3.5213076287  0.8608177600  0.5089474967
C  -2.8330554471  2.1043456531  0.5810779010
C  -1.4560676338  2.2261248395  0.4124272485
C   0.6706012274  0.8664000129  0.0412111163
C   1.0601258484 -0.4231362718 -0.1535242433
S  -0.3084926631 -1.5158604800 -0.1982468670
C  -4.9375257859  1.0308947409  0.7196702302
C  -5.2969033758  2.3137074621  0.9332210073
S  -3.9525554807  3.4052677013  0.8969548910
C  -0.7360473268  3.5449884066  0.4589143780
C  -3.5112760725 -1.6479777836  0.0928237972
C   2.4149091725 -0.9287662158 -0.2839990721
C   2.8497925545 -2.2266695570 -0.4007405304
C   4.2569008890 -2.3361083544 -0.4886275096
C   4.9125093837 -1.1262948742 -0.4384595181
S   3.7586827784  0.1687824941 -0.2793674372
C   6.3477890873 -0.8504546409 -0.4970505884
C   7.3263990329 -1.9010850008 -0.6363626475
C   8.7369315844 -1.5765477594 -0.6922124390
C   9.1789259182 -0.2263276810 -0.6098448169
C   8.2276468789  0.7395071863 -0.4766945307
C   6.8402505777  0.4386326760 -0.4207189487
N   7.1118959448 -3.2119533334 -0.7275246144
S   8.5545067851 -3.9324279860 -0.8688568553
N   9.5281900388 -2.6410599769 -0.8229806498
H   1.3728425378  1.6928532408  0.0885129779
H  -5.6424170702  0.2067265038  0.6996401419
H  -6.2938553800  2.6993816844  1.1077536093
H  -0.1654161913  3.7087687759 -0.4641436158
H  -1.4254738233  4.3835694356  0.5867877567
H  -0.0169126302  3.5665873750  1.2875192386
H  -3.8215410737 -1.8125717192 -0.9472185854
H  -2.8576548520 -2.4782984178  0.3748284695
H  -4.4102419347 -1.6958690368  0.7134187740
H   2.1770728693 -3.0763638374 -0.4221608392
H   4.8094565833 -3.2635003518 -0.5877523602
H   10.2405506814 -0.0043517013 -0.6541758141
H   8.5236562095  1.7825957672 -0.4099282956
H   6.1465934545  1.2666931799 -0.3128951457
42
Scanning combination 56/73: [634.8250]  Energy = -2548.7148160392
C  -0.7435337696  1.0338552626  0.1870487537
C  -1.4315213909 -0.2062846207  0.0955743063
C  -2.8091983677 -0.3256732071  0.2498909096
C  -3.5205679961  0.8590645086  0.5101900418
C  -2.8321047251  2.1024864574  0.5834671224
C  -1.4558127170  2.2253349523  0.4117725456
C   0.6718332486  0.8669170166  0.0382934804
C   1.0607584785 -0.4231240129 -0.1544989559
S  -0.3089066207 -1.5144636883 -0.2067389775
C  -4.9377293503  1.0283471964  0.7182210279
C  -5.2962214154  2.3106542116  0.9308271185
S  -3.9522629722  3.4028003601  0.8959707327
C  -0.7366622547  3.5439390596  0.4628775746
C  -3.5053992843 -1.6500018638  0.1014303376
C   2.4155059758 -0.9285398677 -0.2850867491
C   2.8500566204 -2.2262121066 -0.4041020474
C   4.2571011379 -2.3356595851 -0.4919682198
C   4.9127212322 -1.1258462847 -0.4411020399
S   3.7590332276  0.1693216043 -0.2830495889
C   6.3480360376 -0.8500616906 -0.4978686738
C   7.3264182203 -1.9008953068 -0.6367892273
C   8.7370408671 -1.5766805722 -0.6921752822
C   9.1792916644 -0.2266496709 -0.6097183928
C   8.2282785904  0.7394765129 -0.4768541688
C   6.8407247350  0.4389172030 -0.4212552519
N   7.1115692308 -3.2116480586 -0.7282984710
S   8.5540115565 -3.9325322982 -0.8691229620
N   9.5280464221 -2.6414566186 -0.8227140791
H   1.3746197904  1.6926370152  0.0910531438
H  -5.6441882910  0.2048506850  0.6956812332
H  -6.2927649917  2.6957787048  1.1087913866
H  -0.1653872046  3.7082995299 -0.4592489046
H  -1.4260635121  4.3823374589  0.5915604628
H  -0.0185160254  3.5657160481  1.2922281604
H  -3.7358611170 -1.8491354899 -0.9523425974
H  -2.8728108599 -2.4702069033  0.4536484945
H  -4.4449318364 -1.6804019826  0.6609865398
H   2.1775258213 -3.0760067581 -0.4264095799
H   4.8100247249 -3.2629735269 -0.5892723200
H   10.2410493907 -0.0050377071 -0.6535778723
H   8.5246250815  1.7824759425 -0.4100703037
H   6.1473672968  1.2673133137 -0.3140293305
42
Scanning combination 57/73: [639.8250]  Energy = -2548.7148040587
C  -0.7433800383  1.0349809004  0.1848914887
C  -1.4313949967 -0.2050621854  0.0933363022
C  -2.8092583499 -0.3263410210  0.2487377069
C  -3.5196222438  0.8568872928  0.5146002264
C  -2.8314521442  2.1010918016  0.5874737707
C  -1.4557975375  2.2259661450  0.4124132305
C   0.6722221683  0.8670243192  0.0363211074
C   1.0598274675 -0.4229262530 -0.1590247038
S  -0.3115646887 -1.5121703202 -0.2183403075
C  -4.9373066896  1.0270876740  0.7209347807
C  -5.2963237731  2.3101927079  0.9302024830
S  -3.9524506250  3.4022044856  0.8962544987
C  -0.7366892349  3.5448056471  0.4660830339
C  -3.4942586709 -1.6552926773  0.1013483464
C   2.4146646201 -0.9287940652 -0.2897728098
C   2.8496252811 -2.2263111667 -0.4080553294
C   4.2568021141 -2.3351752799 -0.4940409909
C   4.9123329074 -1.1253367405 -0.4419377661
S   3.7580859746  0.1694716094 -0.2849591082
C   6.3479072174 -0.8498567197 -0.4986307077
C   7.3263532242 -1.9007667283 -0.6376212265
C   8.7371679969 -1.5767583642 -0.6924116688
C   9.1796698026 -0.2268876536 -0.6096887146
C   8.2287584619  0.7392474455 -0.4772128678
C   6.8410075654  0.4389577249 -0.4221334354
N   7.1115152231 -3.2115018297 -0.7292524195
S   8.5539476717 -3.9326165146 -0.8691106701
N   9.5281270947 -2.6416652995 -0.8223565797
H   1.3763469095  1.6920396294  0.0913348177
H  -5.6452319364  0.2053391303  0.6971660069
H  -6.2930192382  2.6949502847  1.1070000203
H  -0.1644457401  3.7098282435 -0.4552145271
H  -1.4260619223  4.3833243856  0.5950643567
H  -0.0193194318  3.5649918253  1.2962599868
H  -3.6396997293 -1.8915517225 -0.9607427046
H  -2.8904007964 -2.4595158073  0.5333414941
H  -4.4754176339 -1.6699425358  0.5837765632
H   2.1775239733 -3.0765815495 -0.4289238919
H   4.8100025465 -3.2622475668 -0.5911860934
H   10.2415987192 -0.0054423900 -0.6528509169
H   8.5253066991  1.7821624218 -0.4099177808
H   6.1478803797  1.2675224528 -0.3150980882
42
Scanning combination 58/73: [644.8250]  Energy = -2548.7149404341
C  -0.7420025288  1.0360293641  0.1881391581
C  -1.4300050081 -0.2029894174  0.0920063167
C  -2.8072746439 -0.3255226791  0.2450372317
C  -3.5202747458  0.8564683526  0.5093164545
C  -2.8319621318  2.1011001328  0.5847646032
C  -1.4555802665  2.2260211737  0.4161371488
C   0.6732026500  0.8676515937  0.0366122761
C   1.0595055315 -0.4222808621 -0.1638105663
S  -0.3125373475 -1.5104508294 -0.2220235198
C  -4.9380015779  1.0270984918  0.7184637079
C  -5.2962359278  2.3090616395  0.9317496893
S  -3.9523682898  3.4010876014  0.8986069185
C  -0.7371812457  3.5450645313  0.4709733855
C  -3.4801195010 -1.6609152773  0.1045000927
C   2.4139351321 -0.9285016688 -0.2951789416
C   2.8490613359 -2.2261533405 -0.4126580266
C   4.2563963898 -2.3350383845 -0.4971061740
C   4.9119353311 -1.1251996634 -0.4447720075
S   3.7575837945  0.1696249480 -0.2895000917
C   6.3475430615 -0.8496901306 -0.5000437028
C   7.3259400173 -1.9007320171 -0.6383049452
C   8.7367900525 -1.5770028013 -0.6923065780
C   9.1795226242 -0.2271963424 -0.6092879268
C   8.2286322728  0.7391165151 -0.4773030156
C   6.8408233462  0.4390554672 -0.4230624091
N   7.1108774451 -3.2114287465 -0.7300947736
S   8.5532433254 -3.9327684317 -0.8693956036
N   9.5276156182 -2.6419944761 -0.8220263731
H   1.3779751032  1.6918696327  0.0909098900
H  -5.6463961068  0.2051017699  0.7006537282
H  -6.2932749893  2.6941958083  1.1083153156
H  -0.1641108711  3.7106954520 -0.4498392348
H  -1.4266515484  4.3834135525  0.5998571670
H  -0.0204571493  3.5648937871  1.3015286677
H  -3.5415827651 -1.9496471609 -0.9507838328
H  -2.9193624990 -2.4428266999  0.6243226158
H  -4.4974106682 -1.6526792772  0.5035840274
H   2.1773993905 -3.0767263675 -0.4342289894
H   4.8097482707 -3.2621228046 -0.5931663184
H   10.2414491461 -0.0059672006 -0.6520538247
H   8.5253868998  1.7819615128 -0.4099579295
H   6.1478244987  1.2677964158 -0.3163298818
42
Scanning combination 59/73: [649.8250]  Energy = -2548.7150155360
C  -0.7404748056  1.0376195302  0.1855393284
C  -1.4279639179 -0.2016284533  0.0903874979
C  -2.8050304261 -0.3267964207  0.2449296895
C  -3.5190525244  0.8549482610  0.5091903617
C  -2.8314169962  2.1003224888  0.5849268017
C  -1.4557042583  2.2270380664  0.4157361375
C   0.6740418344  0.8690726792  0.0343904038
C   1.0604453884 -0.4208482091 -0.1660284865
S  -0.3104774759 -1.5092926640 -0.2218965724
C  -4.9371734558  1.0252166350  0.7186524272
C  -5.2953686378  2.3070896404  0.9327434154
S  -3.9520350433  3.4002198236  0.8982005805
C  -0.7373366894  3.5449763559  0.4741249593
C  -3.4745557085 -1.6662714347  0.1123527638
C   2.4145333645 -0.9271948483 -0.2975854654
C   2.8488966307 -2.2250581133 -0.4160459899
C   4.2561571335 -2.3347706320 -0.5005415826
C   4.9122427007 -1.1252622135 -0.4478343886
S   3.7584988658  0.1701932719 -0.2932238658
C   6.3477800367 -0.8498683084 -0.5017788352
C   7.3259703042 -1.9009903165 -0.6393352716
C   8.7367582305 -1.5772607662 -0.6924255957
C   9.1794303759 -0.2274798931 -0.6090400231
C   8.2285880753  0.7389152617 -0.4774741076
C   6.8408211115  0.4389423026 -0.4241472396
N   7.1106558324 -3.2116382483 -0.7311338806
S   8.5530383367 -3.9330810007 -0.8694345269
N   9.5275022005 -2.6424064755 -0.8215814369
H   1.3778724969  1.6931786260  0.0917009006
H  -5.6449667567  0.2024161873  0.6984751998
H  -6.2925836220  2.6916187136  1.1099330982
H  -0.1625144424  3.7139920017 -0.4447156173
H  -1.4268268915  4.3827242149  0.6043731454
H  -0.0226431145  3.5634302965  1.3061061341
H  -3.4552758737 -1.9998340522 -0.9315009764
H  -2.9558548133 -2.4256371670  0.7066797894
H  -4.5192259287 -1.6415350218  0.4370823163
H   2.1768339397 -3.0750846844 -0.4387081878
H   4.8092662268 -3.2621289276 -0.5959785937
H   10.2413721803 -0.0063350895 -0.6511084913
H   8.5253329862  1.7816950593 -0.4097231791
H   6.1477237524  1.2676444990 -0.3176123345
42
Scanning combination 60/73: [654.8250]  Energy = -2548.7149026746
C  -0.7408186966  1.0384456211  0.1784995415
C  -1.4279836907 -0.2005711702  0.0796979413
C  -2.8018479505 -0.3291106164  0.2592544518
C  -3.5169807618  0.8528646235  0.5174288936
C  -2.8306634376  2.0994007497  0.5861651942
C  -1.4553095418  2.2265922897  0.4143055221
C   0.6747977565  0.8697704424  0.0342250388
C   1.0617424416 -0.4202011049 -0.1644743721
S  -0.3086490649 -1.5087945994 -0.2227040890
C  -4.9361691516  1.0237431483  0.7189350223
C  -5.2954899922  2.3060044232  0.9303214163
S  -3.9520947176  3.3990095249  0.8973621827
C  -0.7375876750  3.5452295432  0.4760169617
C  -3.4716454529 -1.6674753041  0.1165543620
C   2.4150714904 -0.9268987376 -0.2982622049
C   2.8488407620 -2.2247686517 -0.4177226358
C   4.2560609921 -2.3345495273 -0.5019550679
C   4.9122430845 -1.1251053243 -0.4487167496
S   3.7588326242  0.1704855482 -0.2944654056
C   6.3477912188 -0.8498865080 -0.5023881843
C   7.3260317858 -1.9010187432 -0.6397852019
C   8.7369138949 -1.5774057289 -0.6924766698
C   9.1796640047 -0.2276441520 -0.6089253503
C   8.2287995045  0.7387943678 -0.4775930624
C   6.8409729329  0.4388366900 -0.4246603117
N   7.1107814368 -3.2116657278 -0.7316677434
S   8.5531725434 -3.9331916772 -0.8695257118
N   9.5276843375 -2.6425499073 -0.8213913842
H   1.3784621771  1.6941656295  0.0913179224
H  -5.6443668790  0.2016728480  0.6969336635
H  -6.2920950857  2.6901714455  1.1110197862
H  -0.1627358850  3.7139033777 -0.4427765491
H  -1.4271873420  4.3829423519  0.6060420719
H  -0.0226653502  3.5634572756  1.3081171862
H  -3.3975306646 -2.0293979476 -0.9149124878
H  -2.9724194087 -2.4131227031  0.7450518734
H  -4.5279166465 -1.6437042072  0.3945632886
H   2.1761352435 -3.0744294938 -0.4400280254
H   4.8090465368 -3.2619076324 -0.5972727934
H   10.2416381939 -0.0065224367 -0.6507289379
H   8.5256046896  1.7815786911 -0.4096797672
H   6.1479379149  1.2675969442 -0.3182500192
42
Scanning combination 61/73: [659.8250]  Energy = -2548.7150527591
C  -0.7367843041  1.0388923181  0.1899476443
C  -1.4215975317 -0.2008510852  0.0919364576
C  -2.7986062902 -0.3276614454  0.2399403042
C  -3.5155638220  0.8519601213  0.5051648444
C  -2.8309048132  2.0984347481  0.5833993343
C  -1.4538966962  2.2267148540  0.4197580005
C   0.6772234857  0.8723227272  0.0317681133
C   1.0636950143 -0.4163645617 -0.1741274677
S  -0.3045796720 -1.5076563277 -0.2193592159
C  -4.9336194581  1.0177598510  0.7200285301
C  -5.2951959385  2.2986246739  0.9371554708
S  -3.9538570723  3.3940493282  0.9043057069
C  -0.7382294326  3.5456276182  0.4801182603
C  -3.4575687356 -1.6725925442  0.1101774297
C   2.4165786368 -0.9238695947 -0.3068544272
C   2.8492416250 -2.2226231147 -0.4227975244
C   4.2564475127 -2.3338711862 -0.5051410483
C   4.9134427758 -1.1250282764 -0.4513021292
S   3.7613069946  0.1717652834 -0.2970363657
C   6.3489791579 -0.8501221663 -0.5043165374
C   7.3269239973 -1.9014842126 -0.6411924740
C   8.7378502110 -1.5780088849 -0.6926392148
C   9.1806483395 -0.2282842873 -0.6086563040
C   8.2298591147  0.7384017528 -0.4780255461
C   6.8420581428  0.4385718357 -0.4262124567
N   7.1114708560 -3.2120552705 -0.7334844531
S   8.5538930404 -3.9337804944 -0.8700274035
N   9.5285583764 -2.6432932550 -0.8208687571
H   1.3798896926  1.6982563922  0.0828449878
H  -5.6377487925  0.1919359145  0.7099950925
H  -6.2932795982  2.6827293050  1.1091932779
H  -0.1625405549  3.7158053952 -0.4381080641
H  -1.4288529386  4.3826185422  0.6097626323
H  -0.0241359873  3.5625003954  1.3126713064
H  -3.2803983690 -2.0979673338 -0.8836462738
H  -3.0553500073 -2.3819914759  0.8424390535
H  -4.5390803318 -1.6161503013  0.2527405844
H   2.1757549151 -3.0714771103 -0.4444268586
H   4.8084487481 -3.2619318441 -0.6014897322
H   10.2426173363 -0.0071964594 -0.6493997874
H   8.5265702862  1.7811600339 -0.4097171774
H   6.1488342532  1.2673037654 -0.3204921612
42
Scanning combination 62/73: [664.8250]  Energy = -2548.7149219865
C  -0.7379829612  1.0394793070  0.1791538354
C  -1.4228417664 -0.2010940026  0.0802330646
C  -2.7970415325 -0.3327400967  0.2539905083
C  -3.5135207751  0.8479553289  0.5146918076
C  -2.8299550315  2.0960396584  0.5848137195
C  -1.4543064376  2.2265279876  0.4158071002
C   0.6778062648  0.8734765897  0.0316289424
C   1.0658067485 -0.4159288559 -0.1676207345
S  -0.3015880606 -1.5080705726 -0.2162851927
C  -4.9323566943  1.0162393403  0.7206489106
C  -5.2949131084  2.2974946156  0.9332850510
S  -3.9535984605  3.3927210721  0.9012147589
C  -0.7382271964  3.5462231378  0.4819754138
C  -3.4598033726 -1.6745736021  0.1130083289
C   2.4179826432 -0.9234838463 -0.3053046788
C   2.8498582890 -2.2221546383 -0.4242333618
C   4.2569822216 -2.3336032684 -0.5068518959
C   4.9141498603 -1.1247565057 -0.4530408113
S   3.7624235314  0.1723193660 -0.2999021137
C   6.3495808283 -0.8501023230 -0.5051288774
C   7.3274113891 -1.9015791222 -0.6414376143
C   8.7383420812 -1.5781897013 -0.6925499644
C   9.1812023803 -0.2284742822 -0.6084047679
C   8.2304492664  0.7382753351 -0.4780004532
C   6.8426383562  0.4385737637 -0.4266273360
N   7.1118523027 -3.2121361182 -0.7337020674
S   8.5542352334 -3.9339414901 -0.8702587312
N   9.5289844082 -2.6435250244 -0.8208629200
H   1.3810431770  1.6992295811  0.0831753616
H  -5.6377188654  0.1920971845  0.7067932341
H  -6.2923113123  2.6796697439  1.1144264594
H  -0.1629873470  3.7159566479 -0.4364048816
H  -1.4294336119  4.3830192667  0.6115733837
H  -0.0234336459  3.5638774136  1.3146985390
H  -3.2304590154 -2.1222959414 -0.8610508046
H  -3.0791562211 -2.3655533963  0.8747594840
H  -4.5452151707 -1.6205546793  0.2243969445
H   2.1754042803 -3.0704993894 -0.4468416162
H   4.8088081705 -3.2617615616 -0.6021480641
H   10.2431983177 -0.0074285376 -0.6491879911
H   8.5271830732  1.7810417524 -0.4098537146
H   6.1493830133  1.2672762321 -0.3209121272
42
Scanning combination 63/73: [669.8250]  Energy = -2548.7150000984
C  -0.7372980973  1.0392521594  0.1788305922
C  -1.4208092754 -0.2025676765  0.0895132523
C  -2.7972523880 -0.3318627632  0.2464436021
C  -3.5123850098  0.8465673677  0.5182865907
C  -2.8292804287  2.0947323494  0.5889099973
C  -1.4542448561  2.2259646174  0.4142464795
C   0.6780085572  0.8750485434  0.0236948721
C   1.0667335260 -0.4142553679 -0.1762633639
S  -0.3005175699 -1.5074335414 -0.2204728454
C  -4.9303320536  1.0113105172  0.7307226106
C  -5.2942978873  2.2928085527  0.9402405449
S  -3.9549760491  3.3904163741  0.9016981882
C  -0.7391046479  3.5460675538  0.4820445289
C  -3.4563161306 -1.6768996026  0.1231344292
C   2.4195816147 -0.9218878565 -0.3081174235
C   2.8511664806 -2.2207189229 -0.4258783769
C   4.2581812873 -2.3328913982 -0.5091194440
C   4.9157567958 -1.1242434709 -0.4550088812
S   3.7645727066  0.1731937192 -0.3000911687
C   6.3512310809 -0.8500806404 -0.5072213907
C   7.3289423835 -1.9017317821 -0.6429185270
C   8.7399993947 -1.5786367196 -0.6929214976
C   9.1830226963 -0.2289624975 -0.6083158395
C   8.2324049115  0.7379283460 -0.4784260013
C   6.8444944202  0.4385059528 -0.4281477275
N   7.1132161802 -3.2122827526 -0.7350954440
S   8.5555715314 -3.9343878644 -0.8703811924
N   9.5305409688 -2.6441434745 -0.8204661396
H   1.3808702156  1.7007454205  0.0803900895
H  -5.6339092457  0.1857629045  0.7151378442
H  -6.2925000823  2.6753677375  1.1139195040
H  -0.1617589520  3.7198820480 -0.4343787949
H  -1.4314405652  4.3815865233  0.6139130399
H  -0.0265745567  3.5602304651  1.3167243208
H  -3.1361002850 -2.1721760652 -0.7997108548
H  -3.1671349069 -2.3354728181  0.9499983216
H  -4.5477252467 -1.6061254493  0.1124404030
H   2.1759748093 -3.0684624724 -0.4492460478
H   4.8094823176 -3.2610970809 -0.6064346206
H   10.2451051281 -0.0081007649 -0.6482580376
H   8.5292526732  1.7806576022 -0.4096880516
H   6.1513092470  1.2672415150 -0.3224949864
42
Scanning combination 64/73: [674.8250]  Energy = -2548.7147631103
C  -0.7367736354  1.0400417281  0.1774452063
C  -1.4204963862 -0.2009367183  0.0788767113
C  -2.7924515998 -0.3348519133  0.2625516661
C  -3.5115353050  0.8446303112  0.5198122304
C  -2.8299037730  2.0942831636  0.5860321198
C  -1.4543145977  2.2254803943  0.4156867645
C   0.6783611007  0.8745135886  0.0261123076
C   1.0671500907 -0.4147389565 -0.1744001134
S  -0.2993854157 -1.5084538071 -0.2162424846
C  -4.9306313756  1.0109162747  0.7282887842
C  -5.2944692720  2.2920225935  0.9398680948
S  -3.9549336842  3.3894050931  0.9026718161
C  -0.7394990164  3.5457334034  0.4833058292
C  -3.4519562926 -1.6789643745  0.1219615529
C   2.4198860682 -0.9215308555 -0.3092206471
C   2.8515399484 -2.2202697961 -0.4274780866
C   4.2585266013 -2.3325762392 -0.5101923364
C   4.9161544154 -1.1240076469 -0.4555971865
S   3.7649311279  0.1735775516 -0.3014227897
C   6.3516768752 -0.8500218675 -0.5072705412
C   7.3293041363 -1.9017385653 -0.6430519006
C   8.7403774572 -1.5787266512 -0.6929381970
C   9.1834865811 -0.2290927272 -0.6083254201
C   8.2329202873  0.7378607526 -0.4785582476
C   6.8450074017  0.4385282998 -0.4283162572
N   7.1134911140 -3.2122557903 -0.7354984309
S   8.5558273024 -3.9344470436 -0.8705673818
N   9.5308707447 -2.6442729432 -0.8203935121
H   1.3803155941  1.7009051928  0.0776045651
H  -5.6348154897  0.1854972149  0.7184364379
H  -6.2925876801  2.6740174502  1.1169469262
H  -0.1628175614  3.7189755397 -0.4336558913
H  -1.4314930166  4.3815593276  0.6143662331
H  -0.0262453352  3.5613889774  1.3172101134
H  -3.0922890436 -2.2007323838 -0.7698413712
H  -3.1883834969 -2.3184826104  0.9735369781
H  -4.5417452093 -1.6105722226  0.0809974798
H   2.1762771562 -3.0679638916 -0.4502494279
H   4.8097206253 -3.2609339488 -0.6067324041
H   10.2455981053 -0.0083246827 -0.6480373045
H   8.5298399167  1.7805580892 -0.4097943094
H   6.1518516201  1.2673355946 -0.3230115339
42
Scanning combination 65/73: [679.8250]  Energy = -2548.7148540968
C  -0.7353731628  1.0387070720  0.1768306308
C  -1.4186270069 -0.2029099736  0.0897858669
C  -2.7936290152 -0.3342914729  0.2476356565
C  -3.5109759211  0.8433726039  0.5237819641
C  -2.8286541991  2.0916885116  0.5925026082
C  -1.4540561889  2.2250389022  0.4158250991
C   0.6792737683  0.8761723550  0.0177382715
C   1.0690707451 -0.4134147861 -0.1803684042
S  -0.2970270231 -1.5087317932 -0.2164172773
C  -4.9280869233  1.0044661811  0.7406009223
C  -5.2934921532  2.2863226057  0.9479448718
S  -3.9564414060  3.3864904977  0.9027978671
C  -0.7404884737  3.5455333858  0.4836998040
C  -3.4527673153 -1.6801949909  0.1339221188
C   2.4223989582 -0.9202540824 -0.3117839880
C   2.8537714194 -2.2189031504 -0.4300464375
C   4.2604583649 -2.3316403653 -0.5131103314
C   4.9182150767 -1.1231337055 -0.4584602355
S   3.7673900600  0.1747176752 -0.3040408927
C   6.3537133284 -0.8495788859 -0.5091843097
C   7.3310285776 -1.9016714061 -0.6441097024
C   8.7422156504 -1.5791435801 -0.6930119917
C   9.1856449370 -0.2296063492 -0.6080282994
C   8.2352792291  0.7377277706 -0.4788911799
C   6.8472866149  0.4388014114 -0.4296693404
N   7.1147967007 -3.2121044420 -0.7367506158
S   8.5569440561 -3.9347725697 -0.8711460301
N   9.5324013686 -2.6449318632 -0.8201974801
H   1.3817237179  1.7022594388  0.0716752068
H  -5.6312443951  0.1783946717  0.7307752356
H  -6.2921303672  2.6679954806  1.1196116462
H  -0.1630168059  3.7208616755 -0.4324770326
H  -1.4335373243  4.3803269364  0.6164527243
H  -0.0282651989  3.5601314801  1.3185766731
H  -3.0036587343 -2.2530854867 -0.6842177335
H  -3.3047023428 -2.2734189113  1.0438553563
H  -4.5286130663 -1.5991352117 -0.0470529173
H   2.1782467478 -3.0665653664 -0.4545547098
H   4.8114448039 -3.2600596842 -0.6100183544
H   10.2477942262 -0.0091611188 -0.6471975090
H   8.5324840562  1.7803328728 -0.4100727890
H   6.1542427195  1.2677786709 -0.3247087950
42
Scanning combination 66/73: [684.8250]  Energy = -2548.7149320298
C  -0.7333160687  1.0368946307  0.1866013792
C  -1.4132867955 -0.2070687129  0.1006716972
C  -2.7911391908 -0.3357020637  0.2400962930
C  -3.5107679772  0.8422448178  0.5085718638
C  -2.8305130876  2.0903482427  0.5821668934
C  -1.4535038695  2.2223800518  0.4176136160
C   0.6806595906  0.8755549432  0.0212962274
C   1.0729068913 -0.4132758408 -0.1733767004
S  -0.2884179754 -1.5139925978 -0.1869994909
C  -4.9265474986  0.9996550030  0.7372361133
C  -5.2928285218  2.2792353173  0.9567763922
S  -3.9576855443  3.3816560533  0.9065938022
C  -0.7417318794  3.5439802275  0.4848298277
C  -3.4576836975 -1.6792277708  0.1379001709
C   2.4260821445 -0.9180262267 -0.3140626857
C   2.8572458178 -2.2169190945 -0.4348276948
C   4.2641105105 -2.3296921569 -0.5186896818
C   4.9218405073 -1.1213730393 -0.4635957080
S   3.7711746877  0.1768410785 -0.3094074322
C   6.3575018102 -0.8483681685 -0.5124039000
C   7.3342525818 -1.9011806910 -0.6460453088
C   8.7456066138 -1.5794243324 -0.6933380904
C   9.1897586670 -0.2302675709 -0.6077687658
C   8.2397103492  0.7378698043 -0.4795018466
C   6.8515562103  0.4396247073 -0.4319049682
N   7.1172723236 -3.2114499760 -0.7388973096
S   8.5591171431 -3.9349725849 -0.8718521588
N   9.5352793126 -2.6457034530 -0.8197937706
H   1.3802917448  1.7048468761  0.0592493068
H  -5.6243525758  0.1685271794  0.7402103230
H  -6.2914168113  2.6580000107  1.1371033124
H  -0.1649280399  3.7220611876 -0.4311475092
H  -1.4354631747  4.3780947843  0.6176479719
H  -0.0292162795  3.5599356478  1.3189417519
H  -2.9537339977 -2.3096404450 -0.6003296323
H  -3.4307813229 -2.2138209321  1.0960039704
H  -4.5067333678 -1.5854744130 -0.1551723468
H   2.1825120405 -3.0647000385 -0.4610890676
H   4.8151517593 -3.2581483108 -0.6154464634
H   10.2519341202 -0.0103703677 -0.6458368457
H   8.5375022296  1.7801176970 -0.4103455105
H   6.1587835785  1.2689969070 -0.3274896947
42
Scanning combination 67/73: [689.8250]  Energy = -2548.7148555273
C  -0.7337297460  1.0376737670  0.1770323926
C  -1.4140974504 -0.2068489347  0.0949299387
C  -2.7895600447 -0.3385680084  0.2545857237
C  -3.5082327131  0.8401119714  0.5244044435
C  -2.8287791719  2.0897417408  0.5894283167
C  -1.4533862254  2.2224086652  0.4141017536
C   0.6811694704  0.8758063678  0.0173211672
C   1.0742363551 -0.4134471984 -0.1728072021
S  -0.2873751721 -1.5133981945 -0.1929933172
C  -4.9251878751  0.9977682825  0.7440712168
C  -5.2928681297  2.2787934458  0.9558007602
S  -3.9586288873  3.3825176441  0.9033630999
C  -0.7417662131  3.5439087350  0.4840251907
C  -3.4597444197 -1.6812537038  0.1498945809
C   2.4274615780 -0.9180285176 -0.3111879390
C   2.8583149705 -2.2167208175 -0.4340512873
C   4.2647977260 -2.3293329775 -0.5198820680
C   4.9225184646 -1.1209870116 -0.4647245623
S   3.7720847662  0.1771215864 -0.3086972704
C   6.3581411826 -0.8481797202 -0.5132234617
C   7.3349239941 -1.9009913251 -0.6465192182
C   8.7463582798 -1.5794492735 -0.6934328902
C   9.1905642892 -0.2302478982 -0.6077492933
C   8.2406373813  0.7378728289 -0.4796616624
C   6.8523788308  0.4398237888 -0.4324044505
N   7.1178455040 -3.2112466831 -0.7394476952
S   8.5596249365 -3.9349675400 -0.8720224602
N   9.5359594960 -2.6458256586 -0.8196896273
H   1.3803887792  1.7050516195  0.0611253408
H  -5.6243232057  0.1676696728  0.7386417552
H  -6.2911102468  2.6568854747  1.1377347195
H  -0.1647484578  3.7227829003 -0.4312457187
H  -1.4357167019  4.3774779244  0.6179670789
H  -0.0298573198  3.5586418228  1.3187219623
H  -2.9176282918 -2.3373181906 -0.5366604664
H  -3.4785514918 -2.1915760531  1.1215015807
H  -4.4917150871 -1.5956803223 -0.2002907506
H   2.1832176209 -3.0641471572 -0.4616861412
H   4.8157980641 -3.2576324796 -0.6174429341
H   10.2528583825 -0.0105622684 -0.6455474277
H   8.5385878391  1.7801976809 -0.4104136346
H   6.1597666398  1.2692835396 -0.3281755127
42
Scanning combination 68/73: [694.8250]  Energy = -2548.7149851674
C  -0.7335200661  1.0333592577  0.1770487985
C  -1.4122365628 -0.2133458091  0.1005943020
C  -2.7886323219 -0.3437170701  0.2617897952
C  -3.5061399150  0.8362232721  0.5278462671
C  -2.8279393165  2.0854953184  0.5893246720
C  -1.4527455869  2.2188001640  0.4121304422
C   0.6821717018  0.8765009883  0.0174132444
C   1.0786934878 -0.4120742405 -0.1710168748
S  -0.2807313126 -1.5151016607 -0.1960169613
C  -4.9226605324  0.9919169112  0.7472505739
C  -5.2914649222  2.2728904622  0.9555958374
S  -3.9578855872  3.3774022929  0.9053364283
C  -0.7423596609  3.5413352672  0.4836099665
C  -3.4763459105 -1.6786134387  0.1685430001
C   2.4317943943 -0.9153089572 -0.3128623549
C   2.8614022186 -2.2139667671 -0.4379566615
C   4.2676072448 -2.3273671405 -0.5236401037
C   4.9260260227 -1.1195653609 -0.4651399657
S   3.7766394145  0.1791959172 -0.3073894738
C   6.3615429842 -0.8474857457 -0.5143035155
C   7.3378416456 -1.9004651761 -0.6483684480
C   8.7494437939 -1.5794315993 -0.6941931338
C   9.1939272042 -0.2303123286 -0.6080921891
C   8.2444068663  0.7379943216 -0.4808048751
C   6.8559790386  0.4405449654 -0.4342155948
N   7.1202808394 -3.2106068167 -0.7420813408
S   8.5619388029 -3.9349492996 -0.8726057460
N   9.5387408024 -2.6462105381 -0.8192262752
H   1.3781079236  1.7087243932  0.0572654248
H  -5.6193700916  0.1595126289  0.7489646711
H  -6.2889441214  2.6499081984  1.1428466710
H  -0.1667898074  3.7199777805 -0.4324207920
H  -1.4368852283  4.3745313652  0.6181992138
H  -0.0292574471  3.5587890917  1.3176288439
H  -2.8934245852 -2.3706070642 -0.4447756490
H  -3.6064714495 -2.1392478157  1.1564896732
H  -4.4727635865 -1.5795210948 -0.2738593292
H   2.1856200750 -3.0611946509 -0.4619957662
H   4.8180147719 -3.2557742809 -0.6225923175
H   10.2565203446 -0.0111262691 -0.6442352154
H   8.5426642366  1.7802649868 -0.4106089075
H   6.1635478933  1.2701983505 -0.3310458274
42
Scanning combination 69/73: [699.8250]  Energy = -2548.7150784487
C  -0.7354322670  1.0303595045  0.1807984432
C  -1.4141098844 -0.2170976397  0.1063704253
C  -2.7904876551 -0.3454108769  0.2638566902
C  -3.5073347478  0.8349721069  0.5332497732
C  -2.8289431282  2.0842286461  0.5932056868
C  -1.4534557397  2.2166703122  0.4154020483
C   0.6803069325  0.8742351446  0.0175591476
C   1.0783295173 -0.4134752292 -0.1691747928
S  -0.2800863628 -1.5185724136 -0.1881596754
C  -4.9227809238  0.9917320892  0.7557711013
C  -5.2925242052  2.2734183952  0.9614798017
S  -3.9590527859  3.3777376029  0.9040609098
C  -0.7424096191  3.5393312641  0.4823609966
C  -3.4841324237 -1.6778386413  0.1745155628
C   2.4327024480 -0.9157103282 -0.3128222946
C   2.8638714130 -2.2131763494 -0.4402780608
C   4.2701705135 -2.3254555064 -0.5268432089
C   4.9282500469 -1.1173978516 -0.4675505831
S   3.7771415484  0.1802691467 -0.3082384212
C   6.3645335573 -0.8458182947 -0.5165203701
C   7.3407403116 -1.8995521658 -0.6496729637
C   8.7526970598 -1.5792174923 -0.6943547629
C   9.1981613070 -0.2306405437 -0.6078117159
C   8.2488008861  0.7382609330 -0.4815316827
C   6.8601033795  0.4415137972 -0.4361802073
N   7.1229726354 -3.2095993592 -0.7437363843
S   8.5644380670 -3.9344743389 -0.8738614447
N   9.5416822854 -2.6461458473 -0.8193977298
H   1.3764853965  1.7066401790  0.0557291593
H  -5.6192303495  0.1595263586  0.7562444032
H  -6.2904280184  2.6497046987  1.1472815812
H  -0.1678556706  3.7169262085 -0.4351067679
H  -1.4371082134  4.3723364357  0.6174965285
H  -0.0281094468  3.5567342199  1.3155221438
H  -2.8681599828 -2.4066928334 -0.3582020317
H  -3.6993613897 -2.0888410572  1.1689922971
H  -4.4411682728 -1.5863921681 -0.3502924536
H   2.1879975856 -3.0608851774 -0.4667890787
H   4.8211708264 -3.2535624945 -0.6272704482
H   10.2607347781 -0.0117945468 -0.6434239267
H   8.5475526524  1.7801781359 -0.4115993758
H   6.1681309248  1.2716881518 -0.3333896404
42
Scanning combination 70/73: [704.8250]  Energy = -2548.7151839191
C  -0.7345257020  1.0274269186  0.1897071523
C  -1.4132379051 -0.2198216793  0.1135150657
C  -2.7894617508 -0.3466227974  0.2674654910
C  -3.5079000042  0.8350214475  0.5296142161
C  -2.8295757965  2.0835547466  0.5897025393
C  -1.4533354224  2.2148125317  0.4189643501
C   0.6799472528  0.8731225047  0.0200951918
C   1.0787470587 -0.4137561004 -0.1730763040
S  -0.2787663017 -1.5200902638 -0.1873167263
C  -4.9221356082  0.9901684975  0.7592169372
C  -5.2919026758  2.2716125284  0.9685293741
S  -3.9582795906  3.3761240241  0.9089929270
C  -0.7420720357  3.5372036269  0.4818561098
C  -3.4875907204 -1.6771757994  0.1859306144
C   2.4335912791 -0.9148033006 -0.3158281475
C   2.8654897600 -2.2126290434 -0.4416920683
C   4.2719923723 -2.3245189432 -0.5285253255
C   4.9297162543 -1.1165218067 -0.4686469324
S   3.7784338883  0.1807531726 -0.3059237475
C   6.3659529755 -0.8447960578 -0.5184151081
C   7.3419177711 -1.8987551666 -0.6510486554
C   8.7539309576 -1.5790276869 -0.6947099158
C   9.1996472123 -0.2304312379 -0.6077080414
C   8.2506523437  0.7387106441 -0.4820286862
C   6.8618031119  0.4426050371 -0.4376877075
N   7.1236390035 -3.2087663316 -0.7451629668
S   8.5648960278 -3.9342170256 -0.8744927589
N   9.5426069425 -2.6462626207 -0.8193756190
H   1.3745385594  1.7065439904  0.0532505421
H  -5.6144207056  0.1545384292  0.7684894981
H  -6.2904257381  2.6494529606  1.1482416713
H  -0.1694775505  3.7153195998 -0.4366953372
H  -1.4371264193  4.3701821513  0.6155590968
H  -0.0263553936  3.5554274057  1.3135091435
H  -2.8432743122 -2.4387940735 -0.2600950020
H  -3.7910201743 -2.0377569541  1.1769113855
H  -4.3972838979 -1.6010993181 -0.4192956007
H   2.1902430309 -3.0603142856 -0.4687891777
H   4.8231202507 -3.2524279737 -0.6321906321
H   10.2623553558 -0.0120639980 -0.6428933697
H   8.5497063879  1.7806841302 -0.4120486432
H   6.1700007635  1.2728973437 -0.3352035517
42
Scanning combination 71/73: [709.8250]  Energy = -2548.7151866013
C  -0.7352360066  1.0287703719  0.1813043412
C  -1.4139108379 -0.2190809802  0.1065371865
C  -2.7871586768 -0.3497203684  0.2870195859
C  -3.5055126783  0.8335618940  0.5451164975
C  -2.8283732604  2.0835809008  0.5950034014
C  -1.4531669099  2.2148322296  0.4164859695
C   0.6801912315  0.8734300440  0.0166197291
C   1.0789921503 -0.4133332415 -0.1752868228
S  -0.2793431083 -1.5187496994 -0.1975412893
C  -4.9211738741  0.9892710400  0.7657285526
C  -5.2917452710  2.2712771508  0.9675129119
S  -3.9588161727  3.3767411465  0.9073351838
C  -0.7420854337  3.5374471291  0.4817912660
C  -3.4900412368 -1.6789641110  0.2030280116
C   2.4339125028 -0.9147577213 -0.3153842480
C   2.8656310823 -2.2126333655 -0.4411113350
C   4.2720223533 -2.3246093119 -0.5282482838
C   4.9297667315 -1.1165430769 -0.4686861599
S   3.7787033684  0.1807674065 -0.3054246896
C   6.3659252243 -0.8447877880 -0.5186442378
C   7.3419281134 -1.8987866351 -0.6510968983
C   8.7539683741 -1.5790211873 -0.6946802683
C   9.1996511616 -0.2304564011 -0.6076320439
C   8.2505966889  0.7387800095 -0.4819555043
C   6.8617409776  0.4425352601 -0.4377568166
N   7.1236535301 -3.2087735787 -0.7450885426
S   8.5648747342 -3.9342508466 -0.8744884203
N   9.5426228180 -2.6463027918 -0.8193984498
H   1.3748677784  1.7068133287  0.0548419988
H  -5.6142896604  0.1537888007  0.7688517538
H  -6.2905258518  2.6496916764  1.1463816485
H  -0.1694710971  3.7157735447 -0.4363562855
H  -1.4371427106  4.3702485166  0.6155932300
H  -0.0264501121  3.5549544485  1.3136490186
H  -2.8303850375 -2.4596909435 -0.1846267930
H  -3.8400469477 -2.0062099709  1.1912369448
H  -4.3679188331 -1.6213135396 -0.4493284319
H   2.1903080896 -3.0602189447 -0.4687496602
H   4.8230732742 -3.2523879781 -0.6324363582
H   10.2623499902 -0.0120610269 -0.6429371085
H   8.5497031750  1.7807272558 -0.4120519942
H   6.1699815312  1.2729062972 -0.3351395423
42
Scanning combination 72/73: [714.8250]  Energy = -2548.7152949029
C  -0.7326371462  1.0269685018  0.1887307715
C  -1.4104311099 -0.2212867394  0.1156624981
C  -2.7852181220 -0.3513947512  0.2839525915
C  -3.5044448682  0.8308685241  0.5434503099
C  -2.8277887840  2.0809218458  0.5973395820
C  -1.4522169475  2.2127426583  0.4210737902
C   0.6826006169  0.8739051461  0.0179732436
C   1.0820250337 -0.4131194955 -0.1730661621
S  -0.2748998556 -1.5199094158 -0.1896571558
C  -4.9189945648  0.9847293466  0.7701560348
C  -5.2907798093  2.2665858494  0.9711036238
S  -3.9597534096  3.3740712323  0.9063001918
C  -0.7417525577  3.5356473847  0.4813632885
C  -3.4828145925 -1.6829639190  0.2083264585
C   2.4363815134 -0.9142944295 -0.3173396239
C   2.8678015918 -2.2120824401 -0.4459375789
C   4.2742416605 -2.3235278537 -0.5324709624
C   4.9317140485 -1.1153016529 -0.4712620584
S   3.7805328188  0.1817663939 -0.3089650972
C   6.3677503973 -0.8437413652 -0.5195497553
C   7.3433676921 -1.8979699992 -0.6517671023
C   8.7554317766 -1.5785918383 -0.6948628489
C   9.2014711353 -0.2301949035 -0.6076779843
C   8.2526729652  0.7392817880 -0.4826133278
C   6.8637375654  0.4435638744 -0.4387898367
N   7.1246847914 -3.2078683451 -0.7464628009
S   8.5657609748 -3.9336766029 -0.8756147368
N   9.5438063134 -2.6460327732 -0.8196216595
H   1.3771448693  1.7078338916  0.0520807765
H  -5.6106738834  0.1481529093  0.7765157308
H  -6.2891919993  2.6437367887  1.1542931996
H  -0.1714667260  3.7107883806 -0.4392754760
H  -1.4378193302  4.3676947053  0.6157423794
H  -0.0245537561  3.5550602603  1.3119239488
H  -2.7904218429 -2.4783024958 -0.0793724798
H  -3.9243209121 -1.9560313834  1.1756101871
H  -4.2969219079 -1.6542912243 -0.5268819553
H   2.1918510803 -3.0592055238 -0.4745293580
H   4.8254103479 -3.2512415843 -0.6349520805
H   10.2642768036 -0.0121551176 -0.6424439144
H   8.5520552402  1.7811222060 -0.4129611823
H   6.1721555696  1.2741579942 -0.3370873686
42
Scanning combination 73/73: [719.8250]  Energy = -2548.7151550108
C  -0.7338275518  1.0281526562  0.1797771775
C  -1.4120941762 -0.2191846251  0.1038513037
C  -2.7823290461 -0.3531508859  0.3054680086
C  -3.5025464031  0.8300841837  0.5587469483
C  -2.8272264689  2.0805768024  0.6025979231
C  -1.4523786193  2.2132555561  0.4202218834
C   0.6820777233  0.8748130185  0.0142184128
C   1.0813498190 -0.4125320713 -0.1766471889
S  -0.2765325913 -1.5179325353 -0.2016900760
C  -4.9181911871  0.9841572509  0.7763632613
C  -5.2911650730  2.2674386248  0.9706096732
S  -3.9601361767  3.3748281644  0.9038864212
C  -0.7418679973  3.5355444559  0.4814001543
C  -3.4827526200 -1.6826404552  0.2195579895
C   2.4358527712 -0.9144699448 -0.3168442162
C   2.8673096020 -2.2123544707 -0.4448949455
C   4.2738372034 -2.3238980690 -0.5316094661
C   4.9312898872 -1.1155947424 -0.4709163415
S   3.7801203880  0.1814306193 -0.3084835323
C   6.3672778623 -0.8438782074 -0.5192690154
C   7.3429397668 -1.8980538662 -0.6514026415
C   8.7549404363 -1.5786994655 -0.6946362686
C   9.2009724141 -0.2302478529 -0.6074998908
C   8.2521918965  0.7391998830 -0.4823808065
C   6.8632732477  0.4434951670 -0.4384698845
N   7.1242432929 -3.2079804970 -0.7460768837
S   8.5653107978 -3.9337265173 -0.8756117189
N   9.5433349921 -2.6460651560 -0.8196634840
H   1.3775113326  1.7076211307  0.0532979679
H  -5.6104590379  0.1484136765  0.7780419053
H  -6.2897878952  2.6446014304  1.1513927266
H  -0.1713161673  3.7107295540 -0.4390349889
H  -1.4381083230  4.3672994892  0.6158114085
H  -0.0250671781  3.5544096780  1.3123542488
H  -2.7823811372 -2.4876076664 -0.0175681614
H  -3.9544442528 -1.9351789784  1.1790220937
H  -4.2710370368 -1.6716573850 -0.5437121583
H   2.1914075554 -3.0594946651 -0.4739432791
H   4.8251931843 -3.2515420993 -0.6340635293
H   10.2637424860 -0.0122348246 -0.6426207744
H   8.5515637599  1.7810842592 -0.4130079484
H   6.1716948057  1.2740780974 -0.3367233900
