42
Scanning combination 1/73: [58.8484]  Energy = -2548.7148309702
C  -0.7222587020  0.9647952280  0.2244873057
C  -1.4269066625 -0.2687095840  0.1832189892
C  -2.8144679440 -0.3500723587  0.2843137560
C  -3.5193842653  0.8608385361  0.4328774299
C  -2.8094855373  2.0920263968  0.4731268540
C  -1.4230113200  2.1754500416  0.3721196877
C   0.6951697747  0.7803067675  0.1012055771
C   1.0784493999 -0.5203554899 -0.0291268690
S  -0.3022414445 -1.6039729977 -0.0072295942
C  -4.9421414003  1.0658170480  0.5592560058
C  -5.2828243330  2.3660984976  0.6863608958
S  -3.9155627185  3.4302400711  0.6625485848
C  -0.6831842762  3.4802951766  0.4157016439
C  -3.5444136010 -1.6642023940  0.2390592996
C   2.4336136852 -1.0334804640 -0.1723899598
C   2.8746133255 -2.3288293568 -0.3063668174
C   4.2845398316 -2.4339049732 -0.4209426330
C   4.9349207694 -1.2208693277 -0.3757332062
S   3.7736992993  0.0639256437 -0.1888042215
C   6.3602077876 -0.8936724087 -0.4567937883
C   7.3921433100 -1.8883751080 -0.6127316133
C   8.7829020710 -1.4860786402 -0.6851078919
C   9.1501312508 -0.1132326206 -0.6040093428
C   8.1513780849  0.7986694235 -0.4570394236
C   6.7865424588  0.4192125444 -0.3848538018
N   7.2493942844 -3.2082597285 -0.7063459949
S   8.7276419717 -3.8474407642 -0.8676269218
N   9.6304201865 -2.5049420299 -0.8291328234
H   1.3985739596  1.6085577497  0.1117095885
H  -5.6664283203  0.2560950266  0.5529842705
H  -6.2778815419  2.7792472662  0.7956186633
H  -0.1007828246  3.6230922895 -0.5021263815
H  -1.3568932064  4.3337519512  0.5292783772
H   0.0280655621  3.4918779108  1.2500062662
H  -2.8468858424 -2.4962536122  0.1175153416
H  -4.1175725860 -1.8308088308  1.1596987505
H  -4.2580526546 -1.6922706149 -0.5938451313
H   2.2052923476 -3.1824905566 -0.3221190842
H   4.8398601762 -3.3591350140 -0.5347082072
H   10.1954400521  0.1712571774 -0.6597465103
H   8.3853922500  1.8584932464 -0.3906416536
H   6.0491875043  1.2062099039 -0.2672652233
42
Scanning combination 2/73: [63.8484]  Energy = -2548.7150542790
C  -0.7195212786  0.9654032608  0.2291233236
C  -1.4233102777 -0.2700514519  0.1923161929
C  -2.8089426088 -0.3557793845  0.2857766799
C  -3.5112182243  0.8582826470  0.4218661602
C  -2.8043122407  2.0918683378  0.4534573353
C  -1.4167304457  2.1792131382  0.3610487051
C   0.6949623760  0.7751144504  0.1099397583
C   1.0742368584 -0.5258997185 -0.0206869782
S  -0.3044556646 -1.6068976198 -0.0017130543
C  -4.9326121825  1.0589695925  0.5567966275
C  -5.2785434954  2.3575081113  0.6859636420
S  -3.9146015467  3.4255252848  0.6520895262
C  -0.6805150489  3.4890036254  0.4068746754
C  -3.5430927383 -1.6690019139  0.2391137498
C   2.4271582569 -1.0350588802 -0.1708461430
C   2.8753854881 -2.3278565805 -0.3067562718
C   4.2847779778 -2.4213869646 -0.4203455060
C   4.9269887976 -1.2040411414 -0.3739109228
S   3.7585031680  0.0730189946 -0.1870868481
C   6.3522735449 -0.8811215461 -0.4551787496
C   7.3774744277 -1.8830853713 -0.6111756382
C   8.7704586134 -1.4879965294 -0.6842989856
C   9.1499401922 -0.1186386342 -0.6044100036
C   8.1550596137  0.7993039936 -0.4572843579
C   6.7862653840  0.4288599266 -0.3840789922
N   7.2274440992 -3.2025655843 -0.7042491337
S   8.7029470590 -3.8488898932 -0.8659432984
N   9.6122440865 -2.5111094830 -0.8282815203
H   1.4023438396  1.5985961334  0.1135531650
H  -5.6490798738  0.2431220348  0.5527604961
H  -6.2740430301  2.7701667053  0.7965231788
H  -0.1510306184  3.6865610586 -0.5344290073
H  -1.3625738829  4.3220591928  0.5898701252
H   0.0692163247  3.4855793759  1.2071942603
H  -2.8585963309 -2.5125698059  0.1171050120
H  -4.1177942688 -1.8289474171  1.1599327197
H  -4.2571666275 -1.6887578825 -0.5939192865
H   2.2149068612 -3.1869841084 -0.3232728462
H   4.8434559401 -3.3432754914 -0.5337881664
H   10.1989701538  0.1543811186 -0.6613842448
H   8.3980081751  1.8559450823 -0.3918762486
H   6.0536158649  1.2207225986 -0.2665112958
42
Scanning combination 3/73: [68.8484]  Energy = -2548.7151656801
C  -0.7189994898  0.9665472717  0.2235453840
C  -1.4210763156 -0.2710369861  0.1871919418
C  -2.8062767043 -0.3579852057  0.2796512520
C  -3.5096161991  0.8539331029  0.4190756579
C  -2.8047803952  2.0884463028  0.4510875359
C  -1.4173485769  2.1800382862  0.3623465876
C   0.6955897807  0.7750449695  0.1071870018
C   1.0754417901 -0.5268547251 -0.0140737692
S  -0.3000914642 -1.6099016660  0.0161194784
C  -4.9309741087  1.0527404250  0.5515029639
C  -5.2792028926  2.3513459983  0.6745381211
S  -3.9178060718  3.4219123850  0.6282515636
C  -0.6843804372  3.4929741017  0.4112929039
C  -3.5425950178 -1.6695550427  0.2390330535
C   2.4281601258 -1.0327991112 -0.1618567699
C   2.8799450829 -2.3235371727 -0.3030405307
C   4.2882376205 -2.4098360705 -0.4200889346
C   4.9245518318 -1.1891994888 -0.3719405766
S   3.7532148756  0.0826826824 -0.1810714578
C   6.3482849252 -0.8667399604 -0.4541980736
C   7.3646662067 -1.8766088636 -0.6101364464
C   8.7601622597 -1.4937499028 -0.6841750316
C   9.1491311236 -0.1267555791 -0.6050927765
C   8.1616248917  0.7994223432 -0.4579641749
C   6.7896150119  0.4410585643 -0.3837728147
N   7.2018805246 -3.1946688693 -0.7019950050
S   8.6709309171 -3.8548124122 -0.8639204787
N   9.5920867010 -2.5251059852 -0.8277991893
H   1.4054168535  1.5961724788  0.1126583512
H  -5.6439274733  0.2345164383  0.5569040354
H  -6.2749358945  2.7594019853  0.7947507017
H  -0.2322626640  3.7361592528 -0.5599817488
H  -1.3512765052  4.3146083012  0.6856362954
H   0.1252437478  3.4512353769  1.1500361646
H  -2.8581786497 -2.5124599779  0.1176549572
H  -4.1173962700 -1.8270963083  1.1605164772
H  -4.2574247260 -1.6887350147 -0.5928126439
H   2.2211061289 -3.1838824337 -0.3217338105
H   4.8520845636 -3.3282032476 -0.5360483653
H   10.1999888312  0.1393099559 -0.6625997878
H   8.4139333765  1.8540136828 -0.3932033635
H   6.0637104328  1.2395143299 -0.2660478897
42
Scanning combination 4/73: [73.8484]  Energy = -2548.7149363512
C  -0.7200234721  0.9659377324  0.2358970217
C  -1.4213459547 -0.2717682530  0.1953553209
C  -2.8066717914 -0.3585192230  0.2821500008
C  -3.5102504640  0.8536971356  0.4191276507
C  -2.8071087844  2.0892469830  0.4398454387
C  -1.4209012185  2.1802940675  0.3428453306
C   0.6944905557  0.7757054454  0.1145361633
C   1.0744235204 -0.5250228799 -0.0141182711
S  -0.3005340446 -1.6087556089  0.0145505742
C  -4.9308054696  1.0525170734  0.5532226743
C  -5.2793117913  2.3506416844  0.6729578752
S  -3.9186870125  3.4220440511  0.6298934192
C  -0.6877150003  3.4915325446  0.4117248590
C  -3.5423992480 -1.6701548959  0.2380526453
C   2.4272261226 -1.0309963854 -0.1626952333
C   2.8795687038 -2.3217199221 -0.3019972162
C   4.2878601238 -2.4079675446 -0.4192685872
C   4.9241405182 -1.1872772465 -0.3713596935
S   3.7526874902  0.0844493103 -0.1790392560
C   6.3481822904 -0.8654164165 -0.4540118838
C   7.3638532233 -1.8762321229 -0.6100471072
C   8.7596806284 -1.4946590065 -0.6842190082
C   9.1497507915 -0.1280178392 -0.6052937244
C   8.1631559767  0.7992030101 -0.4581599566
C   6.7907219835  0.4420535497 -0.3837706104
N   7.2000548654 -3.1941695844 -0.7019212594
S   8.6685421952 -3.8556306969 -0.8638917159
N   9.5908194026 -2.5266881669 -0.8278413207
H   1.4032702147  1.5977923960  0.1080594795
H  -5.6437080559  0.2339951826  0.5563879699
H  -6.2753829665  2.7588358320  0.7916784757
H  -0.2775706345  3.7662607355 -0.5677481651
H  -1.3552100753  4.3041775962  0.7137839367
H   0.1427677810  3.4501195226  1.1244033394
H  -2.8574448967 -2.5130524011  0.1177284579
H  -4.1160074301 -1.8268371685  1.1601647651
H  -4.2581435960 -1.6900716564 -0.5934684631
H   2.2218262961 -3.1831675022 -0.3209752976
H   4.8524620487 -3.3258882252 -0.5365705986
H   10.2009283824  0.1366698686 -0.6628808117
H   8.4165508677  1.8536161848 -0.3935306242
H   6.0655474146  1.2412503440 -0.2661903869
42
Scanning combination 5/73: [78.8484]  Energy = -2548.7150419408
C  -0.7230861715  0.9674184000  0.2223484461
C  -1.4221642918 -0.2719090685  0.1919754233
C  -2.8075274319 -0.3607981654  0.2809647723
C  -3.5120285635  0.8515945711  0.4124059729
C  -2.8095001963  2.0869596569  0.4357820427
C  -1.4227770956  2.1799009560  0.3539360009
C   0.6918979961  0.7783783736  0.1103614934
C   1.0744996622 -0.5226835800 -0.0025297108
S  -0.2976659078 -1.6091880572  0.0372340623
C  -4.9327772812  1.0503052854  0.5451434788
C  -5.2817550136  2.3496115822  0.6576746806
S  -3.9214579586  3.4218856264  0.5987829527
C  -0.6966303072  3.4958178017  0.4073020155
C  -3.5421565433 -1.6733381714  0.2401662945
C   2.4277809836 -1.0255899728 -0.1523340474
C   2.8803399979 -2.3150575791 -0.2978565410
C   4.2880115579 -2.3991597648 -0.4187378843
C   4.9234350091 -1.1780154682 -0.3693971340
S   3.7513139109  0.0925976884 -0.1725199850
C   6.3481552950 -0.8593783835 -0.4531414796
C   7.3598658628 -1.8743659503 -0.6094225219
C   8.7571577659 -1.4987974784 -0.6843318951
C   9.1527307775 -0.1338009700 -0.6060725416
C   8.1699655842  0.7975630861 -0.4590373560
C   6.7958926745  0.4463740584 -0.3838065375
N   7.1905793925 -3.1916489235 -0.7011442002
S   8.6561421207 -3.8593883842 -0.8637419595
N   9.5839136742 -2.5342944097 -0.8282003081
H   1.3992990075  1.6013290453  0.1078787681
H  -5.6450529612  0.2315229051  0.5607246748
H  -6.2767977719  2.7569320720  0.7856688443
H  -0.3893491624  3.8280427138 -0.5924099722
H  -1.3242255105  4.2819764673  0.8356531122
H   0.2072073875  3.4082229276  1.0201758202
H  -2.8560451476 -2.5151187505  0.1189446301
H  -4.1168876614 -1.8330642068  1.1613877818
H  -4.2570656376 -1.6921001265 -0.5919463362
H   2.2224006405 -3.1763320551 -0.3186914185
H   4.8534555246 -3.3161965936 -0.5379416058
H   10.2050434803  0.1262663181 -0.6641899093
H   8.4281306896  1.8508570122 -0.3952371483
H   6.0741883657  1.2487809829 -0.2665839259
42
Scanning combination 6/73: [83.8484]  Energy = -2548.7148544842
C  -0.7232479656  0.9667583482  0.2367195488
C  -1.4221992914 -0.2721836218  0.2026479747
C  -2.8080830267 -0.3610758350  0.2829734196
C  -3.5136648400  0.8513326104  0.4114045389
C  -2.8120837490  2.0868865115  0.4238779979
C  -1.4252113750  2.1803941336  0.3383250435
C   0.6915690389  0.7789407275  0.1169329729
C   1.0739855650 -0.5214476176 -0.0033751067
S  -0.2982715611 -1.6079551884  0.0337179273
C  -4.9340061915  1.0499010802  0.5474420061
C  -5.2828857900  2.3496961872  0.6587909491
S  -3.9221786063  3.4214729369  0.6005396051
C  -0.7008888308  3.4961729740  0.4090303659
C  -3.5417240211 -1.6736327190  0.2394043971
C   2.4275278041 -1.0239611003 -0.1533660482
C   2.8803844559 -2.3134523551 -0.2972664052
C   4.2880567140 -2.3976586197 -0.4176758180
C   4.9235622585 -1.1766358628 -0.3677480711
S   3.7515454837  0.0939738774 -0.1698808577
C   6.3483117766 -0.8584578370 -0.4529249829
C   7.3593029948 -1.8740997522 -0.6095598354
C   8.7568577663 -1.4996226953 -0.6845213068
C   9.1534142568 -0.1349327760 -0.6062654290
C   8.1712978740  0.7971332162 -0.4593282846
C   6.7969372632  0.4470142030 -0.3840413312
N   7.1889975051 -3.1912579286 -0.7011162360
S   8.6540264915 -3.8601536838 -0.8636254694
N   9.5828074901 -2.5357680963 -0.8282691071
H   1.3986859766  1.6020787884  0.1022376770
H  -5.6459732037  0.2310997376  0.5595319968
H  -6.2786924790  2.7574256656  0.7786172710
H  -0.4390997331  3.8633437094 -0.5899120372
H  -1.3262646048  4.2657630635  0.8720776799
H   0.2233296237  3.4106933361  0.9881934703
H  -2.8556918690 -2.5155589845  0.1184125573
H  -4.1150864851 -1.8316109482  1.1614655105
H  -4.2573984330 -1.6945647903 -0.5920928432
H   2.2230418543 -3.1751897727 -0.3171774786
H   4.8535101277 -3.3144889104 -0.5386361031
H   10.2059101955  0.1243739471 -0.6644499045
H   8.4303333073  1.8502021092 -0.3954926256
H   6.0759239360  1.2500244497 -0.2666652222
42
Scanning combination 7/73: [88.8484]  Energy = -2548.7150661999
C  -0.7252393460  0.9692489872  0.2218744071
C  -1.4228411173 -0.2716803017  0.1960457600
C  -2.8080792467 -0.3625581085  0.2819697038
C  -3.5153093004  0.8488818177  0.4087898808
C  -2.8134170634  2.0841633862  0.4273207151
C  -1.4272532876  2.1784340284  0.3560523494
C   0.6901953732  0.7816410826  0.1098581777
C   1.0744398596 -0.5189899523  0.0041280375
S  -0.2958140530 -1.6069017076  0.0503651297
C  -4.9363241769  1.0491567411  0.5385755789
C  -5.2843041037  2.3495660647  0.6414476466
S  -3.9228975211  3.4212829499  0.5747639867
C  -0.7155133711  3.5010463675  0.4140751596
C  -3.5406194773 -1.6762398581  0.2424970444
C   2.4282718167 -1.0195687866 -0.1441842823
C   2.8809118603 -2.3083111840 -0.2932757497
C   4.2882306498 -2.3912529673 -0.4165977426
C   4.9234757602 -1.1702189483 -0.3651191456
S   3.7513183261  0.0998203612 -0.1628246972
C   6.3488346206 -0.8545304972 -0.4516534389
C   7.3569011631 -1.8732230911 -0.6088320082
C   8.7555020876 -1.5031148147 -0.6847191580
C   9.1561253456 -0.1396529266 -0.6071096156
C   8.1768308345  0.7954241669 -0.4601520291
C   6.8013385955  0.4496483734 -0.3838372644
N   7.1825853550 -3.1898727830 -0.7003661693
S   8.6454326070 -3.8633138137 -0.8637641303
N   9.5782180714 -2.5417556893 -0.8289212254
H   1.3980951461  1.6038644640  0.1040911743
H  -5.6489750202  0.2306047619  0.5608319988
H  -6.2797690972  2.7585068272  0.7650480756
H  -0.5668260308  3.9245358428 -0.5861899041
H  -1.2817251468  4.2342271461  0.9943864856
H   0.2709820357  3.3885272477  0.8739222053
H  -2.8536291838 -2.5173957790  0.1205584113
H  -4.1149052288 -1.8364875949  1.1640521831
H  -4.2558118903 -1.6959693962 -0.5893259422
H   2.2232856580 -3.1697074162 -0.3148060812
H   4.8540851473 -3.3076302942 -0.5393629013
H   10.2093940013  0.1163549580 -0.6659207588
H   8.4393041001  1.8476733629 -0.3971803354
H   6.0828719095  1.2550024890 -0.2667953938
42
Scanning combination 8/73: [93.8484]  Energy = -2548.7149447852
C  -0.7254931640  0.9687952201  0.2380815578
C  -1.4226066753 -0.2716352185  0.2072385205
C  -2.8084350693 -0.3630383447  0.2846533007
C  -3.5166059027  0.8486146291  0.4075253154
C  -2.8161950726  2.0840682541  0.4165372441
C  -1.4293385400  2.1798813392  0.3410996351
C   0.6897173266  0.7824117325  0.1178630249
C   1.0737856237 -0.5175099002  0.0028574400
S  -0.2963500233 -1.6058819161  0.0452598123
C  -4.9369608772  1.0491269582  0.5404110921
C  -5.2847698494  2.3498656953  0.6418503700
S  -3.9232334121  3.4210416027  0.5779292724
C  -0.7194000336  3.5016287806  0.4134516944
C  -3.5402826362 -1.6766320952  0.2417614824
C   2.4280211473 -1.0181313256 -0.1462240972
C   2.8810252594 -2.3070815150 -0.2928526567
C   4.2883535126 -2.3902170539 -0.4154097202
C   4.9237022170 -1.1692499500 -0.3636656384
S   3.7516729823  0.1008050980 -0.1605394478
C   6.3490778717 -0.8539355347 -0.4512522620
C   7.3565878375 -1.8731394848 -0.6088331338
C   8.7553848310 -1.5038572004 -0.6849204054
C   9.1566883951 -0.1405768589 -0.6074156776
C   8.1779179987  0.7950763002 -0.4604257768
C   6.8022134828  0.4500551803 -0.3838566269
N   7.1814788262 -3.1896858627 -0.7003062266
S   8.6438983209 -3.8640409448 -0.8636923281
N   9.5774746908 -2.5430219382 -0.8290432031
H   1.3963392118  1.6056281635  0.0983075902
H  -5.6498285055  0.2307591487  0.5587406786
H  -6.2807105091  2.7591622061  0.7576039646
H  -0.6190342527  3.9546899762 -0.5791022543
H  -1.2793783258  4.2134952256  1.0281121610
H   0.2813322207  3.3961004462  0.8404027469
H  -2.8531812414 -2.5177009046  0.1206038736
H  -4.1129912245 -1.8352440512  1.1640920364
H  -4.2565044580 -1.6983784401 -0.5892911432
H   2.2237530802 -3.1687469427 -0.3135408925
H   4.8541648731 -3.3064287089 -0.5397120808
H   10.2101093184  0.1148147355 -0.6662078442
H   8.4410458600  1.8471888408 -0.3974191154
H   6.0842419466  1.2558657187 -0.2667954741
42
Scanning combination 9/73: [98.8484]  Energy = -2548.7151401097
C  -0.7271286216  0.9712144491  0.2247420333
C  -1.4228574170 -0.2716231651  0.2014163663
C  -2.8081762162 -0.3647729827  0.2849686378
C  -3.5177052890  0.8457386817  0.4044781039
C  -2.8168010177  2.0808583529  0.4212609809
C  -1.4304567103  2.1787314133  0.3567228005
C   0.6887609683  0.7845678991  0.1119424795
C   1.0746789113 -0.5157628775  0.0096131989
S  -0.2936556166 -1.6056267464  0.0586391045
C  -4.9387590165  1.0490200564  0.5306843431
C  -5.2849907206  2.3512261232  0.6256197630
S  -3.9218824921  3.4202632523  0.5566791501
C  -0.7351966380  3.5085422652  0.4133959774
C  -3.5392093422 -1.6793643480  0.2456852597
C   2.4291289618 -1.0145097923 -0.1392156201
C   2.8814968852 -2.3030694786 -0.2901061538
C   4.2885408079 -2.3856190126 -0.4144322998
C   4.9239777154 -1.1647489762 -0.3617356556
S   3.7521470646  0.1052262541 -0.1562694225
C   6.3497938295 -0.8514973147 -0.4498960717
C   7.3551533416 -1.8728794288 -0.6079051918
C   8.7546591095 -1.5067155229 -0.6850991013
C   9.1588936697 -0.1443053501 -0.6082536916
C   8.1821994868  0.7934906821 -0.4610060691
C   6.8057205171  0.4515521879 -0.3832985673
N   7.1771691100 -3.1890776592 -0.6992848775
S   8.6379785552 -3.8666379526 -0.8638455222
N   9.5744044204 -2.5476346187 -0.8298571950
H   1.3956563829  1.6073951611  0.1033835098
H  -5.6529896984  0.2320209715  0.5562718289
H  -6.2796803791  2.7624544049  0.7437344803
H  -0.7503225561  4.0084356066 -0.5635970102
H  -1.2240783745  4.1751274606  1.1298579465
H   0.3083075505  3.3923578041  0.7217353496
H  -2.8512340449 -2.5193825056  0.1235620834
H  -4.1130629630 -1.8399371840  1.1672992227
H  -4.2546946966 -1.6991938696 -0.5859197873
H   2.2234640115 -3.1639360679 -0.3122997714
H   4.8542806891 -3.3017660704 -0.5390709910
H   10.2128339344  0.1087435502 -0.6678574225
H   8.4477416144  1.8450308415 -0.3988707712
H   6.0895839256  1.2590032842 -0.2663696664
42
Scanning combination 10/73: [103.8484]  Energy = -2548.7152495438
C  -0.7270234645  0.9722249925  0.2312727363
C  -1.4228931514 -0.2704032005  0.2045044095
C  -2.8082389210 -0.3655507604  0.2862025427
C  -3.5197717304  0.8443361372  0.4066722815
C  -2.8187467356  2.0787937502  0.4265495579
C  -1.4321876239  2.1792849049  0.3620192193
C   0.6890112748  0.7856457684  0.1132210697
C   1.0743782048 -0.5143716593  0.0078587083
S  -0.2941700183 -1.6039460759  0.0532431638
C  -4.9415096038  1.0484012627  0.5251655217
C  -5.2876170702  2.3498798771  0.6177750520
S  -3.9231221642  3.4181560760  0.5604469896
C  -0.7462516401  3.5141587968  0.4219018828
C  -3.5377955901 -1.6808862074  0.2482850477
C   2.4295957939 -1.0118399447 -0.1383390059
C   2.8821286641 -2.3002278860 -0.2890097240
C   4.2890120116 -2.3822947901 -0.4126036911
C   4.9246053645 -1.1616406923 -0.3582427257
S   3.7527523545  0.1082085620 -0.1516359611
C   6.3507707146 -0.8498863567 -0.4480617370
C   7.3543602750 -1.8729691431 -0.6072998894
C   8.7544889033 -1.5094463719 -0.6856657801
C   9.1611812399 -0.1477679392 -0.6094254457
C   8.1861680114  0.7918254109 -0.4617638086
C   6.8090411383  0.4523794593 -0.3827524897
N   7.1739664010 -3.1888715862 -0.6985340697
S   8.6333972467 -3.8692077763 -0.8636974839
N   9.5722475700 -2.5518939287 -0.8305816292
H   1.3970353454  1.6073733870  0.0999728187
H  -5.6569816533  0.2313843715  0.5476773695
H  -6.2837321828  2.7633284245  0.7222327701
H  -0.8388502315  4.0526134768 -0.5301647020
H  -1.1854905069  4.1436307214  1.2037947566
H   0.3198216546  3.4020186782  0.6411235277
H  -2.8489514200 -2.5203098571  0.1262503721
H  -4.1107569803 -1.8415928273  1.1704082961
H  -4.2535752461 -1.7033623541 -0.5827109752
H   2.2243552647 -3.1611606954 -0.3095875709
H   4.8548124953 -3.2981991706 -0.5381053801
H   10.2155471915  0.1033425535 -0.6695361828
H   8.4538385018  1.8428245422 -0.3999392241
H   6.0945837784  1.2613374546 -0.2658162411
42
Scanning combination 11/73: [108.8484]  Energy = -2548.7152087444
C  -0.7276950725  0.9735539560  0.2413301964
C  -1.4224392868 -0.2700212982  0.2139031659
C  -2.8086616715 -0.3655806186  0.2899479335
C  -3.5210768990  0.8443516003  0.4041775303
C  -2.8212948503  2.0793472568  0.4158565205
C  -1.4346095267  2.1800267085  0.3504041759
C   0.6888447022  0.7868830622  0.1203606575
C   1.0740958668 -0.5124031009  0.0089676373
S  -0.2945217568 -1.6021888648  0.0507214511
C  -4.9425332453  1.0473499907  0.5251537420
C  -5.2894020958  2.3499554069  0.6180585603
S  -3.9246000660  3.4178812554  0.5639480336
C  -0.7519494227  3.5157307304  0.4233345469
C  -3.5368849420 -1.6810348127  0.2485780741
C   2.4293464025 -1.0105248330 -0.1399873206
C   2.8820154455 -2.2985544475 -0.2883824191
C   4.2889702446 -2.3816468560 -0.4111189412
C   4.9248288173 -1.1607893566 -0.3575230389
S   3.7531213325  0.1091724463 -0.1508721908
C   6.3510705827 -0.8495549302 -0.4479174681
C   7.3541620226 -1.8731037706 -0.6069880048
C   8.7545036706 -1.5104436024 -0.6856889091
C   9.1618503625 -0.1489709974 -0.6096019653
C   8.1875003476  0.7911419239 -0.4618307235
C   6.8100664391  0.4525574777 -0.3826021241
N   7.1730119984 -3.1889531879 -0.6979157497
S   8.6319656313 -3.8701546914 -0.8637259808
N   9.5715919712 -2.5533861623 -0.8309823136
H   1.3971325898  1.6087150000  0.1002134886
H  -5.6568516926  0.2302627690  0.5422842582
H  -6.2854784600  2.7632339434  0.7163006218
H  -0.8979250800  4.0851399346 -0.5021309403
H  -1.1698128458  4.1156406140  1.2388050231
H   0.3232445023  3.4146239711  0.5947367352
H  -2.8479314193 -2.5204922063  0.1270484887
H  -4.1089310220 -1.8404279218  1.1712085152
H  -4.2533779890 -1.7048007662 -0.5822583477
H   2.2245786671 -3.1603192145 -0.3094547601
H   4.8550544491 -3.2971909223 -0.5376534697
H   10.2164122644  0.1014955633 -0.6703326888
H   8.4557863949  1.8420553435 -0.4003745081
H   6.0961994131  1.2619376672 -0.2653005110
42
Scanning combination 12/73: [113.8484]  Energy = -2548.7152230197
C  -0.7288702954  0.9770709342  0.2327012766
C  -1.4232841991 -0.2674995234  0.2102798884
C  -2.8083690677 -0.3649816441  0.2888000454
C  -3.5225013181  0.8439908270  0.3982732257
C  -2.8230684866  2.0794809517  0.4141950280
C  -1.4365877951  2.1817276514  0.3549622707
C   0.6881525730  0.7900797750  0.1209925191
C   1.0745523669 -0.5091311202  0.0159870169
S  -0.2932414126 -1.5997083813  0.0598994244
C  -4.9447284197  1.0458130873  0.5179588488
C  -5.2925011859  2.3479500261  0.6112441375
S  -3.9280538192  3.4166267205  0.5569274182
C  -0.7608683618  3.5201058306  0.4322146955
C  -3.5357638138 -1.6818264132  0.2510695433
C   2.4295877823 -1.0076274619 -0.1356778780
C   2.8815314754 -2.2956747021 -0.2869711277
C   4.2884097294 -2.3792599325 -0.4106668633
C   4.9248763568 -1.1587196141 -0.3570306809
S   3.7536511959  0.1117840316 -0.1502536377
C   6.3515150315 -0.8488742774 -0.4471431051
C   7.3536142672 -1.8735364561 -0.6063926082
C   8.7542877750 -1.5122513295 -0.6859371028
C   9.1630665727 -0.1512221714 -0.6103163819
C   8.1896732381  0.7898789722 -0.4620646024
C   6.8119424461  0.4526755479 -0.3820107613
N   7.1711705364 -3.1891862542 -0.6970267101
S   8.6293574177 -3.8718679553 -0.8635534758
N   9.5702812460 -2.5560149993 -0.8315384528
H   1.3961039606  1.6124538415  0.1107486887
H  -5.6589020880  0.2281586596  0.5368860908
H  -6.2883175471  2.7612309217  0.7127310806
H  -0.9836457485  4.1377826139 -0.4471731161
H  -1.1128220539  4.0712356095  1.3098003092
H   0.3254840748  3.4235363343  0.5121797077
H  -2.8459000332 -2.5206009834  0.1298350835
H  -4.1081520982 -1.8416761127  1.1734953165
H  -4.2518354161 -1.7055421328 -0.5799355683
H   2.2238517680 -3.1572458644 -0.3090547640
H   4.8541392653 -3.2951230325 -0.5362899003
H   10.2178441747  0.0981823499 -0.6716199360
H   8.4591201387  1.8404912808 -0.4009654526
H   6.0989553457  1.2628366140 -0.2645103442
42
Scanning combination 13/73: [118.8484]  Energy = -2548.7150012904
C  -0.7289589319  0.9775011733  0.2443557731
C  -1.4233332242 -0.2668933391  0.2142454101
C  -2.8080793029 -0.3642339257  0.2875342076
C  -3.5229621814  0.8435504283  0.3992927439
C  -2.8254207341  2.0799658088  0.4084344424
C  -1.4397163395  2.1842601684  0.3343936012
C   0.6880495492  0.7915529803  0.1265037917
C   1.0745798063 -0.5086005649  0.0151828904
S  -0.2934202286 -1.5985467918  0.0604689296
C  -4.9448247275  1.0461112720  0.5180473839
C  -5.2931587218  2.3473372452  0.6097147565
S  -3.9294116017  3.4166299089  0.5571624995
C  -0.7673964548  3.5222281014  0.4328564547
C  -3.5353676778 -1.6814761838  0.2506813323
C   2.4293238461 -1.0067302163 -0.1351890027
C   2.8813687773 -2.2954567726 -0.2862166307
C   4.2884643781 -2.3788447774 -0.4105479790
C   4.9249388689 -1.1585152175 -0.3568919022
S   3.7538535620  0.1121086370 -0.1497049919
C   6.3515932082 -0.8487109931 -0.4471068989
C   7.3535218884 -1.8736106754 -0.6063920725
C   8.7542045029 -1.5124532664 -0.6859895314
C   9.1632280709 -0.1515581940 -0.6104021866
C   8.1898677623  0.7897941001 -0.4621130462
C   6.8121710883  0.4526655005 -0.3820222914
N   7.1709041607 -3.1892140506 -0.6969520709
S   8.6290119933 -3.8720601795 -0.8634880369
N   9.5700761251 -2.5563076033 -0.8315785706
H   1.3953223195  1.6134376282  0.1107611319
H  -5.6586805312  0.2280732330  0.5360419265
H  -6.2888085992  2.7610937459  0.7121536646
H  -1.0330942519  4.1594275075 -0.4177631982
H  -1.1016070524  4.0567428641  1.3304475469
H   0.3201306956  3.4368431218  0.4807248521
H  -2.8457870787 -2.5204683270  0.1302423245
H  -4.1073334417 -1.8410607370  1.1734367916
H  -4.2519510412 -1.7062985773 -0.5796156540
H   2.2237281577 -3.1565554596 -0.3087813707
H   4.8538804800 -3.2948948196 -0.5364228776
H   10.2179360526  0.0977921527 -0.6717555876
H   8.4594607102  1.8402650588 -0.4009832429
H   6.0992463198  1.2629492899 -0.2644122311
42
Scanning combination 14/73: [123.8484]  Energy = -2548.7148662859
C  -0.7300666227  0.9810052137  0.2451259692
C  -1.4233568783 -0.2644707261  0.2221502977
C  -2.8087065902 -0.3636217939  0.2892573813
C  -3.5250003910  0.8446782911  0.3909625524
C  -2.8281253743  2.0813673015  0.3947634678
C  -1.4414928802  2.1875847698  0.3292545723
C   0.6874299829  0.7942447942  0.1345657542
C   1.0745198407 -0.5050537832  0.0226713680
S  -0.2935289408 -1.5954412979  0.0630035210
C  -4.9468710354  1.0452541781  0.5156859765
C  -5.2959098105  2.3465558972  0.6090698644
S  -3.9331101520  3.4166632879  0.5517535829
C  -0.7748872389  3.5297750617  0.4323433734
C  -3.5345294495 -1.6811713270  0.2511154919
C   2.4289951989 -1.0039918035 -0.1337926202
C   2.8804461910 -2.2928271165 -0.2855737181
C   4.2874592456 -2.3772171821 -0.4098535535
C   4.9247565973 -1.1574481405 -0.3559912410
S   3.7544039288  0.1139380772 -0.1483047736
C   6.3516630805 -0.8484454199 -0.4467941109
C   7.3531367015 -1.8737538019 -0.6063138490
C   8.7539980198 -1.5132948681 -0.6861845706
C   9.1636275561 -0.1524900094 -0.6107470499
C   8.1907903127  0.7891766873 -0.4622878513
C   6.8129144874  0.4528172222 -0.3818935570
N   7.1699179234 -3.1892921148 -0.6967073943
S   8.6276944176 -3.8728530367 -0.8633299753
N   9.5693807620 -2.5575346169 -0.8317368972
H   1.3938822803  1.6175536636  0.1163675164
H  -5.6596062524  0.2264913456  0.5343395527
H  -6.2918155110  2.7599491367  0.7095570803
H  -1.0972397247  4.2057260583 -0.3676396006
H  -1.0549827892  4.0024627690  1.3807345606
H   0.3135596455  3.4595133689  0.4056598335
H  -2.8444629652 -2.5198624711  0.1308446736
H  -4.1060312375 -1.8401885048  1.1740539914
H  -4.2513842573 -1.7074168226 -0.5791459831
H   2.2229393170 -3.1541800250 -0.3072950831
H   4.8525862822 -3.2935940031 -0.5363433417
H   10.2185005381  0.0962893170 -0.6722794305
H   8.4608911208  1.8396222245 -0.4011412047
H   6.1003983468  1.2633675638 -0.2641442650
42
Scanning combination 15/73: [128.8484]  Energy = -2548.7151896709
C  -0.7343740724  0.9861491724  0.2289570518
C  -1.4249171952 -0.2601836221  0.2046420764
C  -2.8101939879 -0.3625995594  0.2813572061
C  -3.5295981918  0.8435008859  0.3898957200
C  -2.8344767456  2.0802031660  0.4090181942
C  -1.4482131863  2.1873921187  0.3532874731
C   0.6846563165  0.8032347252  0.1290522713
C   1.0750489028 -0.4958915154  0.0262060704
S  -0.2904257822 -1.5895034567  0.0692136603
C  -4.9526650233  1.0412152471  0.5067580569
C  -5.3044356458  2.3426900787  0.5962887382
S  -3.9432070043  3.4149050977  0.5428368884
C  -0.7840492026  3.5303475569  0.4465795666
C  -3.5325884361 -1.6816107060  0.2514027578
C   2.4298979877 -0.9952156050 -0.1244000338
C   2.8783451387 -2.2845348210 -0.2792637093
C   4.2846776532 -2.3715995820 -0.4074682735
C   4.9243691671 -1.1531543727 -0.3532976405
S   3.7570181222  0.1205017032 -0.1410339154
C   6.3516535532 -0.8469672415 -0.4460585615
C   7.3513917129 -1.8739230719 -0.6059703645
C   8.7527916844 -1.5156198674 -0.6865657819
C   9.1645815605 -0.1554141408 -0.6115846585
C   8.1932996374  0.7877350676 -0.4627407396
C   6.8149773591  0.4535514611 -0.3815938213
N   7.1661869510 -3.1892275582 -0.6959065731
S   8.6228918554 -3.8750028726 -0.8630174390
N   9.5665617098 -2.5610884217 -0.8322385847
H   1.3909818220  1.6268136325  0.1349953882
H  -5.6647595493  0.2220830847  0.5279930436
H  -6.3007805681  2.7541296123  0.7004266163
H  -1.2059194297  4.2354421632 -0.2783697794
H  -0.9312797113  3.9598439005  1.4439769070
H   0.2931145558  3.4667285462  0.2671390613
H  -2.8402888974 -2.5188806679  0.1335076811
H  -4.1019799895 -1.8375943756  1.1764923733
H  -4.2509681276 -1.7121302182 -0.5773495200
H   2.2185305573 -3.1443008957 -0.3021473438
H   4.8472949694 -3.2890114563 -0.5370634735
H   10.2198023159  0.0917373098 -0.6738153599
H   8.4649977099  1.8377882722 -0.4018108922
H   6.1037138690  1.2650977291 -0.2634194844
42
Scanning combination 16/73: [133.8484]  Energy = -2548.7150337750
C  -0.7348355132  0.9880183912  0.2437661453
C  -1.4250617722 -0.2587701855  0.2115034412
C  -2.8105453163 -0.3620353163  0.2820700670
C  -3.5295506453  0.8440514657  0.3913858089
C  -2.8357483540  2.0821591475  0.4026720375
C  -1.4502478441  2.1919008961  0.3334280562
C   0.6839865458  0.8043947918  0.1370427123
C   1.0742777845 -0.4949763587  0.0252635697
S  -0.2913940568 -1.5879953375  0.0647180966
C  -4.9527978338  1.0407052604  0.5072793086
C  -5.3056204541  2.3418558108  0.5963170174
S  -3.9454175028  3.4149851572  0.5477632656
C  -0.7842266643  3.5321810151  0.4487772590
C  -3.5323261746 -1.6817473032  0.2509762329
C   2.4293096745 -0.9938748652 -0.1251004834
C   2.8780636878 -2.2835131014 -0.2788926773
C   4.2845115642 -2.3708831167 -0.4069717084
C   4.9243752062 -1.1525650615 -0.3525887999
S   3.7571477847  0.1212590838 -0.1399355691
C   6.3517090293 -0.8466468952 -0.4456203619
C   7.3511380644 -1.8738626563 -0.6058269675
C   8.7526110410 -1.5159325002 -0.6866312282
C   9.1647364998 -0.1558285859 -0.6117672522
C   8.1937367906  0.7875906649 -0.4628650527
C   6.8153405551  0.4537748486 -0.3814447859
N   7.1655542686 -3.1891146473 -0.6958376606
S   8.6220638367 -3.8752886170 -0.8630186691
N   9.5660861574 -2.5616275789 -0.8323251017
H   1.3910168313  1.6264515550  0.1343968757
H  -5.6647852169  0.2214747887  0.5255013198
H  -6.3023181240  2.7525509488  0.6974959644
H  -1.2377198140  4.2554628357 -0.2379152476
H  -0.9135575321  3.9386164369  1.4602425485
H   0.2874669998  3.4785508817  0.2471314893
H  -2.8401085329 -2.5191246487  0.1335988536
H  -4.1014581624 -1.8378816333  1.1761868599
H  -4.2510941469 -1.7132887999 -0.5773741677
H   2.2180978860 -3.1430977960 -0.3012605456
H   4.8470375663 -3.2883712244 -0.5368093635
H   10.2200259517  0.0910442371 -0.6740184464
H   8.4657034849  1.8375715271 -0.4019743856
H   6.1042624388  1.2654988339 -0.2633783652
42
Scanning combination 17/73: [138.8484]  Energy = -2548.7151728326
C  -0.7389675143  0.9922132731  0.2317364145
C  -1.4268954329 -0.2547476517  0.2010155299
C  -2.8119573656 -0.3609217321  0.2793380291
C  -3.5342389459  0.8430296680  0.3892830018
C  -2.8432570332  2.0819853349  0.4108201402
C  -1.4574442342  2.1931202297  0.3458340221
C   0.6810141081  0.8123397654  0.1389675755
C   1.0735905256 -0.4863338571  0.0318983807
S  -0.2904671103 -1.5816497097  0.0668518428
C  -4.9581701363  1.0363429780  0.4988518085
C  -5.3144967329  2.3356395009  0.5892681177
S  -3.9572220152  3.4130624128  0.5496030322
C  -0.7896662841  3.5333215486  0.4467713181
C  -3.5307071360 -1.6819691305  0.2522595779
C   2.4289630162 -0.9848906036 -0.1165767636
C   2.8753799142 -2.2743771910 -0.2734718893
C   4.2811996712 -2.3638288646 -0.4038408080
C   4.9230548388 -1.1464941409 -0.3492253835
S   3.7578915972  0.1290881664 -0.1336382591
C   6.3510211641 -0.8437247665 -0.4436486434
C   7.3481551648 -1.8732046010 -0.6044616141
C   8.7503492407 -1.5183038379 -0.6867089635
C   9.1655031125 -0.1591347919 -0.6126359763
C   8.1966322722  0.7864068487 -0.4632674218
C   6.8175671019  0.4556254431 -0.3804096617
N   7.1597567067 -3.1881026088 -0.6942349619
S   8.6146390086 -3.8773513385 -0.8629892103
N   9.5614524725 -2.5656895533 -0.8332448125
H   1.3883874998  1.6343087056  0.1582340736
H  -5.6680583509  0.2150574560  0.5134789622
H  -6.3135853556  2.7420459976  0.6889538331
H  -1.3116559233  4.2846859803 -0.1538057270
H  -0.7885878051  3.8867067684  1.4848321721
H   0.2489712495  3.4941523582  0.1093548630
H  -2.8362193084 -2.5174132689  0.1354590053
H  -4.1003883728 -1.8403373794  1.1770012293
H  -4.2486503717 -1.7153305624 -0.5766240385
H   2.2133432138 -3.1326430113 -0.2971354404
H   4.8419647832 -3.2821866242 -0.5346827804
H   10.2212723844  0.0854367568 -0.6760343606
H   8.4709360332  1.8357704121 -0.4033561887
H   6.1083925883  1.2689935257 -0.2622002211
42
Scanning combination 18/73: [143.8484]  Energy = -2548.7149751538
C  -0.7394474411  0.9918601365  0.2492106985
C  -1.4274326009 -0.2553765839  0.2115341735
C  -2.8126835732 -0.3608623439  0.2808317768
C  -3.5351205938  0.8431662997  0.3881460465
C  -2.8443927131  2.0832016020  0.4048182132
C  -1.4588056414  2.1942279626  0.3340454740
C   0.6802977993  0.8127715159  0.1482291939
C   1.0728970525 -0.4845838003  0.0315665582
S  -0.2910736878 -1.5805875263  0.0587460472
C  -4.9590231950  1.0354405387  0.4994930386
C  -5.3160417620  2.3350808888  0.5924114394
S  -3.9587983500  3.4128029469  0.5568009639
C  -0.7879282837  3.5330087399  0.4497438859
C  -3.5307573361 -1.6826028784  0.2507366707
C   2.4282746959 -0.9828131547 -0.1188048884
C   2.8748229815 -2.2731819559 -0.2735068490
C   4.2809317781 -2.3627346483 -0.4025219930
C   4.9229148791 -1.1457736234 -0.3475255817
S   3.7580675856  0.1302094902 -0.1318105283
C   6.3509234117 -0.8431668176 -0.4430404366
C   7.3476498974 -1.8730030689 -0.6043840547
C   8.7499604223 -1.5187564148 -0.6869025645
C   9.1656553006 -0.1596686720 -0.6129203833
C   8.1971833858  0.7862582029 -0.4634576379
C   6.8179824088  0.4561092741 -0.3802837517
N   7.1586090264 -3.1877767555 -0.6940504375
S   8.6131419698 -3.8777840644 -0.8628082257
N   9.5605846293 -2.5665612875 -0.8333585014
H   1.3876400271  1.6354941394  0.1564146095
H  -5.6680693146  0.2137929214  0.5099906874
H  -6.3157790814  2.7404493660  0.6851994309
H  -1.3395390773  4.3013612182 -0.1013595739
H  -0.7686409613  3.8582022904  1.4980774130
H   0.2425644347  3.5099012547  0.0850650451
H  -2.8357827592 -2.5179371196  0.1348061523
H  -4.0989551727 -1.8386607930  1.1765442487
H  -4.2495354070 -1.7182427675 -0.5775789821
H   2.2131264069 -3.1312271764 -0.2954080632
H   4.8418175809 -3.2810751530 -0.5343660065
H   10.2215197575  0.0843838279 -0.6763896265
H   8.4720232123  1.8355726998 -0.4034603977
H   6.1091469473  1.2697455568 -0.2619660643
42
Scanning combination 19/73: [148.8484]  Energy = -2548.7150558585
C  -0.7459142565  0.9961703933  0.2334260124
C  -1.4299486705 -0.2524003497  0.1977874531
C  -2.8148714806 -0.3618767921  0.2752451702
C  -3.5404035247  0.8401470787  0.3856437641
C  -2.8526345671  2.0817015305  0.4145875705
C  -1.4672736753  2.1959712267  0.3485212075
C   0.6746383140  0.8213335541  0.1496793676
C   1.0725431076 -0.4754596144  0.0394591629
S  -0.2884183140 -1.5757475963  0.0659081604
C  -4.9655744232  1.0283600590  0.4903454018
C  -5.3266802859  2.3262046572  0.5869600015
S  -3.9732852613  3.4081268262  0.5575568634
C  -0.7913886108  3.5333621652  0.4485355273
C  -3.5305318817 -1.6849314257  0.2502704988
C   2.4283556042 -0.9731844298 -0.1083314510
C   2.8727120486 -2.2636864863 -0.2670905310
C   4.2781922855 -2.3549702523 -0.3989250917
C   4.9217104338 -1.1388150779 -0.3439784979
S   3.7589792431  0.1388500666 -0.1256446735
C   6.3501413474 -0.8394568755 -0.4406309145
C   7.3440769602 -1.8719078545 -0.6025482765
C   8.7471036229 -1.5211818328 -0.6870120678
C   9.1662238192 -0.1631674680 -0.6140455504
C   8.2002868248  0.7852178121 -0.4637156664
C   6.8203638096  0.4586353085 -0.3786815392
N   7.1516941820 -3.1862615789 -0.6915836691
S   8.6042796586 -3.8798673545 -0.8623514344
N   9.5549443520 -2.5709700555 -0.8344690254
H   1.3755455878  1.6483684064  0.1859105703
H  -5.6738835064  0.2058401169  0.4971105590
H  -6.3271858198  2.7293146877  0.6852406275
H  -1.4002508209  4.3227507990 -0.0021376576
H  -0.6238746968  3.8069947693  1.4975925365
H   0.1812278482  3.5251772271 -0.0511985964
H  -2.8332585828 -2.5184300060  0.1354423834
H  -4.1000443505 -1.8427875827  1.1753961512
H  -4.2478541760 -1.7214005712 -0.5790478958
H   2.2091760483 -3.1205306460 -0.2914503675
H   4.8373698581 -3.2741983069 -0.5310785464
H   10.2225903772  0.0782751041 -0.6791446939
H   8.4778323123  1.8338037313 -0.4047537522
H   6.1137023367  1.2740597875 -0.2597936581
42
Scanning combination 20/73: [153.8484]  Energy = -2548.7148746008
C  -0.7464408130  0.9958916617  0.2525177023
C  -1.4308584195 -0.2522881802  0.2092012923
C  -2.8161996832 -0.3614852734  0.2770612653
C  -3.5416489148  0.8410316330  0.3845734792
C  -2.8546618238  2.0833253832  0.4065984903
C  -1.4692488180  2.1977401170  0.3361618258
C   0.6740651477  0.8223564282  0.1597953284
C   1.0714380050 -0.4737667712  0.0391524485
S  -0.2897505249 -1.5743962560  0.0580741568
C  -4.9665069900  1.0279104866  0.4915995119
C  -5.3285130664  2.3251351565  0.5895823985
S  -3.9761444427  3.4081768389  0.5627109932
C  -0.7908634019  3.5329033260  0.4491392094
C  -3.5305885905 -1.6851873301  0.2486368484
C   2.4273551900 -0.9715118366 -0.1106963799
C   2.8720373202 -2.2621681472 -0.2671644616
C   4.2776561259 -2.3541256882 -0.3977775930
C   4.9214515770 -1.1380687125 -0.3425235204
S   3.7588028501  0.1397542260 -0.1240138114
C   6.3500185306 -0.8390000488 -0.4400456540
C   7.3437314183 -1.8717116361 -0.6024769966
C   8.7469242622 -1.5214660401 -0.6871951577
C   9.1663988905 -0.1635372316 -0.6143365454
C   8.2007376342  0.7852226137 -0.4638590442
C   6.8206810168  0.4589409121 -0.3785084450
N   7.1509667967 -3.1860072457 -0.6914796725
S   8.6032961933 -3.8801640574 -0.8621814163
N   9.5544214997 -2.5715558129 -0.8345293242
H   1.3760878397  1.6492738864  0.1832655182
H  -5.6730623127  0.2039058580  0.4950199285
H  -6.3300725580  2.7264319351  0.6823034158
H  -1.4209333208  4.3333095982  0.0525652474
H  -0.6016215623  3.7782173434  1.5026896298
H   0.1708153696  3.5451317285 -0.0694415727
H  -2.8331814998 -2.5187901992  0.1346366401
H  -4.0988943152 -1.8416836580  1.1742653386
H  -4.2485850637 -1.7241047329 -0.5799600927
H   2.2088458450 -3.1193565380 -0.2897901382
H   4.8370914734 -3.2731049529 -0.5307922665
H   10.2228291470  0.0775810940 -0.6794199280
H   8.4786599719  1.8337327291 -0.4047943426
H   6.1142698702  1.2746134806 -0.2596128300
42
Scanning combination 21/73: [158.8484]  Energy = -2548.7150123173
C  -0.7518443527  0.9980038217  0.2411823483
C  -1.4337647746 -0.2515792810  0.2017988282
C  -2.8192386990 -0.3616397165  0.2767251476
C  -3.5456252467  0.8401188827  0.3811714379
C  -2.8601766841  2.0842637237  0.4124660268
C  -1.4732458009  2.1993101643  0.3586558182
C   0.6698867335  0.8270388279  0.1632308291
C   1.0703672016 -0.4688268006  0.0480876019
S  -0.2891474284 -1.5727110831  0.0623578533
C  -4.9717824379  1.0215045233  0.4845454885
C  -5.3389007812  2.3173003249  0.5831292137
S  -3.9900427674  3.4054274429  0.5542667811
C  -0.7782237614  3.5294979067  0.4642958010
C  -3.5314731987 -1.6863050318  0.2483808910
C   2.4263579492 -0.9646596466 -0.1030787138
C   2.8695768152 -2.2552604565 -0.2630187742
C   4.2748489026 -2.3479240823 -0.3951056646
C   4.9196666055 -1.1324491037 -0.3398364235
S   3.7581139959  0.1463671106 -0.1198628899
C   6.3488141806 -0.8359150178 -0.4377255202
C   7.3407060084 -1.8704505627 -0.6006655445
C   8.7444912251 -1.5228926238 -0.6870835495
C   9.1665630163 -0.1656938849 -0.6151374951
C   8.2028743812  0.7847087453 -0.4638804357
C   6.8221624578  0.4611952797 -0.3768498476
N   7.1455583408 -3.1844488033 -0.6893341281
S   8.5964210028 -3.8812938222 -0.8618342365
N   9.5499411705 -2.5744241522 -0.8353671264
H   1.3698926546  1.6553649305  0.2057191422
H  -5.6743198690  0.1938399282  0.4892327213
H  -6.3420552939  2.7130621097  0.6820092782
H  -1.4350562487  4.3577609167  0.1800377713
H  -0.4519417595  3.7120091202  1.4957156528
H   0.1126282619  3.5595699506 -0.1729835784
H  -2.8308190290 -2.5171233092  0.1338804563
H  -4.1021501149 -1.8471757337  1.1719017477
H  -4.2462384716 -1.7234087323 -0.5829141825
H   2.2049694684 -3.1113343074 -0.2866793703
H   4.8334075977 -3.2674188295 -0.5273901290
H   10.2234647694  0.0733227506 -0.6816840711
H   8.4828718834  1.8328100819 -0.4057924865
H   6.1175573274  1.2782792817 -0.2576764333
42
Scanning combination 22/73: [163.8484]  Energy = -2548.7148457819
C  -0.7514159305  0.9988163707  0.2564745723
C  -1.4336038520 -0.2497794928  0.2093817728
C  -2.8188807244 -0.3608279002  0.2765151540
C  -3.5454313619  0.8409200678  0.3808959572
C  -2.8614715922  2.0862696309  0.4055052096
C  -1.4750030083  2.2018167511  0.3461443537
C   0.6695426022  0.8273585267  0.1705460502
C   1.0695050138 -0.4678864886  0.0474603926
S  -0.2904919875 -1.5707372959  0.0605373489
C  -4.9713435180  1.0211096966  0.4853682515
C  -5.3396306569  2.3161507698  0.5836683968
S  -3.9925360574  3.4056201996  0.5551896102
C  -0.7781226606  3.5286320610  0.4721710484
C  -3.5310621018 -1.6859799954  0.2473342027
C   2.4258797615 -0.9641631470 -0.1038079666
C   2.8695542874 -2.2548302206 -0.2626904288
C   4.2748664498 -2.3477392666 -0.3946247172
C   4.9197291569 -1.1322769686 -0.3392610058
S   3.7581465798  0.1465153937 -0.1191169621
C   6.3488427513 -0.8356689495 -0.4376409783
C   7.3405431003 -1.8703826937 -0.6007101202
C   8.7443278462 -1.5229477145 -0.6871595652
C   9.1665765324 -0.1658739223 -0.6152077495
C   8.2029305955  0.7847528566 -0.4639216919
C   6.8222448783  0.4613180406 -0.3768759172
N   7.1452064895 -3.1843403258 -0.6892551177
S   8.5959761348 -3.8813529820 -0.8617092290
N   9.5496377960 -2.5745875219 -0.8353788084
H   1.3699400152  1.6554597119  0.2053726278
H  -5.6740052648  0.1938199743  0.4886358293
H  -6.3427361721  2.7126110333  0.6805393891
H  -1.4453591760  4.3659125584  0.2485527239
H  -0.4219612454  3.6783926760  1.5006390875
H   0.0940245182  3.5852513254 -0.1854634387
H  -2.8313487412 -2.5176056234  0.1335687506
H  -4.1014387571 -1.8462990731  1.1712405299
H  -4.2467765332 -1.7250569043 -0.5831876136
H   2.2050231753 -3.1109773567 -0.2861155461
H   4.8334390491 -3.2672229424 -0.5275501086
H   10.2234221217  0.0730993474 -0.6817733335
H   8.4830620941  1.8327151818 -0.4057559034
H   6.1176982457  1.2784981044 -0.2575402628
42
Scanning combination 23/73: [168.8484]  Energy = -2548.7151406759
C  -0.7554821549  1.0003512626  0.2525373283
C  -1.4355960923 -0.2492086303  0.2032240617
C  -2.8208035334 -0.3610068581  0.2749666440
C  -3.5497368465  0.8391481842  0.3812836747
C  -2.8670778226  2.0852098191  0.4200440126
C  -1.4794134540  2.2001625401  0.3784414967
C   0.6660718734  0.8323878658  0.1753102117
C   1.0692325029 -0.4621284392  0.0544086537
S  -0.2888755555 -1.5682740158  0.0598439204
C  -4.9771067816  1.0151463453  0.4779314739
C  -5.3496290149  2.3091334003  0.5739251110
S  -4.0055648122  3.4020444677  0.5468213901
C  -0.7759885736  3.5263390105  0.4865032272
C  -3.5313394523 -1.6862498715  0.2453472279
C   2.4255212296 -0.9577573462 -0.0969386695
C   2.8674203514 -2.2486194427 -0.2586626601
C   4.2723975407 -2.3426000857 -0.3917892586
C   4.9183468467 -1.1278009694 -0.3354160070
S   3.7583792190  0.1519996779 -0.1128569724
C   6.3476164707 -0.8329796860 -0.4351534168
C   7.3374532077 -1.8692066762 -0.5992873359
C   8.7416511351 -1.5241145734 -0.6873121260
C   9.1660730703 -0.1676649256 -0.6161462068
C   8.2041797280  0.7844619265 -0.4640186409
C   6.8230380763  0.4634103443 -0.3753002174
N   7.1398561217 -3.1828900102 -0.6874456994
S   8.5893218446 -3.8823202786 -0.8610046754
N   9.5451101885 -2.5771061987 -0.8359585218
H   1.3631027363  1.6634092435  0.2236475936
H  -5.6763724009  0.1849112779  0.4836174351
H  -6.3541100076  2.7028549340  0.6698415907
H  -1.4692177791  4.3657871409  0.3813148084
H  -0.2813728992  3.6244027060  1.4620252144
H  -0.0063037929  3.6270490639 -0.2889298987
H  -2.8290702102 -2.5158030701  0.1318897039
H  -4.1031476593 -1.8470224665  1.1684069575
H  -4.2448834611 -1.7244416458 -0.5869883760
H   2.2022071754 -3.1043496734 -0.2815751915
H   4.8301436565 -3.2624998668 -0.5252486023
H   10.2232940256  0.0695258519 -0.6837173246
H   8.4861191411  1.8320197959 -0.4062810299
H   6.1199463751  1.2817427735 -0.2556380284
42
Scanning combination 24/73: [173.8484]  Energy = -2548.7150744253
C  -0.7552400408  1.0007004740  0.2695465780
C  -1.4355211615 -0.2481566550  0.2131310110
C  -2.8208709873 -0.3606168885  0.2764006127
C  -3.5496967363  0.8395536225  0.3818134317
C  -2.8683582431  2.0865746644  0.4120833319
C  -1.4811111843  2.2023883495  0.3656222148
C   0.6659898477  0.8328738840  0.1844082766
C   1.0682948072 -0.4610236046  0.0530551688
S  -0.2902407677 -1.5665140516  0.0561447040
C  -4.9768011477  1.0147407906  0.4794943997
C  -5.3503202449  2.3084282348  0.5747119469
S  -4.0072072919  3.4020218180  0.5506693559
C  -0.7781415530  3.5260380418  0.4913186858
C  -3.5312186116 -1.6863930775  0.2441463810
C   2.4248373379 -0.9569068542 -0.0982963139
C   2.8672216003 -2.2479804695 -0.2581373786
C   4.2722475811 -2.3421157598 -0.3908927225
C   4.9182301246 -1.1273344263 -0.3346661245
S   3.7582422819  0.1524445045 -0.1118015749
C   6.3475405390 -0.8326701779 -0.4349532232
C   7.3372297128 -1.8691179658 -0.5991932871
C   8.7414959828 -1.5242330080 -0.6873401870
C   9.1661298935 -0.1678705196 -0.6162211699
C   8.2043313338  0.7844935233 -0.4640298202
C   6.8231482350  0.4635616808 -0.3752171690
N   7.1394292969 -3.1827461808 -0.6872439529
S   8.5887474267 -3.8824466759 -0.8609330328
N   9.5447606324 -2.5773740685 -0.8360400250
H   1.3630273974  1.6641473862  0.2222715709
H  -5.6758946056  0.1845110562  0.4816806131
H  -6.3551983688  2.7016484427  0.6667268132
H  -1.4759664090  4.3663768132  0.4469499333
H  -0.2548499260  3.5923661426  1.4550467575
H  -0.0270689960  3.6549607537 -0.2949396682
H  -2.8296726899 -2.5165800518  0.1314746759
H  -4.1026178856 -1.8469083398  1.1673501888
H  -4.2453878657 -1.7263069768 -0.5876752647
H   2.2020078852 -3.1036594718 -0.2809237093
H   4.8299010322 -3.2619430659 -0.5252128248
H   10.2233352255  0.0691983975 -0.6839311643
H   8.4864631275  1.8319516140 -0.4063238264
H   6.1201970305  1.2820358063 -0.2553983126
42
Scanning combination 25/73: [178.8484]  Energy = -2548.7153672332
C  -0.7604146420  1.0030903770  0.2699074426
C  -1.4390952658 -0.2456049037  0.2109052302
C  -2.8238675522 -0.3613392756  0.2782242508
C  -3.5532492469  0.8378903345  0.3892372969
C  -2.8733639805  2.0861042144  0.4342725995
C  -1.4855179700  2.2006214039  0.4029104046
C   0.6614059646  0.8393341285  0.1848866228
C   1.0654054217 -0.4540293938  0.0541056430
S  -0.2924617728 -1.5609073801  0.0556192681
C  -4.9810851080  1.0086716425  0.4731386654
C  -5.3579375267  2.3013706734  0.5641760232
S  -4.0179870584  3.3991002146  0.5549746910
C  -0.7704000645  3.5191193278  0.5078027421
C  -3.5308843922 -1.6886139250  0.2410392113
C   2.4228673863 -0.9492657477 -0.0923986804
C   2.8645979648 -2.2402811502 -0.2522794748
C   4.2693474412 -2.3360019222 -0.3859282254
C   4.9163898198 -1.1218708299 -0.3293424977
S   3.7575743518  0.1588170182 -0.1033802422
C   6.3460827705 -0.8292326120 -0.4318742618
C   7.3337382353 -1.8675871760 -0.5971634111
C   8.7385240959 -1.5254657885 -0.6873400331
C   9.1656465844 -0.1698206637 -0.6171534376
C   8.2058625067  0.7844509509 -0.4639281381
C   6.8241455721  0.4661610636 -0.3731406044
N   7.1333138684 -3.1808573814 -0.6845360927
S   8.5809873621 -3.8834565988 -0.8601519154
N   9.5395549676 -2.5802069794 -0.8369640195
H   1.3570264265  1.6720004700  0.2236695655
H  -5.6778647006  0.1766425765  0.4679630970
H  -6.3645518969  2.6911136952  0.6459349250
H  -1.4680650916  4.3570234826  0.5856109006
H  -0.1104997584  3.5375652056  1.3845561952
H  -0.1343014993  3.6871291063 -0.3696200872
H  -2.8291121107 -2.5188016635  0.1296526036
H  -4.1049694643 -1.8518310479  1.1616482831
H  -4.2427989692 -1.7302808674 -0.5924209326
H   2.1981012993 -3.0947746316 -0.2759917715
H   4.8262715168 -3.2560905526 -0.5224582659
H   10.2231904371  0.0651675802 -0.6865243487
H   8.4901249209  1.8314343410 -0.4070235922
H   6.1229128719  1.2860111597 -0.2525263137
42
Scanning combination 26/73: [183.8484]  Energy = -2548.7152481729
C  -0.7589261132  1.0000816715  0.2871285967
C  -1.4377342805 -0.2483697303  0.2209953685
C  -2.8232153109 -0.3619554581  0.2810287874
C  -3.5525066139  0.8378641070  0.3893396358
C  -2.8722533669  2.0859023476  0.4308162069
C  -1.4844764973  2.2009360970  0.3899124612
C   0.6620849491  0.8379333269  0.1922466224
C   1.0661720518 -0.4543524421  0.0540649285
S  -0.2903702729 -1.5625028250  0.0503227618
C  -4.9809432540  1.0094015976  0.4728552338
C  -5.3584322241  2.3022079453  0.5666211663
S  -4.0163356486  3.3986352576  0.5618607670
C  -0.7676149712  3.5173218339  0.5095892149
C  -3.5317432943 -1.6888042690  0.2409625158
C   2.4231213627 -0.9486633268 -0.0945560320
C   2.8641425935 -2.2399788193 -0.2533084242
C   4.2689325404 -2.3349468363 -0.3852724658
C   4.9160353291 -1.1208479561 -0.3279594664
S   3.7572399754  0.1598865679 -0.1030428875
C   6.3457623333 -0.8287673764 -0.4308169820
C   7.3331059074 -1.8673473749 -0.5967510075
C   8.7379792036 -1.5255398218 -0.6873935999
C   9.1656177899 -0.1700969209 -0.6174297069
C   8.2060571291  0.7842925624 -0.4640074951
C   6.8242711785  0.4664381705 -0.3726611866
N   7.1324464172 -3.1805917374 -0.6842197583
S   8.5799887213 -3.8834570877 -0.8600007718
N   9.5387844226 -2.5804032505 -0.8370548568
H   1.3558726487  1.6723715691  0.2199800986
H  -5.6773696665  0.1769203713  0.4647165886
H  -6.3661165628  2.6921154548  0.6420226469
H  -1.4612642722  4.3509309540  0.6483451361
H  -0.0916851377  3.5048128476  1.3760334216
H  -0.1519296940  3.7146218780 -0.3753714295
H  -2.8279868827 -2.5172685731  0.1291225349
H  -4.1062460750 -1.8526766772  1.1616148159
H  -4.2422575260 -1.7295779717 -0.5941439806
H   2.1976337058 -3.0947225205 -0.2751358179
H   4.8256121894 -3.2550251983 -0.5211137289
H   10.2232418355  0.0646941278 -0.6868870725
H   8.4906157343  1.8311249913 -0.4071064947
H   6.1233081189  1.2864944440 -0.2521191803
42
Scanning combination 27/73: [188.8484]  Energy = -2548.7152946645
C  -0.7600678001  1.0001706516  0.2764635960
C  -1.4381708379 -0.2492950540  0.2177922498
C  -2.8235648635 -0.3630050117  0.2820832920
C  -3.5537366087  0.8366939353  0.3864873770
C  -2.8730780522  2.0841389461  0.4336046272
C  -1.4850262346  2.1985236264  0.4038677552
C   0.6615189632  0.8376667356  0.1913515507
C   1.0665099628 -0.4552082621  0.0634881949
S  -0.2891331748 -1.5646840498  0.0671730323
C  -4.9824260999  1.0092246858  0.4661417303
C  -5.3593923605  2.3020142335  0.5600167846
S  -4.0168121574  3.3980710078  0.5532113138
C  -0.7707518019  3.5164603451  0.5258458095
C  -3.5316764249 -1.6898938415  0.2417962108
C   2.4233031010 -0.9481964285 -0.0885049964
C   2.8642725212 -2.2388851553 -0.2512607254
C   4.2688171661 -2.3331199734 -0.3843366887
C   4.9154833045 -1.1187535658 -0.3273501183
S   3.7563928523  0.1616951965 -0.1028697437
C   6.3453016586 -0.8272747178 -0.4293933514
C   7.3317843977 -1.8666644866 -0.5952880812
C   8.7368057752 -1.5260210464 -0.6872004632
C   9.1655089803 -0.1709082561 -0.6178168246
C   8.2067948763  0.7842603294 -0.4636223981
C   6.8247868050  0.4675537996 -0.3711583569
N   7.1299845012 -3.1797662155 -0.6822546864
S   8.5767397194 -3.8838384548 -0.8595327852
N   9.5365995714 -2.5815562539 -0.8376673984
H   1.3555172639  1.6717153938  0.2250549665
H  -5.6793372150  0.1768791952  0.4584805347
H  -6.3663963581  2.6930578693  0.6405522376
H  -1.4575704290  4.3307843976  0.7715849144
H  -0.0159553525  3.4668212170  1.3204703042
H  -0.2505921314  3.7794123504 -0.4041327122
H  -2.8277161370 -2.5181033027  0.1297216293
H  -4.1100879334 -1.8571644464  1.1595584994
H  -4.2385924836 -1.7267770140 -0.5962937475
H   2.1974601497 -3.0934100106 -0.2755682016
H   4.8259323909 -3.2530891135 -0.5183932807
H   10.2232428958  0.0630354265 -0.6884719877
H   8.4923181468  1.8308473174 -0.4073648552
H   6.1246361015  1.2882026902 -0.2500046803
42
Scanning combination 28/73: [193.8484]  Energy = -2548.7150704616
C  -0.7593738943  0.9982414059  0.2958574389
C  -1.4380028064 -0.2501859500  0.2307572361
C  -2.8235681751 -0.3634217563  0.2837942988
C  -3.5526544695  0.8368648813  0.3861589905
C  -2.8720025579  2.0848553739  0.4265983521
C  -1.4841698517  2.1992819030  0.3954271235
C   0.6615714300  0.8360173020  0.2004598826
C   1.0656684797 -0.4558472187  0.0614293900
S  -0.2906630332 -1.5643353966  0.0623090011
C  -4.9808771037  1.0094234049  0.4671020937
C  -5.3569731620  2.3021763615  0.5608646892
S  -4.0145281612  3.3983040083  0.5586962902
C  -0.7674758385  3.5140360761  0.5291370574
C  -3.5319299696 -1.6902491877  0.2395631524
C   2.4228785805 -0.9482079717 -0.0907328405
C   2.8647077747 -2.2389172767 -0.2505498431
C   4.2693958442 -2.3333001264 -0.3828954140
C   4.9157225857 -1.1187463989 -0.3258492779
S   3.7563142979  0.1614469688 -0.1004736545
C   6.3454016634 -0.8269233106 -0.4289801825
C   7.3316057249 -1.8664974341 -0.5952313546
C   8.7366261886 -1.5261989350 -0.6873671576
C   9.1654620237 -0.1711029115 -0.6180500570
C   8.2070341127  0.7843664975 -0.4636124745
C   6.8249894710  0.4679236616 -0.3709045900
N   7.1294268815 -3.1795732801 -0.6819496317
S   8.5759771148 -3.8840521232 -0.8592054204
N   9.5361438792 -2.5819763878 -0.8377152212
H   1.3549017874  1.6710848286  0.2173462416
H  -5.6784318534  0.1776631567  0.4555330976
H  -6.3644753301  2.6925002548  0.6349440093
H  -1.4427523463  4.3178512828  0.8366424225
H   0.0163979793  3.4318104359  1.2935458938
H  -0.2725812785  3.8059243548 -0.4042566092
H  -2.8281646698 -2.5189334750  0.1292015145
H  -4.1093973533 -1.8550918559  1.1579462906
H  -4.2399856348 -1.7300970387 -0.5976315106
H   2.1980105475 -3.0933153993 -0.2738011385
H   4.8267351927 -3.2530428366 -0.5187392716
H   10.2232122452  0.0625597955 -0.6888625753
H   8.4928071741  1.8309227416 -0.4072062521
H   6.1249712917  1.2886856162 -0.2494687724
42
Scanning combination 29/73: [198.8484]  Energy = -2548.7151375765
C  -0.7598288950  0.9986471023  0.2824907673
C  -1.4381144320 -0.2504265913  0.2251402247
C  -2.8232826594 -0.3642161705  0.2842542450
C  -3.5529683586  0.8362112624  0.3837373967
C  -2.8717941127  2.0827900239  0.4338877034
C  -1.4837264830  2.1957638322  0.4184241701
C   0.6613593393  0.8356859528  0.1950420970
C   1.0663157627 -0.4575782076  0.0706260936
S  -0.2894127434 -1.5665527041  0.0795643921
C  -4.9813297724  1.0107697440  0.4590738754
C  -5.3562366466  2.3042490737  0.5508997230
S  -4.0120402975  3.3991970837  0.5453123872
C  -0.7739609796  3.5133680026  0.5527345795
C  -3.5318951680 -1.6909588888  0.2403981600
C   2.4232404003 -0.9495986169 -0.0831542098
C   2.8652580307 -2.2397919245 -0.2474474711
C   4.2697660461 -2.3327827106 -0.3819507292
C   4.9154461076 -1.1179173582 -0.3246536308
S   3.7555592735  0.1614476402 -0.0975322863
C   6.3451586453 -0.8262262192 -0.4276954646
C   7.3309722254 -1.8662072812 -0.5941002289
C   8.7360665030 -1.5265482686 -0.6872328293
C   9.1654949893 -0.1716326971 -0.6183993636
C   8.2075379864  0.7841974802 -0.4632608734
C   6.8253673609  0.4684009300 -0.3695980041
N   7.1282289014 -3.1792241934 -0.6805088372
S   8.5743319770 -3.8843305887 -0.8588838213
N   9.5350375013 -2.5826446220 -0.8381837675
H   1.3544198454  1.6705622277  0.2177642087
H  -5.6793955820  0.1792432459  0.4506068073
H  -6.3630591571  2.6960444847  0.6299579550
H  -1.4286371379  4.2809587982  0.9720137487
H   0.0901407119  3.4120581191  1.2186479802
H  -0.3977088650  3.8753602153 -0.4128704908
H  -2.8281179702 -2.5196621254  0.1301620833
H  -4.1130153924 -1.8582175164  1.1562526892
H  -4.2365847749 -1.7272723163 -0.5996545842
H   2.1991473986 -3.0945711468 -0.2725525098
H   4.8277068338 -3.2520856714 -0.5177732201
H   10.2232898932  0.0615657633 -0.6902379645
H   8.4938924400  1.8306245718 -0.4073212216
H   6.1258595560  1.2895330877 -0.2476986397
42
Scanning combination 30/73: [203.8484]  Energy = -2548.7149089330
C  -0.7596821365  0.9969009674  0.3006569051
C  -1.4375713011 -0.2521629255  0.2354614958
C  -2.8233177146 -0.3648103655  0.2852265134
C  -3.5528617930  0.8352889495  0.3838685885
C  -2.8716808173  2.0826659411  0.4271569096
C  -1.4837535217  2.1974443741  0.4099910447
C   0.6620654684  0.8344207466  0.2032407984
C   1.0662163913 -0.4573861943  0.0682004322
S  -0.2892499300 -1.5665109081  0.0755113058
C  -4.9808196591  1.0107437727  0.4602445241
C  -5.3549209702  2.3046927742  0.5512249377
S  -4.0100521940  3.3990801150  0.5493953200
C  -0.7716653529  3.5145992292  0.5621979532
C  -3.5322694285 -1.6913938937  0.2389799401
C   2.4231890468 -0.9495234940 -0.0848945028
C   2.8654653959 -2.2398495158 -0.2470850575
C   4.2699928578 -2.3329274416 -0.3811037283
C   4.9156134560 -1.1179584800 -0.3234213822
S   3.7556724015  0.1613322310 -0.0958648708
C   6.3452238850 -0.8261905273 -0.4272821755
C   7.3309368669 -1.8661900079 -0.5941095557
C   8.7360224615 -1.5265904026 -0.6873825295
C   9.1655050207 -0.1717030653 -0.6185754884
C   8.2075998248  0.7841887793 -0.4633449703
C   6.8254469483  0.4684469837 -0.3694913046
N   7.1280999352 -3.1791885600 -0.6804615899
S   8.5741572225 -3.8843912456 -0.8587088675
N   9.5349288898 -2.5827488442 -0.8381967804
H   1.3541911226  1.6703611692  0.2127602294
H  -5.6795971939  0.1798849224  0.4486118204
H  -6.3618776298  2.6964124552  0.6253585878
H  -1.3961886506  4.2747697219  1.0385242446
H   0.1153812453  3.3804587962  1.1927266243
H  -0.4277201550  3.9096298165 -0.4017452296
H  -2.8283506843 -2.5200943344  0.1298712694
H  -4.1125161404 -1.8567104275  1.1553845145
H  -4.2375214859 -1.7294024393 -0.6004189292
H   2.1992951406 -3.0946808887 -0.2712507661
H   4.8278712216 -3.2520178553 -0.5179723976
H   10.2232986867  0.0614535298 -0.6903655620
H   8.4940196543  1.8305705118 -0.4072040060
H   6.1259498467  1.2895723064 -0.2474637413
42
Scanning combination 31/73: [208.8484]  Energy = -2548.7151356393
C  -0.7579029995  0.9949808328  0.2901628873
C  -1.4366871575 -0.2547433100  0.2291228658
C  -2.8221469081 -0.3673489782  0.2860265869
C  -3.5508347204  0.8336277221  0.3867646833
C  -2.8672098106  2.0782298525  0.4428625233
C  -1.4797981104  2.1907783659  0.4403656163
C   0.6626589984  0.8300482502  0.1960339763
C   1.0670087468 -0.4633397327  0.0716789814
S  -0.2882912024 -1.5715696692  0.0856659679
C  -4.9791802448  1.0140947800  0.4516994869
C  -5.3494476517  2.3092215944  0.5387796959
S  -4.0006894801  3.3992522327  0.5433216329
C  -0.7825573164  3.5146508354  0.5898083451
C  -3.5326582358 -1.6926296830  0.2396018810
C   2.4243291028 -0.9522772927 -0.0785781028
C   2.8669442396 -2.2420750714 -0.2436759811
C   4.2713868637 -2.3332628576 -0.3792247773
C   4.9158940069 -1.1179483261 -0.3207453607
S   3.7552577890  0.1603874447 -0.0909328327
C   6.3453331892 -0.8258244029 -0.4253252680
C   7.3305988312 -1.8660716941 -0.5927912554
C   8.7356150028 -1.5268412721 -0.6872774361
C   9.1654381657 -0.1720658211 -0.6189740271
C   8.2079339524  0.7840547877 -0.4629959559
C   6.8257925729  0.4687728200 -0.3679138803
N   7.1273166651 -3.1790281905 -0.6789575129
S   8.5730357331 -3.8845884190 -0.8585019635
N   9.5341019001 -2.5831891047 -0.8388117118
H   1.3570572476  1.6627607851  0.2136202135
H  -5.6815239967  0.1859611319  0.4390668571
H  -6.3555948576  2.7053795921  0.6099949509
H  -1.3806916831  4.2199472927  1.1749791662
H   0.1836870062  3.3862144809  1.0888601571
H  -0.5885865372  3.9771055266 -0.3854617407
H  -2.8285943299 -2.5212916811  0.1312987349
H  -4.1169547596 -1.8590154291  1.1537167107
H  -4.2347131794 -1.7276482332 -0.6027642881
H   2.2003050084 -3.0960007518 -0.2687830060
H   4.8296534783 -3.2519499920 -0.5168468835
H   10.2232277807  0.0607649888 -0.6918147047
H   8.4946967420  1.8303614667 -0.4073483723
H   6.1265710586  1.2900590328 -0.2454487202
42
Scanning combination 32/73: [213.8484]  Energy = -2548.7150091583
C  -0.7563855541  0.9920667735  0.3134521862
C  -1.4366120376 -0.2553918747  0.2430809761
C  -2.8227497815 -0.3676199298  0.2884628402
C  -3.5510018875  0.8337977891  0.3882977713
C  -2.8669040691  2.0779074652  0.4416976556
C  -1.4790890925  2.1904106197  0.4337351548
C   0.6642075858  0.8300486440  0.2057911443
C   1.0662689655 -0.4615638487  0.0674932558
S  -0.2899278460 -1.5690720785  0.0745865494
C  -4.9786714110  1.0151050038  0.4523213775
C  -5.3472236374  2.3111132547  0.5405276949
S  -3.9975704125  3.3998313096  0.5537693879
C  -0.7774557530  3.5102165487  0.5878009425
C  -3.5323677724 -1.6932130859  0.2375805093
C   2.4235434782 -0.9534815294 -0.0831688521
C   2.8671245374 -2.2428175632 -0.2440080911
C   4.2717342773 -2.3343773141 -0.3775553151
C   4.9161495823 -1.1186728250 -0.3186986806
S   3.7547874447  0.1589300079 -0.0889516213
C   6.3455504032 -0.8260409229 -0.4245227816
C   7.3309908585 -1.8661388227 -0.5926991550
C   8.7360224132 -1.5269444858 -0.6874999849
C   9.1656592575 -0.1720854657 -0.6192391727
C   8.2080889085  0.7840837198 -0.4630615494
C   6.8259132165  0.4686115140 -0.3676110293
N   7.1277089218 -3.1791022544 -0.6788210511
S   8.5733480871 -3.8847837214 -0.8583432837
N   9.5344755713 -2.5833725109 -0.8389468094
H   1.3589720555  1.6644648410  0.2054784198
H  -5.6804655825  0.1870210512  0.4342439404
H  -6.3535607081  2.7065149271  0.6014306491
H  -1.3425530629  4.1976684365  1.2240395337
H   0.2013593136  3.3654767338  1.0581736545
H  -0.6107223004  4.0028142750 -0.3767006877
H  -2.8302678156 -2.5238714827  0.1309941678
H  -4.1158436728 -1.8572087417  1.1520715944
H  -4.2354013177 -1.7314035518 -0.6038022035
H   2.2021016439 -3.0987466536 -0.2672938528
H   4.8311744851 -3.2523399358 -0.5166337640
H   10.2234357411  0.0608322349 -0.6920848860
H   8.4948925016  1.8304028989 -0.4072168907
H   6.1266670775  1.2899298240 -0.2449803706
42
Scanning combination 33/73: [218.8484]  Energy = -2548.7151696140
C  -0.7556641619  0.9911568733  0.3001931732
C  -1.4361015965 -0.2579988700  0.2361444927
C  -2.8215257310 -0.3703618532  0.2894498256
C  -3.5495095221  0.8316698645  0.3858898348
C  -2.8631710224  2.0741202887  0.4485954195
C  -1.4759227907  2.1861914017  0.4533586523
C   0.6645565561  0.8250115014  0.2011649626
C   1.0671695141 -0.4678244591  0.0738766730
S  -0.2888452512 -1.5747725928  0.0872373901
C  -4.9777083608  1.0174045182  0.4436738931
C  -5.3428046042  2.3144661526  0.5316746392
S  -3.9896101445  3.3991946268  0.5454217231
C  -0.7876641103  3.5122144478  0.6120074526
C  -3.5330205747 -1.6954367065  0.2398922331
C   2.4245691362 -0.9571423817 -0.0784823383
C   2.8688132086 -2.2465840103 -0.2429873416
C   4.2735687313 -2.3359735429 -0.3770870254
C   4.9167963211 -1.1200905926 -0.3187506317
S   3.7545060612  0.1568627830 -0.0900435894
C   6.3461885319 -0.8267805721 -0.4234003299
C   7.3318511013 -1.8666639824 -0.5913994004
C   8.7366702154 -1.5270938618 -0.6872278507
C   9.1659714438 -0.1720828946 -0.6193347405
C   8.2082920289  0.7837233286 -0.4624738699
C   6.8262465387  0.4680253293 -0.3661676479
N   7.1288470888 -3.1796809038 -0.6772672899
S   8.5745137897 -3.8849298435 -0.8583858343
N   9.5352852924 -2.5832685691 -0.8396715954
H   1.3607339084  1.6566312479  0.2172679729
H  -5.6828582344  0.1915837026  0.4258383364
H  -6.3475761688  2.7149507495  0.5960935152
H  -1.3091566619  4.1421830879  1.3391291067
H   0.2383840977  3.3779604715  0.9680012576
H  -0.7459576646  4.0578643691 -0.3383419749
H  -2.8303005581 -2.5256932154  0.1333856919
H  -4.1211956461 -1.8617004159  1.1516163149
H  -4.2317681265 -1.7279396388 -0.6053949344
H   2.2039653623 -3.1018600738 -0.2686906300
H   4.8338249669 -3.2538925918 -0.5139691072
H   10.2236567661  0.0610346414 -0.6933374550
H   8.4948628816  1.8302077279 -0.4072908632
H   6.1268557028  1.2891167098 -0.2429905854
42
Scanning combination 34/73: [223.8484]  Energy = -2548.7152670080
C  -0.7510908744  0.9883272451  0.3121297101
C  -1.4345577913 -0.2585537157  0.2415715810
C  -2.8202756062 -0.3685216316  0.2927037217
C  -3.5466692312  0.8341785388  0.3938791678
C  -2.8582081729  2.0740823743  0.4652436821
C  -1.4704635171  2.1819023055  0.4686375310
C   0.6694857532  0.8217872843  0.2077881429
C   1.0678353539 -0.4709306079  0.0717694011
S  -0.2904577722 -1.5751141211  0.0790258418
C  -4.9738313713  1.0234991389  0.4395320878
C  -5.3367687510  2.3215154060  0.5263235301
S  -3.9807053583  3.4022288355  0.5609222796
C  -0.7863311767  3.5088577001  0.6210715705
C  -3.5318891007 -1.6929625875  0.2387484877
C   2.4249111105 -0.9612619128 -0.0794201629
C   2.8701444796 -2.2498169106 -0.2423851390
C   4.2748130970 -2.3383311014 -0.3758706595
C   4.9174361816 -1.1219321853 -0.3168240677
S   3.7539540860  0.1537595721 -0.0879092017
C   6.3467984146 -0.8280804009 -0.4218846527
C   7.3329435077 -1.8674634778 -0.5908049508
C   8.7375934684 -1.5272178085 -0.6874399876
C   9.1663359462 -0.1720592817 -0.6198183242
C   8.2082720108  0.7832762511 -0.4621968489
C   6.8264266280  0.4668481023 -0.3649758823
N   7.1306186985 -3.1805963026 -0.6766198645
S   8.5765760661 -3.8851590603 -0.8580480703
N   9.5366992574 -2.5830084697 -0.8399541149
H   1.3694745385  1.6511881077  0.2178806868
H  -5.6784830325  0.1982649844  0.4132584350
H  -6.3414324473  2.7220885402  0.5817467435
H  -1.2543610183  4.1002350705  1.4137516486
H   0.2717813431  3.3872046641  0.8705211818
H  -0.8456444709  4.0968211722 -0.3018944785
H  -2.8306195130 -2.5245338064  0.1347951666
H  -4.1218280181 -1.8593071740  1.1486090349
H  -4.2290903091 -1.7287177951 -0.6072886777
H   2.2064623320 -3.1062774344 -0.2665981605
H   4.8355771477 -3.2558273206 -0.5126900953
H   10.2238520177  0.0616243830 -0.6941885929
H   8.4944039247  1.8298200146 -0.4067850200
H   6.1267612565  1.2876468428 -0.2414968940
42
Scanning combination 35/73: [228.8484]  Energy = -2548.7151226157
C  -0.7500557429  0.9856367501  0.3245014533
C  -1.4330363975 -0.2613095238  0.2506143491
C  -2.8191941225 -0.3703380137  0.2945596750
C  -3.5461786717  0.8321701018  0.3914757522
C  -2.8577400864  2.0725710615  0.4543394774
C  -1.4710639228  2.1822439518  0.4541414334
C   0.6699745384  0.8191222875  0.2151802056
C   1.0686999498 -0.4725268975  0.0720463613
S  -0.2892783554 -1.5768659258  0.0758324073
C  -4.9734770879  1.0226460737  0.4406800172
C  -5.3350563788  2.3209447061  0.5297101857
S  -3.9780894918  3.4003124355  0.5652431328
C  -0.7904979721  3.5095505668  0.6238716694
C  -3.5321602745 -1.6935810367  0.2385136360
C   2.4258229243 -0.9621330813 -0.0811972639
C   2.8709030149 -2.2506358874 -0.2426933064
C   4.2755825672 -2.3392972144 -0.3752932935
C   4.9180286134 -1.1226178775 -0.3164018278
S   3.7546433057  0.1530597817 -0.0879923540
C   6.3470757112 -0.8284057431 -0.4217791422
C   7.3331872594 -1.8676453025 -0.5907226032
C   8.7377267972 -1.5272420529 -0.6874263502
C   9.1663476242 -0.1720661995 -0.6197950625
C   8.2081930230  0.7832099280 -0.4621042725
C   6.8264138994  0.4666354733 -0.3648566650
N   7.1309157876 -3.1808074607 -0.6764280974
S   8.5769179309 -3.8851908189 -0.8580212966
N   9.5368929415 -2.5829450522 -0.8400340650
H   1.3676181339  1.6504508078  0.2187043575
H  -5.6805976986  0.1993432832  0.4103738000
H  -6.3391037024  2.7246447268  0.5790039909
H  -1.2187974916  4.0774785241  1.4562465443
H   0.2716879696  3.3763014172  0.8500429832
H  -0.8684492844  4.1252375815 -0.2783432053
H  -2.8302374217 -2.5245645780  0.1347661377
H  -4.1227652981 -1.8582492341  1.1484242477
H  -4.2290644307 -1.7279813855 -0.6081561334
H   2.2067432655 -3.1069557839 -0.2663795474
H   4.8362773844 -3.2566264986 -0.5125028059
H   10.2238109568  0.0617172525 -0.6943326326
H   8.4942413473  1.8297401957 -0.4067109952
H   6.1267150379  1.2873834722 -0.2411607113
42
Scanning combination 36/73: [233.8484]  Energy = -2548.7150119895
C  -0.7490527301  0.9838250103  0.3263085226
C  -1.4322942378 -0.2633034652  0.2543902210
C  -2.8185566507 -0.3714703869  0.2952060180
C  -3.5452847627  0.8315995714  0.3860227170
C  -2.8563768916  2.0716656117  0.4468258423
C  -1.4700675747  2.1810024995  0.4471487224
C   0.6715533965  0.8153900261  0.2218896655
C   1.0693796462 -0.4760238199  0.0781835310
S  -0.2894536566 -1.5791628702  0.0802226162
C  -4.9721293965  1.0235852086  0.4370899360
C  -5.3323565726  2.3217236627  0.5290399090
S  -3.9747627483  3.3999234327  0.5644347066
C  -0.7933072147  3.5073935583  0.6328524265
C  -3.5322842871 -1.6946053895  0.2389265318
C   2.4263376997 -0.9647986333 -0.0797914534
C   2.8721050546 -2.2528730795 -0.2428475883
C   4.2768911830 -2.3410169553 -0.3754516517
C   4.9187606023 -1.1240098488 -0.3164978025
S   3.7546894950  0.1511473531 -0.0888144252
C   6.3477165781 -0.8292806919 -0.4213484613
C   7.3341057388 -1.8682223122 -0.5903840064
C   8.7384947720 -1.5274000374 -0.6874341847
C   9.1666635957 -0.1720569410 -0.6198889418
C   8.2082672203  0.7829327001 -0.4618942091
C   6.8266086320  0.4659296338 -0.3643202995
N   7.1321602752 -3.1814306218 -0.6760464531
S   8.5783043360 -3.8854205791 -0.8580179521
N   9.5379221180 -2.5829054254 -0.8402662735
H   1.3695331840  1.6457585317  0.2279392932
H  -5.6805724519  0.2011751628  0.4068987218
H  -6.3354933049  2.7277112795  0.5795892987
H  -1.1839763262  4.0253847249  1.5149370336
H   0.2816982571  3.3747060772  0.7836416487
H  -0.9314828660  4.1709423912 -0.2263270359
H  -2.8316018051 -2.5269163090  0.1357905428
H  -4.1250500112 -1.8596218173  1.1473496606
H  -4.2275094701 -1.7273251045 -0.6090240334
H   2.2081943709 -3.1093637514 -0.2666675853
H   4.8380734343 -3.2581874393 -0.5116235635
H   10.2240283335  0.0620675179 -0.6946631779
H   8.4939908215  1.8295771652 -0.4065523303
H   6.1266397120  1.2864238802 -0.2404459957
42
Scanning combination 37/73: [238.8484]  Energy = -2548.7150417620
C  -0.7483117807  0.9818435531  0.3196736565
C  -1.4324728567 -0.2652587259  0.2497472639
C  -2.8187406929 -0.3728725923  0.2906412177
C  -3.5456696533  0.8307175955  0.3799969163
C  -2.8555206279  2.0695094063  0.4466854114
C  -1.4686148531  2.1783694923  0.4565355186
C   0.6728781405  0.8120185261  0.2251721206
C   1.0704792125 -0.4807520880  0.0848833408
S  -0.2894682620 -1.5829166839  0.0878206404
C  -4.9724895812  1.0237971922  0.4316061996
C  -5.3312985057  2.3228597667  0.5249087676
S  -3.9724969427  3.3993107316  0.5592926602
C  -0.7955538026  3.5064010612  0.6476441025
C  -3.5326424996 -1.6950434728  0.2371429651
C   2.4271615909 -0.9691907358 -0.0748919953
C   2.8734935332 -2.2569112490 -0.2403978764
C   4.2781426197 -2.3434552129 -0.3749937021
C   4.9192657311 -1.1263088916 -0.3161611203
S   3.7544548209  0.1478433125 -0.0866708230
C   6.3482616363 -0.8306506502 -0.4213646829
C   7.3353291164 -1.8691032417 -0.5903487194
C   8.7395941438 -1.5275724394 -0.6875559778
C   9.1671452243 -0.1720531890 -0.6199867982
C   8.2082714240  0.7823884924 -0.4616204207
C   6.8267565100  0.4646872184 -0.3639588534
N   7.1341480257 -3.1824257747 -0.6757047029
S   8.5806344654 -3.8856715238 -0.8578516510
N   9.5395528952 -2.5826367912 -0.8404539038
H   1.3733521459  1.6408968080  0.2423839167
H  -5.6807303953  0.2021572372  0.4023780420
H  -6.3331909670  2.7296384710  0.5802186940
H  -1.1212087069  3.9690227664  1.5847916332
H   0.2907330999  3.3959061553  0.7009352707
H  -1.0299401842  4.2105421901 -0.1574426037
H  -2.8324054008 -2.5278719640  0.1370577346
H  -4.1259573888 -1.8573239284  1.1454666596
H  -4.2274637114 -1.7302695416 -0.6108356884
H   2.2105159838 -3.1138068339 -0.2656291487
H   4.8399821188 -3.2601606779 -0.5124128426
H   10.2243768024  0.0625767099 -0.6950674608
H   8.4935704447  1.8291536402 -0.4060962289
H   6.1265209188  1.2849022249 -0.2394969969
42
Scanning combination 38/73: [243.8484]  Energy = -2548.7149859422
C  -0.7470318760  0.9799407042  0.3287190170
C  -1.4317657661 -0.2667942769  0.2512802629
C  -2.8180858687 -0.3739859165  0.2898164470
C  -3.5438669009  0.8297783892  0.3817839477
C  -2.8531522414  2.0686785626  0.4484203572
C  -1.4665809334  2.1780780251  0.4512928141
C   0.6734745028  0.8088677644  0.2309423956
C   1.0707813055 -0.4825815719  0.0843063944
S  -0.2892938929 -1.5846241758  0.0802915831
C  -4.9709943145  1.0234910427  0.4304529406
C  -5.3294133542  2.3224589330  0.5244018414
S  -3.9698134770  3.3977521633  0.5676980602
C  -0.7946992293  3.5057499663  0.6482976120
C  -3.5330578989 -1.6962229588  0.2350215176
C   2.4279675481 -0.9717227348 -0.0737116645
C   2.8746315464 -2.2591974348 -0.2385957799
C   4.2792386689 -2.3457048424 -0.3739781450
C   4.9201684850 -1.1281934461 -0.3144567003
S   3.7552954429  0.1453384918 -0.0826869200
C   6.3488012572 -0.8319892033 -0.4207143414
C   7.3361916417 -1.8699177622 -0.5902866612
C   8.7402768580 -1.5277839876 -0.6876684255
C   9.1672225112 -0.1720627782 -0.6201233475
C   8.2079719841  0.7819727341 -0.4615410649
C   6.8266097262  0.4636233116 -0.3635742566
N   7.1355198100 -3.1833313922 -0.6758080987
S   8.5822922900 -3.8859653921 -0.8579379660
N   9.5406743523 -2.5825284017 -0.8405544612
H   1.3719259151  1.6395315049  0.2471549977
H  -5.6807788112  0.2028019409  0.3958100669
H  -6.3315342425  2.7299060820  0.5749538169
H  -1.0623049043  3.9361180851  1.6201555882
H   0.2934836313  3.3999108444  0.6272219269
H  -1.0753157426  4.2262574538 -0.1250626933
H  -2.8331408297 -2.5295624391  0.1369520963
H  -4.1269750245 -1.8561070740  1.1433910440
H  -4.2275032498 -1.7322903531 -0.6134348531
H   2.2118435259 -3.1165615559 -0.2629190978
H   4.8410332527 -3.2620464317 -0.5132221690
H   10.2243679436  0.0630386643 -0.6952392762
H   8.4928124077  1.8288489845 -0.4058727944
H   6.1260275626  1.2835057323 -0.2391193502
42
Scanning combination 39/73: [248.8484]  Energy = -2548.7151111418
C  -0.7461088088  0.9815260319  0.3189066835
C  -1.4311347648 -0.2652207863  0.2399505284
C  -2.8173501857 -0.3736180215  0.2861161599
C  -3.5425909522  0.8300833216  0.3825536839
C  -2.8519261995  2.0680484240  0.4636287436
C  -1.4643982021  2.1767691049  0.4715750372
C   0.6746049899  0.8072363876  0.2313488836
C   1.0714973221 -0.4857081883  0.0908524678
S  -0.2894486934 -1.5856646911  0.0837242514
C  -4.9703494092  1.0239082980  0.4237569400
C  -5.3296029963  2.3222093426  0.5198371456
S  -3.9700268266  3.3977899904  0.5684947532
C  -0.7922230859  3.5056409445  0.6603758906
C  -3.5329397036 -1.6963294248  0.2328730838
C   2.4285305524 -0.9753485456 -0.0667300724
C   2.8753868798 -2.2626656433 -0.2351745921
C   4.2801963804 -2.3485950232 -0.3724679731
C   4.9209826461 -1.1310522370 -0.3126722460
S   3.7558796187  0.1419568463 -0.0785797251
C   6.3495272436 -0.8342385119 -0.4196594639
C   7.3375932123 -1.8714426537 -0.5895811891
C   8.7413920357 -1.5282291820 -0.6875482899
C   9.1674125335 -0.1721865380 -0.6200988462
C   8.2076142688  0.7809852775 -0.4611867979
C   6.8265294268  0.4617645786 -0.3626408893
N   7.1379422524 -3.1850376959 -0.6752643045
S   8.5852234757 -3.8864261930 -0.8584193543
N   9.5425565973 -2.5822459119 -0.8411614165
H   1.3778210689  1.6320061618  0.2719899836
H  -5.6802859292  0.2028549853  0.3872282710
H  -6.3321023651  2.7295698464  0.5742794790
H  -0.9622902172  3.8847703999  1.6756780151
H   0.2887619380  3.4338595659  0.5149742074
H  -1.1762566514  4.2523539383 -0.0421460921
H  -2.8325124774 -2.5298940914  0.1370783384
H  -4.1300806702 -1.8561260333  1.1398258561
H  -4.2246298376 -1.7320179918 -0.6182260809
H   2.2130789676 -3.1203338228 -0.2609472095
H   4.8420295722 -3.2648525632 -0.5127978332
H   10.2243907769  0.0637324072 -0.6957585259
H   8.4915101962  1.8281583345 -0.4058860179
H   6.1253084384  1.2809959086 -0.2379424730
42
Scanning combination 40/73: [253.8484]  Energy = -2548.7150771970
C  -0.7444006355  0.9814904966  0.3313154989
C  -1.4301213310 -0.2641094646  0.2450902180
C  -2.8165779885 -0.3731307189  0.2852648309
C  -3.5405312234  0.8314699438  0.3806419275
C  -2.8499386593  2.0697058544  0.4645573112
C  -1.4628651816  2.1790241387  0.4690740851
C   0.6758876339  0.8057618888  0.2410663934
C   1.0716080747 -0.4865218398  0.0930917183
S  -0.2904867802 -1.5847316690  0.0772690569
C  -4.9684276989  1.0230252426  0.4222162432
C  -5.3281097080  2.3216212310  0.5236328872
S  -3.9696801992  3.3976838766  0.5786441308
C  -0.7847339782  3.5047177070  0.6582532990
C  -3.5320509154 -1.6961561445  0.2312186247
C   2.4288980184 -0.9764468907 -0.0652374682
C   2.8758195656 -2.2636397019 -0.2344514912
C   4.2805325120 -2.3500471186 -0.3717460813
C   4.9215580788 -1.1327535016 -0.3107805163
S   3.7567604879  0.1404178895 -0.0761269778
C   6.3499238344 -0.8353839492 -0.4184850398
C   7.3381760677 -1.8722363758 -0.5892319134
C   8.7418160539 -1.5285012847 -0.6876479957
C   9.1673836503 -0.1723359194 -0.6202750317
C   8.2072629068  0.7806286935 -0.4611048306
C   6.8263635206  0.4607873283 -0.3620305858
N   7.1388163092 -3.1858150813 -0.6750824374
S   8.5862403133 -3.8867966581 -0.8584932197
N   9.5432280492 -2.5823428419 -0.8414051825
H   1.3807588168  1.6292918767  0.2797082070
H  -5.6790635808  0.2032682509  0.3823185016
H  -6.3304315901  2.7284188327  0.5719570647
H  -0.8891758002  3.8473608248  1.6941996750
H   0.2830060301  3.4370698660  0.4363273173
H  -1.2100520976  4.2779243396  0.0116696703
H  -2.8328475035 -2.5308434433  0.1362221001
H  -4.1316762696 -1.8562806073  1.1366664688
H  -4.2222782980 -1.7315875174 -0.6208640470
H   2.2136790782 -3.1214901473 -0.2589008231
H   4.8424874602 -3.2663522428 -0.5119632611
H   10.2242464691  0.0639126083 -0.6960749870
H   8.4909032208  1.8278504860 -0.4057497653
H   6.1249222761  1.2798873241 -0.2373122395
42
Scanning combination 41/73: [258.8484]  Energy = -2548.7149453813
C  -0.7426454980  0.9788399276  0.3367185187
C  -1.4285102436 -0.2669925050  0.2535383010
C  -2.8152907750 -0.3730271491  0.2888004159
C  -3.5395360652  0.8312444718  0.3809266654
C  -2.8486086410  2.0699458218  0.4546362069
C  -1.4615974477  2.1789019311  0.4526919630
C   0.6781350431  0.8035688580  0.2519442340
C   1.0733068058 -0.4880690253  0.0962547771
S  -0.2887542083 -1.5863709745  0.0736388136
C  -4.9668996664  1.0248996263  0.4248541344
C  -5.3260666234  2.3224100236  0.5275039102
S  -3.9668809594  3.3975684769  0.5878091007
C  -0.7827536024  3.5045619836  0.6445122699
C  -3.5320194696 -1.6946284749  0.2287792994
C   2.4297077916 -0.9774176164 -0.0654284127
C   2.8761891819 -2.2648627177 -0.2331225462
C   4.2807716940 -2.3510168218 -0.3700721568
C   4.9218167258 -1.1336320002 -0.3095017244
S   3.7572796594  0.1394524249 -0.0739428616
C   6.3500187586 -0.8361895230 -0.4180179672
C   7.3384977868 -1.8728399638 -0.5889115926
C   8.7420498031 -1.5287468227 -0.6876093495
C   9.1674477853 -0.1725424479 -0.6202970432
C   8.2070695054  0.7801987716 -0.4609109295
C   6.8262723276  0.4599989713 -0.3616067868
N   7.1395002980 -3.1864715624 -0.6746704426
S   8.5870692732 -3.8870431945 -0.8585666532
N   9.5437162073 -2.5823416810 -0.8416811754
H   1.3823692622  1.6278667984  0.2887336495
H  -5.6768276120  0.2045188850  0.3771807437
H  -6.3295574023  2.7286909328  0.5715156903
H  -0.8295031915  3.8110222032  1.6963706607
H   0.2746906934  3.4431645265  0.3724795698
H  -1.2436307277  4.2967568302  0.0469056954
H  -2.8313235326 -2.5279994585  0.1351510485
H  -4.1317026115 -1.8533156832  1.1339164198
H  -4.2211495890 -1.7307037150 -0.6245785331
H   2.2136843944 -3.1225467265 -0.2575817652
H   4.8422549832 -3.2671605977 -0.5116883170
H   10.2241918313  0.0640056437 -0.6964455198
H   8.4904687818  1.8274398651 -0.4056899302
H   6.1247202044  1.2789615933 -0.2365810072
42
Scanning combination 42/73: [263.8484]  Energy = -2548.7149381691
C  -0.7419183990  0.9803370425  0.3338511947
C  -1.4282332866 -0.2647961015  0.2469142084
C  -2.8148143077 -0.3725464588  0.2822841137
C  -3.5384337045  0.8324650163  0.3735471933
C  -2.8477313969  2.0713146699  0.4559826980
C  -1.4603884663  2.1810688804  0.4618495924
C   0.6784525971  0.8026801197  0.2557883973
C   1.0736889764 -0.4897757835  0.1043791502
S  -0.2892355759 -1.5869838360  0.0818790825
C  -4.9660810377  1.0241854369  0.4196920411
C  -5.3258732319  2.3216253540  0.5264561894
S  -3.9683286292  3.3984159895  0.5809815621
C  -0.7732371150  3.5054774034  0.6452871056
C  -3.5317325531 -1.6951626831  0.2264948441
C   2.4304252782 -0.9796526916 -0.0582912428
C   2.8772572713 -2.2666971710 -0.2301328197
C   4.2817577290 -2.3527870631 -0.3695452548
C   4.9226558295 -1.1353824040 -0.3085307343
S   3.7581212895  0.1374048914 -0.0708740417
C   6.3507145427 -0.8373969396 -0.4172028109
C   7.3393825487 -1.8737332688 -0.5884062603
C   8.7427527673 -1.5292087681 -0.6876429155
C   9.1676427289 -0.1728091484 -0.6204737541
C   8.2070572863  0.7796578597 -0.4606759189
C   6.8264433622  0.4590128348 -0.3608145549
N   7.1406621419 -3.1874114836 -0.6741691650
S   8.5883443036 -3.8875663639 -0.8586509534
N   9.5446365282 -2.5825917324 -0.8420727635
H   1.3841217134  1.6245586939  0.3074711703
H  -5.6769354892  0.2044670899  0.3772941346
H  -6.3286690304  2.7275710358  0.5793249292
H  -0.7235837360  3.7705339045  1.7090222734
H   0.2535779622  3.4667261546  0.2710315849
H  -1.2944081001  4.3172686707  0.1270357074
H  -2.8325197582 -2.5302151588  0.1347836562
H  -4.1340707775 -1.8542412274  1.1303880475
H  -4.2192936582 -1.7306490347 -0.6280113257
H   2.2148916771 -3.1243773879 -0.2559771288
H   4.8435610226 -3.2688796923 -0.5114395210
H   10.2242735732  0.0640831829 -0.6969858550
H   8.4901044648  1.8270309700 -0.4055836402
H   6.1245756848  1.2776923348 -0.2356046875
42
Scanning combination 43/73: [268.8484]  Energy = -2548.7148517424
C  -0.7406743636  0.9775104720  0.3415609956
C  -1.4270790476 -0.2664072472  0.2515559054
C  -2.8142297618 -0.3706977698  0.2842884317
C  -3.5373911517  0.8338539142  0.3788627811
C  -2.8471065911  2.0726120677  0.4560298120
C  -1.4594830422  2.1789316854  0.4504077581
C   0.6799613136  0.8026967975  0.2641448677
C   1.0753480166 -0.4884862320  0.1050276967
S  -0.2875498882 -1.5861798204  0.0730936555
C  -4.9648155139  1.0252641410  0.4234239138
C  -5.3259498650  2.3218703592  0.5306694454
S  -3.9686832670  3.3988625366  0.5924064512
C  -0.7688536097  3.4991147487  0.6360351371
C  -3.5310996664 -1.6918203539  0.2230905788
C   2.4315146517 -0.9793621131 -0.0568138944
C   2.8773237849 -2.2667725403 -0.2276219968
C   4.2815688915 -2.3533423923 -0.3673113486
C   4.9231228686 -1.1363180033 -0.3055509652
S   3.7595063831  0.1367710123 -0.0655765407
C   6.3509907778 -0.8384319507 -0.4160634263
C   7.3397564370 -1.8745202464 -0.5881229249
C   8.7430204725 -1.5295726998 -0.6877897061
C   9.1677151442 -0.1731306988 -0.6207252956
C   8.2069471982  0.7790549094 -0.4606384388
C   6.8264816886  0.4580469776 -0.3602473772
N   7.1414145904 -3.1882454881 -0.6739451677
S   8.5893032560 -3.8879442538 -0.8586643678
N   9.5452078023 -2.5826976291 -0.8423300892
H   1.3831867159  1.6275232163  0.3167796107
H  -5.6736520295  0.2046215276  0.3725538995
H  -6.3298722529  2.7260640102  0.5756018929
H  -0.6560631895  3.7266224653  1.7037631500
H   0.2366655671  3.4739938094  0.2048809826
H  -1.3201187505  4.3238035653  0.1777405829
H  -2.8304771980 -2.5254538382  0.1325194490
H  -4.1340129642 -1.8496586944  1.1261863318
H  -4.2171920761 -1.7288162273 -0.6324275742
H   2.2147531400 -3.1244669457 -0.2521542621
H   4.8423472719 -3.2696178127 -0.5115289347
H   10.2242737396  0.0640247999 -0.6974332419
H   8.4897192984  1.8264663720 -0.4054398649
H   6.1244912073  1.2765612943 -0.2348410419
42
Scanning combination 44/73: [273.8484]  Energy = -2548.7149157578
C  -0.7419659283  0.9785598713  0.3330390979
C  -1.4283890526 -0.2658451438  0.2427790652
C  -2.8153302040 -0.3714566696  0.2790361818
C  -3.5384493292  0.8336617941  0.3726054499
C  -2.8476914894  2.0728921098  0.4562875848
C  -1.4597368113  2.1804061463  0.4591570165
C   0.6787939871  0.8027731339  0.2654478662
C   1.0753926515 -0.4888051375  0.1138303333
S  -0.2872324742 -1.5875072700  0.0821297760
C  -4.9666370218  1.0235307867  0.4182294397
C  -5.3285998123  2.3196187227  0.5269812556
S  -3.9730430322  3.3985867079  0.5799362210
C  -0.7583225365  3.4976668383  0.6397041393
C  -3.5320033012 -1.6936126929  0.2206251684
C   2.4319513009 -0.9801619225 -0.0487791567
C   2.8776732069 -2.2673006442 -0.2239879655
C   4.2819200398 -2.3541795830 -0.3659546614
C   4.9236681092 -1.1372102072 -0.3038552437
S   3.7602697048  0.1358968199 -0.0618480341
C   6.3515750012 -0.8393718284 -0.4147887910
C   7.3405074084 -1.8753091749 -0.5871869357
C   8.7436874174 -1.5301573922 -0.6876592566
C   9.1681753634 -0.1735833214 -0.6208342488
C   8.2073163680  0.7784425731 -0.4603419864
C   6.8269514679  0.4572029478 -0.3591956320
N   7.1423259371 -3.1890610211 -0.6730524319
S   8.5901924154 -3.8885178006 -0.8589688555
N   9.5459270444 -2.5831271956 -0.8429867345
H   1.3837405448  1.6248428292  0.3374320753
H  -5.6753899498  0.2018402453  0.3745975290
H  -6.3320358727  2.7235322900  0.5831684221
H  -0.5461544607  3.6798366292  1.7008247534
H   0.1997687742  3.5024546858  0.1091619543
H  -1.3592367728  4.3338319414  0.2722637814
H  -2.8319929215 -2.5281750081  0.1313047261
H  -4.1378866195 -1.8522339340  1.1218785042
H  -4.2153353497 -1.7281314300 -0.6368710467
H   2.2148873493 -3.1248263884 -0.2502729289
H   4.8428838231 -3.2703296135 -0.5103692516
H   10.2246100498  0.0638161564 -0.6982963881
H   8.4898571877  1.8259524057 -0.4056557446
H   6.1248029374  1.2755192944 -0.2335409004
42
Scanning combination 45/73: [278.8484]  Energy = -2548.7149969691
C  -0.7411754779  0.9774396220  0.3358942298
C  -1.4281363576 -0.2646937764  0.2387977311
C  -2.8146582644 -0.3689965081  0.2776618053
C  -3.5372168970  0.8353561695  0.3815550848
C  -2.8471579891  2.0744603747  0.4720131389
C  -1.4585159547  2.1777717944  0.4721953261
C   0.6799392813  0.8038006812  0.2694883347
C   1.0759037176 -0.4883046643  0.1127513474
S  -0.2879772275 -1.5856476584  0.0744065670
C  -4.9652115674  1.0228650714  0.4189573542
C  -5.3301925286  2.3178971650  0.5239534165
S  -3.9767477076  3.3990713816  0.5850297998
C  -0.7465900537  3.4908337382  0.6336357899
C  -3.5312137914 -1.6905151534  0.2159337682
C   2.4324520911 -0.9802795882 -0.0436931155
C   2.8777322885 -2.2677460701 -0.2195447710
C   4.2819098206 -2.3550767650 -0.3629565635
C   4.9242304943 -1.1385982303 -0.2993915104
S   3.7617172280  0.1346141252 -0.0539358170
C   6.3519278592 -0.8403861635 -0.4122726989
C   7.3407591087 -1.8761252279 -0.5861564738
C   8.7438210947 -1.5308100111 -0.6878102508
C   9.1681914669 -0.1741929734 -0.6213561920
C   8.2073724863  0.7777706384 -0.4601880598
C   6.8271286522  0.4563177455 -0.3576962276
N   7.1425643260 -3.1898485960 -0.6721676656
S   8.5903507553 -3.8892126725 -0.8589193720
N   9.5460205014 -2.5837573423 -0.8435803185
H   1.3841488113  1.6255679196  0.3472581967
H  -5.6708157175  0.1991472873  0.3719596701
H  -6.3347944678  2.7194666948  0.5764548163
H  -0.4304653049  3.6393525714  1.6744092615
H   0.1519927561  3.5262528105  0.0098047593
H  -1.3868514184  4.3333055977  0.3610586063
H  -2.8308820151 -2.5249271457  0.1282686757
H  -4.1396365753 -1.8495090318  1.1154533928
H  -4.2121600704 -1.7252101797 -0.6433980255
H   2.2152880037 -3.1252734573 -0.2451674561
H   4.8425145651 -3.2712781440 -0.5091429733
H   10.2246118829  0.0631994522 -0.6993681903
H   8.4899217088  1.8253206162 -0.4056026355
H   6.1250599234  1.2747134967 -0.2318791827
42
Scanning combination 46/73: [283.8484]  Energy = -2548.7148874456
C  -0.7398377936  0.9751702124  0.3485397067
C  -1.4272679726 -0.2664063414  0.2481273374
C  -2.8140282016 -0.3698033372  0.2799730729
C  -3.5369473727  0.8350261990  0.3813542487
C  -2.8464356950  2.0748219797  0.4616240886
C  -1.4577056052  2.1801449391  0.4561426126
C   0.6808454105  0.8023963970  0.2771313518
C   1.0765521968 -0.4884819713  0.1120677871
S  -0.2871180848 -1.5862775154  0.0695807672
C  -4.9650732508  1.0226639452  0.4213678786
C  -5.3300520112  2.3173492897  0.5265298737
S  -3.9761558734  3.3981589838  0.5899916617
C  -0.7437542917  3.4910940889  0.6315472518
C  -3.5317333818 -1.6905982171  0.2141596910
C   2.4328409515 -0.9802769594 -0.0460145254
C   2.8780003479 -2.2681495860 -0.2188753008
C   4.2821972069 -2.3550959795 -0.3612590628
C   4.9243275794 -1.1385038093 -0.2985978920
S   3.7618685224  0.1346302222 -0.0526683216
C   6.3519777406 -0.8405168297 -0.4121195950
C   7.3407842802 -1.8763228385 -0.5858842326
C   8.7438467008 -1.5309807766 -0.6877041968
C   9.1682347900 -0.1743621705 -0.6213177963
C   8.2074530933  0.7775452251 -0.4600313012
C   6.8272333912  0.4561473322 -0.3574427632
N   7.1426669205 -3.1900718960 -0.6717698537
S   8.5904484892 -3.8893544079 -0.8590025208
N   9.5460662731 -2.5838672402 -0.8437868763
H   1.3836679831  1.6266904133  0.3463215983
H  -5.6710766321  0.1992556806  0.3703840013
H  -6.3353765073  2.7187731045  0.5742291097
H  -0.3776425849  3.6105328814  1.6606820641
H   0.1386165286  3.5268157427 -0.0188144335
H  -1.3827775897  4.3438002543  0.3919640013
H  -2.8313291547 -2.5249211832  0.1276536648
H  -4.1395832987 -1.8489789794  1.1138963790
H  -4.2129428585 -1.7265318641 -0.6453029177
H   2.2149654496 -3.1251509905 -0.2445992468
H   4.8421766933 -3.2712940338 -0.5088583711
H   10.2246247879  0.0631321414 -0.6996782873
H   8.4898905694  1.8251327598 -0.4056861361
H   6.1251174189  1.2744240614 -0.2314027635
42
Scanning combination 47/73: [288.8484]  Energy = -2548.7150777632
C  -0.7407176411  0.9763806910  0.3420882409
C  -1.4268574823 -0.2662661437  0.2486851354
C  -2.8139847507 -0.3693509433  0.2804248269
C  -3.5360917816  0.8360933967  0.3745729209
C  -2.8467602368  2.0767832540  0.4584790915
C  -1.4586838798  2.1789960745  0.4675356819
C   0.6805749091  0.8031034800  0.2830866612
C   1.0774500927 -0.4884670966  0.1227567057
S  -0.2860369907 -1.5868883732  0.0792863544
C  -4.9640488887  1.0226059379  0.4172626408
C  -5.3300880220  2.3175728931  0.5232774179
S  -3.9777736939  3.4000891072  0.5761480064
C  -0.7333631405  3.4862692050  0.6183422897
C  -3.5315888381 -1.6904868101  0.2131400158
C   2.4334372602 -0.9803036552 -0.0408363337
C   2.8781321606 -2.2679041152 -0.2173119654
C   4.2822524706 -2.3555562724 -0.3602238662
C   4.9248435644 -1.1391518823 -0.2972565806
S   3.7628249107  0.1343085452 -0.0513656989
C   6.3524925305 -0.8412407570 -0.4104578130
C   7.3412476842 -1.8769942740 -0.5847292916
C   8.7442042286 -1.5315427388 -0.6876229289
C   9.1685271229 -0.1748835385 -0.6216161714
C   8.2077484092  0.7770110965 -0.4597008438
C   6.8276507503  0.4554382835 -0.3560605303
N   7.1431189492 -3.1907381250 -0.6706200654
S   8.5907891826 -3.8899174334 -0.8590385889
N   9.5463522641 -2.5843732095 -0.8444107436
H   1.3826403910  1.6271261895  0.3617672728
H  -5.6686489419  0.1980506972  0.3720635885
H  -6.3349444691  2.7174749639  0.5781932609
H  -0.2690640725  3.5473699325  1.6110717843
H   0.0769195963  3.5684970710 -0.1141729698
H  -1.3963862402  4.3494789804  0.5022385974
H  -2.8313884713 -2.5250448107  0.1265089282
H  -4.1427901230 -1.8514264939  1.1102432597
H  -4.2095819914 -1.7233383902 -0.6489034973
H   2.2150306628 -3.1250692949 -0.2438582306
H   4.8423764873 -3.2719788316 -0.5062541654
H   10.2248179892  0.0627117675 -0.7006426607
H   8.4901252069  1.8246143284 -0.4057793624
H   6.1255304520  1.2737152651 -0.2298270314
42
Scanning combination 48/73: [293.8484]  Energy = -2548.7152497822
C  -0.7394521750  0.9748411850  0.3434104841
C  -1.4264749986 -0.2664774350  0.2439085559
C  -2.8134459252 -0.3686437499  0.2770164363
C  -3.5343991397  0.8363699087  0.3798839775
C  -2.8447433845  2.0766810612  0.4708605044
C  -1.4556312200  2.1772433057  0.4760580966
C   0.6814389849  0.8020248401  0.2802260776
C   1.0778804472 -0.4896366795  0.1224348556
S  -0.2862501563 -1.5874357847  0.0794448053
C  -4.9624992492  1.0223815460  0.4169862260
C  -5.3292323880  2.3173196120  0.5204075047
S  -3.9779157024  3.4002484227  0.5761925258
C  -0.7263894171  3.4837716935  0.6123988351
C  -3.5313147807 -1.6895796700  0.2096923598
C   2.4345520374 -0.9817704085 -0.0349168262
C   2.8791157031 -2.2690167318 -0.2129944684
C   4.2831186781 -2.3570307390 -0.3574872206
C   4.9259598970 -1.1406937128 -0.2929627203
S   3.7643621558  0.1324306330 -0.0436694289
C   6.3532706921 -0.8421968122 -0.4084371795
C   7.3418384138 -1.8778128425 -0.5839597231
C   8.7446451558 -1.5323056167 -0.6878896585
C   9.1689203149 -0.1756319489 -0.6221673477
C   8.2082646385  0.7762829097 -0.4594840289
C   6.8282622980  0.4546128473 -0.3547420316
N   7.1435906134 -3.1915605823 -0.6695596488
S   8.5911466384 -3.8907551290 -0.8586107445
N   9.5466914981 -2.5851921332 -0.8449011384
H   1.3844013414  1.6252642052  0.3587472231
H  -5.6673017169  0.1982769955  0.3722481404
H  -6.3339926830  2.7172653999  0.5700926885
H  -0.1715548001  3.5179474954  1.5583506202
H   0.0054142171  3.6103076286 -0.1942641942
H  -1.4076468456  4.3383471795  0.5910122631
H  -2.8313642395 -2.5245157287  0.1245403603
H  -4.1447379418 -1.8492909860  1.1057112749
H  -4.2076894313 -1.7228302645 -0.6533714285
H   2.2154863230 -3.1257634475 -0.2392496683
H   4.8431297367 -3.2732090143 -0.5058069641
H   10.2251520801  0.0619479121 -0.7018631997
H   8.4906903449  1.8238656403 -0.4054064262
H   6.1262404378  1.2728935082 -0.2278576772
42
Scanning combination 49/73: [298.8484]  Energy = -2548.7151691967
C  -0.7381105743  0.9735241140  0.3530880040
C  -1.4253790058 -0.2679852764  0.2546328840
C  -2.8128038442 -0.3693126988  0.2812083734
C  -3.5340406854  0.8359996594  0.3793383380
C  -2.8439823958  2.0770800483  0.4572414829
C  -1.4554375289  2.1785146357  0.4583921796
C   0.6828953125  0.8009088418  0.2880812639
C   1.0787516230 -0.4903599538  0.1228108109
S  -0.2856321788 -1.5878393401  0.0759395039
C  -4.9622638455  1.0223200843  0.4195650133
C  -5.3287287537  2.3170311736  0.5223510773
S  -3.9765437679  3.3993418639  0.5811276820
C  -0.7263704345  3.4842815814  0.6098746689
C  -3.5314365182 -1.6893456383  0.2084687867
C   2.4349556482 -0.9821609591 -0.0365479860
C   2.8794667719 -2.2697218460 -0.2124382454
C   4.2834891247 -2.3573442156 -0.3559541821
C   4.9262135915 -1.1410275832 -0.2917255810
S   3.7646685246  0.1319969364 -0.0421238252
C   6.3534697278 -0.8426097764 -0.4077301895
C   7.3420583172 -1.8781994425 -0.5834431166
C   8.7448329300 -1.5325951289 -0.6877596020
C   9.1690986542 -0.1759114554 -0.6221746777
C   8.2084049888  0.7759084716 -0.4593082468
C   6.8284590082  0.4541789553 -0.3542123729
N   7.1439174330 -3.1919585729 -0.6690552118
S   8.5914683364 -3.8910102964 -0.8587409525
N   9.5469160038 -2.5853804629 -0.8452004453
H   1.3847955973  1.6263015724  0.3542551952
H  -5.6671120201  0.1982092205  0.3701511314
H  -6.3341188469  2.7173830363  0.5675049731
H  -0.1270647118  3.4889949497  1.5305414619
H  -0.0195565141  3.6199642188 -0.2190614353
H  -1.4006073689  4.3440992776  0.6311238207
H  -2.8315223859 -2.5242053698  0.1238165263
H  -4.1451367290 -1.8491301431  1.1039304626
H  -4.2074308028 -1.7228953130 -0.6552817075
H   2.2158805401 -3.1264420240 -0.2385027660
H   4.8431406923 -3.2735083036 -0.5050264891
H   10.2252747408  0.0617779139 -0.7023441469
H   8.4907536184  1.8235212059 -0.4055318861
H   6.1264275573  1.2724134697 -0.2271724797
42
Scanning combination 50/73: [303.8484]  Energy = -2548.7152232283
C  -0.7375176978  0.9730971055  0.3484671852
C  -1.4245624534 -0.2686072316  0.2547682053
C  -2.8119702315 -0.3693711322  0.2811639827
C  -3.5323404444  0.8373984753  0.3744082531
C  -2.8417267890  2.0782462411  0.4551535637
C  -1.4535366123  2.1776214436  0.4661922706
C   0.6833662186  0.8002235443  0.2879358304
C   1.0798961552 -0.4917322460  0.1302123714
S  -0.2841795984 -1.5899971393  0.0879892662
C  -4.9605476589  1.0236006495  0.4157582593
C  -5.3265929151  2.3183236048  0.5182118282
S  -3.9745453303  3.4013378203  0.5691577238
C  -0.7172791731  3.4788444276  0.6067411283
C  -3.5310158363 -1.6891896256  0.2078802224
C   2.4359839423 -0.9835245318 -0.0318122058
C   2.8802704434 -2.2708228178 -0.2104511327
C   4.2842303340 -2.3583762143 -0.3546497440
C   4.9269603451 -1.1421243572 -0.2901794316
S   3.7655448552  0.1308356895 -0.0399292754
C   6.3541691155 -0.8435839990 -0.4062269354
C   7.3427823800 -1.8790476470 -0.5823615964
C   8.7454347609 -1.5332534042 -0.6876613749
C   9.1695336202 -0.1764865467 -0.6224027085
C   8.2088108240  0.7752014161 -0.4589430369
C   6.8289900837  0.4532794214 -0.3529052823
N   7.1447335427 -3.1928238877 -0.6679044247
S   8.5922227599 -3.8916760993 -0.8587670963
N   9.5475208630 -2.5859272823 -0.8458111838
H   1.3847162649  1.6261230185  0.3530674942
H  -5.6651931448  0.1987638357  0.3713266220
H  -6.3319147947  2.7183299195  0.5698225355
H  -0.0424573800  3.4312943932  1.4691602950
H  -0.0906941918  3.6691149450 -0.2731782635
H  -1.3903931754  4.3302555637  0.7349608738
H  -2.8311780927 -2.5242724780  0.1235942276
H  -4.1469840389 -1.8502849289  1.1016028294
H  -4.2046817793 -1.7205245722 -0.6576976337
H   2.2165683914 -3.1274618997 -0.2377425646
H   4.8439394336 -3.2746145130 -0.5031972650
H   10.2256251176  0.0613490044 -0.7033215739
H   8.4910326714  1.8228836644 -0.4055821122
H   6.1269081411  1.2714169477 -0.2255431574
42
Scanning combination 51/73: [308.8484]  Energy = -2548.7152475172
C  -0.7356210350  0.9723504246  0.3481345142
C  -1.4235268172 -0.2690284790  0.2544770389
C  -2.8109912330 -0.3698980100  0.2798422658
C  -3.5301102975  0.8375283999  0.3752838764
C  -2.8386230572  2.0776828705  0.4584209998
C  -1.4495560152  2.1781537624  0.4659304373
C   0.6845439945  0.7984244087  0.2821499435
C   1.0806284348 -0.4944300762  0.1313163350
S  -0.2837576250 -1.5921568893  0.0947899251
C  -4.9584626220  1.0239047305  0.4145599255
C  -5.3238120050  2.3198271733  0.5158968531
S  -3.9710655544  3.4017411306  0.5650628093
C  -0.7151378196  3.4835666722  0.5885805781
C  -3.5308081109 -1.6894766536  0.2066582292
C   2.4369818300 -0.9859977532 -0.0278333755
C   2.8816522883 -2.2731397804 -0.2078701666
C   4.2856949165 -2.3601181933 -0.3528353713
C   4.9280223179 -1.1437512594 -0.2873695772
S   3.7664178468  0.1286097064 -0.0351713353
C   6.3549868390 -0.8446031337 -0.4047642739
C   7.3435955155 -1.8798847319 -0.5817118156
C   8.7461013946 -1.5339069772 -0.6878096602
C   9.1700147028 -0.1770657863 -0.6227738809
C   8.2092740912  0.7744990031 -0.4587129588
C   6.8295692807  0.4524012545 -0.3518477523
N   7.1456358268 -3.1936758063 -0.6670542302
S   8.5931106472 -3.8923813451 -0.8585048755
N   9.5482430660 -2.5865090397 -0.8462212504
H   1.3870493648  1.6234064281  0.3403295675
H  -5.6645715714  0.2006765182  0.3714808341
H  -6.3282110415  2.7209328394  0.5646485180
H   0.0353163667  3.4204964592  1.3858892222
H  -0.1799181938  3.7205793612 -0.3405002328
H  -1.3871597027  4.3171411883  0.8078512435
H  -2.8315306082 -2.5251871336  0.1229923710
H  -4.1483457565 -1.8496182502  1.0995816179
H  -4.2034169614 -1.7205582339 -0.6595886086
H   2.2179144803 -3.1295172712 -0.2351348636
H   4.8455548939 -3.2760573563 -0.5027693687
H   10.2260356492  0.0608780535 -0.7042307745
H   8.4914233369  1.8222219837 -0.4053088937
H   6.1274549101  1.2704295622 -0.2239971658
42
Scanning combination 52/73: [313.8484]  Energy = -2548.7149930948
C  -0.7339032752  0.9704076474  0.3549454271
C  -1.4228122407 -0.2702759025  0.2600202407
C  -2.8102087304 -0.3694613409  0.2818349141
C  -3.5301738848  0.8371788586  0.3793959812
C  -2.8380416303  2.0774765162  0.4517169400
C  -1.4491982716  2.1779860668  0.4446557119
C   0.6867518140  0.7979572251  0.2866976224
C   1.0814282810 -0.4948678821  0.1289342793
S  -0.2833985084 -1.5923539686  0.0948795162
C  -4.9580890354  1.0256215320  0.4167287776
C  -5.3229553423  2.3207122496  0.5135107766
S  -3.9690903910  3.4019951083  0.5686623773
C  -0.7185347442  3.4835685674  0.5832737273
C  -3.5304066163 -1.6884142772  0.2056051626
C   2.4372740642 -0.9866524915 -0.0284603475
C   2.8819339151 -2.2740817843 -0.2064077238
C   4.2858846127 -2.3605665198 -0.3517012890
C   4.9281458792 -1.1441270481 -0.2866907661
S   3.7665559489  0.1279455782 -0.0334071958
C   6.3551308665 -0.8450414021 -0.4042563188
C   7.3438901742 -1.8802343368 -0.5813242756
C   8.7463850755 -1.5341476112 -0.6877480302
C   9.1702409152 -0.1772755452 -0.6228538473
C   8.2094126303  0.7741724255 -0.4585731123
C   6.8297393596  0.4519463534 -0.3513731900
N   7.1460775078 -3.1940463696 -0.6666949331
S   8.5935701752 -3.8926169422 -0.8585527537
N   9.5485956112 -2.5866579589 -0.8464252320
H   1.3886918596  1.6243857420  0.3332641424
H  -5.6630746713  0.2011376771  0.3702067417
H  -6.3285494152  2.7212957783  0.5627820229
H   0.0699028011  3.4076021260  1.3411106366
H  -0.2066856935  3.7307646268 -0.3585903585
H  -1.3787204483  4.3139403206  0.8384406292
H  -2.8315574063 -2.5243479518  0.1232966683
H  -4.1474421202 -1.8487434072  1.0985417278
H  -4.2032310027 -1.7205005002 -0.6606256344
H   2.2184707756 -3.1305553498 -0.2345805452
H   4.8456487599 -3.2762869961 -0.5024679013
H   10.2262243603  0.0607817785 -0.7045887638
H   8.4914993282  1.8219192054 -0.4053344224
H   6.1276126081  1.2699576734 -0.2234567041
42
Scanning combination 53/73: [318.8484]  Energy = -2548.7150282317
C  -0.7332178234  0.9703957001  0.3460541190
C  -1.4208696380 -0.2717133171  0.2628950101
C  -2.8088204297 -0.3700074385  0.2823961200
C  -3.5283621737  0.8373164532  0.3688927440
C  -2.8369977023  2.0771346715  0.4415193876
C  -1.4484263939  2.1764034190  0.4520577446
C   0.6875784922  0.7955487816  0.2833520588
C   1.0828132236 -0.4975876028  0.1382088333
S  -0.2814033550 -1.5959829709  0.1124427010
C  -4.9557080212  1.0272520301  0.4122094602
C  -5.3188842724  2.3238031420  0.5092994763
S  -3.9637622887  3.4042302465  0.5498513145
C  -0.7198322199  3.4846246772  0.5701353936
C  -3.5293686009 -1.6885310290  0.2067762002
C   2.4388028289 -0.9896324511 -0.0231191688
C   2.8835210239 -2.2761490593 -0.2043559951
C   4.2872063237 -2.3625514642 -0.3503957680
C   4.9293598869 -1.1458633844 -0.2847287176
S   3.7674765015  0.1258510088 -0.0307540525
C   6.3562008499 -0.8464451397 -0.4023962177
C   7.3450435464 -1.8813867399 -0.5801463512
C   8.7473364952 -1.5349239542 -0.6876807848
C   9.1708327286 -0.1779442496 -0.6231602862
C   8.2099020547  0.7733198205 -0.4581792134
C   6.8303962974  0.4506963033 -0.3498514790
N   7.1474389868 -3.1952480698 -0.6655349623
S   8.5949421000 -3.8934467846 -0.8585606079
N   9.5496615915 -2.5872552726 -0.8470564239
H   1.3899077573  1.6226584010  0.3239432968
H  -5.6614278483  0.2032866491  0.3738266262
H  -6.3232157244  2.7247938280  0.5632449265
H   0.1366236343  3.3692767152  1.2432901825
H  -0.3096655616  3.8054744570 -0.3957624099
H  -1.3595594181  4.2862501499  0.9518337655
H  -2.8307627910 -2.5246690709  0.1242663392
H  -4.1490934622 -1.8498681000  1.0977419889
H  -4.1994954662 -1.7166502226 -0.6614773444
H   2.2199822293 -3.1329261751 -0.2332391800
H   4.8473882113 -3.2781026087 -0.5005892797
H   10.2266813915  0.0603900449 -0.7056478741
H   8.4917127552  1.8211246520 -0.4052743946
H   6.1280941986  1.2685239596 -0.2216344529
42
Scanning combination 54/73: [323.8484]  Energy = -2548.7150311524
C  -0.7309465162  0.9692545661  0.3417368341
C  -1.4195602697 -0.2733506180  0.2654382202
C  -2.8072104936 -0.3713760515  0.2832192196
C  -3.5253582448  0.8373964283  0.3689144748
C  -2.8319792549  2.0766161488  0.4379464019
C  -1.4438135945  2.1755549686  0.4524670859
C   0.6890515109  0.7932392226  0.2732389428
C   1.0840514465 -0.5011948080  0.1377057661
S  -0.2803098383 -1.5987275569  0.1192401646
C  -4.9527254059  1.0289166924  0.4128615001
C  -5.3140672089  2.3262465666  0.5062575970
S  -3.9570424325  3.4052457189  0.5425350986
C  -0.7201482505  3.4878286577  0.5670983942
C  -3.5295207522 -1.6894444308  0.2062094166
C   2.4400960143 -0.9928005107 -0.0203334856
C   2.8852196897 -2.2792840006 -0.2012514253
C   4.2890409299 -2.3648651876 -0.3472172254
C   4.9306837115 -1.1480818705 -0.2805920247
S   3.7684748301  0.1229857870 -0.0246669456
C   6.3572254106 -0.8479468199 -0.4005885543
C   7.3461843200 -1.8825802047 -0.5794117407
C   8.7482930325 -1.5357312337 -0.6878631964
C   9.1714922969 -0.1786585251 -0.6235476278
C   8.2104333027  0.7723076357 -0.4578564170
C   6.8311047021  0.4493400764 -0.3486072881
N   7.1489143606 -3.1965128845 -0.6644852213
S   8.5965177011 -3.8943051816 -0.8582138789
N   9.5508310449 -2.5878264226 -0.8475477085
H   1.3906672828  1.6202924417  0.3040608941
H  -5.6611949270  0.2071108969  0.3745976386
H  -6.3185049684  2.7291911839  0.5519154176
H   0.1899396727  3.3599670514  1.1619503268
H  -0.4117226620  3.8617431962 -0.4175774703
H  -1.3389822301  4.2581343999  1.0364970901
H  -2.8308488541 -2.5257696730  0.1243984145
H  -4.1497768372 -1.8481240081  1.0973917377
H  -4.1996787856 -1.7198976070 -0.6623895372
H   2.2219184884 -3.1361434895 -0.2291846388
H   4.8493402387 -3.2799776594 -0.5000144761
H   10.2272342980  0.0599235481 -0.7067428717
H   8.4920526032  1.8201692254 -0.4048406467
H   6.1286878057  1.2669511195 -0.2196025809
42
Scanning combination 55/73: [328.8484]  Energy = -2548.7150512093
C  -0.7286173094  0.9689193089  0.3400775316
C  -1.4185461800 -0.2732809476  0.2635713958
C  -2.8059316000 -0.3713393969  0.2825211458
C  -3.5234502006  0.8377460344  0.3686045298
C  -2.8288775883  2.0761704813  0.4396605852
C  -1.4403179110  2.1755013690  0.4468625153
C   0.6911330257  0.7910390548  0.2678466555
C   1.0845377317 -0.5041769910  0.1377068013
S  -0.2806230911 -1.6000987394  0.1256459159
C  -4.9508544619  1.0305402364  0.4092227967
C  -5.3103153259  2.3284689392  0.5004080001
S  -3.9523438303  3.4064070623  0.5342227672
C  -0.7205605204  3.4903805531  0.5502659005
C  -3.5282352279 -1.6894929376  0.2080017627
C   2.4407104625 -0.9958507875 -0.0181196505
C   2.8865329929 -2.2818593931 -0.2000378357
C   4.2904108041 -2.3667378565 -0.3461446428
C   4.9314964633 -1.1496663751 -0.2793365933
S   3.7685021098  0.1207513909 -0.0237840935
C   6.3580104269 -0.8490202923 -0.3991208576
C   7.3471354298 -1.8834305252 -0.5783643609
C   8.7490875380 -1.5362834777 -0.6876661464
C   9.1719745312 -0.1790992690 -0.6236369337
C   8.2107875137  0.7716754206 -0.4574488893
C   6.8315943383  0.4483919169 -0.3473713250
N   7.1500583663 -3.1973865597 -0.6635248564
S   8.5976540854 -3.8948700724 -0.8583675220
N   9.5517198445 -2.5882065505 -0.8480560966
H   1.3962510880  1.6149568407  0.2978911619
H  -5.6602281376  0.2090405935  0.3755829222
H  -6.3138467737  2.7332109946  0.5494995718
H   0.2362838275  3.3563110481  1.0642548107
H  -0.5061189902  3.9120708374 -0.4395884526
H  -1.3070248163  4.2312096763  1.0996806796
H  -2.8308758099 -2.5269454189  0.1262368903
H  -4.1503630821 -1.8494673882  1.0977911395
H  -4.1969585759 -1.7174469580 -0.6612583584
H   2.2237349011 -3.1390049022 -0.2286047322
H   4.8514609353 -3.2816389617 -0.4978304944
H   10.2275936514  0.0597314401 -0.7075687566
H   8.4921871513  1.8196247331 -0.4048989420
H   6.1290241595  1.2658660133 -0.2182177997
42
Scanning combination 56/73: [333.8484]  Energy = -2548.7151035720
C  -0.7253113802  0.9681788708  0.3362841061
C  -1.4157022686 -0.2740424774  0.2682134655
C  -2.8035036287 -0.3719281949  0.2856138609
C  -3.5209970483  0.8374207997  0.3674972772
C  -2.8263966417  2.0745253507  0.4309217499
C  -1.4384450745  2.1737030925  0.4417681616
C   0.6940805444  0.7888651886  0.2624242617
C   1.0861507068 -0.5069730492  0.1348611320
S  -0.2799487237 -1.6013133132  0.1258278188
C  -4.9476169063  1.0334205531  0.4105009983
C  -5.3042388423  2.3324017193  0.4987437120
S  -3.9441995612  3.4076207154  0.5307438899
C  -0.7345736421  3.4954691993  0.5421110971
C  -3.5267785972 -1.6891133244  0.2096002702
C   2.4421415140 -0.9996323390 -0.0193409323
C   2.8886074610 -2.2858600898 -0.1988451000
C   4.2927274390 -2.3701727994 -0.3431599035
C   4.9332191264 -1.1528461984 -0.2763744179
S   3.7696849838  0.1171245905 -0.0222190224
C   6.3594254818 -0.8511795161 -0.3970359818
C   7.3488872249 -1.8850321118 -0.5772359921
C   8.7505411129 -1.5371876737 -0.6877131086
C   9.1727805684 -0.1797832897 -0.6239568752
C   8.2112476014  0.7705338711 -0.4569236453
C   6.8323184947  0.4465326942 -0.3457133478
N   7.1523212995 -3.1990517488 -0.6621850920
S   8.6000712568 -3.8958733628 -0.8581433261
N   9.5535333428 -2.5887582334 -0.8487051228
H   1.3985890771  1.6135782189  0.2837819277
H  -5.6592236072  0.2140005002  0.3749893740
H  -6.3070412509  2.7401448590  0.5383158260
H   0.2621381817  3.3661560497  0.9746743187
H  -0.6087144137  3.9609229799 -0.4432965950
H  -1.2893953163  4.2027166388  1.1652097621
H  -2.8302071097 -2.5273735416  0.1282648734
H  -4.1498457265 -1.8476195289  1.0989814897
H  -4.1951836268 -1.7179161302 -0.6602292374
H   2.2269106280 -3.1437295909 -0.2263702750
H   4.8543670398 -3.2847813622 -0.4946550122
H   10.2282034632  0.0595429499 -0.7087134656
H   8.4922355282  1.8186208966 -0.4044619479
H   6.1294846978  1.2636882954 -0.2158586875
42
Scanning combination 57/73: [338.8484]  Energy = -2548.7151964957
C  -0.7245363044  0.9689672811  0.3300346168
C  -1.4148104087 -0.2746193054  0.2653630548
C  -2.8023264922 -0.3727128601  0.2849150706
C  -3.5209696903  0.8360008639  0.3677055240
C  -2.8250579795  2.0725363555  0.4303119115
C  -1.4374250746  2.1731144857  0.4402546352
C   0.6953923910  0.7893586770  0.2546609941
C   1.0877485866 -0.5070112514  0.1323099583
S  -0.2777299635 -1.6020125746  0.1307457198
C  -4.9472497237  1.0354946757  0.4066335628
C  -5.3014049636  2.3362405096  0.4891025044
S  -3.9390364391  3.4082865012  0.5185068771
C  -0.7430045784  3.5013463309  0.5357581964
C  -3.5256738146 -1.6898682526  0.2116480407
C   2.4436746750 -1.0009317905 -0.0193010077
C   2.8898570929 -2.2875302574 -0.1966574781
C   4.2940845207 -2.3725403956 -0.3400533906
C   4.9348931112 -1.1552073330 -0.2750845794
S   3.7714173935  0.1153560056 -0.0234946965
C   6.3611804204 -0.8537197167 -0.3953281620
C   7.3511048921 -1.8871273779 -0.5757910704
C   8.7524970173 -1.5383866323 -0.6875289896
C   9.1740539041 -0.1807482448 -0.6241381586
C   8.2121366363  0.7689765915 -0.4560400720
C   6.8335378225  0.4441163570 -0.3437466444
N   7.1553627326 -3.2013084603 -0.6603969388
S   8.6033976984 -3.8971392990 -0.8579225329
N   9.5560172457 -2.5893988047 -0.8494397274
H   1.4000129037  1.6139202459  0.2746527947
H  -5.6597385922  0.2171149932  0.3753109095
H  -6.3032167771  2.7451721098  0.5331443397
H   0.2888431897  3.3785111716  0.8776603343
H  -0.7167292232  4.0069132724 -0.4370064226
H  -1.2518692939  4.1683750853  1.2382572003
H  -2.8292769132 -2.5282077419  0.1323708314
H  -4.1487820671 -1.8463732974  1.1012359949
H  -4.1938555997 -1.7197221027 -0.6581446062
H   2.2278060508 -3.1452787464 -0.2248096220
H   4.8553191709 -3.2876525797 -0.4897244675
H   10.2292055088  0.0593326519 -0.7101047222
H   8.4923788149  1.8172336262 -0.4038668575
H   6.1302418024  1.2607230503 -0.2129876982
42
Scanning combination 58/73: [343.8484]  Energy = -2548.7152640277
C  -0.7227006253  0.9702676269  0.3265787628
C  -1.4136718501 -0.2736113166  0.2643202817
C  -2.8007708520 -0.3727090431  0.2860424405
C  -3.5200680231  0.8358032747  0.3670532441
C  -2.8240620780  2.0716468572  0.4278211381
C  -1.4367648209  2.1736924847  0.4341050089
C   0.6971792827  0.7891461808  0.2500593736
C   1.0885737411 -0.5075061748  0.1296637866
S  -0.2773811011 -1.6015552761  0.1291937553
C  -4.9463610715  1.0362976052  0.4051388196
C  -5.2997184991  2.3378481116  0.4850561940
S  -3.9361417541  3.4081019693  0.5166700471
C  -0.7547736729  3.5078468537  0.5266711088
C  -3.5242926413 -1.6901868722  0.2140477151
C   2.4446027162 -1.0018830891 -0.0208843747
C   2.8907415234 -2.2887819297 -0.1953860971
C   4.2951484029 -2.3743302115 -0.3373308858
C   4.9361296848 -1.1570041947 -0.2738025784
S   3.7726582109  0.1140902826 -0.0250674523
C   6.3624623012 -0.8554206412 -0.3938881232
C   7.3525442339 -1.8886132672 -0.5747996557
C   8.7537967990 -1.5394904052 -0.6874667731
C   9.1751225998 -0.1817894060 -0.6243330721
C   8.2130797687  0.7677101574 -0.4552850015
C   6.8346385225  0.4424400465 -0.3421419826
N   7.1571034397 -3.2028464206 -0.6590305918
S   8.6052040557 -3.8983198924 -0.8573390809
N   9.5574857033 -2.5903242222 -0.8497272910
H   1.4039357251  1.6118975860  0.2691990442
H  -5.6598117322  0.2188992398  0.3739740437
H  -6.3006225970  2.7491840594  0.5240584341
H   0.3020423823  3.3956349806  0.7831142783
H  -0.8101595086  4.0489121149 -0.4257745910
H  -1.2226347805  4.1402373175  1.2867869279
H  -2.8279799473 -2.5288513140  0.1362421571
H  -4.1476026488 -1.8451003544  1.1036657623
H  -4.1923147582 -1.7212293135 -0.6559194514
H   2.2284797302 -3.1464286066 -0.2221427345
H   4.8562493935 -3.2897734288 -0.4853354944
H   10.2301506598  0.0585704498 -0.7110305799
H   8.4931336126  1.8159853543 -0.4030199781
H   6.1313209792  1.2589350476 -0.2106337142
42
Scanning combination 59/73: [348.8484]  Energy = -2548.7152383679
C  -0.7221652149  0.9713930643  0.3271626457
C  -1.4128865724 -0.2729433276  0.2673271224
C  -2.8003170635 -0.3724834283  0.2870104359
C  -3.5201597289  0.8359359900  0.3631806404
C  -2.8244623184  2.0722538570  0.4170819269
C  -1.4370766569  2.1755493361  0.4200349387
C   0.6981578646  0.7893097444  0.2517862365
C   1.0891678564 -0.5076227016  0.1308075942
S  -0.2772656894 -1.6009235583  0.1291710297
C  -4.9465314622  1.0361637030  0.4044294993
C  -5.3000351612  2.3374822347  0.4843265777
S  -3.9363903755  3.4078783716  0.5144259129
C  -0.7588695508  3.5112279853  0.5157129667
C  -3.5232313659 -1.6899891347  0.2152624973
C   2.4449642913 -1.0020090911 -0.0216831630
C   2.8911043219 -2.2891521302 -0.1946847631
C   4.2956119178 -2.3749952498 -0.3357543800
C   4.9367080956 -1.1576939170 -0.2733563673
S   3.7731834976  0.1137517146 -0.0266156218
C   6.3630920866 -0.8563824529 -0.3932703222
C   7.3532105184 -1.8894264130 -0.5742358074
C   8.7544165066 -1.5402467003 -0.6873178991
C   9.1755985722 -0.1823933425 -0.6242616079
C   8.2136745022  0.7668151497 -0.4548237652
C   6.8352579787  0.4416288305 -0.3413372418
N   7.1578875349 -3.2037327937 -0.6582698127
S   8.6060062181 -3.8990549761 -0.8570803634
N   9.5581594162 -2.5909730537 -0.8498454182
H   1.4056000551  1.6114972919  0.2694853144
H  -5.6600628273  0.2186682440  0.3728185232
H  -6.3009107059  2.7493660208  0.5222089125
H   0.3130201094  3.4001644047  0.6996580737
H  -0.8742317989  4.0781291120 -0.4154252498
H  -1.1850996173  4.1189790012  1.3206384841
H  -2.8269672229 -2.5287098922  0.1384186715
H  -4.1465333472 -1.8437939257  1.1050072507
H  -4.1914750255 -1.7225062060 -0.6546977541
H   2.2289839551 -3.1468656269 -0.2208032688
H   4.8565733354 -3.2907148611 -0.4826941415
H   10.2306559753  0.0579932767 -0.7114226998
H   8.4935834134  1.8152554253 -0.4025519488
H   6.1319150967  1.2579228290 -0.2093894470
42
Scanning combination 60/73: [353.8484]  Energy = -2548.7152715379
C  -0.7226933633  0.9756871104  0.3160301544
C  -1.4128254634 -0.2698590449  0.2559491010
C  -2.7999279662 -0.3715065758  0.2802659682
C  -3.5210113164  0.8354152409  0.3624567621
C  -2.8261676912  2.0716721165  0.4207847898
C  -1.4390912447  2.1782119997  0.4126249229
C   0.6982981251  0.7934948171  0.2455132334
C   1.0901128734 -0.5044298961  0.1289150076
S  -0.2757681748 -1.5982691937  0.1337449643
C  -4.9478879262  1.0351071163  0.4001321584
C  -5.3020775279  2.3369028425  0.4771189707
S  -3.9384587785  3.4071494480  0.5071650303
C  -0.7717359658  3.5201210725  0.4999221526
C  -3.5211708002 -1.6902955059  0.2170872710
C   2.4456733048 -1.0008141464 -0.0184358413
C   2.8910362004 -2.2889322290 -0.1902803421
C   4.2956096191 -2.3757137443 -0.3328083415
C   4.9374269162 -1.1587189507 -0.2726259848
S   3.7747319823  0.1137529375 -0.0274893875
C   6.3640039952 -0.8578268869 -0.3921123793
C   7.3541332045 -1.8910008465 -0.5732664493
C   8.7553232778 -1.5417166329 -0.6870657519
C   9.1767123791 -0.1840151115 -0.6242326913
C   8.2146789365  0.7654027973 -0.4539125328
C   6.8363684440  0.4398957619 -0.3397927638
N   7.1588528761 -3.2052853385 -0.6569876925
S   8.6069046739 -3.9005773991 -0.8563753028
N   9.5590255473 -2.5924361230 -0.8498421150
H   1.4057415798  1.6152001347  0.2722782486
H  -5.6602862961  0.2168547336  0.3722064835
H  -6.3024502985  2.7486769695  0.5212843024
H   0.3139519017  3.4259045035  0.5871441943
H  -0.9852730666  4.1261286725 -0.3876407196
H  -1.1288165152  4.0798813916  1.3707000852
H  -2.8245806437 -2.5288352424  0.1438570767
H  -4.1435877435 -1.8409015225  1.1081928877
H  -4.1901620743 -1.7257566168 -0.6517646477
H   2.2290116286 -3.1465937524 -0.2167335741
H   4.8562047646 -3.2918780166 -0.4782159106
H   10.2315893343  0.0564800350 -0.7118833053
H   8.4947191644  1.8136143730 -0.4014385379
H   6.1331783616  1.2563357257 -0.2071376664
42
Scanning combination 61/73: [358.8484]  Energy = -2548.7152440304
C  -0.7236402427  0.9767500137  0.3123592843
C  -1.4127585040 -0.2689105103  0.2545971187
C  -2.7998361618 -0.3715389105  0.2785688919
C  -3.5216092097  0.8356536921  0.3575912238
C  -2.8273432885  2.0724256324  0.4127093168
C  -1.4403961116  2.1794484372  0.4024131044
C   0.6971997717  0.7953224013  0.2443534027
C   1.0903882503 -0.5014694224  0.1293946874
S  -0.2748139081 -1.5961676941  0.1307012976
C  -4.9486424296  1.0340125265  0.3979338593
C  -5.3037351547  2.3349566648  0.4768438415
S  -3.9408740762  3.4066027931  0.5049389519
C  -0.7709546423  3.5194769971  0.4882544358
C  -3.5201822465 -1.6907622143  0.2187466976
C   2.4463938225 -0.9978806836 -0.0180272638
C   2.8907074025 -2.2863977690 -0.1878299946
C   4.2950472597 -2.3746948204 -0.3296014055
C   4.9378028235 -1.1582628215 -0.2710340588
S   3.7760502037  0.1157072862 -0.0278588964
C   6.3646666524 -0.8583708024 -0.3907823257
C   7.3543108452 -1.8919862615 -0.5722978320
C   8.7555911183 -1.5429591057 -0.6866574394
C   9.1773380132 -0.1854259606 -0.6239963684
C   8.2157605183  0.7642315484 -0.4532228302
C   6.8374251110  0.4391306713 -0.3385507629
N   7.1586763692 -3.2061497535 -0.6560207854
S   8.6064913405 -3.9018118917 -0.8560601388
N   9.5589716839 -2.5939457010 -0.8498151972
H   1.4021557859  1.6194668853  0.2721550775
H  -5.6610036653  0.2150875710  0.3713267132
H  -6.3044105030  2.7468271997  0.5208608173
H   0.3183349507  3.4262158739  0.4915408781
H  -1.0490790024  4.1584371942 -0.3577655038
H  -1.0628280591  4.0447239148  1.4033014325
H  -2.8224202836 -2.5286162880  0.1470251957
H  -4.1425026467 -1.8405778834  1.1101386841
H  -4.1888427965 -1.7281255764 -0.6502075802
H   2.2275433042 -3.1432938699 -0.2123122879
H   4.8547878241 -3.2917460130 -0.4737623566
H   10.2322938899  0.0548441175 -0.7120758855
H   8.4959648867  1.8124354982 -0.4008465579
H   6.1343859222  1.2556419802 -0.2056614315
42
Scanning combination 62/73: [363.8484]  Energy = -2548.7152266258
C  -0.7236783528  0.9762395514  0.3078606617
C  -1.4125997288 -0.2697582609  0.2537593525
C  -2.7995241594 -0.3717721623  0.2778029753
C  -3.5215020598  0.8353704471  0.3524557319
C  -2.8274239032  2.0726578545  0.4025900324
C  -1.4403115960  2.1794815996  0.3920813448
C   0.6973549860  0.7950789139  0.2442934096
C   1.0906940570 -0.5014538235  0.1307858310
S  -0.2743738210 -1.5967147689  0.1299706916
C  -4.9482124325  1.0337035685  0.3983586732
C  -5.3033204566  2.3346378116  0.4773349698
S  -3.9404796237  3.4066666269  0.5001719339
C  -0.7700293215  3.5203585237  0.4762384872
C  -3.5199171137 -1.6912956807  0.2191879736
C   2.4467243575 -0.9973659803 -0.0174819890
C   2.8910044947 -2.2857577280 -0.1857545530
C   4.2954121510 -2.3743849671 -0.3269754166
C   4.9381615261 -1.1577092971 -0.2696079717
S   3.7762842230  0.1165256957 -0.0283459239
C   6.3649639038 -0.8584004246 -0.3898290285
C   7.3541583044 -1.8922819419 -0.5716056300
C   8.7555173338 -1.5439876788 -0.6863904221
C   9.1778513775 -0.1864900823 -0.6237622553
C   8.2167628118  0.7634268984 -0.4526943742
C   6.8382940387  0.4390716187 -0.3376828753
N   7.1579526946 -3.2064745502 -0.6551049357
S   8.6054225024 -3.9027183851 -0.8555588123
N   9.5584168445 -2.5952263795 -0.8497320051
H   1.4018418732  1.6195715828  0.2755943219
H  -5.6603732669  0.2147288145  0.3714058646
H  -6.3042219935  2.7462906942  0.5202657158
H   0.3166475621  3.4348200377  0.3951017611
H  -1.1095449421  4.1852019086 -0.3252261379
H  -0.9947573892  4.0107723191  1.4301097662
H  -2.8217134793 -2.5289911527  0.1485737640
H  -4.1416464041 -1.8389733803  1.1112526026
H  -4.1890405888 -1.7316397055 -0.6495319337
H   2.2274442064 -3.1425654753 -0.2090318675
H   4.8549707569 -3.2915490084 -0.4702662816
H   10.2329152077  0.0532236674 -0.7121695019
H   8.4974534376  1.8115658039 -0.4002647796
H   6.1356942011  1.2558017727 -0.2043431485
42
Scanning combination 63/73: [368.8484]  Energy = -2548.7152250463
C  -0.7238333197  0.9785145402  0.3054782555
C  -1.4123206144 -0.2677512980  0.2521353395
C  -2.7992227532 -0.3710414142  0.2765850364
C  -3.5221520552  0.8354937109  0.3499528382
C  -2.8293504297  2.0732366899  0.3968312561
C  -1.4424344852  2.1813012277  0.3809945589
C   0.6975546829  0.7975702064  0.2436630079
C   1.0910298437 -0.4991335146  0.1292677592
S  -0.2740585493 -1.5942006105  0.1240304196
C  -4.9487067203  1.0331549269  0.3988903712
C  -5.3045398099  2.3333746957  0.4788267988
S  -3.9428452976  3.4064255184  0.5010694275
C  -0.7743508892  3.5234155391  0.4632284240
C  -3.5188550452 -1.6911067573  0.2198623870
C   2.4469925577 -0.9959925067 -0.0175599787
C   2.8911829995 -2.2848474929 -0.1834133981
C   4.2956307171 -2.3740983243 -0.3238851956
C   4.9386647657 -1.1574802781 -0.2678353141
S   3.7770398806  0.1173273377 -0.0285242252
C   6.3654956392 -0.8587080412 -0.3885178455
C   7.3542216913 -1.8928114260 -0.5707325567
C   8.7556880926 -1.5450851528 -0.6860301207
C   9.1783997615 -0.1876494607 -0.6234905405
C   8.2179154248  0.7624222064 -0.4521017401
C   6.8392738881  0.4387878981 -0.3365903486
N   7.1574961857 -3.2069855674 -0.6541813436
S   8.6046494392 -3.9037739896 -0.8551201412
N   9.5581311650 -2.5966496280 -0.8496227315
H   1.4027935681  1.6214750535  0.2765199563
H  -5.6604103296  0.2135348313  0.3714267679
H  -6.3059887679  2.7444030572  0.5182961460
H   0.3027000199  3.4504495099  0.3009965975
H  -1.1748708965  4.2106940924 -0.2904494574
H  -0.9375078399  3.9823478409  1.4455875135
H  -2.8207203977 -2.5289081588  0.1502460245
H  -4.1405923336 -1.8375959429  1.1120487855
H  -4.1880373644 -1.7333180987 -0.6486372324
H   2.2281005179 -3.1421206671 -0.2049253462
H   4.8551976310 -3.2914452352 -0.4660268803
H   10.2336558019  0.0515942174 -0.7122663685
H   8.4989584829  1.8106041282 -0.3996423743
H   6.1370350206  1.2556648127 -0.2029784775
42
Scanning combination 64/73: [373.8484]  Energy = -2548.7152160758
C  -0.7251963519  0.9816451620  0.3011207328
C  -1.4125541602 -0.2654914607  0.2478975353
C  -2.8000833210 -0.3701865858  0.2726512053
C  -3.5236774273  0.8358214768  0.3453720917
C  -2.8315155978  2.0742627041  0.3909580906
C  -1.4444418000  2.1843502774  0.3705396388
C   0.6968909692  0.8010735216  0.2425896530
C   1.0910249386 -0.4958531127  0.1308964813
S  -0.2736583835 -1.5915908981  0.1259207854
C  -4.9504160718  1.0315399737  0.3972239056
C  -5.3078904760  2.3314915862  0.4779770191
S  -3.9477602023  3.4062762340  0.4949507093
C  -0.7784130062  3.5271222676  0.4514502494
C  -3.5179858780 -1.6910383326  0.2202186223
C   2.4469301613 -0.9931665931 -0.0153685111
C   2.8905507198 -2.2826754519 -0.1805201438
C   4.2948968838 -2.3726275794 -0.3211100490
C   4.9386571163 -1.1565889698 -0.2667519693
S   3.7776450214  0.1193565053 -0.0293261098
C   6.3657480230 -0.8585573921 -0.3874398407
C   7.3542051194 -1.8933649134 -0.5698449398
C   8.7556740569 -1.5461052268 -0.6856272528
C   9.1792838171 -0.1888882968 -0.6232557533
C   8.2187674776  0.7617542862 -0.4514344390
C   6.8403333362  0.4383925573 -0.3355532960
N   7.1569451147 -3.2073174503 -0.6531363282
S   8.6037614255 -3.9046636818 -0.8546392170
N   9.5577361914 -2.5978645150 -0.8495256196
H   1.4028578647  1.6240975806  0.2813348178
H  -5.6611664824  0.2110658647  0.3732805738
H  -6.3097211062  2.7401557466  0.5214282780
H   0.2848112505  3.4669672426  0.2070229519
H  -1.2380689014  4.2384588153 -0.2413870022
H  -0.8727864777  3.9466903342  1.4596900131
H  -2.8193920707 -2.5284424299  0.1518733285
H  -4.1396791288 -1.8368010512  1.1128248638
H  -4.1872802558 -1.7351888876 -0.6480055987
H   2.2270355418 -3.1395002625 -0.2014426661
H   4.8539834269 -3.2907286546 -0.4617272894
H   10.2342855382  0.0500300352 -0.7123375866
H   8.5004400053  1.8096541314 -0.3990695558
H   6.1383542981  1.2557044086 -0.2015804371
42
Scanning combination 65/73: [378.8484]  Energy = -2548.7151732498
C  -0.7264598008  0.9828944134  0.2926080885
C  -1.4133695875 -0.2643211563  0.2419696385
C  -2.8003050393 -0.3696635528  0.2680510104
C  -3.5245866702  0.8358380487  0.3435525970
C  -2.8332980661  2.0749503935  0.3872250243
C  -1.4460773707  2.1858815224  0.3606836873
C   0.6953961266  0.8034738943  0.2416118696
C   1.0909836874 -0.4935874646  0.1338640207
S  -0.2729335520 -1.5905258460  0.1317430313
C  -4.9518800159  1.0295852555  0.3945850929
C  -5.3107227577  2.3294025370  0.4723207929
S  -3.9517383919  3.4058705462  0.4864706105
C  -0.7774265433  3.5277521532  0.4407646936
C  -3.5178144730 -1.6912775523  0.2193617663
C   2.4471807784 -0.9905875693 -0.0109175812
C   2.8900308854 -2.2800792917 -0.1763177730
C   4.2942181497 -2.3711098355 -0.3185862080
C   4.9385253827 -1.1551128510 -0.2657629606
S   3.7782593050  0.1216117225 -0.0283695191
C   6.3657807549 -0.8582258472 -0.3868767676
C   7.3535506010 -1.8934223722 -0.5691403041
C   8.7553203240 -1.5468477717 -0.6851995680
C   9.1793559871 -0.1898757020 -0.6228551287
C   8.2197569688  0.7611077180 -0.4508235751
C   6.8409044963  0.4386157263 -0.3347562580
N   7.1557737217 -3.2074134848 -0.6521639604
S   8.6022222791 -3.9054206282 -0.8541261195
N   9.5567973456 -2.5990858600 -0.8493466788
H   1.4002644449  1.6267463234  0.2875688995
H  -5.6623398049  0.2087510847  0.3759722098
H  -6.3130219070  2.7366622625  0.5257251841
H   0.2645446885  3.4821929955  0.1124763402
H  -1.2932958375  4.2636339106 -0.1838951362
H  -0.7930830524  3.9071000625  1.4692826297
H  -2.8180877759 -2.5281404870  0.1529564706
H  -4.1381779117 -1.8349405750  1.1133349676
H  -4.1879973836 -1.7381816958 -0.6480608579
H   2.2255725820 -3.1363175231 -0.1975569893
H   4.8524025282 -3.2895685454 -0.4589716850
H   10.2347320482  0.0485307988 -0.7124381230
H   8.5017214164  1.8089787727 -0.3985412264
H   6.1394847404  1.2561090713 -0.2003749452
42
Scanning combination 66/73: [383.8484]  Energy = -2548.7150687331
C  -0.7278051315  0.9848172553  0.2918597931
C  -1.4139488301 -0.2628822638  0.2420426046
C  -2.8010207237 -0.3690821449  0.2674256250
C  -3.5260995646  0.8361512603  0.3359419601
C  -2.8357394181  2.0761648827  0.3772666786
C  -1.4487529875  2.1878874844  0.3516140729
C   0.6943774428  0.8073060650  0.2425108110
C   1.0911780530 -0.4902042314  0.1372922069
S  -0.2721619113 -1.5881804805  0.1317087101
C  -4.9532137315  1.0285796975  0.3939580701
C  -5.3132534847  2.3276064131  0.4740862511
S  -3.9561208546  3.4058737530  0.4834146388
C  -0.7780447724  3.5289652494  0.4264718828
C  -3.5175688298 -1.6913900562  0.2194177777
C   2.4469130230 -0.9876299430 -0.0091707216
C   2.8892386953 -2.2778574204 -0.1739670387
C   4.2933430360 -2.3695727977 -0.3162658167
C   4.9382358523 -1.1540590886 -0.2640094360
S   3.7787841950  0.1235066099 -0.0267698913
C   6.3656761823 -0.8576822434 -0.3857382666
C   7.3529384884 -1.8935075358 -0.5685141968
C   8.7549271251 -1.5473159161 -0.6849351644
C   9.1795699346 -0.1908098254 -0.6227574232
C   8.2202978818  0.7608788000 -0.4504834850
C   6.8413482110  0.4386774018 -0.3340048460
N   7.1546470537 -3.2072683682 -0.6516068711
S   8.6007483946 -3.9059395692 -0.8537621036
N   9.5559162059 -2.6000265159 -0.8491584828
H   1.3970119879  1.6322114130  0.2893603418
H  -5.6623113661  0.2063963710  0.3771527204
H  -6.3163438903  2.7329772295  0.5258521788
H   0.2381409641  3.4962698795  0.0181303782
H  -1.3412869546  4.2840648310 -0.1308573886
H  -0.7189018076  3.8693913830  1.4658190904
H  -2.8175413205 -2.5278738182  0.1534431179
H  -4.1377092292 -1.8353028369  1.1131691343
H  -4.1876701712 -1.7390889903 -0.6479352133
H   2.2249121839 -3.1341474082 -0.1936058594
H   4.8511156526 -3.2883436734 -0.4565068855
H   10.2349981750  0.0473149249 -0.7123889752
H   8.5027990680  1.8084456297 -0.3982133491
H   6.1403459027  1.2566738954 -0.1996396610
42
Scanning combination 67/73: [388.8484]  Energy = -2548.7150297219
C  -0.7311904552  0.9861967284  0.2858890808
C  -1.4154487770 -0.2618257025  0.2413020594
C  -2.8024364505 -0.3684346196  0.2659925952
C  -3.5291750751  0.8358846673  0.3341776058
C  -2.8410467313  2.0775999707  0.3679334625
C  -1.4535661386  2.1888636219  0.3424709668
C   0.6912544744  0.8115874660  0.2418587842
C   1.0905658811 -0.4848593680  0.1377331471
S  -0.2716635384 -1.5849957086  0.1301360669
C  -4.9564275108  1.0251281972  0.3949426176
C  -5.3194429538  2.3236862697  0.4742771919
S  -3.9647253869  3.4049789109  0.4807653709
C  -0.7740835407  3.5270612103  0.4152263750
C  -3.5173190069 -1.6913834589  0.2181021740
C   2.4467250169 -0.9826007230 -0.0071094202
C   2.8880101537 -2.2733122882 -0.1697210592
C   4.2919803586 -2.3668161826 -0.3120743905
C   4.9379814673 -1.1518482772 -0.2612398208
S   3.7797848242  0.1271554490 -0.0242268288
C   6.3655816570 -0.8567646745 -0.3843696452
C   7.3519302088 -1.8933418282 -0.5675221671
C   8.7541563166 -1.5480833644 -0.6844372740
C   9.1797009403 -0.1919003235 -0.6223986369
C   8.2212988459  0.7604495051 -0.4499298333
C   6.8420796107  0.4392605085 -0.3330038460
N   7.1527137862 -3.2069756779 -0.6504784637
S   8.5982606918 -3.9066513659 -0.8532581989
N   9.5543513598 -2.6014176804 -0.8490046821
H   1.3909203641  1.6396826774  0.2901405276
H  -5.6636499510  0.2019780959  0.3770385952
H  -6.3232890819  2.7266612315  0.5258305104
H   0.2060876189  3.5083904961 -0.0707014837
H  -1.3756108719  4.3022339086 -0.0686539388
H  -0.6182842017  3.8289793703  1.4583111466
H  -2.8160995493 -2.5270238966  0.1531166513
H  -4.1360047738 -1.8335215382  1.1129964698
H  -4.1883940873 -1.7425289940 -0.6485674554
H   2.2228308082 -3.1290622304 -0.1880828104
H   4.8487718480 -3.2862177716 -0.4528667732
H   10.2353475254  0.0454824234 -0.7124662977
H   8.5044373351  1.8078507060 -0.3978396329
H   6.1416933347  1.2576837033 -0.1983381128
42
Scanning combination 68/73: [393.8484]  Energy = -2548.7150403613
C  -0.7341399466  0.9887239177  0.2837638584
C  -1.4172071696 -0.2593884571  0.2379436088
C  -2.8041783921 -0.3673059573  0.2628624190
C  -3.5314400127  0.8367035138  0.3310823124
C  -2.8453209648  2.0798127347  0.3675405560
C  -1.4574287376  2.1914892734  0.3433974420
C   0.6885180662  0.8166204871  0.2395393418
C   1.0893020521 -0.4796387699  0.1352022424
S  -0.2716938642 -1.5816090740  0.1258778438
C  -4.9590633101  1.0218178280  0.3932727467
C  -5.3261034083  2.3184529171  0.4734501901
S  -3.9746729772  3.4040238629  0.4760374310
C  -0.7676904328  3.5251701561  0.4051998169
C  -3.5175268012 -1.6914458038  0.2181840423
C   2.4456680897 -0.9773590702 -0.0056976177
C   2.8863270539 -2.2686220484 -0.1660857944
C   4.2903122405 -2.3630814684 -0.3077605769
C   4.9370380709 -1.1484350074 -0.2582192522
S   3.7794034971  0.1316628878 -0.0236071539
C   6.3648993619 -0.8551776219 -0.3817402546
C   7.3502631048 -1.8925506832 -0.5656949966
C   8.7526658096 -1.5490999206 -0.6837267091
C   9.1799017533 -0.1930502097 -0.6221099527
C   8.2224196262  0.7600880119 -0.4492072998
C   6.8430669700  0.4406028792 -0.3311795732
N   7.1496152848 -3.2061385707 -0.6487096411
S   8.5943181180 -3.9072677030 -0.8525040625
N   9.5517523218 -2.6029939145 -0.8488358113
H   1.3869359942  1.6457799905  0.2879554682
H  -5.6634294341  0.1956246393  0.3779813092
H  -6.3315986711  2.7181817875  0.5254062662
H   0.1660381354  3.5190478356 -0.1660765154
H  -1.4043097603  4.3216812221  0.0057831744
H  -0.5189027371  3.7868390764  1.4399972030
H  -2.8150159988 -2.5259231996  0.1531769740
H  -4.1363397956 -1.8355065306  1.1127799424
H  -4.1877261913 -1.7434219570 -0.6485929990
H   2.2204806710 -3.1238728633 -0.1827842667
H   4.8464121903 -3.2831351649 -0.4460978260
H   10.2356090639  0.0430479967 -0.7127284229
H   8.5067901992  1.8072872478 -0.3974708240
H   6.1435782966  1.2596569313 -0.1964589522
42
Scanning combination 69/73: [398.8484]  Energy = -2548.7150664085
C  -0.7358979624  0.9891660402  0.2762283563
C  -1.4179918434 -0.2592838720  0.2320219191
C  -2.8049011373 -0.3677249695  0.2610504748
C  -3.5320249651  0.8359137543  0.3350187134
C  -2.8471381342  2.0801059389  0.3679384244
C  -1.4594994932  2.1930502909  0.3374444978
C   0.6865408882  0.8172216644  0.2352704150
C   1.0883827089 -0.4792702117  0.1360429471
S  -0.2720951596 -1.5822322045  0.1327723292
C  -4.9601042308  1.0189453202  0.3917748416
C  -5.3293751805  2.3155855905  0.4639260580
S  -3.9799788577  3.4032061990  0.4635666436
C  -0.7630885289  3.5250976938  0.3940533457
C  -3.5178621763 -1.6919792559  0.2164582354
C   2.4454540427 -0.9756258382 -0.0030868073
C   2.8863648346 -2.2666036009 -0.1622661204
C   4.2900756033 -2.3615760501 -0.3044975910
C   4.9366894146 -1.1468324905 -0.2572350256
S   3.7792922177  0.1336648321 -0.0232228252
C   6.3645777559 -0.8537070672 -0.3811380467
C   7.3490629361 -1.8919993336 -0.5646806515
C   8.7516790650 -1.5494784893 -0.6831534352
C   9.1796521902 -0.1938659892 -0.6216656466
C   8.2230551431  0.7600419786 -0.4484138526
C   6.8435451387  0.4415021119 -0.3301934882
N   7.1473957399 -3.2054510276 -0.6470914549
S   8.5914253849 -3.9076706771 -0.8517506680
N   9.5498193145 -2.6040992595 -0.8487193930
H   1.3852899447  1.6453627888  0.2904386638
H  -5.6636203819  0.1921472988  0.3802358247
H  -6.3344426957  2.7138338742  0.5272413966
H   0.1196326530  3.5345819433 -0.2540129711
H  -1.4242439573  4.3368660690  0.0750593965
H  -0.4235526724  3.7549685719  1.4128959103
H  -2.8147615488 -2.5262777963  0.1532018775
H  -4.1350611812 -1.8334027382  1.1124394161
H  -4.1897180493 -1.7461080150 -0.6493135413
H   2.2192740070 -3.1211872462 -0.1801047736
H   4.8463522779 -3.2816990103 -0.4429352403
H   10.2356060063  0.0415121788 -0.7130727097
H   8.5082211573  1.8071199684 -0.3970499046
H   6.1446057659  1.2612299773 -0.1947734274
42
Scanning combination 70/73: [403.8484]  Energy = -2548.7151597196
C  -0.7377934535  0.9921732100  0.2731462271
C  -1.4186319553 -0.2566240102  0.2278397929
C  -2.8052460969 -0.3662883356  0.2592468650
C  -3.5334152628  0.8364364770  0.3357498104
C  -2.8502382280  2.0824509817  0.3720077908
C  -1.4627974915  2.1956212938  0.3393042246
C   0.6847231362  0.8216822433  0.2311149247
C   1.0877465847 -0.4745812442  0.1326962245
S  -0.2721548367 -1.5782253395  0.1298982418
C  -4.9619622809  1.0160305658  0.3900811038
C  -5.3349379256  2.3111814705  0.4578131853
S  -3.9888712649  3.4025684122  0.4571411228
C  -0.7590367364  3.5237147378  0.3789304824
C  -3.5173779229 -1.6911413760  0.2171406608
C   2.4448745177 -0.9726464900 -0.0008581530
C   2.8854167340 -2.2644675934 -0.1581075154
C   4.2891071091 -2.3595405416 -0.3005904532
C   4.9360887040 -1.1449472729 -0.2541415967
S   3.7790997223  0.1359451765 -0.0210090872
C   6.3639865322 -0.8525775273 -0.3786952389
C   7.3477131661 -1.8914441637 -0.5630919249
C   8.7503502812 -1.5502735077 -0.6824871754
C   9.1796048880 -0.1947449156 -0.6213691749
C   8.2235807147  0.7597356840 -0.4475715509
C   6.8440966367  0.4423890025 -0.3283983194
N   7.1448452278 -3.2048482514 -0.6454531091
S   8.5882511658 -3.9081530409 -0.8507404912
N   9.5476009977 -2.6052791155 -0.8483142329
H   1.3812158929  1.6525285783  0.2834610686
H  -5.6624579733  0.1866646532  0.3836088433
H  -6.3411660983  2.7069904324  0.5186333125
H   0.0595094336  3.5509751572 -0.3485634030
H  -1.4414676354  4.3516984054  0.1684765782
H  -0.3152789375  3.7019890364  1.3669362808
H  -2.8138593559 -2.5248550649  0.1537582834
H  -4.1352329018 -1.8344877007  1.1129087125
H  -4.1891181045 -1.7453004450 -0.6487784584
H   2.2196216165 -3.1198604025 -0.1741892988
H   4.8453562183 -3.2798559946 -0.4375626898
H   10.2355100513  0.0396281725 -0.7133535483
H   8.5098470625  1.8066100028 -0.3963413826
H   6.1458563205  1.2627724155 -0.1928226310
42
Scanning combination 71/73: [408.8484]  Energy = -2548.7150935584
C  -0.7386666331  0.9915034910  0.2828402166
C  -1.4192435285 -0.2573512293  0.2372543507
C  -2.8059033320 -0.3663621559  0.2623391128
C  -3.5342189054  0.8366819765  0.3331888788
C  -2.8515163837  2.0833004527  0.3562125083
C  -1.4634806075  2.1959037551  0.3194408672
C   0.6840857814  0.8220072899  0.2378675655
C   1.0873996442 -0.4740603583  0.1340451381
S  -0.2723095908 -1.5782742986  0.1277637129
C  -4.9627267164  1.0156420406  0.3928755193
C  -5.3357396549  2.3112097577  0.4609152002
S  -3.9901541247  3.4023802657  0.4577416709
C  -0.7581532416  3.5226802117  0.3731099268
C  -3.5174749326 -1.6912215522  0.2166092663
C   2.4444609141 -0.9717358995 -0.0027849823
C   2.8850804922 -2.2638104067 -0.1578863844
C   4.2890028118 -2.3593897417 -0.2994005271
C   4.9360474208 -1.1446320396 -0.2537712879
S   3.7791218918  0.1363478974 -0.0207636124
C   6.3640478806 -0.8525343014 -0.3784986369
C   7.3475483141 -1.8915863481 -0.5628856194
C   8.7503656113 -1.5501073061 -0.6824153896
C   9.1795565074 -0.1950149277 -0.6214709296
C   8.2239039797  0.7599339720 -0.4475196309
C   6.8438910574  0.4425267892 -0.3281090104
N   7.1446987230 -3.2047125645 -0.6452544684
S   8.5879960095 -3.9082701156 -0.8506540773
N   9.5475167420 -2.6055685179 -0.8482867291
H   1.3801712740  1.6537229477  0.2816568091
H  -5.6624410353  0.1862054021  0.3824307511
H  -6.3423876193  2.7063591855  0.5161468695
H   0.0255368298  3.5749861579 -0.3902028264
H  -1.4532755228  4.3482921039  0.1944160473
H  -0.2828032549  3.6911219925  1.3463475917
H  -2.8138794457 -2.5248691439  0.1534916070
H  -4.1344115750 -1.8338173479  1.1125663091
H  -4.1894110704 -1.7460648801 -0.6492163195
H   2.2192156749 -3.1190397782 -0.1735154640
H   4.8451134918 -3.2795765136 -0.4370669241
H   10.2355880159  0.0395110258 -0.7133074216
H   8.5099524169  1.8065057800 -0.3962471126
H   6.1460336536  1.2627464116 -0.1926169285
42
Scanning combination 72/73: [413.8484]  Energy = -2548.7152303213
C  -0.7399393500  0.9930500481  0.2719488166
C  -1.4196630030 -0.2564223686  0.2329717891
C  -2.8067079290 -0.3660035882  0.2606728207
C  -3.5353921287  0.8360429244  0.3261585433
C  -2.8540416300  2.0833755598  0.3523195054
C  -1.4652686024  2.1962804196  0.3279355670
C   0.6833126626  0.8241997530  0.2325733072
C   1.0869753493 -0.4717496433  0.1404138094
S  -0.2717665722 -1.5777516892  0.1405513791
C  -4.9638762936  1.0138073479  0.3871706950
C  -5.3391035096  2.3087979033  0.4527702235
S  -3.9950408390  3.4017812297  0.4357261535
C  -0.7607436441  3.5245442340  0.3633057927
C  -3.5179597982 -1.6917689887  0.2184970688
C   2.4441521440 -0.9688605008  0.0015113980
C   2.8840087380 -2.2611552848 -0.1550789435
C   4.2876491601 -2.3567702703 -0.2966880871
C   4.9351556908 -1.1424897740 -0.2526121109
S   3.7785861658  0.1393388257 -0.0218194524
C   6.3634356021 -0.8516687703 -0.3768311134
C   7.3466042125 -1.8911761853 -0.5613331300
C   8.7493597443 -1.5508745659 -0.6817400615
C   9.1797833152 -0.1955691742 -0.6211472484
C   8.2242798291  0.7596947348 -0.4466600294
C   6.8444754625  0.4432067381 -0.3265128883
N   7.1429923724 -3.2043669331 -0.6435098523
S   8.5858296100 -3.9085898865 -0.8499116464
N   9.5459751073 -2.6062992893 -0.8481380501
H   1.3783991201  1.6568826237  0.2790230823
H  -5.6623488610  0.1830313249  0.3863769679
H  -6.3460037936  2.7017687104  0.5164743265
H  -0.0556690657  3.6252794323 -0.4710080545
H  -1.4645651642  4.3590262053  0.3064862625
H  -0.1779792117  3.6301977302  1.2867524356
H  -2.8138874706 -2.5247741064  0.1548394908
H  -4.1359282897 -1.8367840004  1.1136686492
H  -4.1891116400 -1.7458587285 -0.6478438224
H   2.2166725238 -3.1150587463 -0.1707719114
H   4.8433008529 -3.2778233249 -0.4317453724
H   10.2355352987  0.0382084472 -0.7135351109
H   8.5111125329  1.8061600743 -0.3957945749
H   6.1470179381  1.2636907085 -0.1907470160
42
Scanning combination 73/73: [418.8484]  Energy = -2548.7150339836
C  -0.7408521651  0.9935905869  0.2829281389
C  -1.4200609003 -0.2555669986  0.2389067331
C  -2.8069541613 -0.3663020110  0.2603840648
C  -3.5356151546  0.8367574187  0.3289065136
C  -2.8550053165  2.0844178987  0.3450000470
C  -1.4661658921  2.1990203234  0.3062231482
C   0.6818290749  0.8254526529  0.2378009003
C   1.0863527528 -0.4707973208  0.1369772383
S  -0.2719981307 -1.5767810925  0.1387236337
C  -4.9644013167  1.0128764649  0.3892098727
C  -5.3399663216  2.3077912877  0.4519948651
S  -3.9970383417  3.4016580279  0.4380833314
C  -0.7586733096  3.5244147104  0.3595205357
C  -3.5175957059 -1.6919393944  0.2176378061
C   2.4438189996 -0.9680650797  0.0009320910
C   2.8837961571 -2.2604041190 -0.1539581774
C   4.2875710051 -2.3569126901 -0.2959323006
C   4.9353205339 -1.1425310409 -0.2519020708
S   3.7790571869  0.1394372762 -0.0210094816
C   6.3635122958 -0.8514554575 -0.3766765811
C   7.3463637395 -1.8911089805 -0.5612895662
C   8.7492941956 -1.5507267984 -0.6816990864
C   9.1794571549 -0.1957251406 -0.6209925160
C   8.2244507420  0.7596296036 -0.4465815801
C   6.8444364676  0.4432180154 -0.3264732338
N   7.1426375795 -3.2042260503 -0.6432848522
S   8.5853600837 -3.9086496642 -0.8496618724
N   9.5456674373 -2.6065111319 -0.8480661205
H   1.3773493635  1.6576744589  0.2731677096
H  -5.6631725004  0.1822134485  0.3855514486
H  -6.3467381388  2.7017371744  0.5134781788
H  -0.0918633503  3.6404275397 -0.5052450755
H  -1.4714160441  4.3541236208  0.3328047318
H  -0.1597227598  3.6293490253  1.2725211863
H  -2.8135059596 -2.5252814699  0.1547158087
H  -4.1347070041 -1.8351431657  1.1137211516
H  -4.1896237394 -1.7470835515 -0.6479773777
H   2.2168749211 -3.1149322181 -0.1697773482
H   4.8433704985 -3.2776561643 -0.4314903617
H   10.2355815335  0.0379963134 -0.7135836428
H   8.5113134337  1.8061480227 -0.3956019153
H   6.1471449470  1.2639761821 -0.1904155813
