42
Scanning combination 1/73: [0.0982]  Energy = -2548.7148309404
C  -0.7222588718  0.9647953976  0.2244851087
C  -1.4269066625 -0.2687095840  0.1832189892
C  -2.8144679440 -0.3500723587  0.2843137560
C  -3.5193842653  0.8608385361  0.4328774299
C  -2.8094855373  2.0920263968  0.4731268540
C  -1.4230105465  2.1754494854  0.3721232108
C   0.6951697747  0.7803067675  0.1012055771
C   1.0784493999 -0.5203554899 -0.0291268690
S  -0.3022414445 -1.6039729977 -0.0072295942
C  -4.9421414003  1.0658170480  0.5592560058
C  -5.2828243330  2.3660984976  0.6863608958
S  -3.9155627185  3.4302400711  0.6625485848
C  -0.6831869210  3.4802967575  0.4156992086
C  -3.5444136010 -1.6642023940  0.2390592996
C   2.4336136852 -1.0334804640 -0.1723899598
C   2.8746133255 -2.3288293568 -0.3063668174
C   4.2845398294 -2.4339049708 -0.4209426634
C   4.9349207741 -1.2208693327 -0.3757331429
S   3.7736992993  0.0639256437 -0.1888042215
C   6.3602077832 -0.8936724040 -0.4567938475
C   7.3921433120 -1.8883751100 -0.6127315870
C   8.7829020710 -1.4860786402 -0.6851078919
C   9.1501312508 -0.1132326206 -0.6040093428
C   8.1513780849  0.7986694235 -0.4570394236
C   6.7865424588  0.4192125444 -0.3848538018
N   7.2493942844 -3.2082597285 -0.7063459949
S   8.7276419717 -3.8474407642 -0.8676269218
N   9.6304201865 -2.5049420299 -0.8291328234
H   1.3985739596  1.6085577497  0.1117095885
H  -5.6664283203  0.2560950266  0.5529842705
H  -6.2778815419  2.7792472662  0.7956186633
H  -0.1007807836  3.6230910952 -0.5021252722
H  -1.3568932064  4.3337519512  0.5292783772
H   0.0280655621  3.4918779108  1.2500062662
H  -2.8468858424 -2.4962536122  0.1175153416
H  -4.1175725860 -1.8308088308  1.1596987505
H  -4.2580526546 -1.6922706149 -0.5938451313
H   2.2052923476 -3.1824905566 -0.3221190842
H   4.8398601762 -3.3591350140 -0.5347082072
H   10.1954400521  0.1712571774 -0.6597465103
H   8.3853922500  1.8584932464 -0.3906416536
H   6.0491875043  1.2062099039 -0.2672652233
42
Scanning combination 2/73: [5.0982]  Energy = -2548.7151036912
C  -0.7150278371  0.9628986859  0.2240361711
C  -1.4184136174 -0.2739720724  0.1825694933
C  -2.8027162162 -0.3610620418  0.2825688480
C  -3.5002118676  0.8520041749  0.4306350217
C  -2.7951350491  2.0860341231  0.4715685281
C  -1.4092107266  2.1777835590  0.3713395551
C   0.6973928484  0.7707982733  0.0999784265
C   1.0743227186 -0.5304732457 -0.0312931833
S  -0.3007030392 -1.6118914726 -0.0069801455
C  -4.9209680098  1.0489899015  0.5562345719
C  -5.2702862913  2.3459275310  0.6838283157
S  -3.9085495860  3.4167696040  0.6610061656
C  -0.6691240942  3.4871299864  0.4151333516
C  -3.5450839876 -1.6694010774  0.2386091513
C   2.4255807723 -1.0352937965 -0.1827085964
C   2.8814873839 -2.3266703819 -0.2986867104
C   4.2900285633 -2.4077198509 -0.4091592790
C   4.9197917521 -1.1822305311 -0.3987379819
S   3.7435220104  0.0872390020 -0.2312383418
C   6.3450086280 -0.8607900926 -0.4420469165
C   7.3569567871 -1.8734409850 -0.6151564385
C   8.7534765853 -1.4950645234 -0.6856284623
C   9.1464713274 -0.1292080967 -0.6005834530
C   8.1620861718  0.8000108279 -0.4482960296
C   6.7889601399  0.4460429184 -0.3678834243
N   7.1899485979 -3.1910730748 -0.7106060617
S   8.6569478675 -3.8557440505 -0.8746800189
N   9.5819847734 -2.5289054047 -0.8323541279
H   1.4101501187  1.5885996150  0.1090136708
H  -5.6320016165  0.2296201711  0.5481343980
H  -6.2679122008  2.7523299640  0.7928149913
H  -0.0873105442  3.6384013493 -0.5029204378
H  -1.3475387833  4.3368686101  0.5290555135
H   0.0420983616  3.5068846165  1.2506276723
H  -2.8623839349 -2.5134392623  0.1174311140
H  -4.1206370713 -1.8252235536  1.1601125598
H  -4.2607937103 -1.6867433934 -0.5933282395
H   2.2250771766 -3.1895072835 -0.3041386009
H   4.8593156795 -3.3244581142 -0.5113815066
H   10.1975989624  0.1348425289 -0.6665359962
H   8.4171592883  1.8543574075 -0.3886934025
H   6.0658418498  1.2476804740 -0.2452599824
42
Scanning combination 3/73: [10.0982]  Energy = -2548.7148207480
C  -0.7213965262  0.9637142323  0.2248307680
C  -1.4208125668 -0.2728295410  0.1849311423
C  -2.8049190558 -0.3598277538  0.2844462725
C  -3.5107765563  0.8515133591  0.4321640294
C  -2.8058848487  2.0853186184  0.4733859520
C  -1.4199557138  2.1737787987  0.3737166536
C   0.6916594750  0.7777628037  0.0915381639
C   1.0745037110 -0.5209492127 -0.0478568413
S  -0.2980360150 -1.6058736678 -0.0107801216
C  -4.9325805648  1.0541537994  0.5575619800
C  -5.2811327393  2.3523116338  0.6850090542
S  -3.9164838046  3.4188591737  0.6617612253
C  -0.6744486450  3.4759539066  0.4152043210
C  -3.5367126546 -1.6726896710  0.2380023719
C   2.4269831399 -1.0241750319 -0.2010010176
C   2.8855905247 -2.3169764068 -0.2797607213
C   4.2926547934 -2.4004507500 -0.3920501497
C   4.9223896691 -1.1762044666 -0.4273322234
S   3.7432768925  0.0985676063 -0.3084353859
C   6.3501790714 -0.8618589049 -0.4408856783
C   7.3588425736 -1.8726648417 -0.6307892295
C   8.7570298322 -1.4976274291 -0.6990637781
C   9.1552256619 -0.1345657540 -0.6036892306
C   8.1736537802  0.7935168477 -0.4288830822
C   6.7997956511  0.4425742855 -0.3445664686
N   7.1886723601 -3.1895847249 -0.7342218807
S   8.6544296343 -3.8569889272 -0.8956040005
N   9.5821376716 -2.5326547420 -0.8474284346
H   1.4010629177  1.5970562920  0.1076781753
H  -5.6484613910  0.2391975398  0.5500340502
H  -6.2766467518  2.7670227708  0.7944927913
H  -0.0930263769  3.6172405822 -0.5045939525
H  -1.3502375339  4.3270182986  0.5286206980
H   0.0371856155  3.4866640553  1.2502991827
H  -2.8535100046 -2.5173817900  0.1165847139
H  -4.1093187444 -1.8283201194  1.1605680010
H  -4.2489621005 -1.6888084880 -0.5961331712
H   2.2334262886 -3.1840221142 -0.2560901126
H   4.8588868412 -3.3228687677 -0.4588215777
H   10.2083928448  0.1261790470 -0.6659626689
H   8.4291988242  1.8469949506 -0.3654789813
H   6.0753250083  1.2408255234 -0.2150006550
42
Scanning combination 4/73: [15.0982]  Energy = -2548.7149496132
C  -0.7217899773  0.9692645826  0.2053602964
C  -1.4197278979 -0.2698256297  0.1650861458
C  -2.8027684694 -0.3624370563  0.2799347321
C  -3.5084153410  0.8463817064  0.4342921063
C  -2.8071338822  2.0824400678  0.4769178079
C  -1.4220142646  2.1775749500  0.3707091168
C   0.6905071124  0.7885554489  0.0514064064
C   1.0708295236 -0.5090213490 -0.1031919322
S  -0.2981532912 -1.6005202637 -0.0506603838
C  -4.9308537844  1.0397055964  0.5605239688
C  -5.2823189894  2.3360366856  0.6885792165
S  -3.9233215828  3.4106340943  0.6695510908
C  -0.6847009828  3.4864287024  0.4181635381
C  -3.5365174118 -1.6749171560  0.2394748601
C   2.4242395364 -1.0112929150 -0.2538367477
C   2.8911005281 -2.3023138580 -0.2029197490
C   4.2993073545 -2.3875483392 -0.3089020549
C   4.9213369078 -1.1667349820 -0.4444765728
S   3.7327834624  0.1058595798 -0.4781778335
C   6.3502259731 -0.8560004760 -0.4725430751
C   7.3533098085 -1.8720273186 -0.6718333521
C   8.7534140771 -1.5071144332 -0.7318708120
C   9.1619373499 -0.1506529479 -0.5926231954
C   8.1888308295  0.7801245667 -0.3853012527
C   6.8114266192  0.4376909863 -0.3220518557
N   7.1714155212 -3.1836912945 -0.8102737085
S   8.6296984128 -3.8580315604 -1.0041271727
N   9.5700248501 -2.5442379296 -0.9164078184
H   1.3987218896  1.6114565651  0.0660079618
H  -5.6425909525  0.2196424001  0.5504094974
H  -6.2806184835  2.7425144239  0.7941615653
H  -0.1027484273  3.6359910179 -0.5000273812
H  -1.3636550167  4.3355060687  0.5338599597
H   0.0254795157  3.5007200213  1.2544262782
H  -2.8512357119 -2.5178065248  0.1197466881
H  -4.1114820714 -1.8289775124  1.1613518784
H  -4.2514870821 -1.6943768786 -0.5927319001
H   2.2461933475 -3.1649538749 -0.0831009636
H   4.8744270159 -3.3063319124 -0.2975441062
H   10.2168339990  0.1012749041 -0.6415381201
H   8.4594458449  1.8248304435 -0.2598436092
H   6.0972443233  1.2350823888 -0.1395793310
42
Scanning combination 5/73: [20.0982]  Energy = -2548.7144978696
C  -0.7232000166  0.9699373273  0.2009037378
C  -1.4202993409 -0.2693124039  0.1633074729
C  -2.8033114874 -0.3624664556  0.2800435612
C  -3.5091267008  0.8464812824  0.4342178108
C  -2.8083114036  2.0827069601  0.4765570958
C  -1.4232940923  2.1778724886  0.3682326965
C   0.6893555699  0.7885411876  0.0506168013
C   1.0722025571 -0.5086342216 -0.0981663835
S  -0.2975916307 -1.5986762796 -0.0548911792
C  -4.9311563787  1.0405210132  0.5601804687
C  -5.2835914431  2.3367314075  0.6894053174
S  -3.9243568046  3.4109504528  0.6699800411
C  -0.6846414614  3.4857105925  0.4183894835
C  -3.5363085268 -1.6754366755  0.2391196895
C   2.4257152897 -1.0110099522 -0.2520719690
C   2.8924944464 -2.3014507142 -0.1934767330
C   4.3006404750 -2.3856033812 -0.3002503820
C   4.9222412591 -1.1683196801 -0.4670224823
S   3.7340089820  0.1055226702 -0.4818759711
C   6.3522128724 -0.8587481911 -0.4560386677
C   7.3534134771 -1.8707488565 -0.6793852517
C   8.7537068436 -1.5070539561 -0.7363925784
C   9.1621370428 -0.1522424085 -0.5879644839
C   8.1893539565  0.7785410583 -0.3790953506
C   6.8126284970  0.4360477618 -0.3106346582
N   7.1704141439 -3.1819421810 -0.8198120242
S   8.6286127501 -3.8578338977 -1.0068022527
N   9.5697251461 -2.5445379424 -0.9218068602
H   1.3970190978  1.6110490371  0.0621748384
H  -5.6417694223  0.2201825664  0.5506220886
H  -6.2821827845  2.7424775503  0.7959326216
H  -0.1026400668  3.6374214801 -0.4989964826
H  -1.3627517138  4.3347934838  0.5338500674
H   0.0263614478  3.5017741900  1.2540126940
H  -2.8507582727 -2.5177830097  0.1197800950
H  -4.1106599711 -1.8311390890  1.1608083451
H  -4.2514723795 -1.6984202711 -0.5928046487
H   2.2438366222 -3.1625506985 -0.0797906540
H   4.8749832689 -3.3048501008 -0.2882292309
H   10.2159905401  0.1007981423 -0.6415891896
H   8.4589344365  1.8240432128 -0.2627746826
H   6.0986353585  1.2355574883 -0.1418626228
42
Scanning combination 6/73: [25.0982]  Energy = -2548.7141729349
C  -0.7255263066  0.9744902088  0.1879935847
C  -1.4206134792 -0.2656961334  0.1520303811
C  -2.8039298161 -0.3623480344  0.2709998065
C  -3.5117609747  0.8454992995  0.4271091867
C  -2.8118826274  2.0826423465  0.4700872894
C  -1.4274467454  2.1803864511  0.3591676573
C   0.6883115985  0.7970768362  0.0367380906
C   1.0745451772 -0.4987298013 -0.1114653733
S  -0.2933420359 -1.5914109867 -0.0633060620
C  -4.9334119414  1.0388681626  0.5604219295
C  -5.2855167987  2.3348639168  0.6956919884
S  -3.9272657801  3.4097923140  0.6717888242
C  -0.6882876324  3.4873729483  0.4159139989
C  -3.5317396458 -1.6790806331  0.2362574857
C   2.4269759535 -1.0048264152 -0.2745830857
C   2.8946699364 -2.2897326372 -0.1482805747
C   4.3028756376 -2.3797606555 -0.2517992600
C   4.9227942282 -1.1732513979 -0.4859262293
S   3.7296594512  0.0924085934 -0.6152833456
C   6.3534297809 -0.8647820002 -0.4638335313
C   7.3545909811 -1.8720599671 -0.7029733188
C   8.7554543534 -1.5099874311 -0.7431766121
C   9.1633585178 -0.1572694434 -0.5733249715
C   8.1913937783  0.7686742988 -0.3455908182
C   6.8148358159  0.4241020296 -0.2803084188
N   7.1690293738 -3.1778990242 -0.8843619648
S   8.6258506060 -3.8501963192 -1.0904351802
N   9.5699106213 -2.5426089161 -0.9597445282
H   1.3931051434  1.6219712253  0.0472668376
H  -5.6450135584  0.2194969987  0.5528843836
H  -6.2834215109  2.7403201257  0.8074749762
H  -0.1048559403  3.6434441642 -0.4996115126
H  -1.3638401988  4.3377256527  0.5353568812
H   0.0222700457  3.4968984333  1.2519320260
H  -2.8410168021 -2.5176766456  0.1205574594
H  -4.1032126199 -1.8353420132  1.1596401226
H  -4.2487432689 -1.7125595516 -0.5938186398
H   2.2470616372 -3.1428660032  0.0208264955
H   4.8746683161 -3.2980807336 -0.1804548608
H   10.2157178654  0.1006038565 -0.6381927289
H   8.4577024300  1.8152094258 -0.2263437648
H   6.0998166181  1.2132184382 -0.0709244380
42
Scanning combination 7/73: [30.0982]  Energy = -2548.7142382914
C  -0.7224081571  0.9796418464  0.1484523790
C  -1.4173978637 -0.2611799588  0.1126294352
C  -2.7974976434 -0.3623141417  0.2530209659
C  -3.5052732277  0.8432210766  0.4213970461
C  -2.8079118654  2.0817814191  0.4620434051
C  -1.4240809586  2.1837598585  0.3386554135
C   0.6897949944  0.8001567038 -0.0168570234
C   1.0725524669 -0.4971227473 -0.1653536438
S  -0.2957232587 -1.5878255214 -0.1198523625
C  -4.9264491683  1.0308079322  0.5659520835
C  -5.2825970494  2.3248412909  0.7052280455
S  -3.9269831129  3.4037962051  0.6808735829
C  -0.6901812805  3.4941535179  0.4053729290
C  -3.5223846134 -1.6808041278  0.2295176397
C   2.4268350107 -1.0090621884 -0.2835850131
C   2.9028537211 -2.2722190483 -0.0288690445
C   4.3114046864 -2.3642320834 -0.1357892554
C   4.9198935262 -1.1772395899 -0.4701528195
S   3.7226380046  0.0660518741 -0.7071011372
C   6.3480051129 -0.8661174702 -0.4890949333
C   7.3419223684 -1.8680272580 -0.7666503344
C   8.7419746623 -1.5074836015 -0.8039522387
C   9.1566143688 -0.1674894243 -0.5596539819
C   8.1895796884  0.7513700911 -0.2825219075
C   6.8108401002  0.4114230417 -0.2485790646
N   7.1486055136 -3.1646397778 -1.0031201607
S   8.6005618607 -3.8292913566 -1.2596641391
N   9.5503182909 -2.5319403990 -1.0764320134
H   1.3962823506  1.6239641951 -0.0108617393
H  -5.6337121735  0.2074381692  0.5607979574
H  -6.2818506822  2.7267237058  0.8217097924
H  -0.1102442695  3.6612815223 -0.5106369778
H  -1.3718680520  4.3388767306  0.5345284460
H   0.0216571593  3.5010408973  1.2407792101
H  -2.8314098650 -2.5198053160  0.1174762462
H  -4.0906040186 -1.8291591050  1.1562597495
H  -4.2413837603 -1.7211433363 -0.5985444279
H   2.2615055678 -3.1025261642  0.2450710531
H   4.8952246964 -3.2677269061  0.0045999226
H   10.2118356850  0.0844653561 -0.5976895736
H   8.4651155343  1.7836218369 -0.0858134604
H   6.0911458241  1.1878332439 -0.0071898509
42
Scanning combination 8/73: [35.0982]  Energy = -2548.7136172706
C  -0.7225923595  0.9789919747  0.1482918685
C  -1.4176887063 -0.2618384401  0.1125289461
C  -2.7979398523 -0.3622281849  0.2525170383
C  -3.5057824064  0.8434390222  0.4201816954
C  -2.8082281053  2.0819204438  0.4616881025
C  -1.4242767698  2.1829781149  0.3388610139
C   0.6896407340  0.8001368430 -0.0182159114
C   1.0722400543 -0.4972511909 -0.1643398932
S  -0.2960954142 -1.5889157718 -0.1197048999
C  -4.9269110672  1.0307738832  0.5656101209
C  -5.2822119075  2.3249535186  0.7062957517
S  -3.9271416768  3.4045452402  0.6789170768
C  -0.6903497158  3.4933645524  0.4042780562
C  -3.5224304448 -1.6808455874  0.2296191434
C   2.4275113882 -1.0072722753 -0.2798261539
C   2.9028692434 -2.2694399573 -0.0222582180
C   4.3107454747 -2.3615096775 -0.1304918223
C   4.9203340060 -1.1831685709 -0.4932921677
S   3.7230787663  0.0656335390 -0.7100208534
C   6.3488915113 -0.8706443496 -0.4704707856
C   7.3423619718 -1.8654347121 -0.7732936359
C   8.7424901593 -1.5058177822 -0.8100634423
C   9.1569472294 -0.1672342312 -0.5611911198
C   8.1891088189  0.7510593249 -0.2828810244
C   6.8108509213  0.4089508676 -0.2377715123
N   7.1479243684 -3.1617481140 -1.0088801002
S   8.5992227787 -3.8286774648 -1.2608640048
N   9.5501948428 -2.5321270626 -1.0781151764
H   1.3971021212  1.6236090183 -0.0105903079
H  -5.6345288286  0.2074365138  0.5600376488
H  -6.2812504270  2.7263565261  0.8237761756
H  -0.1101912100  3.6610556294 -0.5116133941
H  -1.3717744986  4.3381292035  0.5342027006
H   0.0212673638  3.4999135202  1.2396283237
H  -2.8306758083 -2.5193538542  0.1173662553
H  -4.0910526358 -1.8298805478  1.1561376536
H  -4.2409550959 -1.7198820240 -0.5988349374
H   2.2619772233 -3.1016262499  0.2452292643
H   4.8936957354 -3.2651138042  0.0118679230
H   10.2125325775  0.0833516137 -0.5956749924
H   8.4655567483  1.7829053152 -0.0861447559
H   6.0927330651  1.1894061805 -0.0060954499
42
Scanning combination 9/73: [40.0982]  Energy = -2548.7128440195
C  -0.7223173572  0.9796800359  0.1455872263
C  -1.4162939123 -0.2615777047  0.1123817462
C  -2.7974732781 -0.3623887137  0.2499790532
C  -3.5071673636  0.8429016424  0.4149839783
C  -2.8100595458  2.0815494582  0.4539222118
C  -1.4261254086  2.1824339904  0.3323659158
C   0.6914281782  0.8039019565 -0.0202333278
C   1.0757426375 -0.4923634038 -0.1679077653
S  -0.2909782232 -1.5863463436 -0.1140760987
C  -4.9282993136  1.0305358337  0.5640357460
C  -5.2829039196  2.3250522273  0.7081479123
S  -3.9281194194  3.4045415348  0.6720924964
C  -0.6912611003  3.4912918621  0.3975635439
C  -3.5219827500 -1.6810533714  0.2268673815
C   2.4298350834 -1.0056593809 -0.2965583443
C   2.9050088225 -2.2574530450  0.0057331503
C   4.3134444521 -2.3532435848 -0.0946713759
C   4.9214186570 -1.1925360004 -0.5123532814
S   3.7204062021  0.0401117794 -0.8050174831
C   6.3497424685 -0.8774436730 -0.4728927544
C   7.3432780195 -1.8635192314 -0.7986893610
C   8.7432818429 -1.5041820345 -0.8231683112
C   9.1561970567 -0.1687138425 -0.5544650594
C   8.1879863929  0.7424717999 -0.2553704762
C   6.8102744759  0.3958238324 -0.2074245722
N   7.1485805471 -3.1555477776 -1.0571304120
S   8.5995981328 -3.8178742051 -1.3195775382
N   9.5508769416 -2.5254482866 -1.1101209068
H   1.3980122122  1.6282587276 -0.0113075167
H  -5.6373370924  0.2086565652  0.5583205858
H  -6.2803877464  2.7262822217  0.8377575532
H  -0.1125191977  3.6581011996 -0.5193001467
H  -1.3710843352  4.3366898652  0.5302621482
H   0.0220511084  3.4937563991  1.2313817690
H  -2.8300107444 -2.5192385772  0.1140715012
H  -4.0914090399 -1.8313734314  1.1528108591
H  -4.2403557816 -1.7192311009 -0.6017710164
H   2.2629014580 -3.0755739440  0.3103044750
H   4.8919936903 -3.2508924988  0.0965141598
H   10.2098833037  0.0893011336 -0.6005593798
H   8.4604237202  1.7760380249 -0.0590601287
H   6.0909203004  1.1631810585  0.0629720336
42
Scanning combination 10/73: [45.0982]  Energy = -2548.7115332240
C  -0.7218446985  0.9797371652  0.1449814854
C  -1.4160859941 -0.2613139408  0.1122732941
C  -2.7971000779 -0.3622853793  0.2497310991
C  -3.5065155854  0.8429284233  0.4150877722
C  -2.8093327642  2.0815431664  0.4536901807
C  -1.4253500191  2.1828079924  0.3318470713
C   0.6913513783  0.8029524872 -0.0232736567
C   1.0749554456 -0.4928178206 -0.1755299581
S  -0.2919172798 -1.5866725227 -0.1156925002
C  -4.9276464837  1.0301218246  0.5641933611
C  -5.2826870840  2.3247175635  0.7079082424
S  -3.9277530170  3.4040942635  0.6729389898
C  -0.6909061592  3.4921668375  0.3970681840
C  -3.5214531237 -1.6809350098  0.2261080355
C   2.4296679929 -1.0060442111 -0.3002842073
C   2.9039232778 -2.2531774982  0.0209511875
C   4.3106368663 -2.3489586769 -0.0844142652
C   4.9231644620 -1.2026412120 -0.5344813907
S   3.7238339768  0.0375856035 -0.8053811336
C   6.3498610384 -0.8842649208 -0.4558623168
C   7.3446846730 -1.8611158474 -0.8055411017
C   8.7435348085 -1.5007831158 -0.8328489648
C   9.1544029142 -0.1663078145 -0.5610631127
C   8.1848420592  0.7414225805 -0.2526674304
C   6.8083266039  0.3902861648 -0.1941289858
N   7.1487781365 -3.1521542788 -1.0679590591
S   8.5997345541 -3.8155746223 -1.3246849882
N   9.5514125042 -2.5232593773 -1.1157435855
H   1.3979896219  1.6269615197 -0.0127497589
H  -5.6364053444  0.2081896300  0.5592069352
H  -6.2803011496  2.7256291113  0.8370036893
H  -0.1129026227  3.6590125178 -0.5202366575
H  -1.3709967305  4.3375470642  0.5295754123
H   0.0229278813  3.4951724506  1.2305759224
H  -2.8297494146 -2.5193617072  0.1135351135
H  -4.0903935192 -1.8307348470  1.1523155667
H  -4.2400372071 -1.7194571167 -0.6023626766
H   2.2625518907 -3.0741806051  0.3208581878
H   4.8922420641 -3.2446386554  0.1072691628
H   10.2092158122  0.0878415645 -0.5966004606
H   8.4601816238  1.7722325327 -0.0491390340
H   6.0883588631  1.1626297151  0.0599265412
42
Scanning combination 11/73: [50.0982]  Energy = -2548.7115184122
C  -0.7138251238  0.9845970533  0.1156586586
C  -1.4099404724 -0.2558598763  0.0874793547
C  -2.7881049005 -0.3593935224  0.2397725782
C  -3.4967795985  0.8439915360  0.4130432813
C  -2.8002220238  2.0828522288  0.4519708806
C  -1.4166448382  2.1860418561  0.3197004564
C   0.6964508944  0.8029123870 -0.0773930162
C   1.0724241840 -0.4942949674 -0.2349379001
S  -0.2965401058 -1.5827928660 -0.1704193740
C  -4.9172524277  1.0278699184  0.5677211108
C  -5.2735891752  2.3209098808  0.7126228013
S  -3.9207417477  3.4030100048  0.6761479029
C  -0.6867739369  3.4984693749  0.3829364233
C  -3.5103701411 -1.6784898280  0.2184755684
C   2.4257536215 -1.0224558483 -0.3206148149
C   2.8951539388 -2.2249592243  0.1434854637
C   4.3048325430 -2.3393995586  0.0441170905
C   4.9140722834 -1.2407218485 -0.5111613580
S   3.7197373276 -0.0426150357 -0.9341358578
C   6.3424244167 -0.9173263998 -0.4942350733
C   7.3476884646 -1.8665197579 -0.8808490661
C   8.7406616230 -1.4804748417 -0.8975361524
C   9.1338763130 -0.1587569058 -0.5499488317
C   8.1561053933  0.7133289933 -0.1799147913
C   6.7842301616  0.3439089627 -0.1561580420
N   7.1736658258 -3.1435155677 -1.2199684163
S   8.6353089837 -3.7624088592 -1.5285070903
N   9.5658431153 -2.4673585540 -1.2502566981
H   1.4107939979  1.6208440173 -0.0608575641
H  -5.6238308618  0.2035105098  0.5647638585
H  -6.2727939317  2.7198575650  0.8368289286
H  -0.1143290898  3.6712551617 -0.5368865821
H  -1.3702078524  4.3404609888  0.5206433381
H   0.0304085387  3.5045495194  1.2132689448
H  -2.8196515059 -2.5177360605  0.1052709654
H  -4.0773721043 -1.8257683924  1.1459789528
H  -4.2295319182 -1.7167845100 -0.6093216032
H   2.2496156108 -2.9846636923  0.5713977767
H   4.8847415397 -3.1990211632  0.3609017387
H   10.1859246452  0.1089000249 -0.5666476107
H   8.4193312515  1.7255703585  0.1111066461
H   6.0466572461  1.0773779391  0.1528573102
42
Scanning combination 12/73: [55.0982]  Energy = -2548.7103465551
C  -0.7145771524  0.9839496608  0.1103038566
C  -1.4108396820 -0.2565196415  0.0793873794
C  -2.7888204624 -0.3597610315  0.2380313010
C  -3.4965766979  0.8440933885  0.4139846552
C  -2.7999493520  2.0828952042  0.4501032904
C  -1.4165197571  2.1858265075  0.3150013982
C   0.6972454016  0.8020460405 -0.0728866968
C   1.0742978046 -0.4950758006 -0.2252781329
S  -0.2953886203 -1.5835195484 -0.1732222191
C  -4.9172038723  1.0286564651  0.5680715339
C  -5.2740541008  2.3223191954  0.7119004076
S  -3.9200465178  3.4033452401  0.6766794123
C  -0.6856937595  3.4976794396  0.3822054826
C  -3.5120522242 -1.6787592485  0.2183872261
C   2.4276983442 -1.0215944745 -0.3140628700
C   2.8983915958 -2.2204160741  0.1548531065
C   4.3064619139 -2.3325116044  0.0580153421
C   4.9177179044 -1.2523885693 -0.5313107590
S   3.7206343284 -0.0483282448 -0.9396712372
C   6.3446793343 -0.9236372947 -0.4782827459
C   7.3477415589 -1.8633685862 -0.8891740583
C   8.7410031325 -1.4779524741 -0.9042651061
C   9.1348624479 -0.1594726916 -0.5411184623
C   8.1555692343  0.7135655801 -0.1722728986
C   6.7847802640  0.3400076946 -0.1422855286
N   7.1696405551 -3.1397520264 -1.2299417467
S   8.6302139381 -3.7609670934 -1.5383174552
N   9.5631311225 -2.4677712524 -1.2575913036
H   1.4103151889  1.6211450165 -0.0665462487
H  -5.6233509279  0.2043605800  0.5646748349
H  -6.2728149071  2.7214207921  0.8395165592
H  -0.1137336151  3.6702601300 -0.5377227840
H  -1.3694686105  4.3394704262  0.5200635467
H   0.0323920104  3.5040602863  1.2122944794
H  -2.8200392892 -2.5167177852  0.1053340010
H  -4.0792293775 -1.8276403651  1.1457324265
H  -4.2314783636 -1.7186152579 -0.6093304079
H   2.2528574038 -2.9853297929  0.5719618370
H   4.8773772803 -3.1996792388  0.3697055505
H   10.1862664892  0.1118030025 -0.5674111353
H   8.4165996557  1.7304638299  0.1068281816
H   6.0491605446  1.0813106181  0.1540561766
42
Scanning combination 13/73: [60.0982]  Energy = -2548.7099815661
C  -0.7104760881  0.9769595862  0.0687907141
C  -1.4119324471 -0.2609547471  0.0449014599
C  -2.7889799562 -0.3585137991  0.2088784827
C  -3.4917707827  0.8473876147  0.3876114799
C  -2.7903970765  2.0837694417  0.4199999440
C  -1.4070307532  2.1815304602  0.2779011268
C   0.7000077464  0.7845935035 -0.1156686759
C   1.0697485576 -0.5169404915 -0.2518789706
S  -0.3043482634 -1.5965174486 -0.1970408021
C  -4.9093712332  1.0356939895  0.5634730594
C  -5.2593906997  2.3292020100  0.7214801763
S  -3.9033084541  3.4067092236  0.6667543767
C  -0.6712274501  3.4906232514  0.3525992646
C  -3.5130565823 -1.6764341754  0.2037442297
C   2.4236465784 -1.0494516709 -0.2918549749
C   2.8977583182 -2.1999139087  0.2846402540
C   4.3099785644 -2.3156477586  0.2002514241
C   4.9101840782 -1.2796473332 -0.4706099950
S   3.7113871366 -0.1276674688 -0.9926341434
C   6.3378498010 -0.9476927591 -0.4847550832
C   7.3413453348 -1.8552376568 -0.9614273343
C   8.7306709633 -1.4533812532 -0.9711492857
C   9.1197621505 -0.1554555660 -0.5329816374
C   8.1377383238  0.6852762390 -0.1030880335
C   6.7713653730  0.2974332337 -0.0826042731
N   7.1688776668 -3.0999229783 -1.4059014005
S   8.6327428348 -3.6759148114 -1.7900386306
N   9.5575617512 -2.4000725084 -1.4161957341
H   1.4229531117  1.5946660172 -0.1088448694
H  -5.6187965143  0.2140383226  0.5671385086
H  -6.2542396317  2.7296820761  0.8732670068
H  -0.1011407609  3.6720039600 -0.5668960776
H  -1.3517490004  4.3330799713  0.5020168671
H   0.0485282824  3.4857232955  1.1812176097
H  -2.8220159754 -2.5157325600  0.0947353692
H  -4.0734250650 -1.8156254055  1.1366524376
H  -4.2368060758 -1.7221654316 -0.6195989857
H   2.2519548232 -2.9064928957  0.7925784870
H   4.8831056924 -3.1330189344  0.6233865498
H   10.1687067989  0.1237883056 -0.5467652285
H   8.3909017605  1.6853634687  0.2364159234
H   6.0298873030  1.0037786246  0.2778995763
42
Scanning combination 14/73: [65.0982]  Energy = -2548.7087668532
C  -0.7104281018  0.9763376415  0.0666369378
C  -1.4123651159 -0.2612830583  0.0428152670
C  -2.7896099637 -0.3589174135  0.2084136213
C  -3.4917163664  0.8473651858  0.3882634124
C  -2.7897994817  2.0834360970  0.4198875037
C  -1.4065726727  2.1808083825  0.2761094118
C   0.7009589442  0.7844499113 -0.1130938205
C   1.0715196869 -0.5168507167 -0.2454104448
S  -0.3038101403 -1.5963496735 -0.1981860517
C  -4.9091861910  1.0361944791  0.5641654348
C  -5.2588031411  2.3299963196  0.7212411687
S  -3.9021471229  3.4069253928  0.6668144343
C  -0.6705775250  3.4894778426  0.3510645936
C  -3.5146856172 -1.6768722767  0.2031870218
C   2.4258189450 -1.0489715357 -0.2906315823
C   2.8982598491 -2.1942938370  0.2961148686
C   4.3091441338 -2.3080847689  0.2104714149
C   4.9137812027 -1.2935061384 -0.4896838203
S   3.7161236981 -0.1326841140 -0.9973819183
C   6.3403252513 -0.9535933044 -0.4666167157
C   7.3410070129 -1.8486003807 -0.9687801410
C   8.7305437855 -1.4499152163 -0.9771261656
C   9.1195685721 -0.1551348061 -0.5315181271
C   8.1374064016  0.6846811391 -0.0975958013
C   6.7720596723  0.2939744146 -0.0702134882
N   7.1633402421 -3.0933846433 -1.4106992045
S   8.6251433874 -3.6742397776 -1.7930253856
N   9.5540768912 -2.4001374471 -1.4223155656
H   1.4217866585  1.5965370351 -0.1113334621
H  -5.6183410501  0.2142467536  0.5674813934
H  -6.2535484681  2.7311085284  0.8721555465
H  -0.1006655886  3.6703101287 -0.5684774166
H  -1.3507053098  4.3322087845  0.5006485568
H   0.0496896460  3.4846944410  1.1791936906
H  -2.8243044838 -2.5166705258  0.0938279825
H  -4.0757301476 -1.8168080389  1.1356178891
H  -4.2391041899 -1.7237127280 -0.6195730466
H   2.2542500694 -2.9116407694  0.7928965548
H   4.8819143733 -3.1298403590  0.6244598075
H   10.1678054313  0.1246329820 -0.5484161485
H   8.3925587598  1.6856926462  0.2371384920
H   6.0322182043  1.0073144572  0.2778734958
42
Scanning combination 15/73: [70.0982]  Energy = -2548.7092589194
C  -0.7130943956  0.9159201206  0.0183971049
C  -1.4255104413 -0.3151756778  0.0454280169
C  -2.8099942814 -0.3808021715  0.1646788615
C  -3.4908600481  0.8423077508  0.3280348223
C  -2.7692054605  2.0677212912  0.3281106598
C  -1.3888502351  2.1385006409  0.1661482713
C   0.6975429601  0.7087426395 -0.1056866164
C   1.0667078332 -0.5971376817 -0.1225433284
S  -0.3132843903 -1.6701464715 -0.0532602595
C  -4.8996393797  1.0609561110  0.5374014231
C  -5.2206457848  2.3626102738  0.6926444947
S  -3.8484979661  3.4147352314  0.5850115651
C  -0.6190932541  3.4282822271  0.1902414962
C  -3.5634511546 -1.6826447805  0.1485191178
C   2.4327940865 -1.0925310092 -0.0876551940
C   2.9401230884 -2.1960849652  0.5488351098
C   4.3576005553 -2.2632389269  0.4696034912
C   4.9181480355 -1.2349917951 -0.2450085442
S   3.6967721290 -0.1384285122 -0.7941298806
C   6.3402135766 -0.9005447615 -0.3579600626
C   7.2454194735 -1.7360491751 -1.0841900476
C   8.6413863791 -1.3746049387 -1.1782411316
C   9.1239597924 -0.1777073847 -0.5762354698
C   8.2228717248  0.6150051613  0.0696442220
C   6.8483618382  0.2652681469  0.1679805406
N   6.9599357685 -2.8701232966 -1.7219442005
S   8.3460601309 -3.4079890880 -2.3647784343
N   9.3675456755 -2.2490923641 -1.8768355626
H   1.4226899553  1.5150078570 -0.1513869507
H  -5.6247220224  0.2539172464  0.5727061519
H  -6.2016324025  2.7847149944  0.8729373912
H  -0.0754549702  3.5770270528 -0.7506301436
H  -1.2692282217  4.2918750878  0.3496000156
H   0.1300403724  3.4111604307  0.9922329410
H  -2.8922665539 -2.5349540838  0.0183057264
H  -4.1140162273 -1.8251071783  1.0869095955
H  -4.3015085993 -1.7007456827 -0.6633752811
H   2.3211537865 -2.9132702927  1.0776426780
H   4.9565951843 -3.0481484420  0.9167270470
H   10.1780200636  0.0716219540 -0.6484444521
H   8.5495039106  1.5478318169  0.5198246668
H   6.1747095894  0.9352136942  0.6911403692
42
Scanning combination 16/73: [75.0982]  Energy = -2548.7085315639
C  -0.7093055330  0.9259587033  0.0482526614
C  -1.4192728527 -0.3071802104  0.0715381572
C  -2.8043399178 -0.3796433247  0.1874627959
C  -3.4899815786  0.8414422362  0.3453783933
C  -2.7735628681  2.0701862110  0.3397059759
C  -1.3919718405  2.1470094824  0.1844487755
C   0.7028019571  0.7225949249 -0.0866458652
C   1.0741842409 -0.5836654535 -0.1200136878
S  -0.3049429396 -1.6573388596 -0.0478165169
C  -4.9023688293  1.0553141201  0.5360947219
C  -5.2314619614  2.3572504048  0.6714547192
S  -3.8631388119  3.4148142836  0.5662357301
C  -0.6329211552  3.4442985750  0.1824461151
C  -3.5581254213 -1.6823157892  0.1551363304
C   2.4371221907 -1.0944827454 -0.1048904029
C   2.9407160476 -2.1884711647  0.5510543744
C   4.3579866589 -2.2606012159  0.4795603736
C   4.9227565932 -1.2616854304 -0.2708236392
S   3.7043425719 -0.1766842134 -0.8513968942
C   6.3467822921 -0.9263835156 -0.3576385023
C   7.2531693533 -1.7393275067 -1.1067847389
C   8.6451714730 -1.3634031907 -1.2043760452
C   9.1204856367 -0.1711838015 -0.5864426004
C   8.2194204632  0.5952043627  0.0904763030
C   6.8497242867  0.2278538798  0.1980115780
N   6.9776457574 -2.8804932693 -1.7363755718
S   8.3675903899 -3.4029255116 -2.3856985712
N   9.3775233657 -2.2303439426 -1.9060885490
H   1.4212340365  1.5352877544 -0.1301358128
H  -5.6236492438  0.2446777796  0.5696623539
H  -6.2161373705  2.7766329581  0.8375565495
H  -0.0971897344  3.5800957718 -0.7652138335
H  -1.2881069069  4.3066977336  0.3292211779
H   0.1218446540  3.4502983516  0.9790623863
H  -2.8901577622 -2.5352557106  0.0123049531
H  -4.1132749318 -1.8394213459  1.0887477635
H  -4.2943589209 -1.6865376054 -0.6587792681
H   2.3184610560 -2.8951219592  1.0891674068
H   4.9554547643 -3.0300803159  0.9548126466
H   10.1680947557  0.0994322650 -0.6785866067
H   8.5434452572  1.5178185923  0.5628139122
H   6.1755109038  0.8785787364  0.7435011640
42
Scanning combination 17/73: [80.0982]  Energy = -2548.7070521766
C  -0.7087141205  0.9260839038  0.0487030926
C  -1.4188968043 -0.3067368992  0.0717517477
C  -2.8038094934 -0.3788386302  0.1870957438
C  -3.4897921494  0.8417288711  0.3452315376
C  -2.7733964958  2.0702653422  0.3396826708
C  -1.3917345337  2.1469185529  0.1842313687
C   0.7031553909  0.7218937146 -0.0865184588
C   1.0737841985 -0.5841041262 -0.1227827319
S  -0.3054250661 -1.6578225850 -0.0452852154
C  -4.9022235825  1.0550287354  0.5360747854
C  -5.2317897398  2.3568151012  0.6704140016
S  -3.8633803353  3.4145034455  0.5668047629
C  -0.6338202005  3.4446021524  0.1814595019
C  -3.5567289886 -1.6815102479  0.1554812468
C   2.4377982149 -1.0923146634 -0.1053859309
C   2.9393505720 -2.1806192880  0.5600078745
C   4.3552963119 -2.2535593852  0.4868593229
C   4.9244495262 -1.2794028628 -0.2920710107
S   3.7070744406 -0.1791278418 -0.8558763176
C   6.3507127550 -0.9412183454 -0.3409433534
C   7.2545559552 -1.7333337023 -1.1142264473
C   8.6458346676 -1.3585825868 -1.2106912987
C   9.1196397012 -0.1682655076 -0.5905708384
C   8.2174990513  0.5929894316  0.0932006590
C   6.8493421316  0.2183248984  0.2100555357
N   6.9769163673 -2.8744803387 -1.7424151874
S   8.3668805792 -3.3996831456 -2.3886285925
N   9.3781546638 -2.2282065395 -1.9091910514
H   1.4231757702  1.5331531835 -0.1284214929
H  -5.6233850633  0.2442678190  0.5701484065
H  -6.2171298441  2.7758115621  0.8339207795
H  -0.0980316174  3.5805543808 -0.7661847961
H  -1.2906614526  4.3057611191  0.3281157072
H   0.1204340560  3.4517352943  0.9784724077
H  -2.8879764978 -2.5336838618  0.0123037988
H  -4.1110244110 -1.8383506231  1.0895722667
H  -4.2932300575 -1.6863019085 -0.6580191528
H   2.3173410474 -2.8919561556  1.0928573996
H   4.9515483052 -3.0258772997  0.9591991961
H   10.1683963627  0.0985625839 -0.6770297393
H   8.5423826149  1.5163143926  0.5632467405
H   6.1746278961  0.8775631045  0.7457512741
42
Scanning combination 18/73: [85.0982]  Energy = -2548.7062738890
C  -0.6983715904  0.9358742687  0.0453102834
C  -1.4074193246 -0.2979109832  0.0708827151
C  -2.7908025030 -0.3754696716  0.1921947659
C  -3.4816310661  0.8415863207  0.3467016991
C  -2.7695104289  2.0723257216  0.3383325569
C  -1.3873414198  2.1541514320  0.1815228236
C   0.7137836531  0.7282951267 -0.1012468602
C   1.0802571061 -0.5791082076 -0.1474507766
S  -0.2986557283 -1.6494039852 -0.0610307894
C  -4.8961076224  1.0489014605  0.5282177579
C  -5.2323781696  2.3498880287  0.6514569855
S  -3.8673906787  3.4125996016  0.5534743075
C  -0.6417457715  3.4592515468  0.1698962389
C  -3.5371846931 -1.6811940946  0.1642888184
C   2.4397301934 -1.1028134910 -0.1159571520
C   2.9272510138 -2.1443709139  0.6291153793
C   4.3426884436 -2.2466916330  0.5639268188
C   4.9214292621 -1.3285624307 -0.2736005186
S   3.7167183957 -0.2778092690 -0.9449106032
C   6.3484852985 -0.9895534675 -0.3598314067
C   7.2601626145 -1.7416863394 -1.1649078953
C   8.6429760959 -1.3341057439 -1.2585848455
C   9.1025651624 -0.1622179558 -0.5931286686
C   8.1978246576  0.5454672272  0.1392598239
C   6.8382567536  0.1413912791  0.2515727858
N   6.9992076216 -2.8550917836 -1.8460091713
S   8.3919061499 -3.3182049284 -2.5332221726
N   9.3846776131 -2.1510307780 -2.0081658894
H   1.4400928240  1.5344959703 -0.1368333821
H  -5.6136917222  0.2349542783  0.5632480964
H  -6.2219075843  2.7648810019  0.7987730470
H  -0.1062940078  3.5939416445 -0.7781570989
H  -1.3094387474  4.3138880265  0.3068045849
H   0.1099351478  3.4835177676  0.9689809038
H  -2.8658552735 -2.5302281368  0.0149158981
H  -4.0834380244 -1.8410262092  1.1023947917
H  -4.2784632331 -1.6864689988 -0.6446654751
H   2.2913896944 -2.7793572265  1.2370911580
H   4.9239588091 -2.9749066719  1.1188985614
H   10.1446989346  0.1302580376 -0.6820609314
H   8.5092579510  1.4508492010  0.6515468463
H   6.1575743174  0.7495960318  0.8373562070
42
Scanning combination 19/73: [90.0982]  Energy = -2548.7047840411
C  -0.6983490191  0.9354805605  0.0426948631
C  -1.4074206189 -0.2983351701  0.0689167020
C  -2.7909545721 -0.3755687096  0.1912883661
C  -3.4814386475  0.8417582321  0.3459313012
C  -2.7692520897  2.0724249063  0.3374568625
C  -1.3870880427  2.1537449645  0.1798783288
C   0.7143772128  0.7283478794 -0.1009204160
C   1.0815168008 -0.5786323528 -0.1434292805
S  -0.2976921879 -1.6496438615 -0.0609850263
C  -4.8958391654  1.0493046396  0.5276705098
C  -5.2323459452  2.3500521106  0.6507772809
S  -3.8672363952  3.4127863883  0.5527991257
C  -0.6414477600  3.4587672363  0.1690670168
C  -3.5376291749 -1.6813784061  0.1647192274
C   2.4419176830 -1.1018083131 -0.1166694595
C   2.9278304166 -2.1348789686  0.6398031998
C   4.3419884404 -2.2353762692  0.5772868715
C   4.9246960659 -1.3472588840 -0.2894897470
S   3.7220639277 -0.2834648777 -0.9499814564
C   6.3526105099 -1.0023797326 -0.3457013356
C   7.2587643995 -1.7317889827 -1.1767458048
C   8.6421674883 -1.3279074148 -1.2666044249
C   9.1024442858 -0.1620434303 -0.5912826894
C   8.1960343040  0.5441707917  0.1433398624
C   6.8381959906  0.1332876487  0.2614380898
N   6.9950063577 -2.8476730910 -1.8522849973
S   8.3867788357 -3.3164364423 -2.5361571226
N   9.3821180240 -2.1501604883 -2.0129748535
H   1.4401535698  1.5350458703 -0.1383583117
H  -5.6128661484  0.2347951645  0.5629630306
H  -6.2219708414  2.7653902522  0.7980252211
H  -0.1056237861  3.5935383317 -0.7786999761
H  -1.3094300058  4.3131497513  0.3059729602
H   0.1100725385  3.4833419951  0.9682904257
H  -2.8656330899 -2.5298238855  0.0153105175
H  -4.0834008327 -1.8414924700  1.1031438392
H  -4.2796403373 -1.6881737010 -0.6436297523
H   2.2925140222 -2.7800852670  1.2379860650
H   4.9202688303 -2.9731248864  1.1228285465
H   10.1439390545  0.1314991448 -0.6813236745
H   8.5084811969  1.4500096295  0.6541615604
H   6.1585188285  0.7494411599  0.8398887719
42
Scanning combination 20/73: [95.0982]  Energy = -2548.7041199857
C  -0.6874369883  0.9344751355  0.0206221451
C  -1.3979460805 -0.2986127666  0.0521614042
C  -2.7803140884 -0.3766700038  0.1809416690
C  -3.4714695038  0.8400195528  0.3312409578
C  -2.7595363089  2.0704979541  0.3177020325
C  -1.3770804674  2.1524616279  0.1589777696
C   0.7249586236  0.7217680428 -0.1267015929
C   1.0862409716 -0.5873284426 -0.1632058084
S  -0.2936307324 -1.6530638592 -0.0736384014
C  -4.8857109430  1.0460180304  0.5161033855
C  -5.2225641990  2.3475971533  0.6371731430
S  -3.8580851581  3.4103902820  0.5332430547
C  -0.6342864100  3.4590957124  0.1523515518
C  -3.5246926099 -1.6832431230  0.1700740602
C   2.4431019062 -1.1196584701 -0.1092553253
C   2.9250316325 -2.0926685654  0.7264809431
C   4.3398319540 -2.2101527153  0.6674179818
C   4.9180363927 -1.3776687187 -0.2543823626
S   3.7188239818 -0.3875313847 -1.0213105731
C   6.3436799928 -1.0361208199 -0.3511918423
C   7.2432802791 -1.7278516868 -1.2199836591
C   8.6199852321 -1.3004549235 -1.3147462636
C   9.0797646378 -0.1616606843 -0.5935249622
C   8.1836659108  0.4920540790  0.1975191173
C   6.8327537536  0.0617329542  0.3167368654
N   6.9796362258 -2.8001373009 -1.9611359995
S   8.3615113257 -3.2036722158 -2.7056173471
N   9.3537830108 -2.0603791595 -2.1289719146
H   1.4561935558  1.5237828501 -0.1683542969
H  -5.6029483909  0.2323453376  0.5553097856
H  -6.2118177736  2.7616435845  0.7864748117
H  -0.0940109482  3.5968416259 -0.7924451521
H  -1.3054417973  4.3114607103  0.2871305274
H   0.1122136004  3.4844772186  0.9562744272
H  -2.8546958015 -2.5331820816  0.0201209716
H  -4.0605030832 -1.8358404438  1.1153702098
H  -4.2743940017 -1.6944191907 -0.6307568881
H   2.2847385980 -2.6613587654  1.3937262406
H   4.9229568157 -2.8888133142  1.2812580405
H   10.1155391503  0.1503624487 -0.6878753739
H   8.4937662037  1.3729952454  0.7515833738
H   6.1542716514  0.6193701031  0.9535035204
42
Scanning combination 21/73: [100.0982]  Energy = -2548.7026667053
C  -0.6881257309  0.9334704007  0.0182546564
C  -1.3984739233 -0.2997835717  0.0513368141
C  -2.7811810501 -0.3771334660  0.1806954820
C  -3.4714308545  0.8403197636  0.3307544671
C  -2.7593665530  2.0706936668  0.3169048294
C  -1.3769514296  2.1518906550  0.1573498808
C   0.7246746712  0.7211312273 -0.1271696347
C   1.0872315663 -0.5872082232 -0.1600121434
S  -0.2927592383 -1.6539280288 -0.0733116469
C  -4.8854819249  1.0466463883  0.5155225499
C  -5.2225519598  2.3484771515  0.6365073367
S  -3.8577759376  3.4109988469  0.5322546852
C  -0.6334832351  3.4583055721  0.1513310103
C  -3.5261720524 -1.6837219475  0.1702825632
C   2.4457104025 -1.1177758002 -0.1090559177
C   2.9262086292 -2.0817426486  0.7364774476
C   4.3393200339 -2.1966297072  0.6805244508
C   4.9224210195 -1.3977030451 -0.2675282926
S   3.7255017263 -0.3945467703 -1.0246351689
C   6.3485153386 -1.0498219023 -0.3372808789
C   7.2407255967 -1.7153428191 -1.2329133226
C   8.6181159247 -1.2911205947 -1.3252522169
C   9.0800088302 -0.1607638294 -0.5917553550
C   8.1820824419  0.4900507344  0.2022677692
C   6.8334004549  0.0522397738  0.3273280714
N   6.9736040170 -2.7910686255 -1.9673629305
S   8.3551475983 -3.2032733176 -2.7060945756
N   9.3503253182 -2.0596438056 -2.1337751194
H   1.4559403215  1.5230280108 -0.1699906813
H  -5.6016177366  0.2322943393  0.5550338036
H  -6.2116987577  2.7626960270  0.7856433742
H  -0.0930473574  3.5960748017 -0.7932963827
H  -1.3045157733  4.3107900295  0.2858378205
H   0.1133024894  3.4842353774  0.9550617416
H  -2.8551891483 -2.5327960547  0.0202522955
H  -4.0615008768 -1.8371809491  1.1158082606
H  -4.2764467372 -1.6966415229 -0.6301894524
H   2.2864030986 -2.6625035161  1.3933197611
H   4.9198658251 -2.8865104112  1.2834746114
H   10.1156565111  0.1511677674 -0.6872529716
H   8.4943186891  1.3707218689  0.7552608483
H   6.1564898929  0.6205091663  0.9557923881
42
Scanning combination 22/73: [105.0982]  Energy = -2548.7064296955
C  -0.6939134818  0.8271125772 -0.0696025915
C  -1.4168027024 -0.3910224068  0.0589481046
C  -2.8056600234 -0.4268328958  0.1496226886
C  -3.4705587010  0.8150946896  0.2306577267
C  -2.7313043976  2.0271785054  0.1546971792
C  -1.3508037406  2.0660935548 -0.0056495686
C   0.7126300320  0.5986769362 -0.1804145271
C   1.0764209303 -0.7027583209 -0.0580807293
S  -0.3093750627 -1.7565938419  0.1102796858
C  -4.8747707509  1.0707436621  0.4340123747
C  -5.1720148316  2.3866251211  0.5146237277
S  -3.7850057533  3.4063236053  0.3298943824
C  -0.5593530509  3.3410963677 -0.0538614531
C  -3.5824501091 -1.7136079898  0.1948336870
C   2.4522220254 -1.1647325447  0.0717473422
C   2.9810900173 -2.0494982634  0.9780728891
C   4.4026541463 -2.0416176258  0.9794223254
C   4.9384385647 -1.1730072660  0.0658465232
S   3.7033362944 -0.3667590438 -0.8272862847
C   6.3526115699 -0.8925423447 -0.1641496948
C   7.0106902444 -1.4210700673 -1.3158927010
C   8.4041445774 -1.1190786634 -1.5507515578
C   9.1185980362 -0.2678267307 -0.6565990118
C   8.4553301125  0.2094595883  0.4362314795
C   7.0890712900 -0.1067764608  0.6893516328
N   6.4821347241 -2.2143189800 -2.2409336140
S   7.6604348894 -2.5310521991 -3.3070101372
N   8.8864319870 -1.6964821062 -2.6517860388
H   1.4453178405  1.3902867858 -0.3011918516
H  -5.6159926772  0.2834636715  0.5221468648
H  -6.1408052379  2.8383560550  0.6831097791
H  -0.0141481891  3.4342715882 -1.0013235636
H  -1.1930922222  4.2227161508  0.0655565930
H   0.1882947654  3.3478768610  0.7491109083
H  -2.9387843215 -2.5800172689  0.0238263817
H  -4.0739481271 -1.8425500231  1.1680359301
H  -4.3732840136 -1.7146149245 -0.5655584756
H   2.3693032918 -2.6547419347  1.6386373580
H   5.0252830566 -2.6602077630  1.6149845746
H   10.1557290024 -0.0204664846 -0.8620097783
H   8.9726983205  0.8475745388  1.1463233483
H   6.6164018662  0.2941269085  1.5785283329
42
Scanning combination 23/73: [110.0982]  Energy = -2548.7062649483
C  -0.6922657905  0.8298937482 -0.0663174527
C  -1.4161258668 -0.3881099944  0.0589948306
C  -2.8046835438 -0.4257765680  0.1546042786
C  -3.4699614040  0.8153232616  0.2373671122
C  -2.7313928100  2.0276304280  0.1550891237
C  -1.3507835620  2.0684524978 -0.0070752259
C   0.7147498234  0.6010374508 -0.1744566937
C   1.0773718086 -0.7015562415 -0.0627525874
S  -0.3097646607 -1.7538720776  0.1079839648
C  -4.8752679119  1.0697787524  0.4341922509
C  -5.1747621423  2.3849556154  0.5098174397
S  -3.7870674941  3.4054516537  0.3296675578
C  -0.5609230465  3.3448780688 -0.0543292238
C  -3.5811388077 -1.7135164635  0.1958864430
C   2.4527196736 -1.1619708006  0.0752669167
C   2.9791163003 -2.0402109458  0.9888083780
C   4.3994293332 -2.0378789022  0.9874842279
C   4.9404735112 -1.2048190664  0.0459319671
S   3.7064828479 -0.3728346083 -0.8269745686
C   6.3574991084 -0.9149814770 -0.1586330666
C   7.0107564984 -1.4082515552 -1.3268001692
C   8.4023691675 -1.1040225545 -1.5592114956
C   9.1185554562 -0.2672547912 -0.6545480493
C   8.4532937019  0.2031897134  0.4409086475
C   7.0889286563 -0.1236715753  0.6953927848
N   6.4825800346 -2.2042016336 -2.2501031899
S   7.6653901095 -2.5319120400 -3.3070653503
N   8.8871575690 -1.6880261771 -2.6561400595
H   1.4454939901  1.3938853551 -0.2994621305
H  -5.6143514020  0.2802620217  0.5228720079
H  -6.1454153004  2.8340394637  0.6773503754
H  -0.0176643026  3.4336047325 -1.0027201140
H  -1.1953116739  4.2269774195  0.0618580602
H   0.1903779998  3.3555190579  0.7458842243
H  -2.9382142030 -2.5800371900  0.0237097120
H  -4.0729433147 -1.8452217383  1.1682072349
H  -4.3715327942 -1.7165710432 -0.5650822614
H   2.3661978427 -2.6536486168  1.6402556191
H   5.0216502496 -2.6523062178  1.6277422434
H   10.1573511508 -0.0274543769 -0.8580882318
H   8.9733104776  0.8479892632  1.1434065934
H   6.6155149125  0.2941391686  1.5774781187
42
Scanning combination 24/73: [115.0982]  Energy = -2548.7066448087
C  -0.6850749234  0.8463640345 -0.0496600951
C  -1.4054782850 -0.3749844625  0.0689320834
C  -2.7941134208 -0.4218812180  0.1704636206
C  -3.4656314138  0.8152555252  0.2542040090
C  -2.7346822214  2.0324531277  0.1691852443
C  -1.3529639352  2.0815107082  0.0058643282
C   0.7256516280  0.6213615434 -0.1608757644
C   1.0909333003 -0.6830741601 -0.0625129621
S  -0.2957054838 -1.7368729383  0.0935328711
C  -4.8748995742  1.0588536004  0.4367958036
C  -5.1875100046  2.3716979906  0.4929868369
S  -3.8055907060  3.4025150741  0.3199229473
C  -0.5734370906  3.3641623241 -0.0668443761
C  -3.5662939598 -1.7137605716  0.2036870662
C   2.4602864718 -1.1706489143  0.0767152928
C   2.9715422518 -2.0211871909  1.0249972785
C   4.3922988340 -2.0394974269  1.0371205078
C   4.9465963673 -1.2620280598  0.0519363222
S   3.7231407908 -0.4816765840 -0.8865738346
C   6.3585600989 -0.9627752558 -0.1778493228
C   7.0173159428 -1.4140428471 -1.3627496230
C   8.4090515132 -1.0932111370 -1.5799015304
C   9.1158836179 -0.2726426416 -0.6516913138
C   8.4417263930  0.1680182650  0.4483100054
C   7.0828063976 -0.1829788588  0.6925557191
N   6.5012365491 -2.1776722417 -2.3200677252
S   7.6898394164 -2.4531086219 -3.3860280161
N   8.9029971316 -1.6274409854 -2.6966885187
H   1.4505508638  1.4209743405 -0.2790226150
H  -5.6065246982  0.2624444367  0.5273571574
H  -6.1665017642  2.8124221465  0.6344602658
H  -0.0387940880  3.4400684838 -1.0214955962
H  -1.2123804050  4.2446704352  0.0375952706
H   0.1851183462  3.3967547732  0.7258319542
H  -2.9204691990 -2.5771879391  0.0271619700
H  -4.0619970718 -1.8559221598  1.1727489051
H  -4.3547173228 -1.7154589329 -0.5596763261
H   2.3378856229 -2.5788676183  1.7069818884
H   4.9953386115 -2.6064729878  1.7381751551
H   10.1575108368 -0.0242013468 -0.8336528642
H   8.9427889318  0.8126127628  1.1654050766
H   6.6009058400  0.1943565309  1.5887631381
42
Scanning combination 25/73: [120.0982]  Energy = -2548.7069623226
C  -0.6772356893  0.8520826992 -0.0411496866
C  -1.3960705265 -0.3699948409  0.0808550887
C  -2.7825464054 -0.4201513920  0.1765344116
C  -3.4586791059  0.8131797983  0.2525081308
C  -2.7326246552  2.0319212756  0.1651050716
C  -1.3504639524  2.0850992497  0.0046340098
C   0.7320857390  0.6205194688 -0.1505269091
C   1.0886889732 -0.6859159329 -0.0564884618
S  -0.2945090716 -1.7366920237  0.1051707520
C  -4.8688357854  1.0497510698  0.4294446410
C  -5.1881210512  2.3610159156  0.4757652089
S  -3.8108083529  3.3975587413  0.3039323777
C  -0.5873704987  3.3762478724 -0.0837781393
C  -3.5446108839 -1.7151165991  0.2123281841
C   2.4558185313 -1.1768684476  0.0715445502
C   2.9699406148 -1.9695581699  1.0661705190
C   4.3884690698 -2.0041734964  1.0525022634
C   4.9367228267 -1.2816576474  0.0258278159
S   3.7104621652 -0.5401403640 -0.9387299798
C   6.3520887608 -0.9980886776 -0.1896488681
C   7.0146884374 -1.4250632003 -1.3813414502
C   8.3995314878 -1.0738422753 -1.5972115997
C   9.1057846175 -0.2853424534 -0.6418787426
C   8.4368864185  0.1031846480  0.4820731818
C   7.0801075370 -0.2594014687  0.7124245893
N   6.5033682951 -2.1640336739 -2.3591956138
S   7.6816963354 -2.3687231702 -3.4520792628
N   8.8886164563 -1.5507706404 -2.7428328051
H   1.4708799079  1.4094728203 -0.2539872988
H  -5.5951119697  0.2491386759  0.5234089423
H  -6.1701194922  2.7975114323  0.6063713506
H  -0.0572673366  3.4535012695 -1.0410146167
H  -1.2436040336  4.2449689541  0.0127440997
H   0.1702872478  3.4318036303  0.7081213110
H  -2.8915317478 -2.5731210108  0.0363603996
H  -4.0349245149 -1.8554967705  1.1839525413
H  -4.3320805524 -1.7208708843 -0.5513313332
H   2.3451075975 -2.4640703056  1.8026502306
H   5.0037017524 -2.5451270569  1.7619432931
H   10.1349377871 -0.0015592810 -0.8383603066
H   8.9413980850  0.7167194089  1.2225554561
H   6.6024471706  0.0910038372  1.6210268800
42
Scanning combination 26/73: [125.0982]  Energy = -2548.7064970189
C  -0.6776850186  0.8534389535 -0.0403596969
C  -1.3964194925 -0.3690438590  0.0798431020
C  -2.7832327383 -0.4208737870  0.1768748291
C  -3.4594395559  0.8126335780  0.2527104355
C  -2.7333503654  2.0318876233  0.1644498688
C  -1.3511398716  2.0862540347  0.0038879594
C   0.7322788322  0.6236655884 -0.1496611261
C   1.0909040831 -0.6819722799 -0.0588499567
S  -0.2927157266 -1.7339984158  0.1056181480
C  -4.8698272839  1.0496139327  0.4288906422
C  -5.1892477528  2.3600668929  0.4743039753
S  -3.8122795623  3.3971536749  0.3012180215
C  -0.5873647496  3.3772892892 -0.0858426108
C  -3.5454936195 -1.7168637524  0.2140477991
C   2.4590364179 -1.1702951010  0.0762452781
C   2.9696601820 -1.9549053484  1.0784914674
C   4.3871265777 -1.9974402447  1.0659584677
C   4.9418929827 -1.3122660475  0.0151644079
S   3.7171863177 -0.5548288462 -0.9430952014
C   6.3575203101 -1.0205063865 -0.1821036385
C   7.0121133256 -1.4056396568 -1.3923858312
C   8.3974063777 -1.0588076894 -1.6073394079
C   9.1037274783 -0.2764397723 -0.6468384496
C   8.4357915918  0.0988185700  0.4809208410
C   7.0828087659 -0.2747815952  0.7183557755
N   6.4984845392 -2.1432961734 -2.3703879184
S   7.6820943371 -2.3674064183 -3.4530855580
N   8.8895321104 -1.5479671489 -2.7465396562
H   1.4672532230  1.4159257045 -0.2564174727
H  -5.5963450625  0.2484660240  0.5223797115
H  -6.1718259128  2.7967368350  0.6043464573
H  -0.0568045287  3.4531527938 -1.0430364998
H  -1.2422538094  4.2470876305  0.0100843016
H   0.1702687361  3.4330703684  0.7060925622
H  -2.8927748187 -2.5751236505  0.0377814463
H  -4.0368967881 -1.8594279995  1.1850041156
H  -4.3336068478 -1.7241590486 -0.5489853914
H   2.3431087526 -2.4635559056  1.8041537416
H   5.0006038627 -2.5371733391  1.7782095061
H   10.1400555153 -0.0089959160 -0.8325854585
H   8.9427368422  0.7077614030  1.2243219589
H   6.6043125327  0.0816464689  1.6245592799
42
Scanning combination 27/73: [130.0982]  Energy = -2548.7118553275
C  -0.7019389057  0.9352719996  0.0186249545
C  -1.3569746830 -0.3029736557  0.2746502711
C  -2.7414540990 -0.4326935635  0.2947680005
C  -3.4887228988  0.7544928966  0.1746609823
C  -2.8313479642  1.9921946226 -0.0647260205
C  -1.4488316501  2.1089155204 -0.1841848740
C   0.7233792687  0.7898098535  0.0314422140
C   1.1508732378 -0.4681030473  0.3179464765
S  -0.1827921654 -1.5738789857  0.5603832245
C  -4.9165116353  0.9243964590  0.2652591360
C  -5.3142135148  2.2034434258  0.1016264351
S  -3.9945130940  3.2891054788 -0.1795359367
C  -0.7698131617  3.4166663513 -0.4849953151
C  -3.4330085741 -1.7600751140  0.4515039105
C   2.5296730309 -0.8956518797  0.4813438718
C   3.0562898909 -1.8631161776  1.3017894710
C   4.4695591660 -1.9459715996  1.2072974352
C   5.0124829669 -1.0703995207  0.2966959652
S   3.7761970067 -0.0856141918 -0.4063115770
C   6.4209777943 -0.9466009053 -0.0688257955
C   6.8435074353 -0.9373966667 -1.4418610186
C   8.2492590292 -0.8556955225 -1.7616838190
C   9.2268246579 -0.7591548780 -0.7274260181
C   8.7885172699 -0.7615978438  0.5638910343
C   7.4061360447 -0.8569754375  0.8917529725
N   6.0755891409 -1.0277233188 -2.5240631425
S   7.0586344608 -1.0041830715 -3.8071397448
N   8.4978044040 -0.8830939054 -3.0725400738
H   1.4072081886  1.6119384726 -0.1562695691
H  -5.5964384302  0.1024920149  0.4646135139
H  -6.3257903328  2.5892601501  0.1193932293
H  -0.2284565489  3.3712976846 -1.4387976965
H  -1.4904342801  4.2360742707 -0.5435429543
H  -0.0385446129  3.6675487273  0.2935630464
H  -2.7410729103 -2.5938734354  0.3095706677
H  -3.8876247666 -1.8598677986  1.4456592645
H  -4.2431583839 -1.8615886349 -0.2802554323
H   2.4495446235 -2.4774409359  1.9585048397
H   5.0754564869 -2.6497886402  1.7684362781
H   10.2786920150 -0.6970367759 -0.9912705394
H   9.5089905740 -0.6942767223  1.3757266270
H   7.1232459971 -0.8292348267  1.9407259047
42
Scanning combination 28/73: [135.0982]  Energy = -2548.7122723812
C  -0.7070097332  0.9447440983  0.0304205092
C  -1.3599389538 -0.2920350729  0.2908292999
C  -2.7443860597 -0.4285080719  0.3049184717
C  -3.4970004389  0.7546111521  0.1716482505
C  -2.8410159033  1.9931162280 -0.0721290903
C  -1.4574186703  2.1152466700 -0.1788859503
C   0.7197697563  0.8010890937  0.0407570937
C   1.1482396681 -0.4558479178  0.3280317891
S  -0.1843277273 -1.5598551699  0.5788511163
C  -4.9262877470  0.9213112383  0.2570604582
C  -5.3255173313  2.1997556378  0.0895883964
S  -4.0066155182  3.2871089557 -0.1946678234
C  -0.7668537464  3.4153989543 -0.4821263751
C  -3.4228326209 -1.7620153197  0.4656338287
C   2.5270658918 -0.8984382291  0.4654977151
C   3.0518265657 -1.8341651723  1.3214490932
C   4.4640138100 -1.9324119809  1.2224885903
C   5.0060689996 -1.1061211902  0.2652615695
S   3.7697156334 -0.1519872492 -0.4809592938
C   6.4155167295 -0.9807296727 -0.0963590561
C   6.8556255929 -0.9399563098 -1.4636825269
C   8.2649162371 -0.8399363969 -1.7652274926
C   9.2297817731 -0.7527278674 -0.7202043082
C   8.7743856385 -0.7731501905  0.5647772763
C   7.3920100031 -0.9050566158  0.8719623344
N   6.1032378392 -1.0189385047 -2.5565069897
S   7.1007319956 -0.9610491366 -3.8267457955
N   8.5298585547 -0.8425248626 -3.0731898395
H   1.4034306734  1.6238621129 -0.1444937100
H  -5.6080726434  0.0983796028  0.4484184707
H  -6.3369481950  2.5858204478  0.1213771600
H  -0.2139029124  3.3514632378 -1.4279501207
H  -1.4698918701  4.2490223918 -0.5554881388
H  -0.0363318110  3.6552582869  0.3002008614
H  -2.7194740919 -2.5881564255  0.3331107975
H  -3.8786288417 -1.8640854650  1.4588850993
H  -4.2270632932 -1.8771535846 -0.2706879479
H   2.4420820421 -2.4170421250  2.0037957730
H   5.0608914709 -2.6180617399  1.8154817020
H   10.2834027996 -0.6715910879 -0.9686865406
H   9.4803882516 -0.6906685510  1.3863663660
H   7.1037582537 -0.9350733291  1.9175791555
42
Scanning combination 29/73: [140.0982]  Energy = -2548.7119703943
C  -0.7070228607  0.9445386423  0.0315581462
C  -1.3603688272 -0.2916986845  0.2924968107
C  -2.7446786663 -0.4282428360  0.3057048411
C  -3.4965518567  0.7549930031  0.1721080256
C  -2.8404029997  1.9931188550 -0.0716747851
C  -1.4568733470  2.1151427128 -0.1789610661
C   0.7193960202  0.7996447937  0.0400453411
C   1.1474861198 -0.4581624808  0.3228472381
S  -0.1858012752 -1.5604633933  0.5805261403
C  -4.9255698827  0.9212463294  0.2563539794
C  -5.3248554723  2.1995530551  0.0885419701
S  -4.0058516822  3.2870818699 -0.1943885971
C  -0.7673911802  3.4158257700 -0.4814972399
C  -3.4231164609 -1.7614923227  0.4664918629
C   2.5276389209 -0.8955856889  0.4651381277
C   3.0534595392 -1.8195986766  1.3327028167
C   4.4643281900 -1.9214147073  1.2313975517
C   5.0026256303 -1.1335313876  0.2415490734
S   3.7700279233 -0.1607409426 -0.4921259140
C   6.4162856296 -1.0094057759 -0.1010793175
C   6.8572397700 -0.9263948245 -1.4642261932
C   8.2658176850 -0.8272855936 -1.7639499749
C   9.2296025462 -0.7457473465 -0.7192920736
C   8.7718598942 -0.7780699772  0.5653527250
C   7.3891363532 -0.9215207083  0.8714000428
N   6.1038983979 -1.0062750303 -2.5558708827
S   7.1033809165 -0.9619304243 -3.8247519854
N   8.5316224000 -0.8383280121 -3.0713232307
H   1.4031982690  1.6227233595 -0.1433913755
H  -5.6063842452  0.0978346910  0.4484524740
H  -6.3366655005  2.5845144297  0.1178779805
H  -0.2138962859  3.3522667652 -1.4268083184
H  -1.4727076051  4.2474829088 -0.5565908748
H  -0.0369135391  3.6568706563  0.3007164564
H  -2.7192292569 -2.5874024713  0.3361212081
H  -3.8780641610 -1.8627334756  1.4600717917
H  -4.2272172054 -1.8778485039 -0.2699716823
H   2.4440399788 -2.4106439445  2.0079681604
H   5.0629531638 -2.6091224998  1.8201489963
H   10.2834910567 -0.6686843379 -0.9675863832
H   9.4786711213 -0.6975245588  1.3858671045
H   7.1006028552 -0.9340883675  1.9184512073
42
Scanning combination 30/73: [145.0982]  Energy = -2548.7124347740
C  -0.7011803079  0.9454014522  0.0345495547
C  -1.3560784981 -0.2898586118  0.2989873576
C  -2.7402462561 -0.4273552353  0.3149268350
C  -3.4928598920  0.7543405044  0.1765606452
C  -2.8370144472  1.9920906476 -0.0677325395
C  -1.4530504922  2.1154347306 -0.1742338717
C   0.7261640686  0.7948892451  0.0344854498
C   1.1490747415 -0.4661845390  0.3097275228
S  -0.1845301265 -1.5604189679  0.5840507263
C  -4.9226006892  0.9183475538  0.2529726302
C  -5.3231110379  2.1951152464  0.0772305411
S  -4.0040210249  3.2841067014 -0.1984645034
C  -0.7706720614  3.4191344203 -0.4792290741
C  -3.4194823844 -1.7594403272  0.4813470351
C   2.5257516820 -0.9262962036  0.4324428746
C   3.0553630313 -1.7759763022  1.3702445537
C   4.4628234946 -1.9047741852  1.2560694442
C   4.9966337264 -1.1766449278  0.2161847466
S   3.7508545997 -0.3104016660 -0.6213941458
C   6.4074749759 -1.0404547938 -0.1268587569
C   6.8620536659 -0.9356056080 -1.4862871367
C   8.2722748868 -0.8075555371 -1.7666445018
C   9.2245754533 -0.7388473634 -0.7099924616
C   8.7562209533 -0.8188832565  0.5678199596
C   7.3734688773 -0.9801207146  0.8536734414
N   6.1220895083 -0.9717052120 -2.5897943585
S   7.1362273620 -0.8645825760 -3.8441007034
N   8.5538354384 -0.7606772425 -3.0699664354
H   1.4142038435  1.6154241884 -0.1499906846
H  -5.6033190459  0.0945958363  0.4438706534
H  -6.3361223925  2.5777546199  0.0932930806
H  -0.2110198261  3.3560743971 -1.4210275850
H  -1.4832656774  4.2438528561 -0.5631352053
H  -0.0485963053  3.6715276918  0.3070927475
H  -2.7166460064 -2.5875103117  0.3597755012
H  -3.8803467261 -1.8529150431  1.4729501332
H  -4.2201430569 -1.8797883204 -0.2581554198
H   2.4511184874 -2.2792248708  2.1186996772
H   5.0587785156 -2.5477395817  1.8965973419
H   10.2773873289 -0.6198556592 -0.9442101018
H   9.4522949969 -0.7580912420  1.3992640475
H   7.0728366961 -1.0382809516  1.8948011655
42
Scanning combination 31/73: [150.0982]  Energy = -2548.7119236046
C  -0.7025525337  0.9441993636  0.0344085282
C  -1.3570921901 -0.2909127073  0.3004569686
C  -2.7411440890 -0.4274048296  0.3164017158
C  -3.4929844271  0.7546636490  0.1769024186
C  -2.8370447937  1.9923378472 -0.0675869818
C  -1.4530585451  2.1152243435 -0.1737511134
C   0.7240325081  0.7920079434  0.0306665916
C   1.1481906445 -0.4681407146  0.3063319167
S  -0.1851693877 -1.5627269184  0.5830566064
C  -4.9225718868  0.9185351646  0.2520541156
C  -5.3230966146  2.1952668220  0.0759524061
S  -4.0039169424  3.2842806677 -0.1996809865
C  -0.7699897263  3.4190353120 -0.4786065615
C  -3.4201065694 -1.7593553288  0.4830212024
C   2.5277959181 -0.9184147947  0.4361924319
C   3.0572792714 -1.7631659328  1.3776750093
C   4.4644040054 -1.8914283354  1.2650073455
C   4.9946880521 -1.2050094494  0.1969140067
S   3.7511973302 -0.3213556900 -0.6310149675
C   6.4087276422 -1.0683805041 -0.1329045678
C   6.8623643664 -0.9178365399 -1.4866870200
C   8.2725031913 -0.7918628866 -1.7657730135
C   9.2248401742 -0.7331844654 -0.7088758963
C   8.7543274815 -0.8226418677  0.5683933453
C   7.3714584320 -0.9984704551  0.8523574170
N   6.1212205342 -0.9586001802 -2.5889744843
S   7.1368949157 -0.8643463608 -3.8430879858
N   8.5540545970 -0.7549088384 -3.0691967869
H   1.4149333958  1.6100312162 -0.1507552267
H  -5.6024516217  0.0941793970  0.4431874305
H  -6.3362323146  2.5774113396  0.0919441290
H  -0.2098096493  3.3559065835 -1.4200720562
H  -1.4827022981  4.2434973518 -0.5637040947
H  -0.0482231561  3.6726791607  0.3077200024
H  -2.7163399017 -2.5867687711  0.3623767742
H  -3.8806532645 -1.8521324947  1.4747932775
H  -4.2200427192 -1.8806451021 -0.2571570538
H   2.4518617087 -2.2709508271  2.1211916036
H   5.0607314289 -2.5342208975  1.9040032086
H   10.2791942219 -0.6227815876 -0.9424741900
H   9.4502162562 -0.7630601120  1.4002317791
H   7.0714666344 -1.0416487257  1.8954629363
42
Scanning combination 32/73: [155.0982]  Energy = -2548.7122590596
C  -0.6995757982  0.9297583246  0.0191950887
C  -1.3573706906 -0.3014354409  0.2985665455
C  -2.7414316034 -0.4311166073  0.3277754618
C  -3.4887380230  0.7525337928  0.1794022910
C  -2.8301433510  1.9879552053 -0.0685674016
C  -1.4455299450  2.1064685757 -0.1761761873
C   0.7252160748  0.7651795616 -0.0041871472
C   1.1429859374 -0.4954905569  0.2755906821
S  -0.1903383764 -1.5809982301  0.5698950132
C  -4.9179261537  0.9177505715  0.2457911033
C  -5.3170331743  2.1935500470  0.0605514128
S  -3.9954981281  3.2806690619 -0.2115818931
C  -0.7608783152  3.4119017766 -0.4741089079
C  -3.4232475488 -1.7591120029  0.5105161342
C   2.5231231698 -0.9472074911  0.4015298314
C   3.0619799905 -1.6956742149  1.4148525957
C   4.4661739471 -1.8401965549  1.2965176430
C   4.9875195494 -1.2162394627  0.1850144445
S   3.7270218821 -0.4560325820 -0.7365519447
C   6.3988770727 -1.0841321557 -0.1497563357
C   6.8583067072 -0.9095271803 -1.5000998934
C   8.2671240535 -0.7492294978 -1.7638643657
C   9.2165422745 -0.7357239517 -0.7024224158
C   8.7451932691 -0.8988656397  0.5661717578
C   7.3620925293 -1.0752510238  0.8367030494
N   6.1240304341 -0.9102452110 -2.6083512508
S   7.1456743902 -0.7250434353 -3.8480183605
N   8.5548720888 -0.6300477409 -3.0608083155
H   1.4278669021  1.5704504453 -0.1969958492
H  -5.5972701442  0.0931338551  0.4363077282
H  -6.3302394177  2.5755473452  0.0667651773
H  -0.1898204061  3.3499660291 -1.4089986357
H  -1.4751028890  4.2339864099 -0.5694106570
H  -0.0489448756  3.6718210542  0.3194379859
H  -2.7187938022 -2.5880888904  0.4067846038
H  -3.8891890529 -1.8357231336  1.5010912253
H  -4.2180719461 -1.8916375419 -0.2333755155
H   2.4646243860 -2.0945866894  2.2285944522
H   5.0677749930 -2.4212954630  1.9879229891
H   10.2694625776 -0.5963341607 -0.9238431894
H   9.4357148084 -0.8915862665  1.4051415871
H   7.0601666956 -1.1809501112  1.8733996441
42
Scanning combination 33/73: [160.0982]  Energy = -2548.7116026634
C  -0.6990786466  0.9303508883  0.0197752828
C  -1.3572068715 -0.3010424804  0.2962806180
C  -2.7414509985 -0.4313990621  0.3270072619
C  -3.4892877555  0.7519200590  0.1794791436
C  -2.8300463041  1.9867967468 -0.0697878406
C  -1.4455347534  2.1059473776 -0.1774269752
C   0.7261493836  0.7669540603 -0.0044088385
C   1.1441406244 -0.4946163654  0.2707995919
S  -0.1898653241 -1.5792615349  0.5703301037
C  -4.9188543722  0.9176774306  0.2460144432
C  -5.3171770075  2.1936721208  0.0600593350
S  -3.9947439360  3.2798736896 -0.2120893622
C  -0.7606995704  3.4108948588 -0.4746378421
C  -3.4237410891 -1.7592197890  0.5120907096
C   2.5253070332 -0.9439044905  0.4023990839
C   3.0636485014 -1.6820777405  1.4236267344
C   4.4674732286 -1.8260263286  1.3076973929
C   4.9870639545 -1.2482431529  0.1709122898
S   3.7299208664 -0.4687671960 -0.7414802597
C   6.4001867154 -1.1130240886 -0.1550384395
C   6.8582551807 -0.8926970027 -1.4987778082
C   8.2677049942 -0.7378934141 -1.7630685949
C   9.2169984868 -0.7313454325 -0.7016728072
C   8.7432280051 -0.8993191452  0.5660231666
C   7.3608280565 -1.0912230957  0.8344950431
N   6.1223876671 -0.8879696273 -2.6058002041
S   7.1455701631 -0.7226184710 -3.8469800205
N   8.5555976103 -0.6303187132 -3.0609918666
H   1.4249396855  1.5748446400 -0.2008367821
H  -5.5996384363  0.0938891919  0.4360360206
H  -6.3303053264  2.5762702356  0.0658882414
H  -0.1887249714  3.3482193359 -1.4089425309
H  -1.4745342367  4.2333806977 -0.5696065184
H  -0.0496855181  3.6685848500  0.3203763844
H  -2.7207042845 -2.5894560546  0.4093822027
H  -3.8910528145 -1.8353449051  1.5021308224
H  -4.2189297029 -1.8924270725 -0.2311482334
H   2.4647926823 -2.0958288673  2.2284218094
H   5.0678782561 -2.4093054981  1.9973392714
H   10.2711174468 -0.5999781228 -0.9242430813
H   9.4349512800 -0.8922885744  1.4034576923
H   7.0603221903 -1.1847791369  1.8733155412
42
Scanning combination 34/73: [165.0982]  Energy = -2548.7111742848
C  -0.6953786914  0.9273064615  0.0098513561
C  -1.3530914738 -0.3032563710  0.2914435677
C  -2.7384161798 -0.4337276095  0.3277362817
C  -3.4886673062  0.7482226992  0.1767521474
C  -2.8295052071  1.9826386843 -0.0753235396
C  -1.4448550301  2.1014821449 -0.1837908346
C   0.7324956561  0.7671298318 -0.0188083981
C   1.1516218513 -0.4948176802  0.2600078659
S  -0.1815937755 -1.5772755581  0.5630282494
C  -4.9189327125  0.9159628344  0.2440471661
C  -5.3160314340  2.1922157636  0.0560203597
S  -3.9930278859  3.2764885359 -0.2188701226
C  -0.7591317892  3.4060808768 -0.4765687758
C  -3.4237843271 -1.7589853623  0.5225498563
C   2.5276873543 -0.9705643693  0.3822703742
C   3.0658883108 -1.6496239409  1.4443139910
C   4.4690439969 -1.8042283987  1.3363402549
C   4.9876952515 -1.2864218804  0.1681134196
S   3.7225611905 -0.5960016683 -0.8056558608
C   6.3984446643 -1.1412143216 -0.1632338353
C   6.8545005169 -0.8882901742 -1.5039962765
C   8.2644696251 -0.7327157814 -1.7648542907
C   9.2134656769 -0.7436272667 -0.7025099795
C   8.7401227812 -0.9318371389  0.5613486448
C   7.3607169464 -1.1424709423  0.8238005360
N   6.1162249847 -0.8252104441 -2.6092672954
S   7.1403292412 -0.6112276525 -3.8423518505
N   8.5523763216 -0.5770633228 -3.0575009942
H   1.4249876116  1.5794005164 -0.2219321768
H  -5.6036842544  0.0956693170  0.4353626206
H  -6.3285098966  2.5768800116  0.0612213995
H  -0.1827083459  3.3425833711 -1.4080134216
H  -1.4704312719  4.2304510928 -0.5730863086
H  -0.0513410661  3.6588979063  0.3227678196
H  -2.7241668533 -2.5931517611  0.4285920426
H  -3.8945905086 -1.8244021177  1.5117867410
H  -4.2188131059 -1.8953822464 -0.2204731213
H   2.4687032673 -1.9988964210  2.2803822171
H   5.0655676554 -2.3291036054  2.0750329514
H   10.2650681082 -0.5857562555 -0.9197289505
H   9.4275734315 -0.9202155646  1.4025980879
H   7.0643167564 -1.2870413774  1.8569982729
42
Scanning combination 35/73: [170.0982]  Energy = -2548.7099959010
C  -0.6959202870  0.9254473662  0.0094123804
C  -1.3543255531 -0.3044706612  0.2916952019
C  -2.7391279927 -0.4336813060  0.3282039312
C  -3.4879641862  0.7486815567  0.1765211814
C  -2.8282065859  1.9825733805 -0.0761390989
C  -1.4435044472  2.1008667910 -0.1843695039
C   0.7305970943  0.7610423435 -0.0225262591
C   1.1486468555 -0.5009232107  0.2523397458
S  -0.1853084045 -1.5817360518  0.5621154750
C  -4.9178956416  0.9159735873  0.2434609946
C  -5.3148950527  2.1920807931  0.0551785470
S  -3.9917676662  3.2763754086 -0.2201287194
C  -0.7577774532  3.4058625663 -0.4768855351
C  -3.4238044128 -1.7587370137  0.5239591674
C   2.5289253581 -0.9620393834  0.3840862592
C   3.0676020678 -1.6294791341  1.4529492111
C   4.4695832421 -1.7865633357  1.3437759090
C   4.9857648348 -1.3156068786  0.1554302314
S   3.7213854477 -0.6051262591 -0.8121553678
C   6.3989617550 -1.1715087270 -0.1686656898
C   6.8524466651 -0.8702443218 -1.4999779932
C   8.2619314773 -0.7148638052 -1.7615550329
C   9.2126973543 -0.7335047938 -0.7015249966
C   8.7398102811 -0.9399001400  0.5596682494
C   7.3609662009 -1.1634115359  0.8207349764
N   6.1136626804 -0.8093880141 -2.6049071351
S   7.1386776744 -0.6110128660 -3.8399018712
N   8.5498498426 -0.5652691563 -3.0546727347
H   1.4275057151  1.5698273577 -0.2227961987
H  -5.6013530814  0.0947275997  0.4354474841
H  -6.3275712097  2.5759884184  0.0606271108
H  -0.1813055036  3.3433084721 -1.4083250245
H  -1.4699282967  4.2295554858 -0.5738040479
H  -0.0501796522  3.6600711563  0.3222674712
H  -2.7235429630 -2.5925250910  0.4313574799
H  -3.8939781796 -1.8226680344  1.5134893913
H  -4.2181055203 -1.8963924547 -0.2195178292
H   2.4688210870 -1.9890197461  2.2835973523
H   5.0669867210 -2.3131346874  2.0810599542
H   10.2664061502 -0.5908903076 -0.9204465868
H   9.4278767508 -0.9319246914  1.4005480311
H   7.0645569192 -1.2894598645  1.8567740804
42
Scanning combination 36/73: [175.0982]  Energy = -2548.7100931162
C  -0.6897532614  0.9046301866 -0.0171811759
C  -1.3526763685 -0.3215310151  0.2740305011
C  -2.7360752108 -0.4419833140  0.3277392830
C  -3.4786177173  0.7429882047  0.1724859826
C  -2.8147964186  1.9732345284 -0.0863475829
C  -1.4300745899  2.0865015759 -0.1991775039
C   0.7331571276  0.7253687153 -0.0647345736
C   1.1402944559 -0.5379767368  0.2169721632
S  -0.1937625321 -1.6099433404  0.5333607439
C  -4.9071390373  0.9144693909  0.2407815285
C  -5.3003239692  2.1906519430  0.0467334495
S  -3.9741552256  3.2701008916 -0.2327715930
C  -0.7424396939  3.3928655039 -0.4848534661
C  -3.4240438111 -1.7608970795  0.5450053987
C   2.5194280302 -0.9910846173  0.3679319582
C   3.0697210658 -1.5395797689  1.4967327118
C   4.4700369407 -1.7030666696  1.3896539990
C   4.9765337704 -1.3064292299  0.1705976796
S   3.6930408570 -0.7528223628 -0.8710368189
C   6.3866842459 -1.1878227852 -0.1710392363
C   6.8349461093 -0.8651655253 -1.4996344561
C   8.2386234351 -0.6570342617 -1.7517918928
C   9.1984528632 -0.7387410258 -0.7028933761
C   8.7386661366 -1.0412104759  0.5432595534
C   7.3614324823 -1.2710435225  0.8021830790
N   6.0918707607 -0.7559915608 -2.5983239568
S   7.1064564977 -0.4301003566 -3.8140345825
N   8.5167721483 -0.3975882927 -3.0291839933
H   1.4427022742  1.5202751058 -0.2738023063
H  -5.5914020516  0.0948349347  0.4364556591
H  -6.3120931605  2.5764763227  0.0490246500
H  -0.1613993020  3.3356360313 -1.4138680569
H  -1.4562291896  4.2151495721 -0.5827096980
H  -0.0399668562  3.6477941750  0.3188123648
H  -2.7267483491 -2.5988246784  0.4709555096
H  -3.8969904517 -1.8033917741  1.5341180273
H  -4.2150645031 -1.9093193267 -0.1994622228
H   2.4831520726 -1.7750441726  2.3778676382
H   5.0739092118 -2.1444920146  2.1734564787
H   10.2470682925 -0.5608529774 -0.9195740398
H   9.4370103497 -1.1051437846  1.3733446865
H   7.0809926608 -1.4849956179  1.8273176911
42
Scanning combination 37/73: [180.0982]  Energy = -2548.7089764231
C  -0.6900487793  0.9027944746 -0.0208021827
C  -1.3529907818 -0.3230281539  0.2720864717
C  -2.7376059130 -0.4428000369  0.3278206794
C  -3.4800445886  0.7428126551  0.1718972461
C  -2.8159687509  1.9729494381 -0.0875485318
C  -1.4310751200  2.0846647519 -0.2017531398
C   0.7343183478  0.7265622818 -0.0651581097
C   1.1439204295 -0.5351993855  0.2175742526
S  -0.1904393254 -1.6086325421  0.5334259816
C  -4.9086645883  0.9153758863  0.2401596674
C  -5.3018203945  2.1917493981  0.0461461527
S  -3.9753104541  3.2706037038 -0.2342125804
C  -0.7420180670  3.3905144338 -0.4855970861
C  -3.4271853292 -1.7617008199  0.5466445387
C   2.5246586198 -0.9904532443  0.3667949825
C   3.0732453856 -1.5247513721  1.5021762210
C   4.4724119925 -1.6921497055  1.3987437522
C   4.9802559815 -1.3448328708  0.1637572353
S   3.7025478635 -0.7554520510 -0.8692828234
C   6.3898887675 -1.2128682697 -0.1765251654
C   6.8326760757 -0.8426499793 -1.4953785266
C   8.2370019021 -0.6449223986 -1.7517274990
C   9.1976813406 -0.7359540358 -0.7041912524
C   8.7396758548 -1.0456864065  0.5404483964
C   7.3636084096 -1.2820452055  0.7987326391
N   6.0885383260 -0.7325505445 -2.5939175423
S   7.1038617483 -0.4259828226 -3.8137200751
N   8.5158194398 -0.3989849287 -3.0316822345
H   1.4400129494  1.5244269961 -0.2789391458
H  -5.5926777063  0.0958576608  0.4363194920
H  -6.3133121856  2.5785129104  0.0490375931
H  -0.1603935992  3.3326969491 -1.4140077059
H  -1.4540600709  4.2142123648 -0.5836471938
H  -0.0391895178  3.6445300542  0.3180860476
H  -2.7285139537 -2.5986255487  0.4732941050
H  -3.9009894419 -1.8043590195  1.5356798175
H  -4.2188504078 -1.9125313317 -0.1972636422
H   2.4801583277 -1.7761914030  2.3765776934
H   5.0737978582 -2.1286460416  2.1876364530
H   10.2474318463 -0.5646062974 -0.9188567593
H   9.4352865214 -1.1118449759  1.3729704594
H   7.0815610764 -1.4919137737  1.8246015253
42
Scanning combination 38/73: [185.0982]  Energy = -2548.7101774567
C  -0.7141079215  0.8447915451 -0.0912545132
C  -1.3724210732 -0.3675036621  0.2552707044
C  -2.7588219640 -0.4707450576  0.3275198265
C  -3.4954851862  0.7157065365  0.1332656929
C  -2.8263598419  1.9331677017 -0.1715981953
C  -1.4437486967  2.0271685759 -0.2978788839
C   0.7087521145  0.6814838436 -0.1223480578
C   1.1342630922 -0.5510316996  0.2467274381
S  -0.1947653789 -1.6274827964  0.5917983345
C  -4.9211481678  0.9068685422  0.2200651573
C  -5.3032992020  2.1831496472  0.0004100858
S  -3.9715165153  3.2403233339 -0.3326893926
C  -0.7223678078  3.3115909174 -0.5904435822
C  -3.4588385125 -1.7693063031  0.6203406937
C   2.5289658266 -0.9434521951  0.4441791305
C   3.0938854817 -1.4112433897  1.6018790926
C   4.5048268280 -1.5103823224  1.5195160020
C   5.0018491348 -1.1628402215  0.2794590268
S   3.7072836899 -0.6627869962 -0.7796331272
C   6.4023124152 -1.1290013437 -0.1234103014
C   6.8159017782 -0.6461688907 -1.4168126153
C   8.2187331021 -0.5558132020 -1.7355373905
C   9.2170360817 -0.9014141283 -0.7797517211
C   8.7902954257 -1.3700827955  0.4264589244
C   7.4110808086 -1.5003952252  0.7415540710
N   6.0340247423 -0.2832224344 -2.4316072698
S   7.0129178132  0.1176390751 -3.6524327073
N   8.4557404241 -0.1357344819 -2.9783391343
H   1.3979719945  1.4755284331 -0.3926978075
H  -5.6112575083  0.1011621612  0.4491329200
H  -6.3084893307  2.5852504172  0.0156794343
H  -0.1380009376  3.2289433914 -1.5151410014
H  -1.4064981746  4.1572417400 -0.6914656151
H  -0.0137263320  3.5408710607  0.2158007903
H  -2.7609110324 -2.6099304346  0.6177637499
H  -3.9515646342 -1.7410782446  1.6009506081
H  -4.2384704417 -1.9666685407 -0.1257660738
H   2.5009735603 -1.6558000741  2.4770477724
H   5.1242633682 -1.8144480394  2.3569589837
H   10.2676472206 -0.7977654004 -1.0333948017
H   9.5160648850 -1.6518987721  1.1848911732
H   7.1642089550 -1.9157894807  1.7119327553
42
Scanning combination 39/73: [190.0982]  Energy = -2548.7100552374
C  -0.7016027934  0.8596451492 -0.0685970653
C  -1.3619847477 -0.3519472881  0.2830378803
C  -2.7480585621 -0.4659219737  0.3474224358
C  -3.4899114312  0.7146247764  0.1439471930
C  -2.8232507665  1.9312271560 -0.1686436989
C  -1.4394843922  2.0350136918 -0.2905839205
C   0.7227240862  0.6896299128 -0.1064952101
C   1.1395594950 -0.5493990999  0.2532871725
S  -0.1900871434 -1.6152384007  0.6137946756
C  -4.9176218002  0.8998130618  0.2199234467
C  -5.3041205307  2.1721253017 -0.0133543529
S  -3.9747747781  3.2301069577 -0.3513861416
C  -0.7387807963  3.3262700092 -0.6071711295
C  -3.4460972622 -1.7689534890  0.6292440431
C   2.5279382895 -0.9694327123  0.4354378940
C   3.0994365481 -1.3944355687  1.6057150637
C   4.5049397969 -1.5220869643  1.5084512727
C   4.9939685123 -1.2303694812  0.2505896560
S   3.6910636689 -0.7836120504 -0.8201932930
C   6.3951369549 -1.1589581790 -0.1422537887
C   6.8137296605 -0.6417197102 -1.4212109784
C   8.2184533200 -0.5420523424 -1.7268702744
C   9.2101772556 -0.9205521405 -0.7780827973
C   8.7789944721 -1.3979338843  0.4221772110
C   7.3986643151 -1.5153131765  0.7341530559
N   6.0406168247 -0.2469945883 -2.4307448967
S   7.0297797377  0.2018478982 -3.6264789252
N   8.4674968821 -0.0747863249 -2.9495542511
H   1.4202211357  1.4786477767 -0.3743486109
H  -5.6091580642  0.0955083954  0.4500164309
H  -6.3116036729  2.5691065160 -0.0017315761
H  -0.1642783163  3.2418029280 -1.5378347849
H  -1.4384475772  4.1591730663 -0.7142222605
H  -0.0254438445  3.5815282981  0.1868074583
H  -2.7520043736 -2.6128642934  0.6258091786
H  -3.9466357530 -1.7482563830  1.6058715241
H  -4.2212500483 -1.9620266142 -0.1225413632
H   2.5214457318 -1.5733520975  2.5064782042
H   5.1220382294 -1.8216087952  2.3476852355
H   10.2603437802 -0.8175747861 -1.0299155271
H   9.5019912891 -1.6978322691  1.1760551197
H   7.1430767397 -1.9039475112  1.7127108588
42
Scanning combination 40/73: [195.0982]  Energy = -2548.7088944668
C  -0.7024888866  0.8596707624 -0.0672824510
C  -1.3625352233 -0.3517145614  0.2849266931
C  -2.7483490885 -0.4650776752  0.3480835889
C  -3.4895943883  0.7154719069  0.1440287451
C  -2.8233084256  1.9321274784 -0.1687644584
C  -1.4396172279  2.0353282829 -0.2904354468
C   0.7210917888  0.6879628939 -0.1067106304
C   1.1383544512 -0.5510939240  0.2506468204
S  -0.1913285328 -1.6159015731  0.6159059387
C  -4.9170629271  0.8993883513  0.2202959964
C  -5.3043012008  2.1715030655 -0.0140032310
S  -3.9755263076  3.2304407154 -0.3516327033
C  -0.7390012489  3.3261455471 -0.6090095372
C  -3.4453456764 -1.7682406410  0.6299904560
C   2.5286371078 -0.9648288351  0.4367345401
C   3.1016788383 -1.3754376536  1.6105203005
C   4.5078050630 -1.5047419025  1.5129462999
C   4.9915679560 -1.2625497278  0.2420255542
S   3.6896019547 -0.7934558486 -0.8226281278
C   6.3925842910 -1.1889214808 -0.1547895060
C   6.8139745243 -0.6267019885 -1.4136902002
C   8.2188876690 -0.5285050651 -1.7207247758
C   9.2111085732 -0.9166935273 -0.7759485190
C   8.7780817663 -1.4000388614  0.4209493456
C   7.3976824601 -1.5327251652  0.7258380670
N   6.0406619776 -0.2310186875 -2.4234462026
S   7.0293360117  0.2041894149 -3.6247501888
N   8.4671525390 -0.0712208843 -2.9478105366
H   1.4192622123  1.4770234110 -0.3721082862
H  -5.6067840820  0.0938608470  0.4510639188
H  -6.3119841216  2.5673413623 -0.0054755989
H  -0.1651412402  3.2412330759 -1.5401474041
H  -1.4400235163  4.1579030967 -0.7162099157
H  -0.0257053686  3.5823893372  0.1847432249
H  -2.7492896106 -2.6104902519  0.6267262109
H  -3.9450972563 -1.7472913869  1.6069817738
H  -4.2200911250 -1.9628156064 -0.1218575659
H   2.5208535557 -1.5718698614  2.5061196603
H   5.1247352461 -1.8100085769  2.3497671106
H   10.2620648647 -0.8224746945 -1.0301076964
H   9.5012270692 -1.6979195765  1.1763154918
H   7.1434256060 -1.9113408213  1.7093234107
42
Scanning combination 41/73: [200.0982]  Energy = -2548.7089483494
C  -0.6979422716  0.8523334790 -0.0666911701
C  -1.3590926473 -0.3570398370  0.2921442886
C  -2.7444112581 -0.4687090896  0.3665617303
C  -3.4850877982  0.7096323622  0.1523529350
C  -2.8191153615  1.9223616780 -0.1750161010
C  -1.4356121834  2.0250514288 -0.3019018671
C   0.7251594836  0.6793556082 -0.1027127631
C   1.1385280536 -0.5597669318  0.2588520890
S  -0.1908208131 -1.6237261643  0.6229041598
C  -4.9132339136  0.8905468824  0.2173679304
C  -5.3033736047  2.1566292880 -0.0403898368
S  -3.9740027581  3.2147411412 -0.3819779902
C  -0.7429273539  3.3133549330 -0.6464578123
C  -3.4388252834 -1.7707698304  0.6624481587
C   2.5302103904 -0.9621959556  0.4502844849
C   3.1192540998 -1.2868519201  1.6431522688
C   4.5230803780 -1.4264618585  1.5340334517
C   4.9868912926 -1.2457992149  0.2471008257
S   3.6709693000 -0.8734435565 -0.8350075061
C   6.3814572148 -1.2118506173 -0.1685389576
C   6.8073715611 -0.6161237594 -1.4080621603
C   8.2136455541 -0.4680347208 -1.6855132482
C   9.1994821343 -0.9259275280 -0.7655333179
C   8.7606596899 -1.5352573918  0.3725315110
C   7.3782624647 -1.6745993933  0.6652238618
N   6.0381650898 -0.1726179970 -2.4006579559
S   7.0319604288  0.3883424214 -3.5443583660
N   8.4667828709  0.1050730773 -2.8624988261
H   1.4261728278  1.4627198600 -0.3774966491
H  -5.5989718447  0.0832995967  0.4559642073
H  -6.3135470844  2.5482665069 -0.0507864354
H  -0.1776985097  3.2146328942 -1.5812862416
H  -1.4512741755  4.1377287785 -0.7627313197
H  -0.0244622384  3.5901553021  0.1354525339
H  -2.7389867799 -2.6096207496  0.6678835576
H  -3.9411095183 -1.7456040560  1.6381148866
H  -4.2114396207 -1.9782876993 -0.0881330552
H   2.5550695066 -1.3687820600  2.5659183774
H   5.1625540417 -1.6256447789  2.3873337031
H   10.2517807090 -0.7927357159 -0.9947128568
H   9.4788359958 -1.9280693267  1.0873612957
H   7.1128420204 -2.1674043610  1.5938783411
42
Scanning combination 42/73: [205.0982]  Energy = -2548.7078906053
C  -0.7009831287  0.8526494239 -0.0671597229
C  -1.3594739793 -0.3566702391  0.2962976626
C  -2.7445398465 -0.4696754778  0.3665643795
C  -3.4861628207  0.7082167550  0.1501175003
C  -2.8219660216  1.9223151029 -0.1766078323
C  -1.4386687786  2.0255612738 -0.3023770063
C   0.7221287706  0.6797749585 -0.1069954927
C   1.1381769060 -0.5568667924  0.2594886573
S  -0.1885341038 -1.6215949283  0.6250049472
C  -4.9137773993  0.8896154394  0.2168635833
C  -5.3036971200  2.1559925474 -0.0400879613
S  -3.9765727202  3.2149087746 -0.3830097121
C  -0.7434679144  3.3126654283 -0.6480263870
C  -3.4382291894 -1.7714366852  0.6627961394
C   2.5292423000 -0.9623716262  0.4518157975
C   3.1219717812 -1.2655698835  1.6483488498
C   4.5253373811 -1.4085390805  1.5364820269
C   4.9869075880 -1.2772112488  0.2427840741
S   3.6697991631 -0.8916046455 -0.8350418842
C   6.3804256300 -1.2388608457 -0.1818958580
C   6.8078466839 -0.5993081619 -1.3989544645
C   8.2142190483 -0.4594097323 -1.6806842666
C   9.2002736074 -0.9265068840 -0.7660828370
C   8.7613430650 -1.5382318341  0.3693206020
C   7.3792975603 -1.6883889425  0.6570077751
N   6.0395678135 -0.1508549379 -2.3905394555
S   7.0343355351  0.3965272442 -3.5396747486
N   8.4688554785  0.0999661008 -2.8635269900
H   1.4238995332  1.4639600831 -0.3756533623
H  -5.6006577483  0.0842209347  0.4563831773
H  -6.3132402178  2.5471258471 -0.0512112377
H  -0.1774485148  3.2145017630 -1.5828205457
H  -1.4495158626  4.1387254763 -0.7649802972
H  -0.0250233098  3.5881834471  0.1345123739
H  -2.7383676517 -2.6104718349  0.6694928138
H  -3.9389119283 -1.7419294983  1.6390843970
H  -4.2107612453 -1.9778014754 -0.0882457760
H   2.5556255930 -1.3728051545  2.5676371939
H   5.1637647238 -1.6164676112  2.3879065952
H   10.2525733636 -0.7986527308 -0.9968751396
H   9.4787139003 -1.9214113516  1.0895500773
H   7.1128941635 -2.1733682746  1.5893925162
42
Scanning combination 43/73: [210.0982]  Energy = -2548.7105201536
C  -0.7336948752  0.8682650069 -0.0582050348
C  -1.3537916414 -0.3226135480  0.4139781762
C  -2.7368550353 -0.4847380386  0.4476190465
C  -3.5160604261  0.6408443670  0.1119163638
C  -2.8863947103  1.8409054830 -0.3172265825
C  -1.5061503169  1.9797417556 -0.4311187585
C   0.6950865690  0.7612143916 -0.0520873382
C   1.1588925417 -0.4141872773  0.4375883759
S  -0.1352373503 -1.4868617437  0.9091484517
C  -4.9494131671  0.7861567296  0.1580848022
C  -5.3738837404  2.0176827853 -0.1968633987
S  -4.0752387388  3.0770422008 -0.6366027923
C  -0.8371945674  3.2445335962 -0.8897616184
C  -3.3980213504 -1.7804765697  0.8299590415
C   2.5668965670 -0.7566554406  0.6223146076
C   3.1903197829 -1.1299830927  1.7831253598
C   4.5968837189 -1.2355314763  1.6351925666
C   5.0340560387 -0.9846957981  0.3526188441
S   3.6984969165 -0.5480132537 -0.6662912995
C   6.4091681828 -1.0640741311 -0.1276778675
C   6.9281004924 -0.2523321738 -1.1971235530
C   8.2922712325 -0.4329408720 -1.6383255439
C   9.1462783312 -1.3887297260 -1.0156748182
C   8.6371192996 -2.0981392186  0.0303865452
C   7.2994901074 -1.9278046819  0.4746107243
N   6.2897761282  0.6906623548 -1.8828272856
S   7.3394596113  1.2827160212 -2.9614439591
N   8.6412837862  0.3786524785 -2.6378089710
H   1.3600668923  1.5530829975 -0.3837202845
H  -5.6148125498 -0.0159683245  0.4604340453
H  -6.3929252432  2.3844314590 -0.2145413509
H  -0.2627044633  3.0690287669 -1.8070538473
H  -1.5545487470  4.0445368327 -1.0895245331
H  -0.1232179152  3.5990925660 -0.1351470047
H  -2.6742761391 -2.5937199323  0.9195071259
H  -3.9184483362 -1.6892867857  1.7914805737
H  -4.1508435965 -2.0663817142  0.0841505540
H   2.6481180761 -1.3088881741  2.7061220485
H   5.2667623948 -1.4687271872  2.4560863053
H   10.1630675463 -1.5190118668 -1.3726286369
H   9.2619734464 -2.8184229962  0.5510252801
H   6.9673452182 -2.5315052172  1.3127057760
42
Scanning combination 44/73: [215.0982]  Energy = -2548.7107611352
C  -0.7240693145  0.8978137157 -0.0604337253
C  -1.3355480306 -0.2922288660  0.4264187811
C  -2.7151193416 -0.4652317663  0.4790669435
C  -3.5046706882  0.6490761153  0.1351399939
C  -2.8883854621  1.8506714538 -0.3098635932
C  -1.5092800532  2.0012616941 -0.4343375044
C   0.7049977813  0.7840167930 -0.0758876313
C   1.1701247531 -0.3886359082  0.4215204276
S  -0.1165372935 -1.4546287711  0.9156818422
C  -4.9401008058  0.7713115915  0.1669877190
C  -5.3807717666  1.9862647535 -0.2236633503
S  -4.0951246381  3.0612396510 -0.6627388681
C  -0.8660233327  3.2689836208 -0.9217510752
C  -3.3555899336 -1.7668311850  0.8784743185
C   2.5728245900 -0.7377591690  0.6150989763
C   3.1910159331 -1.0864970274  1.7865528348
C   4.5909675906 -1.2536722735  1.6336641350
C   5.0249386446 -1.0496699442  0.3418595620
S   3.6985895157 -0.5963599392 -0.6832379195
C   6.3944288921 -1.1455869843 -0.1482876932
C   6.9082185320 -0.2881873147 -1.1812644512
C   8.2950379210 -0.3802786871 -1.5668795036
C   9.1621492943 -1.3385362803 -0.9683910633
C   8.6351381150 -2.1527102227 -0.0110275329
C   7.2788575173 -2.0499918531  0.4005422251
N   6.2455863705  0.6370843512 -1.8706704949
S   7.3063325776  1.3203299635 -2.8808927506
N   8.6427672918  0.4857861790 -2.5192111604
H   1.3723537998  1.5621227453 -0.4329196511
H  -5.5952010150 -0.0351469028  0.4804970210
H  -6.4059063281  2.3296630478 -0.2810575311
H  -0.2923977763  3.0882917520 -1.8395647507
H  -1.6047679149  4.0472009041 -1.1298578459
H  -0.1629700670  3.6583374542 -0.1746710974
H  -2.6202655400 -2.5699810188  0.9675374177
H  -3.8775914431 -1.6790168945  1.8398526045
H  -4.1026135801 -2.0724286193  0.1358092223
H   2.6509427578 -1.1859481316  2.7220564215
H   5.2578448866 -1.4832318614  2.4583289216
H   10.1988845203 -1.3945184934 -1.2843687174
H   9.2594106770 -2.9085778160  0.4572713955
H   6.9287223357 -2.7248992733  1.1750172539
42
Scanning combination 45/73: [220.0982]  Energy = -2548.7098037356
C  -0.7252899251  0.8977309310 -0.0618150817
C  -1.3359362218 -0.2915612804  0.4282667780
C  -2.7155337858 -0.4653188382  0.4795043442
C  -3.5055512611  0.6486178601  0.1341287817
C  -2.8901286105  1.8504824769 -0.3115996981
C  -1.5110419048  2.0010789306 -0.4361780698
C   0.7043147990  0.7847244221 -0.0772602339
C   1.1700229965 -0.3858001095  0.4230233725
S  -0.1157906602 -1.4529752377  0.9173844384
C  -4.9408138444  0.7712528633  0.1666837857
C  -5.3818350052  1.9854614333 -0.2236331102
S  -4.0971895567  3.0613363113 -0.6631391706
C  -0.8668967155  3.2688579501 -0.9227101978
C  -3.3555875464 -1.7668652142  0.8796454471
C   2.5729950978 -0.7363034536  0.6181531190
C   3.1960290318 -1.0709538384  1.7910488072
C   4.5953407609 -1.2418212677  1.6338402540
C   5.0194741911 -1.0828759998  0.3324128487
S   3.6932568615 -0.6138711997 -0.6860131491
C   6.3867591137 -1.1657470445 -0.1694420373
C   6.9118496308 -0.2765044303 -1.1696091067
C   8.2970884114 -0.3756537008 -1.5616844040
C   9.1632948203 -1.3356608400 -0.9652822837
C   8.6351126933 -2.1540879057 -0.0123868451
C   7.2751887585 -2.0607098015  0.3885255334
N   6.2524876026  0.6540399236 -1.8550903218
S   7.3092636952  1.3255596440 -2.8767180215
N   8.6429075222  0.4839670849 -2.5207905010
H   1.3707305685  1.5654325874 -0.4326834999
H  -5.5955294840 -0.0353251392  0.4814733714
H  -6.4073415893  2.3285359935 -0.2826637111
H  -0.2928587361  3.0887876175 -1.8401904780
H  -1.6040859628  4.0481079530 -1.1323607941
H  -0.1632424824  3.6575121884 -0.1757197191
H  -2.6187668576 -2.5686821688  0.9703905661
H  -3.8757524955 -1.6760594332  1.8417337468
H  -4.1033660190 -2.0731626645  0.1375278324
H   2.6539738718 -1.1895289778  2.7231822236
H   5.2629607492 -1.4730468830  2.4578083288
H   10.1984006172 -1.3975707210 -1.2844027319
H   9.2616723000 -2.9019658937  0.4650216901
H   6.9266145418 -2.7305335432  1.1680180051
42
Scanning combination 46/73: [225.0982]  Energy = -2548.7089351767
C  -0.7273350035  0.9013556119 -0.0631675496
C  -1.3387192007 -0.2862644641  0.4298449636
C  -2.7177671523 -0.4623100902  0.4807446737
C  -3.5091423993  0.6487477533  0.1311386057
C  -2.8948367288  1.8497996518 -0.3186662543
C  -1.5153043087  2.0017095825 -0.4431528819
C   0.7038887087  0.7881838353 -0.0727436147
C   1.1663972455 -0.3829703878  0.4321686427
S  -0.1208649165 -1.4436080719  0.9294014564
C  -4.9445477074  0.7695683593  0.1653367190
C  -5.3873201506  1.9816916786 -0.2277679303
S  -4.1041149114  3.0583546613 -0.6710266415
C  -0.8711791418  3.2689313610 -0.9306300900
C  -3.3543556342 -1.7626625539  0.8897788534
C   2.5646300165 -0.7617105639  0.6180017534
C   3.2074106668 -1.0473127462  1.7934988173
C   4.6043824246 -1.2239441016  1.6185990632
C   5.0093251008 -1.1219172829  0.3070235599
S   3.6586160445 -0.7472814870 -0.7156621596
C   6.3799291529 -1.1930219133 -0.1908602495
C   6.9137538051 -0.2787504412 -1.1633452533
C   8.2990415516 -0.3783808345 -1.5595380233
C   9.1631566370 -1.3437730090 -0.9693873883
C   8.6336275740 -2.1679128988 -0.0219524860
C   7.2667772559 -2.0944973841  0.3587575399
N   6.2698214032  0.6914121248 -1.8058952811
S   7.3317279751  1.3880656239 -2.8044657949
N   8.6530808700  0.5082518738 -2.4908190875
H   1.3701225029  1.5676412234 -0.4316179055
H  -5.5975620150 -0.0372365076  0.4841055992
H  -6.4138042858  2.3227553068 -0.2873317639
H  -0.2953061204  3.0876067547 -1.8467756977
H  -1.6072551415  4.0489842001 -1.1415119076
H  -0.1684054815  3.6565110176 -0.1822460659
H  -2.6158107876 -2.5624245158  0.9837876569
H  -3.8719649106 -1.6671887264  1.8527158882
H  -4.1031522088 -2.0757164001  0.1517975238
H   2.6893335712 -1.1108467340  2.7443925130
H   5.2928924422 -1.4092367369  2.4364076002
H   10.2052170078 -1.3859857398 -1.2688668255
H   9.2664944483 -2.9010351413  0.4699998799
H   6.9063217702 -2.7946812896  1.1063296488
42
Scanning combination 47/73: [230.0982]  Energy = -2548.7081241065
C  -0.7265516557  0.8943200111 -0.0593245735
C  -1.3418989407 -0.2899018140  0.4379622587
C  -2.7215143181 -0.4615696904  0.4925635166
C  -3.5103090413  0.6481351000  0.1344697813
C  -2.8934267398  1.8451007468 -0.3215744232
C  -1.5129064116  1.9951319625 -0.4433226878
C   0.7041621511  0.7716535687 -0.0728934305
C   1.1613566571 -0.4028885448  0.4275985850
S  -0.1291756578 -1.4551983162  0.9323753245
C  -4.9457141112  0.7690897601  0.1631003004
C  -5.3872243496  1.9795517303 -0.2396080793
S  -4.1017799355  3.0511644226 -0.6880430028
C  -0.8732284778  3.2621459002 -0.9385925040
C  -3.3602041407 -1.7584469419  0.9088521837
C   2.5618254572 -0.7788078644  0.6099681679
C   3.2223907729 -0.9871180841  1.7913961719
C   4.6144799783 -1.1879208478  1.6066566788
C   5.0035594076 -1.1466987852  0.2881693743
S   3.6353111762 -0.8625453885 -0.7395539288
C   6.3758576649 -1.2165484030 -0.2078399385
C   6.9155197500 -0.2776107204 -1.1515680643
C   8.3087783942 -0.3553377064 -1.5261563746
C   9.1658237601 -1.3427613823 -0.9613074378
C   8.6227323790 -2.2078249258 -0.0592436754
C   7.2541046619 -2.1387069988  0.3194382732
N   6.2762780464  0.7124306115 -1.7665934371
S   7.3501748027  1.4523554238 -2.7202882165
N   8.6744340334  0.5735155697 -2.4112843589
H   1.3775545372  1.5449309052 -0.4318892107
H  -5.5998114823 -0.0351714997  0.4841001042
H  -6.4128741667  2.3212597840 -0.3001520162
H  -0.2995432507  3.0795348562 -1.8558669822
H  -1.6147542892  4.0364407054 -1.1522033536
H  -0.1712204042  3.6600575946 -0.1949422179
H  -2.6223694634 -2.5585435358  1.0050181266
H  -3.8770310495 -1.6584136459  1.8718434678
H  -4.1097594803 -2.0734713848  0.1724590540
H   2.7212104058 -0.9734158947  2.7535136912
H   5.3170062299 -1.3296826887  2.4217071575
H   10.2105307999 -1.3772064912 -1.2538101003
H   9.2469066544 -2.9681901750  0.4017403837
H   6.8884996119 -2.8539363198  1.0495254927
42
Scanning combination 48/73: [235.0982]  Energy = -2548.7067998403
C  -0.7274885267  0.8932431784 -0.0598033526
C  -1.3422496111 -0.2909350883  0.4381329087
C  -2.7218173339 -0.4621277811  0.4926465356
C  -3.5106289913  0.6476422620  0.1342633977
C  -2.8936612240  1.8446289225 -0.3218613116
C  -1.5132600067  1.9944830266 -0.4436781960
C   0.7029038178  0.7701385401 -0.0752917119
C   1.1616187555 -0.4035215332  0.4254255042
S  -0.1286852523 -1.4566896493  0.9305416947
C  -4.9460493496  0.7693272081  0.1632181947
C  -5.3871181876  1.9792592232 -0.2398193293
S  -4.1016176479  3.0508912064 -0.6882440158
C  -0.8727668636  3.2609925533 -0.9394783565
C  -3.3608157168 -1.7583180691  0.9103023593
C   2.5634867761 -0.7736285960  0.6118246047
C   3.2265961315 -0.9713058843  1.7935698655
C   4.6189138687 -1.1711911493  1.6080962269
C   5.0007419856 -1.1753291467  0.2866545142
S   3.6332517846 -0.8736578163 -0.7379278744
C   6.3685050122 -1.2344960383 -0.2278278030
C   6.9179305611 -0.2678058577 -1.1384097632
C   8.3107961857 -0.3480712064 -1.5165445799
C   9.1666881760 -1.3402529779 -0.9592194223
C   8.6223951310 -2.2102913189 -0.0628649795
C   7.2507249975 -2.1497380102  0.3047811962
N   6.2808029068  0.7241954249 -1.7530837821
S   7.3518362233  1.4557108507 -2.7162789735
N   8.6745801995  0.5739797627 -2.4091960233
H   1.3756989844  1.5445962680 -0.4321878242
H  -5.6003662102 -0.0348850304  0.4850068081
H  -6.4129845969  2.3209188641 -0.3025790326
H  -0.2988424074  3.0779802983 -1.8566133485
H  -1.6134373802  4.0360098953 -1.1535858598
H  -0.1709198890  3.6580395689 -0.1952322599
H  -2.6236686844 -2.5589050258  1.0075528870
H  -3.8770839243 -1.6565312947  1.8733267600
H  -4.1108062508 -2.0738937419  0.1746553369
H   2.7220287402 -0.9699584987  2.7536144630
H   5.3192336187 -1.3158025046  2.4250193625
H   10.2097177474 -1.3794677580 -1.2553900537
H   9.2460091443 -2.9695264706  0.3996116071
H   6.8870072723 -2.8568060007  1.0432737068
42
Scanning combination 49/73: [240.0982]  Energy = -2548.7065244967
C  -0.7323933790  0.8753363019 -0.0671138871
C  -1.3484303709 -0.3111641602  0.4228494648
C  -2.7291361434 -0.4693048326  0.4954762455
C  -3.5146580387  0.6421695906  0.1333393435
C  -2.8951507164  1.8354090711 -0.3292456362
C  -1.5141550746  1.9800790771 -0.4503056383
C   0.6978010772  0.7524177034 -0.0777223139
C   1.1587472705 -0.4256296043  0.4097337238
S  -0.1345472595 -1.4924559782  0.8805065482
C  -4.9497654097  0.7680402352  0.1616442193
C  -5.3884382638  1.9759503555 -0.2508245055
S  -4.1003572922  3.0421629397 -0.7049016791
C  -0.8677662051  3.2426652976 -0.9500810179
C  -3.3729526338 -1.7550198649  0.9359826005
C   2.5653726473 -0.7877405234  0.6043014165
C   3.2509349181 -0.8627977648  1.7888291570
C   4.6398872393 -1.0880757416  1.6011352134
C   5.0041834465 -1.1765411778  0.2810346859
S   3.6147508307 -1.0415592491 -0.7472337456
C   6.3759276650 -1.2616011981 -0.2164282209
C   6.9180005905 -0.2734010815 -1.1018829690
C   8.3126245904 -0.3292963086 -1.4741907051
C   9.1598578206 -1.3582862146 -0.9713053509
C   8.6093587033 -2.2795471435 -0.1305950582
C   7.2395011497 -2.2284199966  0.2502571506
N   6.2795645778  0.7571090282 -1.6475888570
S   7.3575218704  1.5564506948 -2.5485954086
N   8.6803889633  0.6554838466 -2.2961187419
H   1.3694151174  1.5343067058 -0.4184966120
H  -5.6059062039 -0.0317119593  0.4899175088
H  -6.4139029692  2.3175355815 -0.3187395920
H  -0.2923897254  3.0539775164 -1.8654033616
H  -1.6050306788  4.0193063939 -1.1698435948
H  -0.1658972561  3.6419646935 -0.2068284585
H  -2.6383053174 -2.5561626223  1.0446246509
H  -3.8851002039 -1.6332075438  1.8989034423
H  -4.1266910277 -2.0798953947  0.2082320980
H   2.7770196967 -0.7275996564  2.7549510740
H   5.3664860714 -1.1440128781  2.4059381649
H   10.2069143194 -1.3779437330 -1.2561842460
H   9.2288802831 -3.0717848788  0.2798413619
H   6.8650352938 -2.9883049448  0.9285316299
42
Scanning combination 50/73: [245.0982]  Energy = -2548.7055631930
C  -0.7309441021  0.8757978775 -0.0678673566
C  -1.3482247795 -0.3110826645  0.4193058047
C  -2.7288472863 -0.4698927763  0.4944699706
C  -3.5144474051  0.6415818325  0.1335614205
C  -2.8943327280  1.8342523628 -0.3295821164
C  -1.5135118814  1.9794354890 -0.4512831428
C   0.6996147106  0.7541886120 -0.0761801952
C   1.1590108789 -0.4259221238  0.4087639085
S  -0.1360279299 -1.4923334383  0.8780828766
C  -4.9497298574  0.7674983216  0.1620613442
C  -5.3878452368  1.9754314991 -0.2509372413
S  -4.0991491122  3.0410754366 -0.7048507656
C  -0.8680978142  3.2419365583 -0.9505034926
C  -3.3729086984 -1.7553485691  0.9369500930
C   2.5657614862 -0.7869198157  0.6067938244
C   3.2536195627 -0.8473443850  1.7904762738
C   4.6424904173 -1.0711068950  1.6020655948
C   5.0006163268 -1.2073337669  0.2832016809
S   3.6125632481 -1.0505671316 -0.7431587933
C   6.3670286411 -1.2763693137 -0.2344498358
C   6.9193827504 -0.2652331421 -1.0905012165
C   8.3136286770 -0.3249915065 -1.4677954559
C   9.1609133500 -1.3568517421 -0.9695258979
C   8.6089891166 -2.2795565000 -0.1336460683
C   7.2368749661 -2.2341025400  0.2381384618
N   6.2855248690  0.7679383383 -1.6368344108
S   7.3615862343  1.5581552635 -2.5486983371
N   8.6820852019  0.6541100519 -2.2955409186
H   1.3681915062  1.5382136715 -0.4198341501
H  -5.6065144226 -0.0320411352  0.4900117513
H  -6.4130799131  2.3178167816 -0.3194322761
H  -0.2922673655  3.0520730047 -1.8650338567
H  -1.6052793812  4.0186609402 -1.1702398217
H  -0.1663969166  3.6399954733 -0.2067266439
H  -2.6399098134 -2.5580132936  1.0468045202
H  -3.8858810869 -1.6328511170  1.8994604689
H  -4.1272065174 -2.0803695013  0.2098535642
H   2.7760109552 -0.7278247060  2.7565989178
H   5.3648341337 -1.1343650009  2.4089937819
H   10.2069322318 -1.3802597771 -1.2596511560
H   9.2276199034 -3.0725734880  0.2774937498
H   6.8645230516 -2.9860066038  0.9255852398
42
Scanning combination 51/73: [250.0982]  Energy = -2548.7051831240
C  -0.7321892719  0.8672442009 -0.0710941879
C  -1.3486572377 -0.3264491066  0.3987834505
C  -2.7295594962 -0.4789700893  0.4859215313
C  -3.5151808623  0.6331993167  0.1260069960
C  -2.8949078694  1.8255647356 -0.3378457444
C  -1.5140393230  1.9710264606 -0.4561410491
C   0.6985620786  0.7534303900 -0.0669885261
C   1.1631609162 -0.4347759701  0.3936235599
S  -0.1339475800 -1.5179042983  0.8273751746
C  -4.9505966351  0.7610149052  0.1592108531
C  -5.3886189420  1.9690645099 -0.2537408101
S  -4.0996676653  3.0328141068 -0.7123055327
C  -0.8673064766  3.2326279918 -0.9564990127
C  -3.3755810947 -1.7566226580  0.9471810378
C   2.5729394341 -0.7919030218  0.6005780139
C   3.2727280908 -0.7582191189  1.7802384016
C   4.6621031263 -0.9940736370  1.5979038203
C   5.0051760298 -1.2151148977  0.2895039568
S   3.6079751218 -1.1892024014 -0.7310026272
C   6.3712209400 -1.3056726318 -0.2215115182
C   6.9147631295 -0.2760758095 -1.0561804652
C   8.3073724726 -0.3215475358 -1.4404580677
C   9.1511665446 -1.3767231627 -0.9833785378
C   8.5987017770 -2.3330716977 -0.1838811507
C   7.2277877302 -2.2959584397  0.1990635776
N   6.2779302621  0.7841927211 -1.5449319502
S   7.3539571204  1.6208107955 -2.4156409983
N   8.6739249360  0.7010280962 -2.2149217767
H   1.3558873703  1.5593599999 -0.3802106647
H  -5.6079014267 -0.0367432893  0.4909043370
H  -6.4138837947  2.3123521738 -0.3203043642
H  -0.2872951199  3.0402703785 -1.8679628197
H  -1.6031733964  4.0091055589 -1.1819672932
H  -0.1691530934  3.6326145457 -0.2105739081
H  -2.6451959943 -2.5594950586  1.0711291666
H  -3.8880439779 -1.6160790099  1.9075060349
H  -4.1312550563 -2.0917855197  0.2262547583
H   2.8090399234 -0.5366661905  2.7347562068
H   5.4030028719 -0.9771109133  2.3911602815
H   10.1962714140 -1.3931103667 -1.2783863839
H   9.2193443152 -3.1427102914  0.1899706471
H   6.8503387000 -3.0808352131  0.8452556616
42
Scanning combination 52/73: [255.0982]  Energy = -2548.7041419798
C  -0.7324548255  0.8669466700 -0.0724677382
C  -1.3481060931 -0.3278575282  0.3961940881
C  -2.7289675081 -0.4804688086  0.4860000640
C  -3.5147360570  0.6321003175  0.1267540587
C  -2.8951688372  1.8246923951 -0.3373444028
C  -1.5145784439  1.9704437503 -0.4564405347
C   0.6986922995  0.7562946626 -0.0659430684
C   1.1629625225 -0.4320547889  0.3951624364
S  -0.1319981014 -1.5179602083  0.8229561897
C  -4.9498879911  0.7604302865  0.1592628371
C  -5.3875407541  1.9684389837 -0.2541853288
S  -4.0991031148  3.0321819712 -0.7125069988
C  -0.8674266122  3.2317754803 -0.9561584355
C  -3.3756729628 -1.7576903462  0.9479766681
C   2.5713643857 -0.7905554166  0.6030481241
C   3.2738910140 -0.7397964741  1.7799022783
C   4.6619839282 -0.9787777708  1.5955234642
C   5.0025508978 -1.2454325569  0.2946926637
S   3.6034072980 -1.2000200261 -0.7259373281
C   6.3642287699 -1.3180437766 -0.2387103023
C   6.9174164860 -0.2681332362 -1.0435190009
C   8.3091111962 -0.3173476926 -1.4321934030
C   9.1517761928 -1.3764111603 -0.9855158018
C   8.5988736130 -2.3342543774 -0.1891848095
C   7.2269555951 -2.3006220660  0.1891412368
N   6.2826771272  0.7914581048 -1.5359254180
S   7.3585752782  1.6209205549 -2.4144169078
N   8.6765608615  0.6991388973 -2.2138361088
H   1.3578592226  1.5602560464 -0.3798849281
H  -5.6074757609 -0.0370753344  0.4904048632
H  -6.4124185996  2.3122038172 -0.3207009095
H  -0.2869426878  3.0388160084 -1.8671967130
H  -1.6035091684  4.0076908604 -1.1820133117
H  -0.1693060037  3.6324744357 -0.2104435978
H  -2.6455182075 -2.5607453795  1.0724307910
H  -3.8888346288 -1.6160784470  1.9078922660
H  -4.1312678335 -2.0923994320  0.2266164711
H   2.8085586029 -0.5328542077  2.7369306101
H   5.3980948459 -0.9651204120  2.3927055612
H   10.1961785522 -1.3929497389 -1.2803502276
H   9.2168873455 -3.1445979382  0.1859534299
H   6.8495081479 -3.0801155589  0.8417272500
42
Scanning combination 53/73: [260.0982]  Energy = -2548.7034357244
C  -0.7312992299  0.8649599863 -0.0741336373
C  -1.3467128534 -0.3348503344  0.3822243891
C  -2.7271869188 -0.4869541288  0.4806431748
C  -3.5138194977  0.6261634630  0.1246424789
C  -2.8951422786  1.8197320057 -0.3382971567
C  -1.5149625020  1.9676345656 -0.4570052509
C   0.7010595763  0.7596716293 -0.0586705760
C   1.1645640570 -0.4344377820  0.3903938084
S  -0.1301113774 -1.5292911060  0.7911285209
C  -4.9489414602  0.7543752457  0.1581100368
C  -5.3867005319  1.9624958775 -0.2549943114
S  -4.0989460482  3.0269325826 -0.7126708001
C  -0.8684378038  3.2289064625 -0.9564873687
C  -3.3737612365 -1.7618703253  0.9502090865
C   2.5699736023 -0.8050730539  0.6074984046
C   3.2844430956 -0.6686761409  1.7701136635
C   4.6729464525 -0.9107241345  1.5862012958
C   5.0015845289 -1.2604784833  0.3031976701
S   3.5895212216 -1.3253109257 -0.6962051338
C   6.3631469374 -1.3427319946 -0.2306808801
C   6.9125057740 -0.2793447436 -1.0203000163
C   8.3023300753 -0.3194628007 -1.4153278675
C   9.1436568651 -1.3921991959 -0.9983149761
C   8.5923623611 -2.3684739141 -0.2241974117
C   7.2200328770 -2.3467314948  0.1572439305
N   6.2785131857  0.7983773161 -1.4714493543
S   7.3572103554  1.6604350559 -2.3169712792
N   8.6711411574  0.7240512272 -2.1599185325
H   1.3566920960  1.5704626202 -0.3635542098
H  -5.6064864734 -0.0433294332  0.4888780155
H  -6.4113091243  2.3066024697 -0.3227385922
H  -0.2833744063  3.0331738483 -1.8639699837
H  -1.6042302410  4.0035027507 -1.1878284737
H  -0.1740784832  3.6316440196 -0.2084395476
H  -2.6453920030 -2.5652915938  1.0828656856
H  -3.8894606498 -1.6129052577  1.9076620320
H  -4.1281796984 -2.1015017098  0.2300341858
H   2.8359080875 -0.3832413756  2.7146245818
H   5.4208396823 -0.8320211897  2.3666807764
H   10.1919607788 -1.3901291887 -1.2798681643
H   9.2109029918 -3.1883725107  0.1308721670
H   6.8344370537 -3.1568177435  0.7651997120
42
Scanning combination 54/73: [265.0982]  Energy = -2548.7027332538
C  -0.7283367596  0.8532056958 -0.0741443705
C  -1.3454589940 -0.3502254271  0.3711341001
C  -2.7259996259 -0.4971400357  0.4745265097
C  -3.5108834421  0.6175661583  0.1204728010
C  -2.8907890725  1.8113337940 -0.3393393046
C  -1.5100440698  1.9579686889 -0.4550830841
C   0.7023892311  0.7468251665 -0.0491946625
C   1.1641914711 -0.4504018859  0.3873132155
S  -0.1309248479 -1.5538880662  0.7666808480
C  -4.9457913817  0.7463158910  0.1540827369
C  -5.3832608313  1.9551550706 -0.2566532598
S  -4.0946758539  3.0196760048 -0.7125340024
C  -0.8645796999  3.2209853605 -0.9525192373
C  -3.3742916986 -1.7685840486  0.9498444780
C   2.5753274282 -0.7856724728  0.6078385974
C   3.2948867861 -0.5707643044  1.7551540178
C   4.6815271308 -0.8339419813  1.5822429885
C   5.0026605671 -1.2582284182  0.3201760749
S   3.5909156025 -1.3539815034 -0.6759420515
C   6.3604540103 -1.3625262773 -0.2224627960
C   6.9114617838 -0.2854305239 -0.9901149259
C   8.3036588867 -0.3131420230 -1.3750904823
C   9.1362947179 -1.4072253787 -0.9988162858
C   8.5742894687 -2.4145575021 -0.2714005643
C   7.2049226926 -2.3894676311  0.1249583427
N   6.2730836872  0.7956565772 -1.4272248389
S   7.3535970955  1.6785946074 -2.2469069562
N   8.6739534053  0.7515540833 -2.0884229600
H   1.3677661581  1.5569266691 -0.3331009231
H  -5.6033480248 -0.0519507776  0.4832703309
H  -6.4082651795  2.2987882295 -0.3217137444
H  -0.2734353641  3.0273810277 -1.8564970448
H  -1.6045585966  3.9897730970 -1.1897031591
H  -0.1771039572  3.6314285228 -0.2022278798
H  -2.6445781930 -2.5690977082  1.0911796329
H  -3.8938547017 -1.6124222485  1.9041616133
H  -4.1253987192 -2.1144276589  0.2290850704
H   2.8454009867 -0.2232591719  2.6785069798
H   5.4332975856 -0.7136902428  2.3545705436
H   10.1799733755 -1.4124302020 -1.2961924720
H   9.1833039130 -3.2610672786  0.0321986179
H   6.8194230197 -3.2067112768  0.7242875842
42
Scanning combination 55/73: [270.0982]  Energy = -2548.7015667909
C  -0.7308383778  0.8542143296 -0.0750281996
C  -1.3448850421 -0.3512434387  0.3689493584
C  -2.7252503498 -0.5007245386  0.4726654340
C  -3.5117648363  0.6138624671  0.1191461228
C  -2.8930352343  1.8089870984 -0.3399980865
C  -1.5133323651  1.9577468736 -0.4559718024
C   0.7000021579  0.7544917814 -0.0505804590
C   1.1664853110 -0.4409387725  0.3870317470
S  -0.1257738501 -1.5507571407  0.7609032594
C  -4.9468013661  0.7431467415  0.1532997130
C  -5.3839410462  1.9524791131 -0.2563112811
S  -4.0961033555  3.0177751910 -0.7113186442
C  -0.8656192287  3.2200740725 -0.9517819431
C  -3.3732774152 -1.7726174288  0.9489437800
C   2.5759581581 -0.7836285931  0.6138032165
C   3.2982004004 -0.5555328081  1.7566334624
C   4.6860295416 -0.8094640879  1.5822802105
C   5.0027493732 -1.2767719251  0.3324029354
S   3.5811944423 -1.4153256281 -0.6486548312
C   6.3530912746 -1.3672359408 -0.2366995618
C   6.9177834496 -0.2759466254 -0.9750449794
C   8.3049865160 -0.3190478380 -1.3801883094
C   9.1353720229 -1.4157204022 -1.0042652737
C   8.5677587994 -2.4237437349 -0.2849779739
C   7.1958736511 -2.3981400014  0.1032681056
N   6.2884235876  0.8174401087 -1.3979866046
S   7.3715154553  1.6923265321 -2.2234714356
N   8.6803549347  0.7450307829 -2.0897623081
H   1.3557079114  1.5709922735 -0.3390483111
H  -5.6046118028 -0.0553239116  0.4821051007
H  -6.4082416894  2.2979850657 -0.3231606893
H  -0.2711004142  3.0238312208 -1.8529108310
H  -1.6008197492  3.9923884138 -1.1924996102
H  -0.1798489664  3.6269832270 -0.1981484352
H  -2.6455013135 -2.5745683532  1.0938371817
H  -3.8946346880 -1.6141590461  1.9019284083
H  -4.1236340334 -2.1193052044  0.2277160731
H   2.8521873406 -0.1981679477  2.6786748817
H   5.4361935459 -0.6683093828  2.3534163361
H   10.1805930597 -1.4191660042 -1.2998872750
H   9.1772854290 -3.2655761026  0.0311632905
H   6.8084687514 -3.2194398350  0.6959283026
42
Scanning combination 56/73: [275.0982]  Energy = -2548.7007985467
C  -0.7288635217  0.8455756201 -0.0756178669
C  -1.3469596692 -0.3591710235  0.3648918792
C  -2.7272185891 -0.5047280474  0.4672970402
C  -3.5126594610  0.6094826455  0.1143784411
C  -2.8931447256  1.8047915478 -0.3419492182
C  -1.5113213387  1.9516467104 -0.4551334731
C   0.7019062860  0.7355321365 -0.0436167217
C   1.1620726966 -0.4623383037  0.3965361159
S  -0.1354173386 -1.5676704585  0.7588403377
C  -4.9479402000  0.7351323272  0.1490153239
C  -5.3881713915  1.9443689308 -0.2580516559
S  -4.1003680059  3.0119783535 -0.7120324286
C  -0.8651472954  3.2165456074 -0.9481271860
C  -3.3722284423 -1.7763099189  0.9439055413
C   2.5733463496 -0.7930100176  0.6299463517
C   3.3105253271 -0.4660881431  1.7392042600
C   4.6989891007 -0.7137514126  1.5625553105
C   5.0030907927 -1.2653314920  0.3446301538
S   3.5712263735 -1.5049683266 -0.5971227490
C   6.3533021446 -1.3857753071 -0.2208673429
C   6.9219985985 -0.2826601296 -0.9385983215
C   8.3064857782 -0.3213215185 -1.3494483068
C   9.1255376614 -1.4409387820 -1.0196239801
C   8.5524283318 -2.4666930279 -0.3287874499
C   7.1806568852 -2.4461120067  0.0624150094
N   6.2982513662  0.8291728009 -1.3176350978
S   7.3835102175  1.7263447687 -2.1168675286
N   8.6850478571  0.7641699527 -2.0258995406
H   1.3773995708  1.5372085548 -0.3255476327
H  -5.6040036199 -0.0651964376  0.4761937017
H  -6.4147458341  2.2844595334 -0.3202551874
H  -0.2644967086  3.0239091793 -1.8460911574
H  -1.6054218680  3.9825398036 -1.1937227882
H  -0.1863377850  3.6308291236 -0.1918800549
H  -2.6378062107 -2.5707072953  1.0930859099
H  -3.8966146817 -1.6182678849  1.8950308552
H  -4.1165604924 -2.1305050499  0.2204709507
H   2.8778252798 -0.0337132531  2.6342272436
H   5.4592821682 -0.4946816653  2.3042646532
H   10.1699087279 -1.4445409363 -1.3176960401
H   9.1553377631 -3.3250889643 -0.0441271391
H   6.7844978895 -3.2952175830  0.6082098579
42
Scanning combination 57/73: [280.0982]  Energy = -2548.7008380348
C  -0.7338674532  0.8238853603 -0.0789507564
C  -1.3475512189 -0.3834120903  0.3597432530
C  -2.7290533309 -0.5320248687  0.4631358386
C  -3.5151381473  0.5838956995  0.1109240459
C  -2.8939572716  1.7801278915 -0.3421247878
C  -1.5146027698  1.9293932623 -0.4550739574
C   0.6956723590  0.7302909585 -0.0454661609
C   1.1679995598 -0.4604004342  0.3986277482
S  -0.1243951149 -1.5806181248  0.7541902129
C  -4.9508640111  0.7143651696  0.1418875825
C  -5.3854285255  1.9272149222 -0.2639000975
S  -4.0940944773  2.9921254654 -0.7101796938
C  -0.8625452578  3.1936013041 -0.9384545832
C  -3.3808360783 -1.8031329601  0.9377301339
C   2.5843298425 -0.7519226158  0.6544713529
C   3.3146198566 -0.3119920677  1.7284254279
C   4.7077742086 -0.5577255223  1.5827378996
C   5.0249367889 -1.1977549459  0.4100249734
S   3.5990785647 -1.5463031762 -0.5039970682
C   6.3701933154 -1.3670119512 -0.1622215910
C   6.9575069833 -0.2697897049 -0.8757366839
C   8.3324446336 -0.3382155765 -1.3124111090
C   9.1099335781 -1.5064045498 -1.0626646528
C   8.4999312300 -2.5518437197 -0.4357976083
C   7.1449667995 -2.4899243654  0.0072091452
N   6.3653814565  0.8761120239 -1.2033600497
S   7.4686516130  1.7675299506 -1.9850229347
N   8.7389433554  0.7613719666 -1.9481134268
H   1.3470875001  1.5483230883 -0.3393536314
H  -5.6135716093 -0.0824115966  0.4640305417
H  -6.4089698604  2.2739542829 -0.3302173869
H  -0.2470812095  2.9954420815 -1.8248945898
H  -1.5966449817  3.9615371693 -1.1959026248
H  -0.1946145981  3.6036628325 -0.1703502013
H  -2.6551971186 -2.6033237431  1.1003724560
H  -3.9202216508 -1.6419864597  1.8801048924
H  -4.1191531710 -2.1577503294  0.2081240390
H   2.8660714892  0.1918319130  2.5774278855
H   5.4556915572 -0.2611711260  2.3104250125
H   10.1472802587 -1.5384321722 -1.3826139319
H   9.0578635953 -3.4676457860 -0.2593648778
H   6.7286292882 -3.3545668129  0.5129800476
42
Scanning combination 58/73: [285.0982]  Energy = -2548.6998941356
C  -0.7343300316  0.8236998835 -0.0786770657
C  -1.3474676490 -0.3838877344  0.3600606495
C  -2.7289351648 -0.5323371083  0.4631196137
C  -3.5151256186  0.5836793415  0.1108339481
C  -2.8944729319  1.7802529398 -0.3422560581
C  -1.5150446700  1.9292439435 -0.4551104282
C   0.6953190342  0.7307505624 -0.0452595415
C   1.1679960907 -0.4599627040  0.3992950005
S  -0.1233032922 -1.5805505726  0.7542534683
C  -4.9507032574  0.7145736520  0.1417144068
C  -5.3852437130  1.9268103234 -0.2637350310
S  -4.0946973085  2.9922924452 -0.7103286527
C  -0.8627256962  3.1934766585 -0.9384626698
C  -3.3807653457 -1.8033851027  0.9376289336
C   2.5841046739 -0.7530804687  0.6548770502
C   3.3142100140 -0.3102136138  1.7275288763
C   4.7089949505 -0.5439810229  1.5762928041
C   5.0266521888 -1.2189617815  0.4222186565
S   3.5990877511 -1.5463237125 -0.5024271531
C   6.3631563833 -1.3723090845 -0.1798945975
C   6.9623034846 -0.2627620489 -0.8638783600
C   8.3335556402 -0.3378065474 -1.3113212297
C   9.1091426978 -1.5072237525 -1.0638093463
C   8.4990891203 -2.5517281348 -0.4361803435
C   7.1440610833 -2.4887158768  0.0047781065
N   6.3665454354  0.8782598461 -1.2016660265
S   7.4695766507  1.7674019588 -1.9847351745
N   8.7395790440  0.7611063100 -1.9487153485
H   1.3473157447  1.5478035138 -0.3392440843
H  -5.6130666142 -0.0827332833  0.4639994564
H  -6.4089871878  2.2737181623 -0.3302249912
H  -0.2471843366  2.9959136595 -1.8250273187
H  -1.5965114160  3.9615717111 -1.1960690156
H  -0.1948674815  3.6039299493 -0.1704478019
H  -2.6544618439 -2.6030462681  1.1002164875
H  -3.9198349294 -1.6415305261  1.8801220488
H  -4.1189121817 -2.1577500381  0.2076183858
H   2.8659591479  0.1918408138  2.5776983407
H   5.4557566408 -0.2598211764  2.3099893367
H   10.1465793978 -1.5390885329 -1.3834323577
H   9.0571684816 -3.4673557042 -0.2581143340
H   6.7276869912 -3.3528702387  0.5131714448
42
Scanning combination 59/73: [290.0982]  Energy = -2548.7001785690
C  -0.7350253247  0.8175415397 -0.0660328121
C  -1.3461647234 -0.3935767625  0.3696882999
C  -2.7263673304 -0.5478544306  0.4594429155
C  -3.5133071219  0.5660742202  0.1032816242
C  -2.8972272770  1.7657026823 -0.3485035845
C  -1.5170234847  1.9203758492 -0.4548321364
C   0.6931840650  0.7239843542 -0.0135501151
C   1.1627628292 -0.4646434603  0.4401237123
S  -0.1243520718 -1.5875174125  0.7826858229
C  -4.9482159125  0.6905143107  0.1337467698
C  -5.3893976122  1.9003427455 -0.2698132621
S  -4.1046081668  2.9722355063 -0.7181182045
C  -0.8733153872  3.1911207440 -0.9409146427
C  -3.3714803031 -1.8235479765  0.9288878398
C   2.5781436706 -0.7541919891  0.6928478540
C   3.3301261626 -0.2063020677  1.6982182594
C   4.7204213019 -0.4391486680  1.5315046325
C   5.0185276441 -1.1773954208  0.4155120184
S   3.5709077437 -1.6492828151 -0.4147477737
C   6.3605302969 -1.3516909087 -0.1605375289
C   6.9995499565 -0.2371629097 -0.7972096745
C   8.3585113067 -0.3553336195 -1.2696680392
C   9.0726526834 -1.5768238677 -1.1110071747
C   8.4303041430 -2.6168434138 -0.5094149187
C   7.0901203849 -2.5102799567 -0.0353777267
N   6.4603296721  0.9523587020 -1.0656564409
S   7.5967507752  1.8240009523 -1.8167169796
N   8.8129256215  0.7540589552 -1.8549706763
H   1.3574190850  1.5291227161 -0.3115907311
H  -5.6028793812 -0.1126756044  0.4561824444
H  -6.4154119741  2.2411239306 -0.3318024463
H  -0.2533491257  3.0044738628 -1.8271134204
H  -1.6154255394  3.9495365044 -1.2038877216
H  -0.2141713679  3.6187175402 -0.1742480699
H  -2.6355051735 -2.6135153306  1.0953473783
H  -3.9150381016 -1.6653154138  1.8695262255
H  -4.1000356935 -2.1851279624  0.1926299623
H   2.8912873785  0.3743845369  2.5030909083
H   5.4977295758 -0.0534014308  2.1822587436
H   10.0954660373 -1.6468581627 -1.4682706932
H   8.9510616008 -3.5605231769 -0.3748581949
H   6.6467891095 -3.3677562318  0.4602676500
42
Scanning combination 60/73: [295.0982]  Energy = -2548.6994809860
C  -0.7378096480  0.8189782997 -0.0625491099
C  -1.3452702254 -0.3923706783  0.3740945011
C  -2.7255604021 -0.5500623220  0.4610485192
C  -3.5158405854  0.5615058900  0.1044420263
C  -2.9008463191  1.7613323686 -0.3469785769
C  -1.5221851406  1.9174203506 -0.4526221670
C   0.6904614082  0.7342621815 -0.0167739573
C   1.1676305676 -0.4533714287  0.4330044328
S  -0.1174950004 -1.5805578170  0.7822717457
C  -4.9512590582  0.6856257205  0.1331883317
C  -5.3909684962  1.8956726553 -0.2714143393
S  -4.1059856876  2.9675988032 -0.7176172963
C  -0.8770228266  3.1843969160 -0.9391750508
C  -3.3714158603 -1.8260185363  0.9274158723
C   2.5824819721 -0.7411944340  0.6919215898
C   3.3309595055 -0.1851909966  1.6967501656
C   4.7225601281 -0.4140576864  1.5361022184
C   5.0260827461 -1.1818989195  0.4387857313
S   3.5752179618 -1.6820181357 -0.3755461687
C   6.3523726072 -1.3479715709 -0.1807680670
C   7.0109616945 -0.2314743856 -0.7965528035
C   8.3641946653 -0.3649011160 -1.2819365222
C   9.0763564896 -1.5874357654 -1.1153319272
C   8.4202720173 -2.6245205267 -0.5231282414
C   7.0750399553 -2.5126252425 -0.0656405448
N   6.4897734753  0.9698882897 -1.0485850742
S   7.6339134472  1.8311137421 -1.7992547671
N   8.8311608971  0.7415143350 -1.8613386705
H   1.3384049254  1.5516758688 -0.3184370142
H  -5.6074149270 -0.1170779056  0.4551608261
H  -6.4158346402  2.2394829518 -0.3375578498
H  -0.2553864764  2.9908601603 -1.8225407747
H  -1.6172678147  3.9436681273 -1.2040103523
H  -0.2184182524  3.6053603864 -0.1688312422
H  -2.6387107121 -2.6187312088  1.0949873794
H  -3.9174633416 -1.6666949721  1.8661618744
H  -4.1001493063 -2.1849470486  0.1902089259
H   2.8931339588  0.3861487941  2.5075530440
H   5.4839084551 -0.0268111319  2.2045550366
H   10.1015376725 -1.6575846341 -1.4648481076
H   8.9369512802 -3.5671216803 -0.3695345931
H   6.6261288585 -3.3729670406  0.4197210878
42
Scanning combination 61/73: [300.0982]  Energy = -2548.7038856500
C  -0.7717493999  0.8018833342  0.0181150355
C  -1.3395274870 -0.4332980663  0.4395756150
C  -2.7163689987 -0.6425303823  0.4796173280
C  -3.5353521130  0.4435554393  0.1023403708
C  -2.9496731792  1.6612567006 -0.3421435448
C  -1.5775399975  1.8639296201 -0.4179083694
C   0.6486105147  0.7895212685  0.1122196807
C   1.1733137704 -0.3726416358  0.5688650220
S  -0.0661453823 -1.5651422531  0.8818716164
C  -4.9749356805  0.5246967886  0.1026017668
C  -5.4450172274  1.7195212597 -0.3150953140
S  -4.1824856820  2.8264373747 -0.7459518748
C  -0.9444501066  3.1301985309 -0.9204609152
C  -3.3319518707 -1.9457548406  0.9150483081
C   2.6117152559 -0.5343081842  0.7744123094
C   3.3682101693  0.2245440785  1.6291668201
C   4.7615490063  0.0973442569  1.3990125440
C   5.0564313036 -0.7241834323  0.3417147902
S   3.6166517397 -1.4733958377 -0.2769626611
C   6.3802572112 -1.1023630892 -0.1540982852
C   7.3234011569 -0.1286439688 -0.6237278741
C   8.6024105675 -0.5591270634 -1.1389483597
C   8.9259249079 -1.9422104206 -1.2158040985
C   7.9901126687 -2.8385092826 -0.7933318181
C   6.7304646572 -2.4256777363 -0.2810136792
N   7.1794931487  1.1967780746 -0.6604976729
S   8.5428979997  1.8069885789 -1.2820006177
N   9.3833828908  0.4466020098 -1.5383294843
H   1.2566640566  1.6436718051 -0.1701136544
H  -5.6107103730 -0.2977837080  0.4165838219
H  -6.4796948112  2.0325073120 -0.3973178612
H  -0.2881342397  2.9156157682 -1.7733857611
H  -1.6826086661  3.8730658300 -1.2331378857
H  -0.3137196115  3.5778865118 -0.1422141288
H  -2.5794606681 -2.7167405837  1.0932308910
H  -3.9089461764 -1.8239578251  1.8407223398
H  -4.0298090578 -2.3242563617  0.1578798971
H   2.9263259160  0.8755750889  2.3746197729
H   5.5343721816  0.6207274939  1.9494814851
H   9.8935368784 -2.2437873754 -1.6035469543
H   8.2001990338 -3.9022086848 -0.8420645355
H   6.0195557618 -3.1768858045  0.0473760345
42
Scanning combination 62/73: [305.0982]  Energy = -2548.7056331092
C  -0.7881894693  0.8747309411  0.0048605894
C  -1.3292775417 -0.3697525388  0.4362085754
C  -2.6993661264 -0.6162025449  0.4800184431
C  -3.5512965332  0.4427387647  0.1050587403
C  -3.0028176759  1.6756439650 -0.3417703473
C  -1.6331436845  1.9136333971 -0.4260620657
C   0.6422467453  0.8800446881  0.0902074389
C   1.1887920437 -0.2727107734  0.5580838804
S  -0.0372864965 -1.4739526235  0.8881766859
C  -4.9928119580  0.4756486737  0.1042864318
C  -5.5002505040  1.6528082878 -0.3176614584
S  -4.2753447423  2.8015185022 -0.7433909476
C  -1.0602955107  3.2068840501 -0.9355759079
C  -3.2766425957 -1.9348434624  0.9148411527
C   2.6283147254 -0.4768871214  0.7700796274
C   3.4131321517  0.2409919266  1.6365296285
C   4.8031815037  0.0609906755  1.4112018383
C   5.0765981794 -0.7927422133  0.3720946828
S   3.6085835576 -1.5019139579 -0.2364639450
C   6.3962726324 -1.1711094490 -0.1519049874
C   7.3504754368 -0.1864011294 -0.5831453239
C   8.6215514195 -0.6007282708 -1.1303728946
C   8.9562373060 -1.9797070467 -1.2278388358
C   8.0282474229 -2.8865530380 -0.8137465099
C   6.7579758113 -2.4903264427 -0.3043546998
N   7.2170587554  1.1411644728 -0.5670134999
S   8.5655942174  1.7683795585 -1.1994087590
N   9.3945158919  0.4147046784 -1.5187855893
H   1.2483960782  1.7287079386 -0.2109450098
H  -5.6051383019 -0.3640536501  0.4184639914
H  -6.5442060074  1.9276200462 -0.4097345474
H  -0.3987222831  3.0283484905 -1.7928849514
H  -1.8409253538  3.9049848765 -1.2492258661
H  -0.4576604452  3.6981242615 -0.1610849618
H  -2.5024247801 -2.6851510631  1.0889681439
H  -3.8547315842 -1.8234794901  1.8409283311
H  -3.9649310314 -2.3249601562  0.1552724542
H   2.9965656760  0.8977600339  2.3911540378
H   5.5882401583  0.5904742590  1.9407663842
H   9.9210245769 -2.2673945951 -1.6340950773
H   8.2541687500 -3.9480328616 -0.8711430621
H   6.0554896582 -3.2600995108 -0.0041917119
42
Scanning combination 63/73: [310.0982]  Energy = -2548.7058307880
C  -0.7859432245  0.8752074795  0.0072909587
C  -1.3253133209 -0.3706099713  0.4382362293
C  -2.6955281312 -0.6191386474  0.4813479132
C  -3.5478829031  0.4397102392  0.1056897867
C  -3.0003805214  1.6731139203 -0.3409826802
C  -1.6316314459  1.9130938432 -0.4230796961
C   0.6437061742  0.8832303351  0.0886882265
C   1.1912448258 -0.2702903883  0.5494486038
S  -0.0312344839 -1.4715073556  0.8907724143
C  -4.9894038967  0.4723778705  0.1038874810
C  -5.4975322827  1.6501335305 -0.3184521977
S  -4.2727626108  2.7982755595 -0.7455277429
C  -1.0604630656  3.2065210711 -0.9331742822
C  -3.2739743532 -1.9382128275  0.9162942463
C   2.6295757854 -0.4688135732  0.7623141867
C   3.4117155619  0.2625940943  1.6184773731
C   4.8017091119  0.0712586855  1.4040193892
C   5.0764151944 -0.8118578705  0.3916901118
S   3.6074172984 -1.5004262656 -0.2353906294
C   6.3872364583 -1.1710601314 -0.1671880166
C   7.3486151078 -0.1860374178 -0.5809281827
C   8.6207780989 -0.6021244098 -1.1261226079
C   8.9529905629 -1.9820213311 -1.2287000465
C   8.0207311395 -2.8869249453 -0.8204737242
C   6.7506249695 -2.4891527969 -0.3153090965
N   7.2177963311  1.1420321349 -0.5656662321
S   8.5711804300  1.7666484593 -1.1896726206
N   9.3990940247  0.4119141235 -1.5068248374
H   1.2445717862  1.7386036389 -0.2067779289
H  -5.6016552091 -0.3671125207  0.4170595623
H  -6.5410770222  1.9256138078 -0.4088235343
H  -0.3986809392  3.0276841558 -1.7898728402
H  -1.8415370975  3.9035921959 -1.2477989276
H  -0.4573067081  3.6995665369 -0.1605465744
H  -2.4992496675 -2.6881241909  1.0912676843
H  -3.8521147212 -1.8262296914  1.8428422153
H  -3.9623635191 -2.3279910811  0.1557921398
H   2.9888676755  0.9055078428  2.3820618169
H   5.5898467168  0.5847914050  1.9443495985
H   9.9190632262 -2.2733663155 -1.6284814556
H   8.2403762793 -3.9487700866 -0.8754547861
H   6.0496784378 -3.2527985658  0.0001188006
42
Scanning combination 64/73: [315.0982]  Energy = -2548.7061146551
C  -0.7820771900  0.8836748307  0.0136906417
C  -1.3135270893 -0.3681324396  0.4374697005
C  -2.6810982438 -0.6257878340  0.4862908108
C  -3.5391416869  0.4279380895  0.1087966392
C  -2.9989685458  1.6651156313 -0.3377017786
C  -1.6328828184  1.9164432536 -0.4162316886
C   0.6461652552  0.9034155554  0.0939509563
C   1.1984987599 -0.2536677116  0.5427250733
S  -0.0141832209 -1.4665011259  0.8714394142
C  -4.9804077049  0.4520980156  0.1032390825
C  -5.4943399932  1.6262142520 -0.3204386214
S  -4.2763713745  2.7814369763 -0.7470100107
C  -1.0651367623  3.2114168888 -0.9249115653
C  -3.2497881874 -1.9489732293  0.9242625288
C   2.6301960101 -0.4557793199  0.7632786799
C   3.4133119474  0.3244324496  1.5733923755
C   4.8003329512  0.1150818410  1.3735503409
C   5.0711073621 -0.8143385811  0.4008558339
S   3.6015398273 -1.5590921818 -0.1601406236
C   6.3723413228 -1.1780889584 -0.1680426961
C   7.3487668608 -0.1962998480 -0.5574075316
C   8.6209497779 -0.6185947589 -1.0969441028
C   8.9319061692 -2.0009058070 -1.2273735845
C   7.9795016426 -2.9020314655 -0.8582552174
C   6.7129111345 -2.4977295268 -0.3533013224
N   7.2353654346  1.1329446762 -0.5202937877
S   8.6106263087  1.7519129419 -1.0994078274
N   9.4239678186  0.3923780579 -1.4337417104
H   1.2341524200  1.7708419521 -0.1944652298
H  -5.5871681941 -0.3923392169  0.4147401128
H  -6.5389376266  1.8987972424 -0.4103362740
H  -0.3984178166  3.0320679136 -1.7776743890
H  -1.8451330079  3.9078104263 -1.2436096686
H  -0.4653085200  3.7044171741 -0.1498553910
H  -2.4713763504 -2.6950219044  1.1006511755
H  -3.8289401398 -1.8413907484  1.8507587385
H  -3.9345832017 -2.3445865222  0.1636715699
H   2.9936149927  1.0389735916  2.2723928758
H   5.5872687843  0.6400013776  1.9024170257
H   9.9057981139 -2.2945087198 -1.6073459674
H   8.1859695605 -3.9652797548 -0.9367163730
H   5.9906952833 -3.2594629483 -0.0799681187
42
Scanning combination 65/73: [320.0982]  Energy = -2548.7057468647
C  -0.7848102089  0.8828268915  0.0122401356
C  -1.3154636035 -0.3687316780  0.4365401444
C  -2.6823613077 -0.6256686171  0.4852474642
C  -3.5401765921  0.4279806846  0.1082945862
C  -3.0005039622  1.6658271780 -0.3374126080
C  -1.6343130595  1.9168715357 -0.4168397972
C   0.6424918013  0.9015315422  0.0966398260
C   1.1964457026 -0.2537438753  0.5463104779
S  -0.0161638326 -1.4676539082  0.8721073514
C  -4.9810627361  0.4510429895  0.1031082560
C  -5.4948272341  1.6245015115 -0.3200974176
S  -4.2783664506  2.7813067176 -0.7464198764
C  -1.0652383950  3.2122295207 -0.9240950468
C  -3.2487309118 -1.9487124803  0.9237853411
C   2.6310597561 -0.4471438847  0.7586901359
C   3.4158835262  0.3347082409  1.5659374906
C   4.8036270219  0.1233843684  1.3684666032
C   5.0744386862 -0.8277339943  0.4167374766
S   3.6011672744 -1.5552947956 -0.1586197309
C   6.3648442905 -1.1790729641 -0.1860006513
C   7.3524870844 -0.1981554018 -0.5469271217
C   8.6250318331 -0.6207482449 -1.0854096605
C   8.9343589591 -2.0028519686 -1.2220315485
C   7.9802157329 -2.9029413355 -0.8597028243
C   6.7093390755 -2.4981940232 -0.3670653941
N   7.2407495889  1.1311303552 -0.5070415412
S   8.6116721460  1.7492480764 -1.0966843805
N   9.4241566919  0.3898649857 -1.4318745501
H   1.2367031757  1.7637218530 -0.1902219729
H  -5.5873926977 -0.3939804640  0.4151782201
H  -6.5398307095  1.8948235539 -0.4109483193
H  -0.3992298461  3.0335025688 -1.7778668741
H  -1.8467638524  3.9066924593 -1.2424738360
H  -0.4668508680  3.7069418216 -0.1484490349
H  -2.4691263852 -2.6933575910  1.1001403531
H  -3.8275236570 -1.8404916529  1.8499316359
H  -3.9334770995 -2.3462343062  0.1647512440
H   2.9942654671  1.0411566979  2.2714584230
H   5.5917037471  0.6544515921  1.8900897566
H   9.9037794351 -2.2984422854 -1.6122192801
H   8.1824088701 -3.9670504856 -0.9430433643
H   5.9925836054 -3.2586406518 -0.0778099944
42
Scanning combination 66/73: [325.0982]  Energy = -2548.7086835259
C  -0.8220088273  0.9146801156  0.0810691453
C  -1.3118024288 -0.3641171748  0.4734652277
C  -2.6722678847 -0.6574639366  0.5106577376
C  -3.5575873439  0.3741510103  0.1262907221
C  -3.0517006641  1.6318911033 -0.3058821680
C  -1.6945703231  1.9246054924 -0.3585169956
C   0.5993200756  0.9842173583  0.1740202301
C   1.1995447825 -0.1701329263  0.5592160254
S   0.0275479764 -1.4284909408  0.8814882259
C  -4.9986265412  0.3548676317  0.0924582339
C  -5.5406438924  1.5131670990 -0.3375741871
S  -4.3543706751  2.7080959025 -0.7417971911
C  -1.1411629866  3.2278938574 -0.8620123955
C  -3.2078411520 -1.9983498201  0.9367837415
C   2.6444750826 -0.3124915865  0.6783008734
C   3.4479163046  0.6062198484  1.3026811119
C   4.8262384091  0.3679612982  1.1105577052
C   5.0805548173 -0.7013585488  0.2883196859
S   3.5975159458 -1.5176791495 -0.1291117718
C   6.3924254130 -1.1814421773 -0.1434225751
C   7.4786104652 -0.2704545182 -0.3936476361
C   8.7130668136 -0.7527101333 -0.9703267149
C   8.8831283918 -2.1343570977 -1.2664083595
C   7.8561343734 -2.9752819057 -0.9612975947
C   6.6314279730 -2.5115828218 -0.4092006852
N   7.5195244507  1.0361553021 -0.1364697141
S   8.9678660695  1.5757386301 -0.6087566374
N   9.6277297881  0.2006833019 -1.1486414495
H   1.1594609766  1.8818238965 -0.0718767278
H  -5.5876113350 -0.5070557112  0.3913726315
H  -6.5914505162  1.7545736688 -0.4438063945
H  -0.4480783210  3.0491363398 -1.6937524650
H  -1.9212260074  3.9088218673 -1.2102596226
H  -0.5697104179  3.7396744297 -0.0775685298
H  -2.4093202338 -2.7229829364  1.1150684288
H  -3.7977679784 -1.9119006594  1.8590761771
H  -3.8744728816 -2.4042305461  0.1652811473
H   3.0412462872  1.4327377744  1.8761042405
H   5.6316880890  0.9903274578  1.4851427525
H   9.8097756067 -2.4803838320 -1.7139634672
H   7.9571047935 -4.0382807640 -1.1567632473
H   5.8571176120 -3.2377756525 -0.1898974257
42
Scanning combination 67/73: [330.0982]  Energy = -2548.7095416242
C  -0.8214347456  0.9211582963  0.0662791506
C  -1.3091334683 -0.3587890743  0.4573864371
C  -2.6697951908 -0.6549340831  0.5018853386
C  -3.5596852881  0.3743146801  0.1261994384
C  -3.0589232363  1.6345099562 -0.3015175138
C  -1.7015485240  1.9311789900 -0.3605591006
C   0.6027183876  0.9894615334  0.1531423099
C   1.2071161858 -0.1616282157  0.5444564971
S   0.0338092611 -1.4253878257  0.8493430125
C  -5.0004946708  0.3459413238  0.0967092089
C  -5.5511157923  1.5023629387 -0.3320873507
S  -4.3699149737  2.7066425299 -0.7257172781
C  -1.1669637892  3.2448378789 -0.8584502326
C  -3.1993609899 -1.9960942509  0.9331382685
C   2.6528147910 -0.3020111797  0.6913953219
C   3.4605731830  0.6149758636  1.3172766805
C   4.8395075657  0.3890055509  1.1100760045
C   5.0947346846 -0.7090209758  0.3245808051
S   3.6095463691 -1.5286375651 -0.0780059270
C   6.3940307392 -1.1891112710 -0.1431841826
C   7.4876389886 -0.2829611090 -0.3789780670
C   8.7216028600 -0.7695426252 -0.9512398235
C   8.8887515276 -2.1492022658 -1.2524931799
C   7.8501467137 -2.9870009083 -0.9742297985
C   6.6208594521 -2.5178025657 -0.4337032053
N   7.5266277990  1.0273604060 -0.1406427348
S   8.9731526618  1.5636641670 -0.6230473178
N   9.6351262068  0.1824277037 -1.1432934493
H   1.1632021886  1.8866122209 -0.0928463874
H  -5.5800822458 -0.5215459954  0.3944372704
H  -6.6030896397  1.7312735953 -0.4487028200
H  -0.4728140879  3.0875734425 -1.6938993537
H  -1.9639065432  3.9098749453 -1.1999789052
H  -0.6056852256  3.7641789426 -0.0716262528
H  -2.3954406088 -2.7126202470  1.1148740009
H  -3.7883611079 -1.9077658281  1.8554045008
H  -3.8646801027 -2.4172043218  0.1687682255
H   3.0620042931  1.4363797322  1.9026757912
H   5.6433952174  1.0294755026  1.4582684588
H   9.8288409387 -2.4933821471 -1.6717353040
H   7.9481737295 -4.0498396353 -1.1748540166
H   5.8352565625 -3.2398275623 -0.2391044265
42
Scanning combination 68/73: [335.0982]  Energy = -2548.7095207626
C  -0.8196031235  0.9237845929  0.0635282200
C  -1.3085220662 -0.3552799013  0.4549810100
C  -2.6678235842 -0.6546702045  0.5011750394
C  -3.5589254396  0.3724614826  0.1255239507
C  -3.0580760305  1.6329009658 -0.3015319138
C  -1.7013992365  1.9326574541 -0.3612687955
C   0.6042147009  0.9913099142  0.1525630385
C   1.2059993668 -0.1603663480  0.5483528807
S   0.0305706715 -1.4229360857  0.8491951179
C  -4.9999182006  0.3426996701  0.0966743970
C  -5.5501688946  1.4998216751 -0.3308547026
S  -4.3692415712  2.7039958884 -0.7249698894
C  -1.1695936892  3.2475983334 -0.8574051201
C  -3.1952530989 -1.9962813681  0.9332950149
C   2.6515187320 -0.3024598752  0.6956940347
C   3.4599332813  0.6237680638  1.3059368785
C   4.8391655196  0.3924870444  1.1042383484
C   5.0958952244 -0.7222798091  0.3451257730
S   3.6069940858 -1.5320028305 -0.0706579839
C   6.3876619356 -1.1863499539 -0.1614976820
C   7.4891578367 -0.2836940937 -0.3755414189
C   8.7248305771 -0.7707028829 -0.9464987151
C   8.8920496027 -2.1518613991 -1.2450010653
C   7.8489388793 -2.9868230093 -0.9775591487
C   6.6160580064 -2.5155802603 -0.4484225857
N   7.5303893615  1.0262779788 -0.1348114214
S   8.9759424597  1.5631999293 -0.6204580370
N   9.6381560877  0.1811370854 -1.1395420946
H   1.1610394018  1.8908166444 -0.0944572506
H  -5.5810661445 -0.5242037385  0.3936855279
H  -6.6020937008  1.7287461581 -0.4459474261
H  -0.4755728302  3.0894633370 -1.6926628069
H  -1.9676312319  3.9115746792 -1.1988530457
H  -0.6091076724  3.7659933781 -0.0692980665
H  -2.3937604121 -2.7155090574  1.1163006798
H  -3.7859733335 -1.9074754470  1.8541699481
H  -3.8608195764 -2.4158788846  0.1687849870
H   3.0604808643  1.4407035860  1.8964377872
H   5.6437518152  1.0308341223  1.4546034285
H   9.8279644439 -2.4989804299 -1.6720749181
H   7.9459575710 -4.0505992099 -1.1747197488
H   5.8350794872 -3.2393966469 -0.2398321326
42
Scanning combination 69/73: [340.0982]  Energy = -2548.7097083384
C  -0.8167535694  0.9330870983  0.0579896139
C  -1.3015050291 -0.3475690210  0.4506414524
C  -2.6577795438 -0.6566901929  0.4954746499
C  -3.5548937298  0.3638021940  0.1193111541
C  -3.0611720729  1.6280028750 -0.3045478937
C  -1.7061008203  1.9381066121 -0.3627085052
C   0.6074998725  1.0033999792  0.1494309505
C   1.2102149241 -0.1474296612  0.5530760533
S   0.0365015091 -1.4106410321  0.8513994923
C  -4.9957797292  0.3253726404  0.0949192154
C  -5.5538191222  1.4811477298 -0.3235823460
S  -4.3805219238  2.6925849422 -0.7195239509
C  -1.1888779345  3.2630203872 -0.8487434325
C  -3.1771949972 -2.0001230655  0.9310466296
C   2.6519470238 -0.2973297184  0.7181080171
C   3.4641068155  0.6639707767  1.2668523439
C   4.8414059660  0.4224980506  1.0691538196
C   5.0957201694 -0.7312058995  0.3667327833
S   3.6081690015 -1.5888036761  0.0570623274
C   6.3815044737 -1.1978519980 -0.1563960999
C   7.4914808664 -0.2980219065 -0.3597458383
C   8.7292181505 -0.7872868666 -0.9271676994
C   8.8887919805 -2.1655073327 -1.2426405462
C   7.8329806315 -2.9928400989 -1.0050899087
C   6.5973054274 -2.5209084872 -0.4816088355
N   7.5424780071  1.0082311882 -0.1022766906
S   9.0029424405  1.5369629015 -0.5526203060
N   9.6562580317  0.1575229819 -1.0887099979
H   1.1608943228  1.9053869398 -0.0982564448
H  -5.5704151378 -0.5472293928  0.3896356573
H  -6.6080969356  1.7067564596 -0.4279932389
H  -0.4923378197  3.1213817704 -1.6847763956
H  -1.9952045401  3.9194397885 -1.1860591439
H  -0.6372327839  3.7830467214 -0.0554127349
H  -2.3734790703 -2.7155061607  1.1194585332
H  -3.7704736512 -1.9098385416  1.8499447033
H  -3.8391292337 -2.4260164722  0.1671479739
H   3.0695509338  1.5239125749  1.7972211151
H   5.6474529940  1.0754958465  1.3862885980
H   9.8360174251 -2.5171186772 -1.6412865698
H   7.9246077727 -4.0547314929 -1.2147450010
H   5.8009189906 -3.2415802067 -0.3306034295
42
Scanning combination 70/73: [345.0982]  Energy = -2548.7092778438
C  -0.8182018888  0.9314763857  0.0590805836
C  -1.3008824762 -0.3508445919  0.4497353020
C  -2.6575829252 -0.6581069893  0.4952222730
C  -3.5546554742  0.3634278403  0.1200678797
C  -3.0624530215  1.6281319476 -0.3042385923
C  -1.7072284864  1.9371551012 -0.3624008726
C   0.6055519323  1.0033722683  0.1536105303
C   1.2106717322 -0.1457671093  0.5559915031
S   0.0396764740 -1.4118259474  0.8534921271
C  -4.9952416202  0.3246235466  0.0952564607
C  -5.5541306589  1.4796996606 -0.3237564816
S  -4.3825226755  2.6927545596 -0.7186867865
C  -1.1899583743  3.2630737485 -0.8473173036
C  -3.1770721144 -2.0012787027  0.9310417600
C   2.6533278577 -0.2903715775  0.7123311313
C   3.4660195774  0.6737604138  1.2551510394
C   4.8427751079  0.4271293752  1.0643912902
C   5.0998194012 -0.7405468777  0.3867050295
S   3.6070540101 -1.5852184961  0.0566088703
C   6.3747497792 -1.1952196815 -0.1726138325
C   7.4941563971 -0.3019558649 -0.3492819060
C   8.7323398896 -0.7919717793 -0.9143469597
C   8.8900797702 -2.1685117733 -1.2348680177
C   7.8306793761 -2.9927111860 -1.0094250387
C   6.5920869345 -2.5180997997 -0.4964427104
N   7.5459265555  1.0043072907 -0.0910452091
S   9.0024406087  1.5341687747 -0.5527844197
N   9.6576873038  0.1530355713 -1.0819686626
H   1.1631393526  1.9012111803 -0.0979730203
H  -5.5689828346 -0.5485421573  0.3893807309
H  -6.6084230581  1.7043909380 -0.4282135437
H  -0.4929287690  3.1239539844 -1.6833446073
H  -1.9964371899  3.9194393698 -1.1841742927
H  -0.6388127190  3.7845760684 -0.0545800126
H  -2.3713555978 -2.7143598661  1.1191856091
H  -3.7695681877 -1.9110500666  1.8507011740
H  -3.8373699473 -2.4275677890  0.1657185531
H   3.0713135716  1.5305059755  1.7893781368
H   5.6465017755  1.0870541572  1.3738030295
H   9.8331045695 -2.5191014776 -1.6452274839
H   7.9205299726 -4.0544191713 -1.2215471175
H   5.8013761568 -3.2408766947 -0.3262160695
42
Scanning combination 71/73: [350.0982]  Energy = -2548.7109176272
C  -0.8318859535  0.9476606499  0.0975519830
C  -1.2883058264 -0.3444106941  0.4895619937
C  -2.6376030518 -0.6841187265  0.5100672670
C  -3.5511032153  0.3219770327  0.1306952336
C  -3.0820572268  1.6000127360 -0.2797406096
C  -1.7349617553  1.9386879337 -0.3241713736
C   0.5865657958  1.0477675012  0.1768092904
C   1.2181628180 -0.0898874528  0.5669943022
S   0.0745760156 -1.3726411348  0.9067656567
C  -4.9900907749  0.2562297394  0.0968167912
C  -5.5689529791  1.4048272808 -0.3134056196
S  -4.4186910658  2.6434611952 -0.6912234238
C  -1.2375656915  3.2786003995 -0.7907844249
C  -3.1345272264 -2.0428421348  0.9259661105
C   2.6644169247 -0.1876562534  0.6504647159
C   3.4741568514  0.8584451752  1.0185019166
C   4.8481344093  0.6004863193  0.8429046448
C   5.1018435913 -0.6416942807  0.3092468630
S   3.6168264678 -1.5352284451  0.1226925205
C   6.3863819161 -1.1853906866 -0.1263586059
C   7.5628098566 -0.3563484229 -0.2318605241
C   8.7831026726 -0.8969696315 -0.7912835675
C   8.8442928904 -2.2497336338 -1.2282174192
C   7.7265386721 -3.0137442314 -1.0766933938
C   6.5226036819 -2.5013433839 -0.5229730619
N   7.7019319466  0.9179926501  0.1308612657
S   9.2201192172  1.3597979349 -0.2147289383
N   9.7877232078 -0.0218618466 -0.8362282956
H   1.1246950452  1.9535857517 -0.0861048886
H  -5.5465140262 -0.6309942965  0.3816134962
H  -6.6267177648  1.6118291567 -0.4193786622
H  -0.5323716134  3.1638246365 -1.6237334515
H  -2.0530462986  3.9250945660 -1.1238547619
H  -0.7001037418  3.7978522836  0.0126526974
H  -2.3172120389 -2.7404456136  1.1219446540
H  -3.7432832005 -1.9720355754  1.8366137730
H  -3.7740732520 -2.4800577602  0.1488407437
H   3.0838264430  1.7893986632  1.4152692991
H   5.6550875081  1.2954230501  1.0456406714
H   9.7617527205 -2.6304402594 -1.6655995006
H   7.7353585105 -4.0522575469 -1.3956576003
H   5.6853596806 -3.1839520758 -0.4200777426
42
Scanning combination 72/73: [355.0982]  Energy = -2548.7111399227
C  -0.8384273630  0.9602574423  0.0888422870
C  -1.2884160913 -0.3345278807  0.4772579177
C  -2.6370747654 -0.6767804772  0.5160634527
C  -3.5594372277  0.3237619715  0.1429921825
C  -3.0974631869  1.6042262912 -0.2682716270
C  -1.7515594171  1.9487683835 -0.3187969724
C   0.5825267281  1.0645948413  0.1602709591
C   1.2206046204 -0.0721911759  0.5469912451
S   0.0808360040 -1.3634660726  0.8683746751
C  -4.9986390698  0.2475981359  0.1027995198
C  -5.5835352379  1.3915329951 -0.3125456061
S  -4.4400278542  2.6371442019 -0.6877217364
C  -1.2601774103  3.2898015290 -0.7866625966
C  -3.1238080771 -2.0394662154  0.9291504821
C   2.6673291727 -0.1769448283  0.6547572938
C   3.4798635932  0.8664863877  1.0249531152
C   4.8546619874  0.6079493960  0.8432035417
C   5.1119174290 -0.6456260295  0.3339403157
S   3.6231225900 -1.5407065167  0.1696698589
C   6.3872498925 -1.1869745143 -0.1431389794
C   7.5756600817 -0.3699668414 -0.2247864042
C   8.7933638788 -0.9103460257 -0.7928921077
C   8.8577569438 -2.2647149194 -1.2235207412
C   7.7343949015 -3.0221576806 -1.0812594332
C   6.5218565789 -2.5001533672 -0.5522999525
N   7.7209126825  0.9001075153  0.1470468556
S   9.2372289165  1.3419753367 -0.2069992561
N   9.7984363761 -0.0363776145 -0.8411310347
H   1.1143562376  1.9743977071 -0.1032621120
H  -5.5537242518 -0.6427423236  0.3809063143
H  -6.6422435137  1.5905244134 -0.4247832889
H  -0.5563473973  3.1706024571 -1.6199720801
H  -2.0758981896  3.9359980085 -1.1202801309
H  -0.7206568030  3.8099300422  0.0148579912
H  -2.3019141621 -2.7325379307  1.1220574181
H  -3.7351797974 -1.9795205273  1.8387388676
H  -3.7580791393 -2.4745960974  0.1469241124
H   3.0854558116  1.7927807380  1.4301639456
H   5.6604046364  1.3083250980  1.0355946995
H   9.7826310336 -2.6527444227 -1.6385593097
H   7.7520302726 -4.0681455655 -1.3742591977
H   5.6772087295 -3.1771752991 -0.4780144583
42
Scanning combination 73/73: [360.0982]  Energy = -2548.7106497937
C  -0.8387458556  0.9628511205  0.0880090204
C  -1.2879405811 -0.3327492233  0.4750061887
C  -2.6357922242 -0.6777063820  0.5110980359
C  -3.5585277426  0.3226970024  0.1401560736
C  -3.0991698285  1.6049414463 -0.2686155157
C  -1.7531141223  1.9509011592 -0.3194199475
C   0.5826230299  1.0666534819  0.1608530884
C   1.2213732742 -0.0693696961  0.5498749533
S   0.0811644034 -1.3608341241  0.8688746111
C  -4.9971151447  0.2436817539  0.1036131905
C  -5.5848929409  1.3863823338 -0.3095456220
S  -4.4453688867  2.6366919183 -0.6813314437
C  -1.2668076732  3.2947540831 -0.7856093383
C  -3.1203965486 -2.0404902659  0.9273297169
C   2.6686772830 -0.1746575583  0.6549248265
C   3.4845781748  0.8725814446  1.0097178939
C   4.8578257069  0.6079108545  0.8333888561
C   5.1162949287 -0.6554445325  0.3535583112
S   3.6224047441 -1.5365499255  0.1613005017
C   6.3830959521 -1.1820297342 -0.1605441995
C   7.5778520013 -0.3714604365 -0.2191152927
C   8.7981834536 -0.9173689429 -0.7762233597
C   8.8575792316 -2.2698797800 -1.2114244022
C   7.7309477150 -3.0239364167 -1.0790845808
C   6.5163918936 -2.4965553736 -0.5626069957
N   7.7235222345  0.9007544952  0.1460222382
S   9.2415369930  1.3394896883 -0.2059309135
N   9.8044280119 -0.0440995435 -0.8268870193
H   1.1156903840  1.9753626237 -0.1035534838
H  -5.5479662669 -0.6482277345  0.3853675305
H  -6.6439532561  1.5811648526 -0.4249045447
H  -0.5650527029  3.1836295967 -1.6219898423
H  -2.0879253612  3.9356494333 -1.1157488103
H  -0.7298100073  3.8170875627  0.0163253319
H  -2.2962700077 -2.7302221137  1.1229907320
H  -3.7307639191 -1.9766167888  1.8372808558
H  -3.7554114307 -2.4819898154  0.1490710314
H   3.0991080715  1.8003099051  1.4185728861
H   5.6656233081  1.3038586159  1.0324918188
H   9.7795359095 -2.6584322528 -1.6322086961
H   7.7406008204 -4.0654409723 -1.3870335284
H   5.6731871185 -3.1743911929 -0.4776501341
