22
Image 0  Energy = -383.6556801162
C  -0.8735712574 -0.4714272624  0.4306032277
C   1.4461831776  0.2960849699 -0.0460845524
C  -1.4857252683  0.8734609162  0.8225998693
C   2.0538731551 -0.3939504395  1.1685013062
C   2.4338428489  0.3064727052 -1.2056120614
N   0.2376672048 -0.3947552103 -0.4999206134
N  -1.9211906377 -1.2262313934 -0.2578630325
O  -1.9524884639  1.5717839904 -0.3135044233
H  -2.4189661091  0.9144149284 -0.8500974959
H  -0.1009248618  0.0642592975 -1.3400632484
H  -0.5225669401 -0.9690808590  1.3413717243
H   1.2276696090  1.3402126507  0.2261108322
H  -2.6477606601 -1.5119538963  0.3864701685
H  -1.5152020628 -2.0571152583 -0.6709148515
H  -0.7469431135  1.5072373954  1.3132111317
H  -2.2952891616  0.6985849207  1.5451043601
H   3.0177342739  0.0568209210  1.4064194581
H   2.0127127523  0.8120942136 -2.0772983832
H   2.2108159518 -1.4548893085  0.9625117562
H   1.4267124085 -0.3059077776  2.0562189573
H   3.3520506510  0.8253110696 -0.9270072751
H   2.6812767711 -0.7177860895 -1.4922947050
