22
Image 0  Energy = -383.8057872138
C  -0.7781260000 -1.0675610000  0.3210590000
C   1.3025530000  0.0521200000 -0.0282990000
C  -0.9719930000  1.4562490000  0.8236570000
C   1.9812290000 -0.4184330000  1.2501750000
C   2.2640330000  0.4351680000 -1.1331070000
N   0.2911640000 -0.8768210000 -0.5003990000
N  -2.0191630000 -1.3720060000 -0.2331120000
O  -1.6647340000  1.6302230000 -0.4018370000
H  -2.2586320000  0.8701390000 -0.4758990000
H   0.0278490000 -0.6783120000 -1.4584950000
H  -0.6097590000 -1.3678560000  1.3411780000
H   0.6812640000  0.9183000000  0.2869410000
H  -2.5732630000 -2.0573610000  0.2574120000
H  -2.0524280000 -1.5045420000 -1.2338230000
H  -0.3689930000  2.3513920000  0.9917470000
H  -1.6396090000  1.2942150000  1.6746530000
H   2.7644490000  0.2914620000  1.5228460000
H   1.7251140000  0.7306950000 -2.0377940000
H   2.4355930000 -1.4060980000  1.1342150000
H   1.2730050000 -0.4472240000  2.0805790000
H   2.8503450000  1.2986970000 -0.8143220000
H   2.9600090000 -0.3688060000 -1.3889100000
22
Image 1  Energy = -383.8055813177
C  -0.7776633191 -1.0685062614  0.3210775350
C   1.3021391339  0.0520094938 -0.0283495426
C  -0.9715670215  1.4571246704  0.8236494201
C   1.9811232781 -0.4181792369  1.2502369903
C   2.2641109520  0.4349799994 -1.1330887878
N   0.2912228370 -0.8765732454 -0.5004035352
N  -2.0192749100 -1.3718487800 -0.2330211000
O  -1.6647301649  1.6303737313 -0.4019720834
H  -2.2585934559  0.8700443691 -0.4758571852
H   0.0278326792 -0.6783625035 -1.4585637582
H  -0.6097922365 -1.3678580181  1.3411227242
H   0.6808906791  0.9182576177  0.2872423587
H  -2.5733173017 -2.0575034786  0.2573531376
H  -2.0525262934 -1.5045541889 -1.2339251146
H  -0.3690617879  2.3513031023  0.9917138100
H  -1.6394474950  1.2941418642  1.6746752079
H   2.7644247887  0.2914620041  1.5228365431
H   1.7250671405  0.7307486230 -2.0378888249
H   2.4356643386 -1.4062414839  1.1342161694
H   1.2729983837 -0.4472043662  2.0806383342
H   2.8503582253  1.2987793289 -0.8142838457
H   2.9600485498 -0.3687532413 -1.3889434529
22
Image 2  Energy = -383.8206661365
C  -0.8363254173 -0.9165046014  0.3414418356
C   1.3410721665  0.0625569703 -0.0226736767
C  -1.0139061286  1.3408894939  0.8239432774
C   1.9966586422 -0.4392877103  1.2462215344
C   2.2646821442  0.4504632116 -1.1370719760
N   0.2945551839 -0.9079220199 -0.4982434667
N  -2.0082377930 -1.3924321697 -0.2431570779
O  -1.6662229550  1.6119864805 -0.3839305674
H  -2.2700155071  0.8792314901 -0.4847647253
H   0.0299961936 -0.6693079023 -1.4494614059
H  -0.6089873474 -1.3630176200  1.3362810365
H   0.7451587926  0.9242079956  0.2404656596
H  -2.5670889533 -2.0370667191  0.2689021806
H  -2.0369594699 -1.5033302493 -1.2270516105
H  -0.3732762799  2.3356547765  0.9933779245
H  -1.6733627996  1.3036127061  1.6784646419
H   2.7664366067  0.2877497727  1.5240850929
H   1.7280935528  0.7247559719 -2.0277587241
H   2.4303794335 -1.3967004776  1.1325198994
H   1.2751998455 -0.4511093796  2.0693978824
H   2.8514946344  1.2912949697 -0.8192705678
H   2.9505616298 -0.3720845423 -1.3832516379
22
Image 3  Energy = -383.8271509360
C  -0.8449550393 -0.8637238908  0.3531311791
C   1.3483947198  0.0567859418 -0.0279024514
C  -1.0309134714  1.3110691283  0.8241137127
C   1.9972896922 -0.4338443414  1.2460972689
C   2.2704540750  0.4467753224 -1.1387298730
N   0.2948064929 -0.9097626819 -0.4893264727
N  -1.9987382931 -1.3840733176 -0.2372604937
O  -1.6673806675  1.6048263643 -0.3769414312
H  -2.2790351114  0.8796834101 -0.4919234485
H   0.0318585087 -0.6647327931 -1.4429138460
H  -0.6160413410 -1.3511258438  1.3271536553
H   0.7698418575  0.9332543537  0.2242117039
H  -2.5673576472 -2.0315992798  0.2787064399
H  -2.0294672403 -1.5032919732 -1.2325002806
H  -0.3819292809  2.2984527956  0.9938061145
H  -1.6895498017  1.3039618435  1.6794327670
H   2.7699822881  0.2859424514  1.5259149131
H   1.7262339162  0.7239925522 -2.0279115715
H   2.4342343817 -1.4050189740  1.1302451837
H   1.2765930364 -0.4537521143  2.0639302581
H   2.8567815012  1.2942070022 -0.8202737289
H   2.9488038907 -0.3743856366 -1.3825942265
22
Image 4  Energy = -383.8427399306
C  -0.8658777377 -0.6637238908  0.4113938553
C   1.3647999016  0.0401304822 -0.0461023497
C  -1.0920554085  1.1944720542  0.8336111175
C   2.0111758762 -0.4324091909  1.2389999497
C   2.2985579907  0.4336271312 -1.1521174877
N   0.3029093068 -0.8994271046 -0.4613553292
N  -1.9784497685 -1.3448060923 -0.2256626154
O  -1.6854709723  1.5746820449 -0.3619913919
H  -2.3195716564  0.8816517555 -0.5280443383
H   0.0413424008 -0.6480120633 -1.4085827891
H  -0.6521444805 -1.2860859255  1.2916105036
H   0.8654134191  0.9719367788  0.1602409780
H  -2.5559251842 -1.9954938948  0.3140444496
H  -1.9953856969 -1.4994965086 -1.2325754594
H  -0.4201666494  2.1131404093  0.9977088923
H  -1.7584399860  1.2987777376  1.6826683618
H   2.7876654783  0.2812688366  1.5347572917
H   1.7203225955  0.7202099338 -2.0276619729
H   2.4449491872 -1.4257250700  1.1233684318
H   1.2782726003 -0.4639650896  2.0446864016
H   2.8775985806  1.3028487174 -0.8255490862
H   2.9503880933 -0.3899614047 -1.3849828661
22
Image 5  Energy = -383.8627325880
C  -0.8668358125 -0.5440587528  0.4475072739
C   1.3825540431  0.0345147953 -0.0657345266
C  -1.1560945305  1.0871667787  0.8178245029
C   2.0226383864 -0.4250038192  1.2362963232
C   2.3208305943  0.4234626546 -1.1641198297
N   0.3053804068 -0.8551467095 -0.4116582209
N  -1.9778510595 -1.2779038562 -0.1964216005
O  -1.7132158466  1.5636197594 -0.3554133767
H  -2.3682022290  0.8786294400 -0.5727050505
H   0.0472715976 -0.6285510340 -1.3858790040
H  -0.6854557584 -1.2053593826  1.2820433892
H   0.9416420813  1.0077738229  0.1144716641
H  -2.5317226703 -1.9503890869  0.3388412393
H  -1.9603898235 -1.4943437297 -1.2280569606
H  -0.4394521093  1.9131404093  1.0090876208
H  -1.8247466498  1.2752331243  1.6878196308
H   2.8021667097  0.2732091196  1.5412242063
H   1.7200758352  0.7159398141 -2.0302489008
H   2.4573707541 -1.4453492521  1.1184887205
H   1.2822015292 -0.4742674881  2.0252886459
H   2.8964660306  1.3038142570 -0.8341352284
H   2.9652777575 -0.4124918272 -1.3960567521
22
Image 6  Energy = -383.8688888991
C  -0.8713553251 -0.4395331717  0.4816906122
C   1.4036885176  0.0423646869 -0.0724128493
C  -1.2226258726  0.9830653770  0.8028509804
C   2.0359796151 -0.4201541112  1.2309564652
C   2.3448143022  0.4079348098 -1.1793026676
N   0.2999328610 -0.8076548497 -0.3774979326
N  -1.9831274197 -1.2048334562 -0.1817748687
O  -1.7524696974  1.5500078225 -0.3579518907
H  -2.4114161856  0.8826787534 -0.6158323808
H   0.0537516840 -0.6111669089 -1.3574687406
H  -0.7149185626 -1.1265713280  1.2842608119
H   1.0171766820  1.0425501697  0.0748600173
H  -2.5061758236 -1.9066475642  0.3638960974
H  -1.9247687124 -1.4847630082 -1.2086179959
H  -0.4496538795  1.7131404093  1.0209471791
H  -1.8879258383  1.2413756160  1.6875626176
H   2.8166795948  0.2651125084  1.5476402871
H   1.7227736084  0.7111919496 -2.0340443637
H   2.4688645617 -1.4604669245  1.1143434816
H   1.2857784703 -0.4839777700  2.0071625899
H   2.9147862597  1.3017083592 -0.8441170097
H   2.9801215487 -0.4317228381 -1.4086873223
22
Image 7  Energy = -383.8757790020
C  -0.8501963858 -0.5423279292  0.4626149870
C   1.4171114240  0.0666988890 -0.0654506278
C  -1.2809240628  1.0204081022  0.7917738135
C   2.0424546256 -0.4076918072  1.2254078930
C   2.3651025281  0.3833904924 -1.1942477473
N   0.2801304484 -0.7176372309 -0.3496479781
N  -2.0184179295 -1.1071586558 -0.1658018058
O  -1.8030141849  1.5465887966 -0.3756438061
H  -2.4491507110  0.8854197727 -0.6586360695
H   0.0543333920 -0.5958123830 -1.3341706445
H  -0.7376140235 -1.0426346274  1.3255596200
H   1.0496672884  1.0802755789  0.0815003063
H  -2.4719800686 -1.8641361790  0.3747586054
H  -1.8937767750 -1.4657083044 -1.1681178928
H  -0.4372556071  1.5131404093  1.0352094414
H  -1.9265284313  1.1690257167  1.6689826076
H   2.8314992419  0.2580448668  1.5541230458
H   1.7341995280  0.7060756029 -2.0460075198
H   2.4826523400 -1.4711734991  1.1115856283
H   1.2908022172 -0.4905979164  1.9962681834
H   2.9320280786  1.2902437734 -0.8586880722
H   3.0087889422 -0.4507955697 -1.4329096632
22
Image 8  Energy = -383.8962156119
C  -0.8790636836 -0.5313116147  0.4385635232
C   1.4193882429  0.0816803232 -0.0546332829
C  -1.2903611883  1.0113063747  0.7823267978
C   2.0480563568 -0.4222458176  1.2237488087
C   2.3592794328  0.3915123045 -1.1933413471
N   0.2881814810 -0.7318558249 -0.3731908145
N  -2.0328589195 -1.1321195776 -0.1792369894
O  -1.7982647376  1.5567207438 -0.3747287365
H  -2.4491304296  0.8807913414 -0.6562191555
H   0.0498722084 -0.5940123387 -1.3364709788
H  -0.7268037448 -1.0660645199  1.3636286482
H   1.0440019744  1.0822603742  0.0943951832
H  -2.4684951772 -1.8600453117  0.3666192610
H  -1.8966208996 -1.4591850360 -1.1540656230
H  -0.4054575473  1.5476755933  1.0414800792
H  -1.9269843900  1.1631246521  1.6675152591
H   2.8327902824  0.2597839156  1.5551139512
H   1.7416578932  0.7021845750 -2.0452383172
H   2.4782336888 -1.4568675226  1.1118938311
H   1.2909325468 -0.4884908648  1.9998487750
H   2.9305014664  1.2795473364 -0.8639298364
H   3.0110568535 -0.4507511068 -1.4356166160
22
Image 9  Energy = -383.9047319642
C  -0.9049869687 -0.5101162850  0.4528596649
C   1.4274908505  0.1003092731 -0.0449801531
C  -1.2924498904  0.9772224249  0.7754399584
C   2.0603431387 -0.4367699083  1.2216612868
C   2.3634531246  0.3909971049 -1.1979664279
N   0.2897152267 -0.7293023620 -0.3814618791
N  -2.0530523501 -1.1244743463 -0.1965085581
O  -1.8203826594  1.5594697307 -0.3847253419
H  -2.4568046697  0.8853013961 -0.6672499191
H   0.0454841672 -0.5840912153 -1.3396321350
H  -0.7269498598 -1.0509843376  1.3871530265
H   1.0571010538  1.1002710326  0.1044209858
H  -2.4581606588 -1.8478119378  0.3676195225
H  -1.8886011999 -1.4510110936 -1.1299953098
H  -0.3883734592  1.5119301841  1.0483331314
H  -1.9481525410  1.1388156487  1.6621717195
H   2.8385061788  0.2577268221  1.5582060799
H   1.7529302429  0.6956479878 -2.0472122543
H   2.4758485028 -1.4414399951  1.1102193761
H   1.2934084869 -0.4889060430  1.9986275137
H   2.9361457442  1.2650083627 -0.8751487172
H   3.0173994490 -0.4541545018 -1.4433692404
22
Image 10  Energy = -383.9052138541
C  -0.9206544494 -0.5108887351  0.4547817678
C   1.4323649475  0.1134692299 -0.0381969592
C  -1.2940735741  0.9616827248  0.7725289621
C   2.0660893670 -0.4367272714  1.2225874856
C   2.3672253474  0.3846383079 -1.2007735931
N   0.2830122624 -0.7213065293 -0.3816292044
N  -2.0741273758 -1.1044571030 -0.1940169412
O  -1.8364534436  1.5613062260 -0.3880819996
H  -2.4657234249  0.8883662616 -0.6798366770
H   0.0398440076 -0.5729031016 -1.3454048754
H  -0.7280410273 -1.0344631820  1.4085972781
H   1.0639787119  1.1194293833  0.1235138033
H  -2.4513521132 -1.8415962584  0.3667051765
H  -1.8777218325 -1.4501988630 -1.1186296887
H  -0.3753245389  1.4804178530  1.0534715136
H  -1.9605108458  1.1085341375  1.6476394419
H   2.8440758066  0.2539317370  1.5612960145
H   1.7647359399  0.6892344668 -2.0522891574
H   2.4765443331 -1.4324011210  1.1064763528
H   1.2983380930 -0.4893429966  1.9978788334
H   2.9452369437  1.2522581691 -0.8871910519
H   3.0224490071 -0.4553454780 -1.4509642771
22
Image 11  Energy = -383.9106518482
C  -0.9341276034 -0.5183025313  0.4715928982
C   1.4228150717  0.1326074011 -0.0285558281
C  -1.2738250086  0.9572014903  0.7649839281
C   2.0630287470 -0.4133635015  1.2289816037
C   2.3639594041  0.3766388019 -1.1984363916
N   0.2652189320 -0.7175389319 -0.3958196944
N  -2.1139479505 -1.0884144757 -0.2097275193
O  -1.8457183018  1.5654138072 -0.3786012093
H  -2.4740755268  0.8931711767 -0.6957803855
H   0.0270124949 -0.5504885249 -1.3573086181
H  -0.7273741898 -1.0178674161  1.4306071278
H   1.0635554029  1.1433453063  0.1796101380
H  -2.4552077556 -1.8550334223  0.3625419436
H  -1.8656084364 -1.4546275904 -1.0926644925
H  -0.3614283485  1.4775901311  1.0576635627
H  -1.9670399869  1.0502450912  1.6131836400
H   2.8551776266  0.2469160599  1.5684801910
H   1.7898419415  0.6749493503 -2.0659436712
H   2.4815500268 -1.4234605311  1.0933830442
H   1.3119208467 -0.4882558035  2.0037973941
H   2.9684361388  1.2281239984 -0.9128055213
H   3.0257487649 -0.4552120719 -1.4607199902
22
Image 12  Energy = -383.9103766699
C  -0.9323733763 -0.5162594736  0.4679221328
C   1.4123817019  0.1367390515 -0.0304342307
C  -1.2673244243  0.9571072625  0.7648886692
C   2.0651719147 -0.4191426192  1.2256576154
C   2.3613525732  0.3741350852 -1.1958135075
N   0.2611652170 -0.7154723462 -0.3909041385
N  -2.1254598632 -1.0882273270 -0.1894011616
O  -1.8448697287  1.5628171624 -0.3754641799
H  -2.4695496265  0.8994949473 -0.6961583185
H   0.0199185172 -0.5394782920 -1.3628100455
H  -0.7291750173 -1.0155817005  1.4268351927
H   1.0625310084  1.1455396051  0.1997689332
H  -2.4604890330 -1.8594625356  0.3541361970
H  -1.8581289250 -1.4651312926 -1.0970132635
H  -0.3653301184  1.4890888145  1.0568153697
H  -1.9653251508  1.0307600602  1.6022486271
H   2.8621344858  0.2489081007  1.5725757114
H   1.7971325912  0.6698121304 -2.0731781059
H   2.4791544417 -1.4109942982  1.0878844996
H   1.3140759232 -0.4867303127  2.0126163327
H   2.9804300245  1.2222836682 -0.9216768855
H   3.0224891405 -0.4565678591 -1.4600332726
22
Image 13  Energy = -383.9111792281
C  -0.9282368767 -0.5153811292  0.4633357429
C   1.4100223733  0.1334876330 -0.0317902027
C  -1.2682580419  0.9586210297  0.7648593882
C   2.0643828646 -0.4193868027  1.2253409515
C   2.3584306736  0.3767186884 -1.1950285562
N   0.2598346241 -0.7137451863 -0.3905934971
N  -2.1174926175 -1.0908317924 -0.1854421959
O  -1.8382391584  1.5635261324 -0.3740869809
H  -2.4660377603  0.9006881571 -0.6933565183
H   0.0180815893 -0.5365816255 -1.3598926570
H  -0.7304779564 -1.0178846800  1.4182720411
H   1.0608002257  1.1415362274  0.2028123229
H  -2.4661000766 -1.8658063265  0.3530728584
H  -1.8592105985 -1.4683031923 -1.0966390212
H  -0.3719607521  1.5009660441  1.0552900326
H  -1.9622314223  1.0289181460  1.6027715110
H   2.8626319505  0.2499556266  1.5725367042
H   1.7974928755  0.6689283771 -2.0755065385
H   2.4782702875 -1.4090276535  1.0852405915
H   1.3148780711 -0.4860203873  2.0165378088
H   2.9841439761  1.2226666031 -0.9227852321
H   3.0191879603 -0.4594060349 -1.4564863472
22
Image 14  Energy = -383.9124960316
C  -0.9230791922 -0.5109005005  0.4537231547
C   1.4065030691  0.1345804207 -0.0287993593
C  -1.2705026600  0.9561176821  0.7601221863
C   2.0618439978 -0.4127192548  1.2283624228
C   2.3561440376  0.3777793519 -1.1959890268
N   0.2565660727 -0.7019667196 -0.3929898270
N  -2.1072009474 -1.1020647889 -0.1756750921
O  -1.8255994786  1.5680435880 -0.3745629727
H  -2.4583480838  0.9075554881 -0.6904952436
H   0.0078781901 -0.5184011051 -1.3526342440
H  -0.7343281171 -1.0172074135  1.4027086531
H   1.0597953623  1.1358923661  0.2213950824
H  -2.4773002273 -1.8751931085  0.3465957811
H  -1.8579645796 -1.4763449113 -1.0850680397
H  -0.3898383580  1.5217574167  1.0538210466
H  -1.9628527814  1.0053420171  1.6019041688
H   2.8651918680  0.2499799448  1.5718868817
H   1.8036777478  0.6631761855 -2.0872273466
H   2.4784323360 -1.4046566729  1.0727583551
H   1.3232609765 -0.4842219749  2.0273918311
H   3.0009316698  1.2165429125 -0.9329953592
H   3.0067012371 -0.4694530282 -1.4457707636
22
Image 15  Energy = -383.9132356685
C  -0.9243258301 -0.5108080417  0.4534816161
C   1.4091913051  0.1466167641 -0.0257086349
C  -1.2791430804  0.9538333570  0.7583403012
C   2.0664418551 -0.4165834568  1.2281455347
C   2.3549172820  0.3793914354 -1.1974800361
N   0.2575636211 -0.6845510758 -0.3938592754
N  -2.1009072444 -1.1002812374 -0.1774144205
O  -1.8194894110  1.5742468581 -0.3810447874
H  -2.4545919629  0.9183350448 -0.6949545212
H  -0.0066830982 -0.4861217847 -1.3514791183
H  -0.7365929391 -1.0090631732  1.3959074225
H   1.0630102663  1.1400708538  0.2442907499
H  -2.4876730634 -1.8874123835  0.3505999099
H  -1.8519080105 -1.4868789699 -1.0715179263
H  -0.4101857582  1.5261238510  1.0568180288
H  -1.9728156862  0.9657079257  1.5973801330
H   2.8715425187  0.2512272146  1.5710812238
H   1.8148155489  0.6536052327 -2.0997915129
H   2.4773838846 -1.3941440517  1.0573192621
H   1.3346180215 -0.4828065219  2.0413526191
H   3.0224193237  1.2026080251 -0.9499773031
H   2.9923246630 -0.4894779567 -1.4330269720
22
Image 16  Energy = -383.9140606022
C  -0.9252669431 -0.5083869829  0.4530988075
C   1.4131021265  0.1529052338 -0.0222986936
C  -1.2855961170  0.9509444147  0.7572834085
C   2.0676794843 -0.4111929265  1.2300806803
C   2.3569304419  0.3773660383 -1.1992102808
N   0.2569668374 -0.6761970161 -0.3987470153
N  -2.1046778103 -1.1045833995 -0.1761950458
O  -1.8183470893  1.5779447267 -0.3836505795
H  -2.4561201893  0.9224202178 -0.7004102678
H  -0.0119432768 -0.4692768966 -1.3486984569
H  -0.7359830584 -1.0056437606  1.3995762529
H   1.0659002605  1.1464194165  0.2529588100
H  -2.4871058602 -1.8842079488  0.3514562019
H  -1.8473451964 -1.4921711230 -1.0681153991
H  -0.4177635720  1.5228355187  1.0609251669
H  -1.9817322101  0.9475640912  1.5955109004
H   2.8736105217  0.2500229533  1.5693964974
H   1.8199062729  0.6491764420 -2.1041924795
H   2.4792523163 -1.3953841646  1.0495837080
H   1.3419620990 -0.4830315476  2.0447238264
H   3.0319584857  1.1955757521 -0.9581361871
H   2.9845247281 -0.4994611376 -1.4264775684
22
Image 17  Energy = -383.9151153892
C  -0.9276600025 -0.5051465209  0.4536578264
C   1.4187579962  0.1687021780 -0.0167326158
C  -1.3002368301  0.9451700235  0.7561771153
C   2.0729432434 -0.4059878660  1.2308446907
C   2.3631265079  0.3706155795 -1.2014525512
N   0.2565931902 -0.6591306088 -0.4041888575
N  -2.1102203949 -1.1105134825 -0.1788133980
O  -1.8208053939  1.5821601577 -0.3887071593
H  -2.4597390827  0.9334402334 -0.7144274323
H  -0.0221024161 -0.4293891275 -1.3465093348
H  -0.7325025781 -0.9983347670  1.4099486642
H   1.0741331161  1.1629689502  0.2666786776
H  -2.4842046944 -1.8764011321  0.3580893046
H  -1.8373020723 -1.5045606573 -1.0633568289
H  -0.4339829466  1.5119690099  1.0732464440
H  -2.0054772038  0.9122089627  1.5912874238
H   2.8801711636  0.2486534509  1.5656911836
H   1.8297017812  0.6398657005 -2.1110956389
H   2.4823557707 -1.3966001642  1.0346749245
H   1.3577015056 -0.4841606440  2.0503815914
H   3.0518477941  1.1806287452 -0.9753100365
H   2.9668139226 -0.5225201393 -1.4116217520
22
Image 18  Energy = -383.9161545134
C  -0.9285099418 -0.5041589284  0.4551190975
C   1.4200809094  0.1849319812 -0.0122687144
C  -1.3167608382  0.9382596835  0.7584092874
C   2.0800178809 -0.4047821204  1.2266484017
C   2.3681899357  0.3626369904 -1.2013028245
N   0.2546847751 -0.6396563210 -0.4096309407
N  -2.1088231592 -1.1164770589 -0.1799195965
O  -1.8235929945  1.5853569954 -0.3895839263
H  -2.4642823357  0.9462031974 -0.7321085903
H  -0.0310203217 -0.3803411658 -1.3423044503
H  -0.7270110609 -0.9913977538  1.4152822573
H   1.0843668004  1.1824173540  0.2770243175
H  -2.4817295572 -1.8682188244  0.3676405940
H  -1.8256278836 -1.5236168857 -1.0632024705
H  -0.4560236647  1.5051681659  1.0909534480
H  -2.0346913542  0.8794242488  1.5836930374
H   2.8908627196  0.2482827983  1.5612145671
H   1.8398271472  0.6287854817 -2.1155656077
H   2.4845412380 -1.3955535786  1.0190749110
H   1.3754973078 -0.4861480356  2.0560032343
H   3.0752240770  1.1637260051 -0.9939780386
H   2.9446928048 -0.5512043633 -1.3927357516
22
Image 19  Energy = -383.9176498247
C  -0.9277249826 -0.4995287338  0.4538944676
C   1.4232315978  0.2194637412 -0.0053292536
C  -1.3600247694  0.9199271555  0.7697561622
C   2.0971120218 -0.3932745479  1.2163276843
C   2.3801139807  0.3418523843 -1.1955177857
N   0.2480310293 -0.5916689383 -0.4181393807
N  -2.0898743833 -1.1358949186 -0.2055959844
O  -1.8388584986  1.5865096875 -0.3830960018
H  -2.4760111506  0.9788944080 -0.7792178480
H  -0.0463237368 -0.2532447177 -1.3311372164
H  -0.7063677414 -0.9808987475  1.4284412353
H   1.1121229644  1.2355068189  0.2856941723
H  -2.4739141370 -1.8466627414  0.4000853282
H  -1.8003272401 -1.5706477800 -1.0552154591
H  -0.5132483183  1.4883120500  1.1465125097
H  -2.1159702976  0.8200392585  1.5600923679
H   2.9181264055  0.2426350713  1.5449221265
H   1.8610384747  0.6010455607 -2.1165594704
H   2.4915391179 -1.3992269655  0.9833991455
H   1.4212316313 -0.4941372795  2.0592776422
H   3.1279906371  1.1181953691 -1.0353553055
H   2.8880201453 -0.6235583181 -1.3447768671
22
Image 20  Energy = -383.9192206701
C  -0.9244314197 -0.5040343042  0.4533785591
C   1.4242605486  0.2345946230 -0.0040153432
C  -1.3814600304  0.9164990916  0.7772967107
C   2.1037382070 -0.4005209892  1.2091322815
C   2.3776886723  0.3263676079 -1.1918365908
N   0.2482106465 -0.5654728156 -0.4233437819
N  -2.0750537202 -1.1426202458 -0.1982308694
O  -1.8456794214  1.5873625538 -0.3746838810
H  -2.4774144410  0.9909923319 -0.7949580144
H  -0.0485750989 -0.2008604283 -1.3209460753
H  -0.6964388245 -0.9794206637  1.4176995945
H   1.1237267841  1.2510234591  0.2782242498
H  -2.4720991882 -1.8363286593  0.4085030056
H  -1.7853176275 -1.6015132007 -1.0604758876
H  -0.5443283244  1.4870549241  1.1745273902
H  -2.1499509452  0.8100209205  1.5467607509
H   2.9333197764  0.2406642056  1.5356926686
H   1.8676478474  0.5886199236 -2.1121718451
H   2.4903633718 -1.3905102676  0.9717234552
H   1.4387141029 -0.4978564543  2.0569928049
H   3.1500861243  1.0980779009 -1.0457704637
H   2.8629057977 -0.6485017007 -1.3250363871
22
Image 21  Energy = -383.9200750475
C  -0.9209791245 -0.5037918571  0.4528893371
C   1.4235910798  0.2290464237 -0.0056154003
C  -1.3810412498  0.9179650932  0.7795660640
C   2.1038137075 -0.4019116796  1.2059412939
C   2.3758411851  0.3257364270 -1.1885895416
N   0.2493673185 -0.5630232297 -0.4216379606
N  -2.0644376231 -1.1453259703 -0.1981110679
O  -1.8477869488  1.5879942651 -0.3684338689
H  -2.4747868430  0.9875539761 -0.7907506467
H  -0.0430066696 -0.2035390482 -1.3181325405
H  -0.6928111145 -0.9852245200  1.4055488519
H   1.1235599365  1.2468398621  0.2642869443
H  -2.4738100861 -1.8367382885  0.4071034874
H  -1.7848450813 -1.6062288877 -1.0596173112
H  -0.5493471005  1.4916628404  1.1801555905
H  -2.1516103305  0.8304865908  1.5448415353
H   2.9349326139  0.2385418078  1.5323316727
H   1.8626934632  0.5887859497 -2.1064877004
H   2.4882591996 -1.3872021991  0.9753782899
H   1.4342858819 -0.4990321415  2.0523465467
H   3.1439876287  1.0942111568 -1.0370337600
H   2.8640429454 -0.6431687534 -1.3275174432
22
Image 22  Energy = -383.9202585779
C  -0.9163016853 -0.4961243478  0.4482254018
C   1.4276256421  0.2333434394 -0.0040193312
C  -1.3973086639  0.9151365840  0.7864946410
C   2.1057743765 -0.3936016080  1.2021231399
C   2.3703465194  0.3185496915 -1.1848168307
N   0.2520714327 -0.5411322651 -0.4186140722
N  -2.0425899102 -1.1568922208 -0.2004684197
O  -1.8547003416  1.5984224462 -0.3596841345
H  -2.4707681299  0.9891774522 -0.7942815208
H  -0.0419060429 -0.1590167009 -1.3149931217
H  -0.6755636906 -0.9955608656  1.3866078265
H   1.1327454599  1.2560077652  0.2438018914
H  -2.4777873619 -1.8320604584  0.4113640142
H  -1.7672055431 -1.6382273038 -1.0519951544
H  -0.5824538649  1.4955567887  1.2117893685
H  -2.1865317712  0.8442540936  1.5363508590
H   2.9488476894  0.2313053508  1.5186158183
H   1.8606351986  0.5779042572 -2.0987788663
H   2.4882294140 -1.3855129822  0.9644651670
H   1.4402445995 -0.5027046137  2.0461163646
H   3.1557454726  1.0687787885 -1.0306128324
H   2.8507640355 -0.6639654867 -1.3192277491
22
Image 23  Energy = -383.9205719364
C  -0.9149442476 -0.4901724825  0.4485861751
C   1.4309066237  0.2426611020 -0.0010251935
C  -1.4125855005  0.9172596021  0.7921005054
C   2.1116198124 -0.3924816311  1.1986092366
C   2.3762447624  0.3054810657 -1.1825018685
N   0.2486958467 -0.5210145973 -0.4304400801
N  -2.0329611346 -1.1696941343 -0.2097320957
O  -1.8613222256  1.6042025339 -0.3581111157
H  -2.4637308648  0.9941151989 -0.7948946891
H  -0.0412485876 -0.1236602157 -1.3066746760
H  -0.6611593222 -1.0019520110  1.3771932402
H   1.1399220001  1.2664781268  0.2351657565
H  -2.4804507071 -1.8272487534  0.4140377051
H  -1.7498607206 -1.6624969058 -1.0385452059
H  -0.6090956265  1.4971128018  1.2360558087
H  -2.2144812497  0.8445140348  1.5303214953
H   2.9604158377  0.2267878743  1.5088874879
H   1.8583638942  0.5701654832 -2.0995537469
H   2.4867773775 -1.3807604751  0.9533286186
H   1.4438614262 -0.5036055522  2.0460834360
H   3.1671831482  1.0467767296 -1.0271845962
H   2.8377623508 -0.6788299974 -1.3132436792
22
Image 24  Energy = -383.9208910130
C  -0.9171097461 -0.4886562649  0.4476880860
C   1.4325004591  0.2458396065 -0.0016686376
C  -1.4190780889  0.9177135688  0.7927613960
C   2.1125933953 -0.3914531780  1.1992624225
C   2.3791713426  0.3031266676 -1.1843224195
N   0.2473110508 -0.5150325352 -0.4312335183
N  -2.0346805812 -1.1707612618 -0.2111813192
O  -1.8603766210  1.6074114297 -0.3577627658
H  -2.4628797913  0.9949483462 -0.7968208629
H  -0.0442762223 -0.1085166239 -1.3081387195
H  -0.6565049492 -1.0019910989  1.3779677422
H   1.1423913041  1.2727661833  0.2383493051
H  -2.4814806109 -1.8257915813  0.4146465762
H  -1.7406793888 -1.6718625740 -1.0338048391
H  -0.6171176157  1.4970264529  1.2429145902
H  -2.2236459965  0.8367381184  1.5288312956
H   2.9641470719  0.2258036861  1.5067767709
H   1.8600310466  0.5670700699 -2.1011999849
H   2.4865434655 -1.3801322087  0.9473832471
H   1.4462786452 -0.5026417529  2.0479914545
H   3.1731097468  1.0385428960 -1.0282150754
H   2.8336650059 -0.6865101576 -1.3117622158
22
Image 25  Energy = -383.9213007943
C  -0.9224982575 -0.4857331989  0.4478764831
C   1.4356402674  0.2541762224 -0.0037014292
C  -1.4337589917  0.9183927263  0.7963331841
C   2.1136166660 -0.3886778544  1.1998077241
C   2.3835317507  0.2958934555 -1.1896887317
N   0.2416179864 -0.4977560426 -0.4364873206
N  -2.0377346336 -1.1719190813 -0.2165986344
O  -1.8598966945  1.6130148802 -0.3567578470
H  -2.4579785160  0.9976799639 -0.7995034797
H  -0.0508406627 -0.0721406277 -1.3095529938
H  -0.6446884327 -1.0009791263  1.3764785824
H   1.1497364181  1.2862059430  0.2451462808
H  -2.4853853419 -1.8223818915  0.4154826779
H  -1.7142371274 -1.6973395048 -1.0186781584
H  -0.6387602265  1.4980100272  1.2608071699
H  -2.2464543335  0.8194389989  1.5242969728
H   2.9732493140  0.2225895203  1.5014233632
H   1.8652485665  0.5595584673 -2.1038245665
H   2.4847932913 -1.3781880134  0.9329487138
H   1.4515040720 -0.4990493348  2.0519728471
H   3.1886166562  1.0171670789 -1.0285143074
H   2.8245912402 -0.7043248242 -1.3108039747
22
Image 26  Energy = -383.9215699336
C  -0.9245002910 -0.4826286709  0.4464448729
C   1.4343218243  0.2599498338 -0.0061280127
C  -1.4427227824  0.9167309697  0.8017397744
C   2.1132789676 -0.3884205702  1.1964248930
C   2.3854710496  0.2878205520 -1.1894942802
N   0.2360012245 -0.4839457872 -0.4392039345
N  -2.0385325224 -1.1742616514 -0.2196075973
O  -1.8586453476  1.6148674204 -0.3517426629
H  -2.4543630893  0.9973692210 -0.8016405838
H  -0.0558691199 -0.0484717435 -1.3100084146
H  -0.6372509972 -0.9990803827  1.3725548894
H   1.1572946343  1.2915114149  0.2478748789
H  -2.4888040170 -1.8167570729  0.4125888881
H  -1.6907723168 -1.7165540018 -1.0030122769
H  -0.6547368403  1.5008562680  1.2738755714
H  -2.2609401529  0.8105062532  1.5195074010
H   2.9777828965  0.2191495288  1.4978995121
H   1.8696693803  0.5564296578 -2.1066636387
H   2.4805981069 -1.3751157942  0.9251713807
H   1.4542715971 -0.4944275879  2.0531543703
H   3.1993099932  1.0012006901 -1.0267905108
H   2.8190508426 -0.7130907520 -1.3144819434
22
Image 27  Energy = -383.9273429120
C  -0.9281831666 -0.4795737164  0.4470350732
C   1.4322720441  0.2626953597 -0.0093745604
C  -1.4501632883  0.9137591517  0.8081605347
C   2.1101303707 -0.3864701850  1.1921168891
C   2.3864389238  0.2818542168 -1.1911514091
N   0.2272950134 -0.4666317935 -0.4442250360
N  -2.0358579650 -1.1729789630 -0.2272402357
O  -1.8584047330  1.6127324483 -0.3454014316
H  -2.4478403714  0.9974024711 -0.8028273463
H  -0.0634697761 -0.0238619206 -1.3104185230
H  -0.6305602172 -0.9941367387  1.3675627315
H   1.1674553731  1.2969597450  0.2529499577
H  -2.4960068030 -1.8106198646  0.4096850612
H  -1.6586637140 -1.7388581179 -0.9789571817
H  -0.6725216247  1.5049227858  1.2880357807
H  -2.2759709493  0.7981545994  1.5144583543
H   2.9797908197  0.2141049121  1.4944224318
H   1.8785594953  0.5545482092 -2.1094534056
H   2.4732789822 -1.3729282087  0.9171673999
H   1.4572436484 -0.4863806588  2.0533456274
H   3.2108822764  0.9811407360 -1.0242451570
H   2.8142087085 -0.7221966548 -1.3231829364
22
Image 28  Energy = -383.9275769775
C  -0.9306628768 -0.4709889650  0.4486450623
C   1.4279247231  0.2664577192 -0.0134156941
C  -1.4601271132  0.9071816050  0.8188952628
C   2.1039395506 -0.3833818247  1.1835597011
C   2.3895595835  0.2632139861 -1.1935979817
N   0.2136463069 -0.4395519852 -0.4525659165
N  -2.0250745546 -1.1754349135 -0.2386483454
O  -1.8600901879  1.6080836053 -0.3328544740
H  -2.4366303292  0.9963454026 -0.8043153175
H  -0.0756897645  0.0130672916 -1.3094553211
H  -0.6211495739 -0.9875722928  1.3566914552
H   1.1847501233  1.3026653701  0.2559868326
H  -2.5084785044 -1.7966701660  0.4027124464
H  -1.6056180057 -1.7749498610 -0.9382926471
H  -0.7010988888  1.5126447442  1.3121568219
H  -2.2998045952  0.7843544742  1.5068037251
H   2.9806468751  0.2050493843  1.4876393700
H   1.8923527353  0.5543821973 -2.1130078988
H   2.4591297539 -1.3705302692  0.9074521064
H   1.4604394486 -0.4727733682  2.0506280414
H   3.2279539180  0.9499874763 -1.0170518248
H   2.8039944015 -0.7279417640 -1.3395027083
22
Image 29  Energy = -383.9278632115
C  -0.9265877880 -0.4711511606  0.4486780303
C   1.4300744861  0.2645925641 -0.0131418938
C  -1.4565505447  0.9089898220  0.8173555454
C   2.1042024924 -0.3856667938  1.1848656089
C   2.3876271814  0.2704740918 -1.1930985323
N   0.2183741362 -0.4482169945 -0.4511082899
N  -2.0206840816 -1.1790789974 -0.2348071876
O  -1.8620072737  1.6092138149 -0.3357234270
H  -2.4390689624  0.9947377570 -0.8039501855
H  -0.0745914133 -0.0000357051 -1.3083313449
H  -0.6263822742 -0.9898243675  1.3595930414
H   1.1819697206  1.2980438548  0.2514257922
H  -2.5071797887 -1.7940186992  0.4014188289
H  -1.6156198044 -1.7651370580 -0.9442505402
H  -0.6925861872  1.5101303379  1.3058737696
H  -2.2912200653  0.7898332723  1.5104291527
H   2.9763596846  0.2070010154  1.4882329957
H   1.8909780785  0.5586586871 -2.1116336426
H   2.4586647144 -1.3738217499  0.9139837375
H   1.4566082413 -0.4745383772  2.0493364282
H   3.2208918655  0.9580469416 -1.0168432186
H   2.8066406040 -0.7245944028 -1.3398419811
22
Image 30  Energy = -383.9281462715
C  -0.9228387503 -0.4704571652  0.4493023050
C   1.4333661741  0.2636284964 -0.0143292010
C  -1.4572786070  0.9110817424  0.8160868497
C   2.1033875541 -0.3877440560  1.1852638085
C   2.3883393574  0.2729564743 -1.1938989441
N   0.2225816310 -0.4515644483 -0.4511970482
N  -2.0116051643 -1.1793782818 -0.2317881892
O  -1.8656382885  1.6120046229 -0.3371855416
H  -2.4396951647  0.9927478308 -0.8049957701
H  -0.0775070565 -0.0021086314 -1.3070038578
H  -0.6291256332 -0.9918036874  1.3628342672
H   1.1828212944  1.2972718206  0.2467938589
H  -2.5107105038 -1.7876245904  0.4011942673
H  -1.6110714491 -1.7676101164 -0.9449350481
H  -0.6906495550  1.5077184128  1.3062169433
H  -2.2896227880  0.7898854647  1.5141607769
H   2.9729441275  0.2076712307  1.4861897141
H   1.8921560417  0.5644651727 -2.1125584084
H   2.4544309236 -1.3790089546  0.9184072781
H   1.4521837594 -0.4737674918  2.0480132955
H   3.2188767346  0.9596734280 -1.0154307353
H   2.8045683954 -0.7243994101 -1.3426779318
22
Image 31  Energy = -383.9286324041
C  -0.9133780590 -0.4662368969  0.4548983796
C   1.4386392902  0.2627542580 -0.0220004261
C  -1.4661142035  0.9138012061  0.8190108356
C   2.0962576101 -0.3930469667  1.1829195457
C   2.3918059077  0.2703874980 -1.2016581245
N   0.2253702055 -0.4443361912 -0.4540286977
N  -1.9870288664 -1.1872315161 -0.2377245493
O  -1.8767855784  1.6165716636 -0.3332328127
H  -2.4356507032  0.9872796859 -0.8094198942
H  -0.0909087016  0.0152158476 -1.3029150105
H  -0.6283058331 -0.9920129276  1.3685563948
H   1.1942991652  1.3014820508  0.2367254510
H  -2.5260519127 -1.7589118269  0.3973371791
H  -1.5690145702 -1.7941946954 -0.9216954260
H  -0.7019687541  1.5056691880  1.3205365431
H  -2.2979990333  0.7798956536  1.5188123902
H   2.9676531716  0.2049363212  1.4773700141
H   1.9029004250  0.5808742336 -2.1162623284
H   2.4349226442 -1.3924896696  0.9246797006
H   1.4410730767 -0.4639524863  2.0431153115
H   3.2275598359  0.9483524974 -1.0077730392
H   2.7926379595 -0.7311690167 -1.3587886348
22
Image 32  Energy = -383.9239518229
C  -0.9099788582 -0.4587622635  0.4551982285
C   1.4437476750  0.2693784547 -0.0330121083
C  -1.4806568367  0.9092500278  0.8307043980
C   2.0888183807 -0.3970681961  1.1735849015
C   2.4041338634  0.2637502747 -1.2100789917
N   0.2197312580 -0.4204621736 -0.4633634493
N  -1.9530108729 -1.1948029176 -0.2452303581
O  -1.8959561714  1.6176347524 -0.3224159017
H  -2.4254923984  0.9814745725 -0.8162269460
H  -0.1098664447  0.0529935392 -1.2904126656
H  -0.6178944656 -0.9890928360  1.3784924113
H   1.2184110477  1.3079964863  0.2214435547
H  -2.5505109556 -1.7071564689  0.3854725803
H  -1.4865657248 -1.8537025228 -0.8741713900
H  -0.7309216612  1.5070570885  1.3487989545
H  -2.3181838460  0.7590644925  1.5204239945
H   2.9609391528  0.1932266675  1.4619087905
H   1.9210767725  0.6077232284 -2.1257464874
H   2.4004779611 -1.4107026716  0.9314808929
H   1.4228097630 -0.4445868657  2.0362387739
H   3.2481370027  0.9179413032 -0.9963364785
H   2.7706684900 -0.7475159343 -1.3882897286
22
Image 33  Energy = -383.9265108820
C  -0.9119101223 -0.4625587567  0.4578173277
C   1.4421246331  0.2662509315 -0.0307551415
C  -1.4775695336  0.9089777477  0.8273113548
C   2.0888732425 -0.3938153340  1.1751650073
C   2.3999360005  0.2639935459 -1.2094972110
N   0.2205990488 -0.4244970670 -0.4587212413
N  -1.9605945317 -1.1932291882 -0.2495367808
O  -1.8904346005  1.6164661370 -0.3222540203
H  -2.4282939473  0.9825093796 -0.8150368382
H  -0.1049109748  0.0467638799 -1.2950660991
H  -0.6185308583 -0.9873327321  1.3743239352
H   1.2131705518  1.3081916182  0.2259154897
H  -2.5455334371 -1.7198630162  0.3887093522
H  -1.5067501983 -1.8401339431 -0.8804702695
H  -0.7257408445  1.5077206178  1.3423141831
H  -2.3143055679  0.7627800295  1.5191457822
H   2.9643475125  0.1943841493  1.4661662473
H   1.9177882025  0.6013759588 -2.1224567280
H   2.4085624706 -1.4063366058  0.9290413848
H   1.4274538050 -0.4483727133  2.0373542517
H   3.2464548572  0.9240945408 -0.9993854542
H   2.7751774045 -0.7437311712 -1.3816216022
22
Image 34  Energy = -383.9266173257
C  -0.9125776391 -0.4634421692  0.4585943698
C   1.4415821419  0.2665283073 -0.0313336451
C  -1.4781096900  0.9070519320  0.8280905165
C   2.0861931555 -0.3920576570  1.1761706507
C   2.3997828512  0.2629692911 -1.2103817952
N   0.2191222449 -0.4220281598 -0.4575844428
N  -1.9624242396 -1.1932461424 -0.2529688266
O  -1.8905316358  1.6142105487 -0.3200354884
H  -2.4279679118  0.9830045992 -0.8149562260
H  -0.1038602339  0.0491738120 -1.2951230762
H  -0.6160662114 -0.9851334925  1.3733276807
H   1.2143419267  1.3092307852  0.2262142529
H  -2.5457691307 -1.7182376917  0.3870749620
H  -1.5052906459 -1.8433573040 -0.8752337077
H  -0.7281495752  1.5087015145  1.3425223455
H  -2.3152913289  0.7612448509  1.5180464996
H   2.9662561289  0.1922091952  1.4666780963
H   1.9188925148  0.6022541516 -2.1218188948
H   2.4077296678 -1.4062332498  0.9282753298
H   1.4283246501 -0.4469802624  2.0354220689
H   3.2496353436  0.9218464895 -0.9998373608
H   2.7740907377 -0.7440713379 -1.3826803832
22
Image 35  Energy = -383.9245956889
C  -0.9122190122 -0.4631319205  0.4594404944
C   1.4421647437  0.2682537092 -0.0333691709
C  -1.4813380954  0.9034925913  0.8308091108
C   2.0833466917 -0.3913629020  1.1742147799
C   2.4016944820  0.2615126780 -1.2125487582
N   0.2175652083 -0.4156229378 -0.4572867627
N  -1.9579949639 -1.1936437397 -0.2593510789
O  -1.8939086790  1.6118064884 -0.3149820917
H  -2.4269639007  0.9819587856 -0.8163147269
H  -0.1050240121  0.0576160900 -1.2930876721
H  -0.6108275212 -0.9816897277  1.3738592887
H   1.2199492813  1.3118908947  0.2232130969
H  -2.5511558451 -1.7070570636  0.3826943463
H  -1.4913018946 -1.8582025878 -0.8593251926
H  -0.7358019098  1.5096668563  1.3462526240
H  -2.3194114298  0.7554128837  1.5177633286
H   2.9675975204  0.1863156583  1.4652625441
H   1.9235293578  0.6094440617 -2.1222599308
H   2.3997294900 -1.4083037000  0.9295398100
H   1.4244798434 -0.4414976413  2.0325075116
H   3.2573238021  0.9136890619 -0.9992127303
H   2.7684799605 -0.7469095163 -1.3893558764
22
Image 36  Energy = -383.9253057015
C  -0.9106934563 -0.4618908000  0.4603874863
C   1.4440796339  0.2726786531 -0.0367379194
C  -1.4888485080  0.8952290374  0.8371062743
C   2.0814691771 -0.3902483499  1.1659524107
C   2.4056917937  0.2592973269 -1.2165594435
N   0.2158439997 -0.4018270747 -0.4568477477
N  -1.9494319176 -1.1951009465 -0.2716434527
O  -1.9021086988  1.6067887451 -0.3049937290
H  -2.4255814667  0.9793405577 -0.8187679387
H  -0.1064939153  0.0751764590 -1.2887019942
H  -0.5988765721 -0.9741589302  1.3745649820
H   1.2323919694  1.3185472250  0.2162741039
H  -2.5626786500 -1.6806558478  0.3707282801
H  -1.4628687918 -1.8922169502 -0.8226540541
H  -0.7525327117  1.5109590553  1.3530780629
H  -2.3282351240  0.7416200032  1.5181475037
H   2.9711597650  0.1713626602  1.4631618400
H   1.9340270057  0.6268181723 -2.1224470909
H   2.3810325202 -1.4116901882  0.9333259752
H   1.4124680558 -0.4285098457  2.0286004947
H   3.2747921147  0.8949071750 -0.9990390224
H   2.7553069006 -0.7527880570 -1.4044720350
22
Image 37  Energy = -383.9248308576
C  -0.9105468189 -0.4611818798  0.4575237544
C   1.4459882230  0.2743714204 -0.0359811750
C  -1.4874658225  0.8968717649  0.8364474745
C   2.0817322754 -0.3914514325  1.1699044471
C   2.4057577647  0.2610940096 -1.2149067013
N   0.2186640642 -0.4049409262 -0.4571688713
N  -1.9494175811 -1.1942240255 -0.2687927561
O  -1.9021475962  1.6075534730 -0.3080429079
H  -2.4276310241  0.9793025203 -0.8176630341
H  -0.1039190077  0.0706659975 -1.2897430268
H  -0.5993840330 -0.9758355099  1.3738641316
H   1.2305905759  1.3190574189  0.2169676085
H  -2.5625614838 -1.6836022271  0.3706248880
H  -1.4726688566 -1.8890930804 -0.8247136009
H  -0.7501751729  1.5090658919  1.3491534707
H  -2.3268800790  0.7416609259  1.5202411009
H   2.9730411656  0.1708032546  1.4654047226
H   1.9326013628  0.6271786411 -2.1213811292
H   2.3823106101 -1.4101598263  0.9332800898
H   1.4135406100 -0.4286542049  2.0274429011
H   3.2729270031  0.8958302182 -1.0012298137
H   2.7555569450 -0.7506743550 -1.4027686128
22
Image 38  Energy = -383.9249649487
C  -0.9081408878 -0.4601102758  0.4561052111
C   1.4498756366  0.2768610513 -0.0350392136
C  -1.4904157541  0.8968274109  0.8344495690
C   2.0815656324 -0.3911373509  1.1733709107
C   2.4061384485  0.2638988237 -1.2147054466
N   0.2228927725 -0.4057685340 -0.4585840682
N  -1.9465937288 -1.1932521204 -0.2663221240
O  -1.9045233121  1.6086616732 -0.3094614389
H  -2.4305493119  0.9777861849 -0.8169275067
H  -0.1013107344  0.0687551176 -1.2906438610
H  -0.5982900252 -0.9767618583  1.3720743956
H   1.2314346763  1.3218352701  0.2161058439
H  -2.5665664126 -1.6799028385  0.3685779125
H  -1.4771076421 -1.8948087378 -0.8202821018
H  -0.7492670452  1.5075637984  1.3471157595
H  -2.3267610921  0.7381355141  1.5235251731
H   2.9759291444  0.1664862046  1.4677806618
H   1.9335528605  0.6324040333 -2.1197748043
H   2.3790173393 -1.4110986805  0.9339758448
H   1.4116151063 -0.4254044154  2.0253176747
H   3.2751391948  0.8927863637 -1.0035853715
H   2.7522782638 -0.7501185745 -1.4046100821
22
Image 39  Energy = -383.9251312614
C  -0.9023025073 -0.4581363142  0.4551739661
C   1.4566787163  0.2826556057 -0.0347324866
C  -1.4955559654  0.8959614409  0.8346177267
C   2.0808117475 -0.3901135179  1.1743493016
C   2.4090577602  0.2650441521 -1.2173350037
N   0.2297704765 -0.4014223817 -0.4596011726
N  -1.9362084564 -1.1960251338 -0.2691324162
O  -1.9144383470  1.6081454767 -0.3088618255
H  -2.4349875268  0.9744450981 -0.8166071624
H  -0.0981543477  0.0731666522 -1.2922250630
H  -0.5924463018 -0.9759798446  1.3687263660
H   1.2384165500  1.3294852638  0.2122170245
H  -2.5800792845 -1.6608741914  0.3629174786
H  -1.4720073328 -1.9176783088 -0.7982885830
H  -0.7554542749  1.5044904557  1.3469082790
H  -2.3299573945  0.7262784555  1.5287860126
H   2.9823149490  0.1537862124  1.4713526182
H   1.9390830954  0.6493501118 -2.1175072641
H   2.3646890796 -1.4154376168  0.9367321730
H   1.4027928796 -0.4140502325  2.0216530909
H   3.2878670660  0.8811282494 -1.0063571910
H   2.7400225925 -0.7505815496 -1.4143229348
22
Image 40  Energy = -383.9252889968
C  -0.8953876185 -0.4558018248  0.4514731760
C   1.4654598380  0.2909107424 -0.0366562205
C  -1.5035711245  0.8912068746  0.8351011779
C   2.0785481414 -0.3894755680  1.1751810744
C   2.4147317057  0.2692843791 -1.2214871945
N   0.2365597107 -0.3908469797 -0.4614333142
N  -1.9251767178 -1.2042405380 -0.2708722147
O  -1.9298875447  1.6069418454 -0.3043955119
H  -2.4430510344  0.9680765503 -0.8175749710
H  -0.0922894105  0.0794694797 -1.2936628593
H  -0.5831487842 -0.9752628275  1.3649162060
H   1.2503910367  1.3404683839  0.2075173766
H  -2.5978493584 -1.6263239899  0.3534824201
H  -1.4598934520 -1.9541992664 -0.7657509883
H  -0.7646791678  1.5024807244  1.3490311926
H  -2.3323363714  0.7092800571  1.5326544154
H   2.9920500980  0.1352511921  1.4772307977
H   1.9475535819  0.6750716836 -2.1139217531
H   2.3412239918 -1.4216851975  0.9408130597
H   1.3911228527 -0.3959470487  2.0167758632
H   3.3086251061  0.8627427328 -1.0093446309
H   2.7209177624 -0.7537632649 -1.4306141828
22
Image 41  Energy = -383.9254064172
C  -0.8935834805 -0.4568540646  0.4503122717
C   1.4696965509  0.2954181703 -0.0373305791
C  -1.5065467498  0.8867941475  0.8334952087
C   2.0782065497 -0.3877520841  1.1746978231
C   2.4185228763  0.2720374362 -1.2244304490
N   0.2388514703 -0.3837356033 -0.4620210722
N  -1.9156817530 -1.2102196747 -0.2755444881
O  -1.9409167407  1.6037657160 -0.3007183848
H  -2.4480577852  0.9652526197 -0.8174288667
H  -0.0879644491  0.0822301778 -1.2967261872
H  -0.5782656852 -0.9746837487  1.3617756387
H   1.2580741096  1.3458072136  0.2064327279
H  -2.6092948183 -1.6057184005  0.3521323440
H  -1.4546307476 -1.9734751183 -0.7471538497
H  -0.7690204668  1.5029018470  1.3509898584
H  -2.3315664501  0.7004459462  1.5323793329
H   2.9961268442  0.1243156127  1.4811144578
H   1.9524004316  0.6899364672 -2.1111957095
H   2.3266132900 -1.4250555031  0.9430614133
H   1.3861816323 -0.3850667307  2.0154754181
H   3.3215238954  0.8525070906 -1.0102833956
H   2.7092447320 -0.7552133569 -1.4405706084
22
Image 42  Energy = -383.9254958203
C  -0.8943109706 -0.4590751823  0.4489360706
C   1.4696390851  0.2961556661 -0.0370610164
C  -1.5038838293  0.8852194336  0.8325781848
C   2.0782243693 -0.3868940302  1.1740424989
C   2.4196084015  0.2722215770 -1.2247164581
N   0.2383992279 -0.3819586013 -0.4610631487
N  -1.9165229598 -1.2121721863 -0.2755719132
O  -1.9445643500  1.6012418101 -0.2988690288
H  -2.4506129612  0.9647914086 -0.8171715928
H  -0.0857162083  0.0809136617 -1.3003226779
H  -0.5779401162 -0.9748843485  1.3605177098
H   1.2600415658  1.3457236120  0.2085992895
H  -2.6093119205 -1.6001513301  0.3535323108
H  -1.4561682732 -1.9764877449 -0.7457038636
H  -0.7691871502  1.5036105337  1.3504236600
H  -2.3288229758  0.7000024683  1.5297545602
H   2.9959506900  0.1224311567  1.4828620096
H   1.9529379301  0.6928067803 -2.1099763899
H   2.3229620472 -1.4245749279  0.9433582613
H   1.3881689215 -0.3826392946  2.0168450302
H   3.3246023648  0.8513428787 -1.0098376885
H   2.7064203567 -0.7539851821 -1.4426929142
22
Image 43  Energy = -383.9255707346
C  -0.8929831611 -0.4604006741  0.4457688287
C   1.4708610591  0.2981829816 -0.0364140311
C  -1.5009102666  0.8825460227  0.8319095896
C   2.0769835474 -0.3860644304  1.1739712543
C   2.4209186377  0.2738199376 -1.2240254864
N   0.2392120265 -0.3791115603 -0.4626134687
N  -1.9164215524 -1.2125270264 -0.2770340768
O  -1.9505393135  1.5986508325 -0.2960355956
H  -2.4566376314  0.9621507144 -0.8170498388
H  -0.0809048895  0.0778171277 -1.3051652473
H  -0.5764696969 -0.9755823554  1.3585477216
H   1.2640855937  1.3469210202  0.2121070602
H  -2.6119865501 -1.5901347501  0.3563706030
H  -1.4592622932 -1.9856851723 -0.7407726339
H  -0.7701140049  1.5035820667  1.3476853932
H  -2.3248557742  0.6973703346  1.5272429619
H   2.9972132641  0.1180836033  1.4859726232
H   1.9547184244  0.7001968047 -2.1076907723
H   2.3150879405 -1.4241428678  0.9442119798
H   1.3908883201 -0.3771291682  2.0187859167
H   3.3304882311  0.8474606728 -1.0095153182
H   2.7005413144 -0.7523659618 -1.4477945951
22
Image 44  Energy = -383.9256296890
C  -0.8905277706 -0.4606715414  0.4426932416
C   1.4701708189  0.2984610986 -0.0356239072
C  -1.4990135466  0.8802101027  0.8295075504
C   2.0762652176 -0.3848609831  1.1750695194
C   2.4206431849  0.2763403021 -1.2223222093
N   0.2411407508 -0.3795373219 -0.4641735294
N  -1.9201308940 -1.2122449146 -0.2785865105
O  -1.9543858410  1.5956457747 -0.2956615839
H  -2.4613459186  0.9607071046 -0.8149726859
H  -0.0771741562  0.0731791684 -1.3116381977
H  -0.5764998568 -0.9767732148  1.3565357212
H   1.2662108492  1.3466403502  0.2177654488
H  -2.6096514321 -1.5851641008  0.3607282171
H  -1.4670373291 -1.9881774936 -0.7403381886
H  -0.7676558723  1.5043424724  1.3435359908
H  -2.3203193479  0.6968694778  1.5255053889
H   2.9964824689  0.1169948243  1.4870412717
H   1.9558392702  0.7039346023 -2.1050247648
H   2.3106119675 -1.4233291962  0.9441227965
H   1.3963763209 -0.3743410687  2.0231459411
H   3.3320160238  0.8457968945 -1.0079440593
H   2.6978982953 -0.7503841956 -1.4509026180
22
Image 45  Energy = -383.9256959544
C  -0.8878960970 -0.4610523979  0.4387176768
C   1.4712735499  0.3004212347 -0.0345531722
C  -1.4982400319  0.8799726117  0.8273530363
C   2.0755778882 -0.3846397338  1.1762765882
C   2.4211214717  0.2775171216 -1.2214923822
N   0.2444641906 -0.3794307926 -0.4673027525
N  -1.9203346655 -1.2106889824 -0.2802548325
O  -1.9587121724  1.5941460175 -0.2960060049
H  -2.4669667829  0.9575254817 -0.8130498608
H  -0.0733593361  0.0695192613 -1.3168344051
H  -0.5750876755 -0.9776271434  1.3534360676
H   1.2689458695  1.3480161900  0.2221717199
H  -2.6100198520 -1.5774103147  0.3640289403
H  -1.4731475781 -1.9953464704 -0.7353152264
H  -0.7667363542  1.5038216915  1.3386774653
H  -2.3180339157  0.6930118052  1.5269850748
H   2.9977543642  0.1143363871  1.4872568269
H   1.9581035523  0.7114454801 -2.1023618372
H   2.3038316508 -1.4239922070  0.9446432596
H   1.3987229658 -0.3696220136  2.0277430588
H   3.3354891125  0.8418684286 -1.0060285745
H   2.6931630412 -0.7481535259 -1.4556278748
22
Image 46  Energy = -383.9257598161
C  -0.8853993347 -0.4606139426  0.4323263501
C   1.4739987566  0.3022643857 -0.0329298170
C  -1.4991065341  0.8786279443  0.8249553844
C   2.0734888718 -0.3849895694  1.1799716688
C   2.4224647451  0.2813188801 -1.2202351769
N   0.2477893118 -0.3797196681 -0.4721825951
N  -1.9198193736 -1.2092395339 -0.2821590691
O  -1.9645816099  1.5931642937 -0.2988427276
H  -2.4758458526  0.9515583818 -0.8095435104
H  -0.0673372066  0.0633691605 -1.3236114501
H  -0.5724350062 -0.9784938737  1.3465415133
H   1.2713996825  1.3503647727  0.2283669039
H  -2.6092521450 -1.5653802907  0.3689083937
H  -1.4838391383 -2.0046279472 -0.7269134178
H  -0.7639357078  1.5035608438  1.3301762330
H  -2.3132826687  0.6864786642  1.5300960568
H   3.0011361625  0.1110656606  1.4847896039
H   1.9619578152  0.7242377626 -2.0980198024
H   2.2939944332 -1.4261247992  0.9458522737
H   1.4020434067 -0.3627313518  2.0351211702
H   3.3399929630  0.8355696782 -1.0013499231
H   2.6864815975 -0.7460213520 -1.4628553327
22
Image 47  Energy = -383.9257887746
C  -0.8849209093 -0.4593685142  0.4306272422
C   1.4730818384  0.3026934866 -0.0321270181
C  -1.4992198814  0.8792761761  0.8222778988
C   2.0745777079 -0.3853571893  1.1811501499
C   2.4227440705  0.2818534717 -1.2199758321
N   0.2495612170 -0.3800911753 -0.4721851971
N  -1.9196245884 -1.2080664941 -0.2828022427
O  -1.9668613231  1.5913044930 -0.3004198673
H  -2.4784249252  0.9497340312 -0.8075239590
H  -0.0657015039  0.0616952044 -1.3261773442
H  -0.5709733999 -0.9784698156  1.3426808645
H   1.2708784391  1.3502233872  0.2292925102
H  -2.6098882212 -1.5617323942  0.3715146938
H  -1.4873268339 -2.0078865000 -0.7243552661
H  -0.7623764975  1.5033777249  1.3263404222
H  -2.3115645558  0.6838765181  1.5323926792
H   3.0025944630  0.1094824479  1.4815198579
H   1.9637256958  0.7301197583 -2.0961067463
H   2.2909449728 -1.4274277373  0.9472844847
H   1.4020484190 -0.3605544141  2.0382450791
H   3.3422443947  0.8338983043 -0.9981252699
H   2.6843945503 -0.7449426675 -1.4650644212
22
Image 48  Energy = -383.9258083525
C  -0.8853443263 -0.4589895125  0.4305816926
C   1.4727266482  0.3019520135 -0.0318827008
C  -1.4994647465  0.8799404944  0.8219360976
C   2.0745407277 -0.3856307516  1.1813570207
C   2.4228708809  0.2819309833 -1.2198055791
N   0.2490135206 -0.3801509537 -0.4718371296
N  -1.9204685402 -1.2085309702 -0.2820880032
O  -1.9665284618  1.5911729970 -0.3009772466
H  -2.4786823856  0.9490135985 -0.8074116869
H  -0.0657701832  0.0615649589 -1.3255300402
H  -0.5704991574 -0.9781146589  1.3415245714
H   1.2692822688  1.3496288867  0.2283031776
H  -2.6095666751 -1.5617739220  0.3715346197
H  -1.4875211656 -2.0070048407 -0.7244122071
H  -0.7616906436  1.5034779034  1.3252771999
H  -2.3108314713  0.6838317147  1.5330428605
H   3.0035118045  0.1094896968  1.4792241834
H   1.9642326340  0.7314364835 -2.0956237378
H   2.2914656118 -1.4280864164  0.9482198904
H   1.4017402809 -0.3608423265  2.0383167297
H   3.3421956219  0.8340947002 -0.9965006415
H   2.6847008751 -0.7447719732 -1.4647863545
