22
Image 0  Energy = -383.5281735479
C  -0.7781260000 -1.0675610000  0.3210590000
C   1.3025530000  0.0521200000 -0.0282990000
C  -0.9719930000  1.4562490000  0.8236570000
C   1.9812290000 -0.4184330000  1.2501750000
C   2.2640330000  0.4351680000 -1.1331070000
N   0.2911640000 -0.8768210000 -0.5003990000
N  -2.0191630000 -1.3720060000 -0.2331120000
O  -1.6647340000  1.6302230000 -0.4018370000
H  -2.2586320000  0.8701390000 -0.4758990000
H   0.0278490000 -0.6783120000 -1.4584950000
H  -0.6097590000 -1.3678560000  1.3411780000
H   0.6812640000  0.9183000000  0.2869410000
H  -2.5732630000 -2.0573610000  0.2574120000
H  -2.0524280000 -1.5045420000 -1.2338230000
H  -0.3689930000  2.3513920000  0.9917470000
H  -1.6396090000  1.2942150000  1.6746530000
H   2.7644490000  0.2914620000  1.5228460000
H   1.7251140000  0.7306950000 -2.0377940000
H   2.4355930000 -1.4060980000  1.1342150000
H   1.2730050000 -0.4472240000  2.0805790000
H   2.8503450000  1.2986970000 -0.8143220000
H   2.9600090000 -0.3688060000 -1.3889100000
22
Image 1  Energy = -383.5280898252
C  -0.7780744977 -1.0682551052  0.3209896719
C   1.3024043695  0.0521704949 -0.0282825088
C  -0.9714503188  1.4567389493  0.8235666043
C   1.9811930370 -0.4183931102  1.2502647638
C   2.2639656268  0.4352408538 -1.1330758553
N   0.2910920214 -0.8766922717 -0.5003651197
N  -2.0193158568 -1.3720730893 -0.2331814947
O  -1.6647301810  1.6302406417 -0.4018664213
H  -2.2586520094  0.8700950307 -0.4758765811
H   0.0278703423 -0.6783378641 -1.4585273206
H  -0.6097656269 -1.3678242154  1.3411921731
H   0.6811726398  0.9182952208  0.2870137692
H  -2.5732930453 -2.0574089499  0.2574021489
H  -2.0524759832 -1.5045479598 -1.2338480980
H  -0.3690257885  2.3514927413  0.9917593107
H  -1.6395583027  1.2941162854  1.6746785336
H   2.7644586571  0.2914803352  1.5228519741
H   1.7251078847  0.7307047644 -2.0378139433
H   2.4356013710 -1.4061070678  1.1342160556
H   1.2730118511 -0.4472106573  2.0805978443
H   2.8503441983  1.2987218567 -0.8143194664
H   2.9600266112 -0.3688068836 -1.3889110401
22
Image 2  Energy = -383.5363549145
C  -0.7865039448 -0.9511648352  0.3411748520
C   1.3211229270  0.0462380102 -0.0326747369
C  -1.0343112100  1.3900541743  0.8305387225
C   1.9861559377 -0.4236999907  1.2401667349
C   2.2740137489  0.4266300064 -1.1378622247
N   0.3054660894 -0.8952221934 -0.5044229290
N  -1.9985061561 -1.3616444716 -0.2255151323
O  -1.6696375189  1.6274904387 -0.3974389664
H  -2.2589504980  0.8754916306 -0.4828469462
H   0.0245073000 -0.6735215107 -1.4539170107
H  -0.6089805931 -1.3709911832  1.3349606267
H   0.6995569139  0.9164749988  0.2734165350
H  -2.5654063552 -2.0467232555  0.2594009583
H  -2.0431425160 -1.5022902370 -1.2268041105
H  -0.3732357935  2.3150267985  0.9882841033
H  -1.6610263292  1.3082270443  1.6810685301
H   2.7631334318  0.2881545739  1.5216813024
H   1.7263800263  0.7286493276 -2.0343503730
H   2.4354012798 -1.4067453147  1.1336528360
H   1.2733678449 -0.4495127664  2.0749833936
H   2.8508455783  1.2940137403 -0.8150892852
H   2.9596562223 -0.3712948975 -1.3899418443
22
Image 3  Energy = -383.5426297570
C  -0.7963682667 -0.8323749314  0.3692061173
C   1.3334429724  0.0428356029 -0.0397091840
C  -1.0830267195  1.3252971848  0.8262604273
C   1.9911555962 -0.4277403567  1.2341624098
C   2.2830653959  0.4218022761 -1.1417378447
N   0.3197908476 -0.9093744958 -0.5041732167
N  -1.9825112236 -1.3454622334 -0.2174144531
O  -1.6771015050  1.6269271083 -0.3900035678
H  -2.2665924296  0.8762854083 -0.4957115694
H   0.0221812119 -0.6677858773 -1.4484808092
H  -0.6088095027 -1.3683244711  1.3248707897
H   0.7263615362  0.9129934475  0.2561608954
H  -2.5528369621 -2.0321258256  0.2628442690
H  -2.0301035194 -1.4986491587 -1.2185572668
H  -0.3815031943  2.2592509027  0.9848503079
H  -1.6955085289  1.3201562247  1.6963377900
H   2.7629655774  0.2847223787  1.5206048693
H   1.7279634239  0.7259450896 -2.0313439087
H   2.4366239395 -1.4101030285  1.1324612580
H   1.2748623741 -0.4524178818  2.0669559369
H   2.8531989962  1.2892605530 -0.8163463767
H   2.9626562316 -0.3774778279 -1.3927718395
22
Image 4  Energy = -383.5530198944
C  -0.8130607226 -0.6323749284  0.4259181934
C   1.3575283544  0.0342095218 -0.0545645614
C  -1.1630789463  1.1908441116  0.8265085568
C   2.0011656813 -0.4339306348  1.2247728100
C   2.3003869788  0.4138002575 -1.1493738889
N   0.3278795751 -0.9174205203 -0.4893587319
N  -1.9620465294 -1.2936038567 -0.2012519478
O  -1.7103023166  1.6184090113 -0.3805174895
H  -2.2891414311  0.8805606846 -0.5332359939
H   0.0219523585 -0.6566282473 -1.4326617476
H  -0.6120419227 -1.3374902396  1.2996535751
H   0.7883364752  0.9143595605  0.2194503164
H  -2.5216849093 -1.9982275167  0.2747517823
H  -1.9966534189 -1.4869990611 -1.1981510224
H  -0.3980535546  2.1198889848  0.9800834581
H  -1.7635031682  1.3365661806  1.7150619857
H   2.7666680107  0.2793251623  1.5197088636
H   1.7317551166  0.7201991510 -2.0282466858
H   2.4407379415 -1.4194327098  1.1289944111
H   1.2783203376 -0.4592570026  2.0504968854
H   2.8634364293  1.2827055866 -0.8191850509
H   2.9713060968 -0.3918634629 -1.4003887259
22
Image 5  Energy = -383.5674336924
C  -0.8404433311 -0.5009402196  0.4712417106
C   1.3847365783  0.0254221255 -0.0644140426
C  -1.2234543834  1.0613891860  0.8152823796
C   2.0161739111 -0.4413381892  1.2169168712
C   2.3221037486  0.4039102739 -1.1611157236
N   0.3198150331 -0.8886451953 -0.4608102044
N  -1.9635538314 -1.2224025024 -0.1757737859
O  -1.7330578202  1.6149370084 -0.3562315360
H  -2.3393711518  0.8671827825 -0.5897027410
H   0.0232824717 -0.6458901586 -1.4106605128
H  -0.6197248193 -1.2654820694  1.2788470316
H   0.8524636820  0.9310382141  0.1842260203
H  -2.4812098351 -1.9531335109  0.2899145799
H  -1.9532929844 -1.4679128995 -1.1744678842
H  -0.4168937930  1.9507543381  0.9801908688
H  -1.8274078560  1.3337247527  1.7189231063
H   2.7737517224  0.2738278287  1.5198317182
H   1.7373702615  0.7138574106 -2.0277771246
H   2.4460279473 -1.4287764652  1.1251324462
H   1.2817096062 -0.4668054103  2.0338864604
H   2.8778597186  1.2754149742 -0.8236403882
H   2.9830223509 -0.4064923687 -1.4113343488
22
Image 6  Energy = -383.6046226963
C  -0.8736903549 -0.4948969368  0.4900984968
C   1.4024575123  0.0300703141 -0.0664952056
C  -1.2393440932  0.9954437767  0.8156428679
C   2.0323420994 -0.4463132153  1.2179166330
C   2.3422667631  0.3953038708 -1.1740930256
N   0.2898871275 -0.8174523645 -0.4174201166
N  -2.0011739325 -1.1313757343 -0.1654451196
O  -1.7834763275  1.5746135870 -0.3449553905
H  -2.3892304037  0.8734859788 -0.6550733230
H   0.0257557283 -0.6344946576 -1.3846422900
H  -0.6327554592 -1.1476853801  1.2749180885
H   0.9191615402  0.9644879459  0.1556314463
H  -2.4363756199 -1.9045991921  0.3154044318
H  -1.8994026108 -1.4373312390 -1.1366598758
H  -0.4376235900  1.7507543351  0.9895307797
H  -1.8760369871  1.2916603430  1.6969630732
H   2.7872715152  0.2689148619  1.5221433267
H   1.7459125655  0.7067363007 -2.0320448568
H   2.4554120132 -1.4417809526  1.1206180896
H   1.2869331817 -0.4747883376  2.0162668022
H   2.8985176938  1.2671896915 -0.8309829265
H   3.0031008479 -0.4243033914 -1.4288571904
22
Image 7  Energy = -383.6172385552
C  -0.8889714305 -0.5410199050  0.4171588773
C   1.3953422190  0.0620231236 -0.0455234324
C  -1.2277559361  1.0222897553  0.8055815424
C   2.0441835642 -0.4469040212  1.2219355367
C   2.3517880752  0.3805471270 -1.1825138758
N   0.2462841915 -0.7536923148 -0.3972246622
N  -2.0903056305 -1.0811566120 -0.1724491054
O  -1.8179478468  1.5509087490 -0.3492439047
H  -2.4423109177  0.8655674310 -0.7034528784
H   0.0244685200 -0.6221608165 -1.3614851945
H  -0.6372264171 -1.0861471830  1.3621694388
H   0.9700728103  1.0196741580  0.1537182182
H  -2.4016427417 -1.8659011671  0.3382638449
H  -1.8508235848 -1.4054392187 -1.1002924631
H  -0.4264605695  1.6008297887  1.0061577953
H  -1.8994810660  1.2056948512  1.6659325729
H   2.8088420096  0.2663102236  1.5298607270
H   1.7578043776  0.7008120027 -2.0439973874
H   2.4666294592 -1.4511661286  1.1160742585
H   1.2912430790 -0.4809721891  2.0090190734
H   2.9228420960  1.2581655381 -0.8425758306
H   3.0233368446 -0.4346238733 -1.4486485905
22
Image 8  Energy = -383.6269803362
C  -0.9053703801 -0.4766755436  0.4591623785
C   1.4046758025  0.0678858691 -0.0462813124
C  -1.2861018313  0.9466702366  0.7959022147
C   2.0518123617 -0.4482704103  1.2203964270
C   2.3597112303  0.3732195364 -1.1861052847
N   0.2450463887 -0.7396676446 -0.3949280342
N  -2.1028811079 -1.0354652559 -0.1810346702
O  -1.8570835004  1.5326944618 -0.3634354633
H  -2.4548728248  0.8801686300 -0.7246406364
H   0.0221845348 -0.6111489832 -1.3565245905
H  -0.6484654037 -1.0422249003  1.3698245681
H   1.0102620206  1.0482370632  0.1444125790
H  -2.3852992748 -1.8518890874  0.3571438583
H  -1.8257143627 -1.3926748840 -1.0805406908
H  -0.3985578713  1.5181232702  1.0167563188
H  -1.9286470287  1.1741922132  1.6575921453
H   2.8184193706  0.2615800530  1.5329263127
H   1.7655290846  0.6956226347 -2.0473848916
H   2.4718285968 -1.4556448933  1.1121174973
H   1.2952899485 -0.4860942817  2.0020582386
H   2.9353267769  1.2484252357 -0.8504486366
H   3.0328190923 -0.4434240874 -1.4585038246
22
Image 9  Energy = -383.6299826714
C  -0.8989548258 -0.5419996787  0.4733116802
C   1.3925708834  0.0689027645 -0.0462946438
C  -1.2670922337  0.9985264675  0.7819864459
C   2.0448785688 -0.4435139513  1.2241742460
C   2.3478190606  0.3796012078 -1.1781435263
N   0.2612955015 -0.7584662455 -0.4116532205
N  -2.0918460976 -1.0791323638 -0.1865925370
O  -1.8330773069  1.5552172894 -0.3727955196
H  -2.4362001555  0.8765380759 -0.6941001701
H   0.0182133902 -0.6123708033 -1.3803257533
H  -0.6537145706 -1.0731930076  1.3676943775
H   0.9776683159  1.0479312125  0.1681004036
H  -2.4103656468 -1.8769536489  0.3465642034
H  -1.8521089981 -1.4085346965 -1.1009247417
H  -0.3743300026  1.6202624302  1.0185666463
H  -1.9006562796  1.1688230682  1.6605399009
H   2.8151921765  0.2618071613  1.5338322535
H   1.7653494843  0.6974976710 -2.0478899933
H   2.4680050797 -1.4465262358  1.1124391877
H   1.2947665318 -0.4827722897  2.0137804056
H   2.9284105864  1.2470268495 -0.8518672697
H   3.0240876070 -0.4350319509 -1.4519378132
22
Image 10  Energy = -383.6342906783
C  -0.9125555840 -0.5145438682  0.4715514794
C   1.3951118110  0.0801599622 -0.0459399443
C  -1.2590855819  0.9854389872  0.7762232430
C   2.0481283039 -0.4424171563  1.2233391104
C   2.3516863157  0.3745448089 -1.1805213649
N   0.2561921728 -0.7508373250 -0.4034523320
N  -2.1000201222 -1.0709316000 -0.1705721700
O  -1.8401978021  1.5580807957 -0.3771763018
H  -2.4524397073  0.8746974368 -0.7062378029
H   0.0129730197 -0.6013867690 -1.3836151858
H  -0.6651406823 -1.0547885871  1.3873866196
H   0.9980060763  1.0688787602  0.1720885579
H  -2.4082728160 -1.8688239758  0.3483766246
H  -1.8401367402 -1.4092657612 -1.1013858809
H  -0.3750137564  1.5772667687  1.0203104370
H  -1.9158628829  1.1359147590  1.6543374611
H   2.8222027696  0.2574068940  1.5374533759
H   1.7725073274  0.6935573136 -2.0511910522
H   2.4701378992 -1.4444500505  1.1084443722
H   1.2985353630 -0.4855113024  2.0150125549
H   2.9374931310  1.2383590424 -0.8598573450
H   3.0256628787 -0.4377098637 -1.4561099218
22
Image 11  Energy = -383.6367830112
C  -0.9202437287 -0.4939968843  0.4726858486
C   1.3948979315  0.0960901883 -0.0418257291
C  -1.2578262674  0.9765743283  0.7676288623
C   2.0508301729 -0.4384684562  1.2230014586
C   2.3545184974  0.3690977737 -1.1838845149
N   0.2458587958 -0.7385517916 -0.4034286428
N  -2.1065513742 -1.0649828255 -0.1728179778
O  -1.8488489403  1.5582160329 -0.3849582251
H  -2.4669388138  0.8778161495 -0.7147614888
H   0.0073403617 -0.5869203213 -1.3801992834
H  -0.6834228089 -1.0302328239  1.4114930719
H   1.0228685260  1.0960582044  0.1804184979
H  -2.4112673312 -1.8684791550  0.3549468036
H  -1.8321032644 -1.4068805598 -1.0891500401
H  -0.3696826643  1.5349962275  1.0235509611
H  -1.9288285276  1.0878465932  1.6412500944
H   2.8320901529  0.2514587496  1.5430359446
H   1.7824043936  0.6883349013 -2.0567353599
H   2.4726473861 -1.4407531408  1.1019932921
H   1.3045202924 -0.4887461079  2.0181338546
H   2.9509361484  1.2273724601 -0.8711958220
H   3.0267128444 -0.4422103343 -1.4607170987
22
Image 12  Energy = -383.6389701602
C  -0.9204922727 -0.4872208057  0.4671075779
C   1.3910762167  0.1121413242 -0.0392228497
C  -1.2644255735  0.9713812345  0.7567861944
C   2.0507502007 -0.4312497465  1.2234041260
C   2.3547025361  0.3661979262 -1.1855783658
N   0.2410287618 -0.7213524597 -0.3983766956
N  -2.1072958114 -1.0752253482 -0.1618242671
O  -1.8487005820  1.5601010565 -0.3937043648
H  -2.4734882559  0.8875226952 -0.7108697048
H  -0.0026026896 -0.5648902583 -1.3770719830
H  -0.7114789741 -1.0055506243  1.4314161181
H   1.0463682104  1.1236118913  0.1964219185
H  -2.4245907351 -1.8734490704  0.3544217125
H  -1.8313745814 -1.4143989611 -1.0851079674
H  -0.3615068573  1.5194966581  1.0265980700
H  -1.9346939688  1.0287304271  1.6209956985
H   2.8435746054  0.2438617311  1.5507987487
H   1.7940890516  0.6822727592 -2.0661489598
H   2.4729901008 -1.4313003871  1.0908058104
H   1.3142430012 -0.4914812762  2.0264130403
H   2.9694644739  1.2147106240 -0.8870125068
H   3.0222751971 -0.4502702225 -1.4617868709
22
Image 13  Energy = -383.6407786233
C  -0.9229136997 -0.4931691756  0.4707559561
C   1.3924903753  0.1335888803 -0.0327090250
C  -1.2546588980  0.9668559972  0.7410806238
C   2.0519235600 -0.4213023059  1.2239003224
C   2.3546353564  0.3635858081 -1.1882274542
N   0.2439900130 -0.6982477641 -0.3999683313
N  -2.0911469928 -1.0926825708 -0.1628131210
O  -1.8337926557  1.5701118056 -0.3977058309
H  -2.4801870767  0.8997075274 -0.6997739519
H  -0.0155847079 -0.5326588865 -1.3644924106
H  -0.7469406495 -0.9764252561  1.4386545993
H   1.0700827025  1.1476518769  0.2171231723
H  -2.4510470949 -1.8956047837  0.3563382568
H  -1.8441588138 -1.4311689515 -1.0790892948
H  -0.3715561370  1.5238625809  1.0268095100
H  -1.9452635841  0.9630591620  1.6012045406
H   2.8555628457  0.2347568925  1.5597881499
H   1.8071272790  0.6752561642 -2.0805546649
H   2.4697760423 -1.4158061644  1.0719208275
H   1.3279638162 -0.4932794267  2.0404623189
H   2.9956259564  1.2010973394 -0.9079003231
H   3.0079845887 -0.4655496133 -1.4563394105
22
Image 14  Energy = -383.6418207599
C  -0.9161899279 -0.4987567227  0.4671909292
C   1.3976075906  0.1355850911 -0.0314334476
C  -1.2620919385  0.9655251148  0.7469384468
C   2.0532198972 -0.4194680583  1.2254355896
C   2.3567738881  0.3659541241 -1.1897358581
N   0.2485888322 -0.6951565608 -0.3958765604
N  -2.0920488989 -1.1070834693 -0.1632074992
O  -1.8300165560  1.5663769166 -0.3963426617
H  -2.4756020858  0.9091683398 -0.6945576858
H  -0.0177430119 -0.5228726615 -1.3594796404
H  -0.7485162214 -0.9746074932  1.4327730006
H   1.0712738608  1.1464626393  0.2182013706
H  -2.4530393657 -1.8945510423  0.3528589276
H  -1.8497615596 -1.4378911070 -1.0799696579
H  -0.3821152098  1.5347057052  1.0272478799
H  -1.9465840620  0.9622846330  1.5966147673
H   2.8566663277  0.2347514463  1.5604111297
H   1.8080215656  0.6740496127 -2.0827872199
H   2.4678502478 -1.4143398731  1.0653837584
H   1.3314965344 -0.4924270393  2.0422306399
H   3.0013567083  1.1996100859 -0.9121317724
H   3.0007655707 -0.4736805399 -1.4512999775
22
Image 15  Energy = -383.6424529225
C  -0.9146197331 -0.5027019257  0.4636326008
C   1.4029748151  0.1380099785 -0.0301210196
C  -1.2694872279  0.9606164954  0.7491941555
C   2.0562192390 -0.4186114513  1.2265188342
C   2.3596644109  0.3667564394 -1.1911064916
N   0.2544838489 -0.6925911332 -0.3930300468
N  -2.0903955964 -1.1131489450 -0.1630197987
O  -1.8241918387  1.5655567119 -0.3933226119
H  -2.4754088956  0.9165580403 -0.6924050906
H  -0.0191133642 -0.5110066825 -1.3536831348
H  -0.7471965179 -0.9744118312  1.4289453463
H   1.0726060060  1.1469612944  0.2186405437
H  -2.4550913727 -1.8967381746  0.3528238155
H  -1.8541684634 -1.4471954814 -1.0848663997
H  -0.3937089297  1.5446663892  1.0296931072
H  -1.9527135043  0.9630909625  1.5952154764
H   2.8589606390  0.2355955043  1.5612416955
H   1.8089279814  0.6725851498 -2.0846701942
H   2.4659693246 -1.4136686810  1.0579815600
H   1.3350629317 -0.4913643976  2.0435199380
H   3.0086650722  1.1982036635 -0.9170912495
H   2.9924733334 -0.4835227811 -1.4456265755
22
Image 16  Energy = -383.6435143086
C  -0.9136910412 -0.5075438298  0.4601136597
C   1.4123986075  0.1480831392 -0.0262854889
C  -1.2796017654  0.9518840498  0.7523007654
C   2.0651636797 -0.4160885017  1.2275239017
C   2.3664037563  0.3651273923 -1.1932212360
N   0.2640252999 -0.6852911204 -0.3880308585
N  -2.0895063818 -1.1260184465 -0.1674200715
O  -1.8173197911  1.5647823751 -0.3919535989
H  -2.4810074146  0.9345614966 -0.6929298024
H  -0.0211967512 -0.4785036327 -1.3417086064
H  -0.7439043729 -0.9722687294  1.4277378309
H   1.0802614356  1.1566038535  0.2210660303
H  -2.4571908373 -1.8991955403  0.3550942302
H  -1.8614551499 -1.4681476987 -1.0923766269
H  -0.4209597374  1.5540401481  1.0393067264
H  -1.9757204837  0.9562180412  1.5933221570
H   2.8685227207  0.2369846520  1.5646311586
H   1.8134457806  0.6675789506 -2.0886523033
H   2.4631930024 -1.4130328838  1.0397686232
H   1.3444979512 -0.4894942663  2.0458506256
H   3.0298201278  1.1918510866 -0.9318524189
H   2.9737335679 -0.5084913997 -1.4338202421
22
Image 17  Energy = -383.6443251884
C  -0.9114364857 -0.5144824140  0.4596632971
C   1.4257717664  0.1726008356 -0.0147340780
C  -1.3236205556  0.9382514999  0.7678802479
C   2.0851594045 -0.4087869816  1.2264270881
C   2.3795943629  0.3573299621 -1.1947733470
N   0.2716346636 -0.6710145395 -0.3896993671
N  -2.0807816877 -1.1389929006 -0.1864775913
O  -1.8078061363  1.5676126791 -0.3937468339
H  -2.5035280778  0.9680201095 -0.7048095054
H  -0.0178651005 -0.4083118470 -1.3183681763
H  -0.7281032449 -0.9786622896  1.4299648567
H   1.0947349800  1.1822342885  0.2249898362
H  -2.4570864599 -1.9065518049  0.3669343725
H  -1.8704076260 -1.5104486904 -1.1019510681
H  -0.4668722342  1.5657168321  1.0714533702
H  -2.0233793443  0.9456619645  1.5811945201
H   2.8923831063  0.2378149281  1.5704146960
H   1.8251985723  0.6546051196 -2.0904967635
H   2.4608317497 -1.4134613284  1.0048487652
H   1.3660651897 -0.4860887188  2.0451576051
H   3.0739087076  1.1704173234 -0.9648033492
H   2.9355168019 -0.5598249202 -1.4106041305
22
Image 18  Energy = -383.6457740003
C  -0.9155889043 -0.5141752137  0.4620780908
C   1.4267371199  0.1820268147 -0.0128215563
C  -1.3214137583  0.9385498799  0.7625646647
C   2.0917586081 -0.4064646291  1.2241524543
C   2.3823484016  0.3507291062 -1.1929354378
N   0.2744570189 -0.6596653234 -0.3858668288
N  -2.0797090425 -1.1457621745 -0.1837881789
O  -1.8108806361  1.5680019234 -0.3969653753
H  -2.5130233371  0.9808147466 -0.7110242568
H  -0.0182376640 -0.3800032915 -1.3164639086
H  -0.7255046175 -0.9797913353  1.4334342076
H   1.1021800770  1.1973948920  0.2292619475
H  -2.4557370422 -1.9050113227  0.3682703868
H  -1.8689124254 -1.5259677506 -1.1053750397
H  -0.4842628392  1.5594327708  1.0852179444
H  -2.0495595502  0.9326188608  1.5805153645
H   2.9035653921  0.2357075195  1.5728611486
H   1.8313102203  0.6487425366 -2.0914946829
H   2.4609638909 -1.4101506825  0.9935164592
H   1.3750100336 -0.4858192343  2.0455131435
H   3.0916965329  1.1584860269 -0.9783171099
H   2.9227149871 -0.5760550340 -1.4038689975
22
Image 19  Energy = -383.6465997969
C  -0.9183063729 -0.5103415049  0.4665925578
C   1.4246498828  0.1902286513 -0.0107896989
C  -1.3243112649  0.9406076702  0.7610311685
C   2.0961075358 -0.4038126997  1.2208328460
C   2.3826707856  0.3433664695 -1.1898306782
N   0.2709202616 -0.6477528853 -0.3876204577
N  -2.0769250031 -1.1487145362 -0.1849117838
O  -1.8180505235  1.5692634954 -0.4018618107
H  -2.5226766679  0.9889756861 -0.7195239927
H  -0.0159856522 -0.3588471500 -1.3171460857
H  -0.7209084018 -0.9851603457  1.4363853028
H   1.1069279888  1.2104707931  0.2324507478
H  -2.4522456112 -1.9028517729  0.3705797284
H  -1.8629841768 -1.5344533668 -1.1011924807
H  -0.4932129628  1.5491982081  1.1006212021
H  -2.0695170479  0.9235274463  1.5760024705
H   2.9132568196  0.2317938190  1.5729511121
H   1.8367581286  0.6430155123 -2.0895938239
H   2.4630118085 -1.4065571164  0.9878251516
H   1.3824793422 -0.4863118204  2.0439415656
H   3.1039234264  1.1438815655 -0.9882549290
H   2.9143302779 -0.5858870511 -1.4000236800
22
Image 20  Energy = -383.6474636413
C  -0.9196884659 -0.5059236426  0.4706553105
C   1.4242081215  0.2058998393 -0.0064372951
C  -1.3416483636  0.9395593376  0.7626585516
C   2.1035785133 -0.3976463501  1.2161270849
C   2.3829376954  0.3327321403 -1.1854415603
N   0.2664742413 -0.6238671193 -0.3879791763
N  -2.0710308171 -1.1544905229 -0.1860808885
O  -1.8264994605  1.5722683032 -0.4069192681
H  -2.5399518262  1.0043491517 -0.7342265280
H  -0.0133934590 -0.3167684761 -1.3181470726
H  -0.7109955068 -0.9947898421  1.4357821805
H   1.1151499653  1.2313984049  0.2373349857
H  -2.4463578052 -1.9002725721  0.3757249714
H  -1.8503549826 -1.5518440817 -1.0935898706
H  -0.5125427081  1.5363702762  1.1300727195
H  -2.1046601998  0.9113133677  1.5638658566
H   2.9305436902  0.2243170766  1.5710671842
H   1.8457023047  0.6319139871 -2.0867405675
H   2.4669702498 -1.4003841450  0.9756639153
H   1.3969330448 -0.4870493428  2.0417669856
H   3.1272868099  1.1152411258 -1.0055713579
H   2.8972517031 -0.6086878730 -1.3911217421
22
Image 21  Energy = -383.6478762614
C  -0.9248685943 -0.5004036975  0.4708297349
C   1.4293266639  0.2321257396  0.0028556194
C  -1.3703340824  0.9340672608  0.7681952638
C   2.1139327760 -0.3910371543  1.2095784045
C   2.3879141911  0.3085443669 -1.1831966626
N   0.2603634385 -0.5683225194 -0.4052799441
N  -2.0561428360 -1.1600295472 -0.1835087397
O  -1.8429712581  1.5706011519 -0.4076943874
H  -2.5538556406  1.0333647840 -0.7504913466
H  -0.0128958836 -0.2507298154 -1.3089704877
H  -0.6958389974 -1.0040799030  1.4176739914
H   1.1288058243  1.2597541505  0.2454629190
H  -2.4402991905 -1.9024589790  0.3890074269
H  -1.8145246488 -1.5784833067 -1.0748004265
H  -0.5565550945  1.5166702407  1.1762241079
H  -2.1636211442  0.8948775099  1.5377976534
H   2.9566714272  0.2099418277  1.5595052912
H   1.8538003063  0.6139162267 -2.0887855880
H   2.4738790060 -1.3835206052  0.9571662676
H   1.4189463644 -0.4891101180  2.0450016113
H   3.1641156966  1.0608540816 -1.0246530156
H   2.8640646937 -0.6429026899 -1.3734532881
22
Image 22  Energy = -383.6489014529
C  -0.9217881843 -0.4976995977  0.4682798456
C   1.4316084235  0.2380489828  0.0027623078
C  -1.3839780065  0.9297594925  0.7714532975
C   2.1156292873 -0.3877359734  1.2099033178
C   2.3873531609  0.3080539660 -1.1834368593
N   0.2608348685 -0.5601008289 -0.3977089407
N  -2.0551547252 -1.1669513773 -0.1856424856
O  -1.8386275961  1.5753993943 -0.4046939844
H  -2.5620992284  1.0374507676 -0.7557636703
H  -0.0156095161 -0.2283186254 -1.3135790886
H  -0.6904170683 -1.0065117351  1.4135226801
H   1.1331567390  1.2670100064  0.2474339464
H  -2.4379762655 -1.9014441090  0.3912084306
H  -1.8068568698 -1.5867043639 -1.0701955285
H  -0.5689074689  1.5164119662  1.1878491752
H  -2.1783029910  0.8916151509  1.5311330984
H   2.9633189838  0.2075596200  1.5567086760
H   1.8566544205  0.6087602429 -2.0884654761
H   2.4755384523 -1.3822177253  0.9501545621
H   1.4253821517 -0.4891927367  2.0458333009
H   3.1749077444  1.0477927622 -1.0299658487
H   2.8552467621 -0.6573462849 -1.3683263532
22
Image 23  Energy = -383.6492175714
C  -0.9199672674 -0.4961725502  0.4649935547
C   1.4338672051  0.2397451793  0.0021877237
C  -1.3910832807  0.9264075007  0.7744796986
C   2.1147472797 -0.3868674656  1.2109641051
C   2.3870703057  0.3080710424 -1.1854096643
N   0.2604423026 -0.5548314910 -0.3976942117
N  -2.0543067657 -1.1696249555 -0.1856228366
O  -1.8360494680  1.5770524381 -0.4009764902
H  -2.5602043222  1.0386578186 -0.7545602324
H  -0.0190428899 -0.2198431979 -1.3145633695
H  -0.6877535724 -1.0050594751  1.4068414912
H   1.1356319112  1.2675121753  0.2481348338
H  -2.4374990067 -1.9021863622  0.3929880337
H  -1.7978465930 -1.5896693444 -1.0667553147
H  -0.5770386889  1.5186194810  1.1911185247
H  -2.1837565804  0.8915071626  1.5269967437
H   2.9645201443  0.2067347049  1.5523803651
H   1.8558144365  0.6068078474 -2.0900015208
H   2.4763858813 -1.3813748417  0.9478930184
H   1.4270585643 -0.4893579287  2.0487404483
H   3.1782488706  1.0407309403 -1.0278374895
H   2.8506746183 -0.6632196847 -1.3658330071
22
Image 24  Energy = -383.6495509593
C  -0.9197758557 -0.4926138072  0.4616707641
C   1.4353568134  0.2446855517  0.0019852199
C  -1.4020955107  0.9228506026  0.7779997713
C   2.1144957130 -0.3857548130  1.2107638233
C   2.3865383093  0.3036034238 -1.1875834231
N   0.2579092009 -0.5421850301 -0.4016437961
N  -2.0511030277 -1.1729823515 -0.1859270082
O  -1.8343677031  1.5806367911 -0.3962441035
H  -2.5579396838  1.0427590643 -0.7542050682
H  -0.0249507053 -0.1987302753 -1.3159680379
H  -0.6807519647 -1.0033926787  1.3970356582
H   1.1423862947  1.2726784148  0.2503945350
H  -2.4353463678 -1.9033573976  0.3973285803
H  -1.7777859793 -1.5987047622 -1.0604121497
H  -0.5939658976  1.5197465170  1.2014728415
H  -2.2013018987  0.8871122914  1.5199930308
H   2.9692583759  0.2049584004  1.5442345009
H   1.8556918851  0.6021190591 -2.0928152484
H   2.4780661185 -1.3789927034  0.9428012278
H   1.4318578604 -0.4895637516  2.0540923069
H   3.1881928523  1.0244742875 -1.0257299403
H   2.8395443096 -0.6757078440 -1.3607790855
22
Image 25  Energy = -383.6500715194
C  -0.9199899305 -0.4857290102  0.4578316142
C   1.4334099126  0.2487059679 -0.0004611540
C  -1.4174495564  0.9225682976  0.7863238328
C   2.1126300614 -0.3856456907  1.2100523613
C   2.3868670321  0.2965126396 -1.1897247410
N   0.2493230428 -0.5253179344 -0.4120795878
N  -2.0462392207 -1.1823190661 -0.1934571941
O  -1.8329012471  1.5887216452 -0.3907965323
H  -2.5476955704  1.0479067007 -0.7508882029
H  -0.0381256089 -0.1618270840 -1.3194367101
H  -0.6652482518 -0.9979885365  1.3861625156
H   1.1567706044  1.2818603791  0.2540000526
H  -2.4286465552 -1.9021564292  0.4020029950
H  -1.7392136492 -1.6165266702 -1.0470088374
H  -0.6222710240  1.5253384119  1.2185743994
H  -2.2318266368  0.8752683586  1.5111009416
H   2.9739042218  0.2051160740  1.5283641999
H   1.8563979396  0.5956257613 -2.0977739371
H   2.4787578543 -1.3784124559  0.9354130933
H   1.4403527051 -0.4885414840  2.0632403384
H   3.2022786433  0.9970074018 -1.0186805883
H   2.8188284545 -0.6965282885 -1.3542944568
22
Image 26  Energy = -383.6503783987
C  -0.9263153328 -0.4769108466  0.4537382732
C   1.4277268612  0.2569024876 -0.0025817481
C  -1.4445467518  0.9236574391  0.7943776273
C   2.1108606556 -0.3877567492  1.2034294536
C   2.3837733881  0.2768462678 -1.1916889322
N   0.2341621935 -0.4931256744 -0.4328323586
N  -2.0326514264 -1.1841681712 -0.1977682215
O  -1.8285535064  1.6055135533 -0.3791339308
H  -2.5372787851  1.0525938740 -0.7522905661
H  -0.0599653971 -0.0984134267 -1.3231851515
H  -0.6381568809 -0.9891184117  1.3745309839
H   1.1810995776  1.2969206334  0.2588005949
H  -2.4174910365 -1.9012686137  0.4088515803
H  -1.6715775468 -1.6560917491 -1.0322289102
H  -0.6642296764  1.5351194662  1.2533997095
H  -2.2829367517  0.8511323853  1.4967236792
H   2.9800569574  0.2058383748  1.5021752917
H   1.8629009954  0.5855556245 -2.1024010066
H   2.4773171747 -1.3772749529  0.9250579207
H   1.4561349347 -0.4858004813  2.0757961807
H   3.2269264585  0.9519880955 -1.0087742200
H   2.7826572827 -0.7285001454 -1.3455318392
22
Image 27  Energy = -383.6508588915
C  -0.9249110808 -0.4773072275  0.4571550431
C   1.4261021742  0.2534296677 -0.0035121967
C  -1.4373588656  0.9267722001  0.7942195715
C   2.1097038248 -0.3887222086  1.2024897642
C   2.3837680379  0.2785155028 -1.1894290977
N   0.2338246623 -0.4980319437 -0.4307142079
N  -2.0315004054 -1.1850920770 -0.2032734863
O  -1.8326140407  1.6030908557 -0.3819259952
H  -2.5342716509  1.0511121308 -0.7525947569
H  -0.0597193353 -0.1061854556 -1.3228181392
H  -0.6401610631 -0.9874632192  1.3801551120
H   1.1787471597  1.2930382516  0.2568469981
H  -2.4176444464 -1.8993901765  0.4052620056
H  -1.6787787346 -1.6531393217 -1.0302892462
H  -0.6573044851  1.5355871996  1.2502274889
H  -2.2742874248  0.8511819028  1.4999708539
H   2.9752050331  0.2075734804  1.5039453653
H   1.8647936412  0.5887563041 -2.1004731262
H   2.4749069750 -1.3803059804  0.9284784303
H   1.4545542704 -0.4848283163  2.0724874451
H   3.2203264418  0.9581514770 -1.0083161398
H   2.7865326780 -0.7231040662 -1.3494272728
22
Image 28  Energy = -383.6511461182
C  -0.9239960889 -0.4751872807  0.4596420050
C   1.4227252407  0.2505441137 -0.0052014181
C  -1.4349201588  0.9308062318  0.7958781624
C   2.1076217353 -0.3906738384  1.1990822731
C   2.3831217278  0.2757945093 -1.1866664453
N   0.2299280357 -0.4951407049 -0.4328490565
N  -2.0271643002 -1.1863524312 -0.2081741145
O  -1.8363565623  1.6047784077 -0.3815340869
H  -2.5293199355  1.0493397698 -0.7555601860
H  -0.0650679432 -0.0999751751 -1.3221868461
H  -0.6361269751 -0.9830595657  1.3856134930
H   1.1810537058  1.2917505976  0.2551512696
H  -2.4148450658 -1.8951390611  0.4005932864
H  -1.6701236913 -1.6613462005 -1.0251635713
H  -0.6585845028  1.5383780586  1.2559773347
H  -2.2748912585  0.8450482729  1.5005142564
H   2.9699287759  0.2099407515  1.4994921807
H   1.8697938600  0.5909999109 -2.0986814408
H   2.4706976982 -1.3843106070  0.9306631449
H   1.4564963113 -0.4825553142  2.0704339238
H   3.2174452759  0.9545893791 -1.0056399723
H   2.7824974966 -0.7245908451 -1.3529197744
22
Image 29  Energy = -383.6514303047
C  -0.9213565463 -0.4707628251  0.4614949238
C   1.4193414615  0.2490970818 -0.0076735434
C  -1.4386152619  0.9333628606  0.7996241155
C   2.1042936136 -0.3931658664  1.1939358111
C   2.3816612511  0.2697711978 -1.1845127339
N   0.2242062794 -0.4850220015 -0.4363299629
N  -2.0177629723 -1.1868010528 -0.2149325436
O  -1.8405064184  1.6096469990 -0.3774204113
H  -2.5230538188  1.0471695752 -0.7627577947
H  -0.0757436538 -0.0808319513 -1.3209814532
H  -0.6279834784 -0.9753507130  1.3897027143
H   1.1859771640  1.2920087378  0.2531930554
H  -2.4116733963 -1.8899802069  0.3964139489
H  -1.6481604227 -1.6790162620 -1.0149440886
H  -0.6668892189  1.5426102971  1.2703323805
H  -2.2810026424  0.8345165336  1.4979919538
H   2.9640155234  0.2122686042  1.4892101225
H   1.8780172586  0.5933380284 -2.0967723006
H   2.4643953466 -1.3897628431  0.9318909919
H   1.4606402009 -0.4789318428  2.0687806461
H   3.2179020252  0.9426295861 -1.0011024178
H   2.7722111310 -0.7331549616 -1.3566789874
22
Image 30  Energy = -383.6514888549
C  -0.9148919313 -0.4604187743  0.4613024845
C   1.4190203294  0.2522924417 -0.0126202711
C  -1.4448022459  0.9340094845  0.8071350840
C   2.0979006960 -0.3986531743  1.1840119609
C   2.3821884896  0.2528042533 -1.1866182703
N   0.2187949381 -0.4575136701 -0.4475621779
N  -1.9992023541 -1.1919857084 -0.2167256211
O  -1.8555003775  1.6145603570 -0.3644189312
H  -2.5042449436  1.0468708061 -0.7815987465
H  -0.0989500331 -0.0347261567 -1.3095435435
H  -0.6133488310 -0.9567766056  1.3904448286
H   1.1925279398  1.2934213017  0.2486568816
H  -2.4105505901 -1.8722996438  0.3877018630
H  -1.5909130113 -1.7212284316 -0.9911748329
H  -0.6959492493  1.5446990920  1.3015901887
H  -2.2965582123  0.8150014699  1.4946997469
H   2.9552395935  0.2136701127  1.4641642433
H   1.8930060376  0.6025236257 -2.0976000426
H   2.4490482067 -1.4005736235  0.9329597184
H   1.4623151349 -0.4704956538  2.0679414205
H   3.2259457791  0.9140555366 -0.9896502077
H   2.7488381828 -0.7555980754 -1.3646313246
22
Image 31  Energy = -383.6519237210
C  -0.9142715373 -0.4605780543  0.4613550520
C   1.4192970309  0.2516911142 -0.0136386052
C  -1.4489828487  0.9320991248  0.8067664000
C   2.0969067945 -0.3984796028  1.1846099088
C   2.3823551152  0.2543732590 -1.1870746857
N   0.2187406007 -0.4581837864 -0.4453085710
N  -1.9945816405 -1.1904471780 -0.2221671894
O  -1.8527017455  1.6176680146 -0.3620041393
H  -2.5064473436  1.0440095734 -0.7842995631
H  -0.0998263041 -0.0321867630 -1.3105910993
H  -0.6129731283 -0.9563175545  1.3905894485
H   1.1923581302  1.2941072080  0.2484573239
H  -2.4132409973 -1.8742157908  0.3906951438
H  -1.5904816971 -1.7210924788 -0.9876580690
H  -0.6953888767  1.5453811182  1.3029281512
H  -2.2953939633  0.8146518672  1.4945448012
H   2.9554977076  0.2132182424  1.4636620981
H   1.8938178932  0.6031311782 -2.0973721702
H   2.4482080666 -1.4011011464  0.9329567923
H   1.4619702199 -0.4699678063  2.0670405626
H   3.2264093321  0.9128117636 -0.9896308646
H   2.7486427441 -0.7569333387 -1.3653962757
22
Image 32  Energy = -383.6520405104
C  -0.9135349601 -0.4607948755  0.4604319869
C   1.4211011967  0.2527590938 -0.0143653872
C  -1.4517475226  0.9296236409  0.8067926460
C   2.0963107327 -0.3981692564  1.1855008944
C   2.3834918459  0.2549926284 -1.1892640035
N   0.2201815634 -0.4579089027 -0.4446683643
N  -1.9923145182 -1.1911743546 -0.2223477034
O  -1.8531318633  1.6180545232 -0.3603363287
H  -2.5056148891  1.0435495693 -0.7865108573
H  -0.1001637327 -0.0291691258 -1.3092216805
H  -0.6134245146 -0.9557247436  1.3889407662
H   1.1912941671  1.2949585230  0.2481354623
H  -2.4168989259 -1.8729148385  0.3927233262
H  -1.5874597495 -1.7221180580 -0.9846837136
H  -0.6975235244  1.5438221225  1.3034975209
H  -2.2950275743  0.8150748886  1.4954969879
H   2.9569833597  0.2116085441  1.4628977878
H   1.8937866278  0.6048620134 -2.0984939424
H   2.4468753615 -1.4012162484  0.9326121509
H   1.4594122954 -0.4692317095  2.0668249868
H   3.2289164562  0.9112664184 -0.9892848440
H   2.7484017292 -0.7585108904 -1.3662132399
22
Image 33  Energy = -383.6522397519
C  -0.9112632404 -0.4594767615  0.4596308814
C   1.4239421271  0.2553231911 -0.0172657778
C  -1.4586134174  0.9256521611  0.8085739202
C   2.0934759409 -0.3983018693  1.1849608843
C   2.3865979480  0.2531559954 -1.1938073829
N   0.2208593890 -0.4522929140 -0.4467818076
N  -1.9833446199 -1.1947125065 -0.2245114957
O  -1.8575889161  1.6208027155 -0.3546549062
H  -2.4986857272  1.0418074395 -0.7955198982
H  -0.1054936811 -0.0114650934 -1.3041477225
H  -0.6102233291 -0.9509718114  1.3868435272
H   1.1912971833  1.2976771838  0.2461086485
H  -2.4256583575 -1.8646482852  0.3959182257
H  -1.5669561298 -1.7348982969 -0.9721845228
H  -0.7084440937  1.5404884780  1.3110251051
H  -2.2990516469  0.8104037979  1.4985715706
H   2.9589488252  0.2075262625  1.4563474069
H   1.8975312321  0.6112739146 -2.1014029976
H   2.4395110302 -1.4037521720  0.9322666574
H   1.4534560629 -0.4650229208  2.0654602409
H   3.2372371733  0.9008617860 -0.9863408107
H   2.7423798505 -0.7657913379 -1.3706252902
22
Image 34  Energy = -383.6525261288
C  -0.9100607439 -0.4584190964  0.4590548140
C   1.4260480851  0.2585641235 -0.0216562885
C  -1.4698488371  0.9213477241  0.8119870414
C   2.0891899152 -0.3973991363  1.1838806710
C   2.3906210092  0.2524495676 -1.1992126934
N   0.2199615316 -0.4458386609 -0.4508055212
N  -1.9725511612 -1.2026430871 -0.2285274606
O  -1.8649288299  1.6242122036 -0.3491180198
H  -2.4864747760  1.0391246423 -0.8069473873
H  -0.1107333796  0.0138697603 -1.2982159250
H  -0.6038975659 -0.9472969101  1.3871258284
H   1.1932642069  1.3021340480  0.2423123337
H  -2.4399065461 -1.8485566498  0.4004392990
H  -1.5379123622 -1.7548611329 -0.9525153271
H  -0.7214499827  1.5354041352  1.3196213419
H  -2.3060867067  0.8020125116  1.5049990533
H   2.9637056507  0.1990317448  1.4501638464
H   1.9045977274  0.6209164821 -2.1048189400
H   2.4269132859 -1.4062476921  0.9320138224
H   1.4439433898 -0.4573585639  2.0613117464
H   3.2517329736  0.8853027003 -0.9840228983
H   2.7337867783 -0.7721097655 -1.3786048676
22
Image 35  Energy = -383.6526728569
C  -0.9088801878 -0.4573564884  0.4621140783
C   1.4297089798  0.2664163118 -0.0299088114
C  -1.4890362335  0.9150640134  0.8190411194
C   2.0805605690 -0.3954363323  1.1769698398
C   2.3983547640  0.2480357631 -1.2065327403
N   0.2147728402 -0.4241783516 -0.4625422047
N  -1.9491340646 -1.2122343396 -0.2347921872
O  -1.8781864582  1.6329578879 -0.3314250050
H  -2.4618243978  1.0292542864 -0.8344754553
H  -0.1237753127  0.0704880335 -1.2859418460
H  -0.5878857299 -0.9375241894  1.3866638140
H   1.2012261963  1.3105585471  0.2326308192
H  -2.4697294414 -1.8130262055  0.4073777323
H  -1.4698069179 -1.8102328086 -0.9101752236
H  -0.7509225499  1.5260003197  1.3397527473
H  -2.3262933221  0.7797943606  1.5170968320
H   2.9708305101  0.1799307695  1.4368285449
H   1.9236824492  0.6422973294 -2.1110591934
H   2.3967065385 -1.4128019772  0.9319342089
H   1.4260882149 -0.4385284955  2.0519978790
H   3.2819676867  0.8481880242 -0.9795066315
H   2.7114896735 -0.7840275317 -1.3975838154
22
Image 36  Energy = -383.6531253385
C  -0.9097375107 -0.4569139809  0.4623209891
C   1.4283358504  0.2659823167 -0.0296137967
C  -1.4877397475  0.9155681199  0.8209381330
C   2.0805760770 -0.3946631862  1.1768753549
C   2.3976688082  0.2505851555 -1.2045180474
N   0.2132898044 -0.4245089148 -0.4614467292
N  -1.9517381101 -1.2162951314 -0.2368064389
O  -1.8802530477  1.6286153538 -0.3359035099
H  -2.4595241123  1.0310321615 -0.8296467992
H  -0.1210424237  0.0662442676 -1.2886164296
H  -0.5872719474 -0.9411380248  1.3885204764
H   1.2034115934  1.3108795653  0.2320628946
H  -2.4692441963 -1.8102613582  0.4047654421
H  -1.4775014580 -1.8089500672 -0.9067538373
H  -0.7461972017  1.5264968111  1.3361210375
H  -2.3264433988  0.7794296602  1.5166011483
H   2.9714579607  0.1778533453  1.4417478736
H   1.9252787107  0.6419343061 -2.1093883216
H   2.3954396447 -1.4117224968  0.9320143090
H   1.4271011408 -0.4371183824  2.0500607710
H   3.2816435798  0.8492777363 -0.9821900331
H   2.7124037831 -0.7786883288 -1.3986799862
22
Image 37  Energy = -383.6533461076
C  -0.9102263142 -0.4562941896  0.4627517839
C   1.4281328286  0.2683016791 -0.0311186828
C  -1.4912494985  0.9141436839  0.8243696837
C   2.0784714847 -0.3936503559  1.1745147294
C   2.3984015293  0.2514474599 -1.2042469182
N   0.2108619825 -0.4174386244 -0.4633389439
N  -1.9490922084 -1.2205226667 -0.2378566270
O  -1.8843119689  1.6269812465 -0.3334482255
H  -2.4522157847  1.0283780312 -0.8329144846
H  -0.1219148343  0.0759769116 -1.2884080939
H  -0.5823855586 -0.9424703247  1.3896936927
H   1.2084167118  1.3135904723  0.2288648516
H  -2.4765700853 -1.7977678326  0.4026169587
H  -1.4676057747 -1.8252409778 -0.8927337408
H  -0.7485797264  1.5250428283  1.3377575536
H  -2.3319879724  0.7731319801  1.5181140607
H   2.9733656774  0.1705325734  1.4439149422
H   1.9325653632  0.6474707087 -2.1088775397
H   2.3855950734 -1.4126317035  0.9319879422
H   1.4240813553 -0.4302119946  2.0457606558
H   3.2890365828  0.8409345938 -0.9838925740
H   2.7071249694 -0.7760645761 -1.4050465133
22
Image 38  Energy = -383.6536258430
C  -0.9096606526 -0.4552083618  0.4642020168
C   1.4292097040  0.2741816652 -0.0343040979
C  -1.4984741580  0.9102758482  0.8308532539
C   2.0740015941 -0.3921250774  1.1698941299
C   2.4006817737  0.2526021921 -1.2046611519
N   0.2070915694 -0.4015706777 -0.4670343667
N  -1.9388087075 -1.2264302265 -0.2429213673
O  -1.8919066121  1.6250708775 -0.3255327836
H  -2.4384517693  1.0208966927 -0.8417541161
H  -0.1255285570  0.0973280702 -1.2877708383
H  -0.5726667624 -0.9435546566  1.3896186342
H   1.2187002304  1.3203754357  0.2227783317
H  -2.4943001053 -1.7740954139  0.4003926409
H  -1.4470333117 -1.8603879183 -0.8619486999
H  -0.7552258408  1.5219933064  1.3430024121
H  -2.3431430385  0.7602628446  1.5200845099
H   2.9763714929  0.1559718516  1.4469405576
H   1.9473469202  0.6601644352 -2.1084877020
H   2.3646906404 -1.4159015794  0.9315540531
H   1.4178546452 -0.4157549699  2.0381095601
H   3.3037488476  0.8234018969 -0.9862595685
H   2.6954159964 -0.7738573262 -1.4182908749
22
Image 39  Energy = -383.6538716049
C  -0.8989225890 -0.4549074474  0.4609367479
C   1.4385729091  0.2912800455 -0.0408030974
C  -1.5125757527  0.8963621059  0.8409478407
C   2.0655101311 -0.3907174375  1.1659064650
C   2.4096279512  0.2580414978 -1.2115555648
N   0.2090563608 -0.3710494693 -0.4679399281
N  -1.9247568408 -1.2363143781 -0.2403806534
O  -1.9066081378  1.6182837636 -0.3094988585
H  -2.4141341322  1.0008856421 -0.8537664246
H  -0.1342991225  0.1288331595 -1.2913984725
H  -0.5572343478 -0.9468083554  1.3791889929
H   1.2417346335  1.3428121384  0.2152779915
H  -2.5306117988 -1.7216034361  0.3875552244
H  -1.4225295125 -1.9343997135 -0.7984244835
H  -0.7649333364  1.5157916275  1.3523625542
H  -2.3582925703  0.7396804537  1.5183438705
H   2.9801803843  0.1271701496  1.4564346620
H   1.9728629738  0.6917547330 -2.1093032366
H   2.3204776732 -1.4264692110  0.9283083902
H   1.4051434360 -0.3859541731  2.0296136369
H   3.3280622490  0.7964294782 -0.9886877586
H   2.6735834651 -0.7754623045 -1.4446533295
22
Image 40  Energy = -383.6543113952
C  -0.8984738738 -0.4545746640  0.4615364262
C   1.4413591033  0.2965027563 -0.0413974325
C  -1.5121578166  0.8946806702  0.8426862466
C   2.0633995059 -0.3907395373  1.1645410604
C   2.4115634281  0.2574629237 -1.2137193329
N   0.2092224794 -0.3625941630 -0.4724966655
N  -1.9144416331 -1.2388344348 -0.2466611799
O  -1.9106889884  1.6161495436 -0.3059871237
H  -2.4083713843  0.9957412825 -0.8565165312
H  -0.1355835676  0.1347800364 -1.2900650559
H  -0.5527984858 -0.9476949275  1.3768032181
H   1.2479584006  1.3481617782  0.2136771332
H  -2.5430248321 -1.7105171398  0.3884750727
H  -1.4193145854 -1.9503242473 -0.7806204327
H  -0.7692035487  1.5129789476  1.3545929632
H  -2.3627013001  0.7341788882  1.5188072285
H   2.9812203016  0.1201860061  1.4583557021
H   1.9787680409  0.7003264900 -2.1098723414
H   2.3090218868 -1.4286510404  0.9276889988
H   1.4018080821 -0.3787260086  2.0282105847
H   3.3346203129  0.7905575904 -0.9886782075
H   2.6677325316 -0.7754118902 -1.4508957533
22
Image 41  Energy = -383.6544662498
C  -0.8964794975 -0.4551439550  0.4597467309
C   1.4443716760  0.2990957357 -0.0406293893
C  -1.5079580845  0.8940798041  0.8401892168
C   2.0635526809 -0.3915266884  1.1667956156
C   2.4130544668  0.2577627658 -1.2161089196
N   0.2135166294 -0.3640124529 -0.4726493133
N  -1.9131180099 -1.2385942443 -0.2471823562
O  -1.9102978254  1.6141751984 -0.3076332932
H  -2.4110640041  0.9934017739 -0.8526202519
H  -0.1346885484  0.1263225462 -1.2912626053
H  -0.5538412369 -0.9489690837  1.3731747907
H   1.2497971642  1.3513987625  0.2163624968
H  -2.5448854125 -1.7098788876  0.3879646293
H  -1.4318648192 -1.9477727569 -0.7792187887
H  -0.7683743315  1.5118328196  1.3533867257
H  -2.3590308463  0.7365476887  1.5171912777
H   2.9804165049  0.1207746430  1.4598647394
H   1.9759554346  0.7031957582 -2.1105816918
H   2.3080725771 -1.4292454312  0.9270210299
H   1.4020984986 -0.3792012046  2.0319973628
H   3.3320305286  0.7960960806 -0.9873818474
H   2.6686505034 -0.7767000137 -1.4499615826
22
Image 42  Energy = -383.6545847740
C  -0.8928223430 -0.4551387227  0.4576319662
C   1.4487916230  0.3062733788 -0.0424509472
C  -1.5091313451  0.8902804112  0.8413739412
C   2.0598727582 -0.3909019825  1.1664413815
C   2.4166355465  0.2595212425 -1.2195082573
N   0.2167302613 -0.3554606001 -0.4752039207
N  -1.9070829088 -1.2400763261 -0.2491931887
O  -1.9153144368  1.6110060148 -0.3045317150
H  -2.4046788509  0.9843381789 -0.8544763927
H  -0.1362745566  0.1319567805 -1.2926492173
H  -0.5472527225 -0.9512178524  1.3689594180
H   1.2599896218  1.3604693359  0.2156357725
H  -2.5602966991 -1.6900345027  0.3862230387
H  -1.4293949264 -1.9735229693 -0.7575649745
H  -0.7729301072  1.5078732909  1.3567177997
H  -2.3615506124  0.7299140992  1.5170914776
H   2.9821259646  0.1109577794  1.4628924185
H   1.9827259546  0.7165848566 -2.1113954695
H   2.2911905636 -1.4323144639  0.9259983670
H   1.3974971537 -0.3696261198  2.0316536973
H   3.3401125272  0.7903322043 -0.9868936330
H   2.6609716263 -0.7775751887 -1.4582869768
22
Image 43  Energy = -383.6547472733
C  -0.8888041187 -0.4558660348  0.4555337493
C   1.4515710866  0.3108123828 -0.0434218121
C  -1.5092003364  0.8881705267  0.8393376347
C   2.0567338782 -0.3892133916  1.1671501050
C   2.4192287870  0.2623807048 -1.2219013896
N   0.2205892355 -0.3535430820 -0.4779623836
N  -1.9068322134 -1.2420817843 -0.2522567107
O  -1.9178539058  1.6083448225 -0.3058543616
H  -2.4035935310  0.9753516761 -0.8537545487
H  -0.1349354591  0.1308830121 -1.2952232040
H  -0.5404822719 -0.9534525301  1.3660047789
H   1.2696388482  1.3663072258  0.2168723528
H  -2.5699842141 -1.6704625036  0.3859253532
H  -1.4333278234 -1.9904333695 -0.7439541793
H  -0.7762835707  1.5042993108  1.3604148206
H  -2.3584410504  0.7252864817  1.5177142025
H   2.9837044313  0.1039994186  1.4632943091
H   1.9855393381  0.7273688559 -2.1110121444
H   2.2776095959 -1.4324606315  0.9261196479
H   1.3945303462 -0.3645027523  2.0335789217
H   3.3451452012  0.7895777574 -0.9854793277
H   2.6553618648 -0.7771272562 -1.4626612262
22
Image 44  Energy = -383.6548377205
C  -0.8853783271 -0.4616144865  0.4460389930
C   1.4540680753  0.3128598215 -0.0450715203
C  -1.5053681221  0.8849608943  0.8341459737
C   2.0517420865 -0.3854954734  1.1705091355
C   2.4229149650  0.2703607358 -1.2213946699
N   0.2272946123 -0.3597623345 -0.4774480743
N  -1.9056102144 -1.2371718465 -0.2551621026
O  -1.9202892288  1.5999030344 -0.3155400242
H  -2.4083202287  0.9630575969 -0.8480726834
H  -0.1284979162  0.1209822252 -1.3044682384
H  -0.5299724019 -0.9558566111  1.3609926886
H   1.2824354607  1.3702334731  0.2207531749
H  -2.5813061397 -1.6392981574  0.3898185612
H  -1.4489709041 -2.0074197582 -0.7330234884
H  -0.7795154130  1.5001428055  1.3656670296
H  -2.3465298510  0.7194477206  1.5193419668
H   2.9865856418  0.0964908777  1.4593401327
H   1.9853766510  0.7410122957 -2.1072126161
H   2.2595990653 -1.4294203948  0.9281890615
H   1.3928451705 -0.3611978680  2.0384741590
H   3.3476676448  0.7935102577 -0.9827397480
H   2.6491435083 -0.7720859749 -1.4646731258
22
Image 45  Energy = -383.6549870421
C  -0.8842451890 -0.4612882784  0.4485045889
C   1.4525150896  0.3109061868 -0.0430402981
C  -1.5041892619  0.8849938817  0.8321845879
C   2.0527260333 -0.3851944182  1.1703766919
C   2.4209407367  0.2703521392 -1.2199859966
N   0.2266596357 -0.3621077924 -0.4806698541
N  -1.9094517116 -1.2373744738 -0.2546979334
O  -1.9171138121  1.6006311613 -0.3155071885
H  -2.4132599394  0.9618196242 -0.8484482317
H  -0.1253067122  0.1158647646 -1.3040979962
H  -0.5308347763 -0.9550497338  1.3604769896
H   1.2802165234  1.3668403902  0.2211600793
H  -2.5774162376 -1.6384576788  0.3905121330
H  -1.4523921774 -2.0017030399 -0.7385881804
H  -0.7780900187  1.5011363804  1.3647385088
H  -2.3440238251  0.7199756469  1.5196867897
H   2.9867578450  0.0984167292  1.4571605352
H   1.9834332861  0.7388192674 -2.1054408707
H   2.2619669250 -1.4282883632  0.9291851067
H   1.3939636498 -0.3632706165  2.0394729154
H   3.3462463795  0.7962928770 -0.9821889540
H   2.6508116804 -0.7696758185 -1.4623288395
22
Image 46  Energy = -383.6550317225
C  -0.8836401427 -0.4605445875  0.4489641498
C   1.4516425539  0.3102182480 -0.0425257184
C  -1.5037943239  0.8844541771  0.8328564979
C   2.0529550463 -0.3854040600  1.1699808967
C   2.4201556859  0.2706139524 -1.2186551392
N   0.2263070401 -0.3619172352 -0.4811697716
N  -1.9091724759 -1.2370584324 -0.2546523605
O  -1.9169464623  1.5993228161 -0.3150776415
H  -2.4138508191  0.9618309111 -0.8489117131
H  -0.1242712871  0.1157022838 -1.3048206754
H  -0.5308447871 -0.9547380148  1.3601098388
H   1.2786069043  1.3655083189  0.2205709409
H  -2.5778676700 -1.6366026208  0.3912683837
H  -1.4521551195 -2.0016004438 -0.7389313812
H  -0.7775414760  1.5016651470  1.3638293514
H  -2.3443354029  0.7189293607  1.5196910841
H   2.9872193252  0.0983684407  1.4562650341
H   1.9837759302  0.7385758718 -2.1042986363
H   2.2618496745 -1.4287627417  0.9296254801
H   1.3942072458 -0.3626124969  2.0390095466
H   3.3465516055  0.7958698578 -0.9821961897
H   2.6510630789 -0.7681799178 -1.4624673942
22
Image 47  Energy = -383.6551713187
C  -0.8792841096 -0.4597087061  0.4463367326
C   1.4502396529  0.3088537570 -0.0412638508
C  -1.5014165518  0.8807957001  0.8338707259
C   2.0523105120 -0.3862760733  1.1700014371
C   2.4198432236  0.2750404741 -1.2131415400
N   0.2282909106 -0.3616408148 -0.4837684061
N  -1.9067238652 -1.2352762071 -0.2547337750
O  -1.9170795186  1.5908455772 -0.3139463911
H  -2.4180182455  0.9552119950 -0.8497279431
H  -0.1173334918  0.1118521444 -1.3120971937
H  -0.5262870435 -0.9551903326  1.3565013674
H   1.2734951098  1.3627793055  0.2194724578
H  -2.5857549729 -1.6136861976  0.3947624180
H  -1.4575659928 -2.0084275221 -0.7322023000
H  -0.7756217479  1.5029140079  1.3601432376
H  -2.3424876274  0.7103593034  1.5198953299
H   2.9904100848  0.0942597864  1.4507041438
H   1.9856013349  0.7447663004 -2.0976508748
H   2.2534328812 -1.4320675220  0.9322920443
H   1.3946937683 -0.3558346470  2.0386520236
H   3.3491980571  0.7945413848 -0.9803388698
H   2.6499717743 -0.7604728780 -1.4652961888
22
Image 48  Energy = -383.6551583776
C  -0.8719519112 -0.4618804763  0.4444076640
C   1.4511146213  0.3100961272 -0.0388771200
C  -1.4975485245  0.8749622261  0.8342834121
C   2.0515982888 -0.3880183562  1.1698744703
C   2.4207205471  0.2803497588 -1.2105982590
N   0.2323104686 -0.3625350961 -0.4905474277
N  -1.9059315234 -1.2316551183 -0.2537712753
O  -1.9235380628  1.5778943037 -0.3192338144
H  -2.4199130294  0.9473379747 -0.8450059980
H  -0.1069422983  0.1038102680 -1.3220021660
H  -0.5184477083 -0.9568511536  1.3496539876
H   1.2659216566  1.3613062694  0.2200463720
H  -2.5976784713 -1.5775155697  0.3969626986
H  -1.4690595770 -2.0209352131 -0.7185084336
H  -0.7731654814  1.5035747646  1.3544807349
H  -2.3376980715  0.6975010355  1.5201341111
H   2.9945498257  0.0865170201  1.4429844058
H   1.9875826596  0.7575123942 -2.0883505097
H   2.2393879239 -1.4373488861  0.9364902299
H   1.3953555165 -0.3445166339  2.0407993476
H   3.3546661188  0.7954958816 -0.9747980244
H   2.6485812032 -0.7514626953 -1.4699598243
22
Image 49  Energy = -383.6552943595
C  -0.8726444780 -0.4617857986  0.4423335362
C   1.4513456506  0.3099256512 -0.0401316450
C  -1.4978512508  0.8754963522  0.8330793460
C   2.0509569069 -0.3876926240  1.1705750694
C   2.4219200724  0.2811149681 -1.2103346090
N   0.2332249268 -0.3633133411 -0.4885720550
N  -1.9050993783 -1.2315477406 -0.2544402443
O  -1.9215280368  1.5803259171 -0.3168605542
H  -2.4215327011  0.9446693706 -0.8465132737
H  -0.1077902038  0.1040812916 -1.3225324850
H  -0.5178328600 -0.9575534569  1.3503852058
H   1.2671265952  1.3623036258  0.2205770377
H  -2.5984401142 -1.5781936585  0.3972239486
H  -1.4698528117 -2.0212306914 -0.7178747759
H  -0.7736116849  1.5032567557  1.3549582084
H  -2.3371690630  0.6980209343  1.5201606051
H   2.9945268623  0.0863433720  1.4434445491
H   1.9872446285  0.7581852426 -2.0892750952
H   2.2390268035 -1.4370714480  0.9362731061
H   1.3954829241 -0.3448057581  2.0409504849
H   3.3540520768  0.7955854379 -0.9749117917
H   2.6483593053 -0.7524755762 -1.4700499859
22
Image 50  Energy = -383.6553332134
C  -0.8716680528 -0.4626311179  0.4406654620
C   1.4521463266  0.3104188755 -0.0406549838
C  -1.4972338437  0.8750194632  0.8318185961
C   2.0504056976 -0.3878552467  1.1710906715
C   2.4234364555  0.2825631348 -1.2105978135
N   0.2349002510 -0.3644664879 -0.4890967133
N  -1.9051281470 -1.2306271944 -0.2545438198
O  -1.9223335525  1.5799500226 -0.3169437553
H  -2.4224710243  0.9413811116 -0.8457358047
H  -0.1064377990  0.1020439509 -1.3243574303
H  -0.5157176225 -0.9587456654  1.3495055390
H   1.2661505920  1.3631221507  0.2216271806
H  -2.6011700512 -1.5718005644  0.3970972043
H  -1.4735587212 -2.0238631534 -0.7141303441
H  -0.7734706179  1.5029682962  1.3538983203
H  -2.3353327176  0.6960547698  1.5201559699
H   2.9952121355  0.0844414301  1.4424306006
H   1.9871345684  0.7618252475 -2.0884555609
H   2.2360903979 -1.4379777579  0.9370339388
H   1.3960003910 -0.3426146057  2.0420033745
H   3.3547032149  0.7965420705 -0.9732829516
H   2.6482562949 -0.7521099067 -1.4710630999
22
Image 51  Energy = -383.6553871637
C  -0.8683260544 -0.4642487904  0.4376554468
C   1.4534424419  0.3113321313 -0.0412789287
C  -1.4951978808  0.8732863807  0.8293403158
C   2.0494097523 -0.3885051459  1.1716111831
C   2.4263527536  0.2861983965 -1.2108018955
N   0.2386664645 -0.3673391826 -0.4917583433
N  -1.9054730579 -1.2277745399 -0.2548261303
O  -1.9257825865  1.5774848145 -0.3174808681
H  -2.4242860657  0.9336668075 -0.8434055490
H  -0.1021142368  0.0964527693 -1.3291251355
H  -0.5104286300 -0.9615585147  1.3464497623
H   1.2616584465  1.3636601426  0.2238755867
H  -2.6089410836 -1.5537478505  0.3969380410
H  -1.4830048821 -2.0311539363 -0.7040659480
H  -0.7724411029  1.5027644588  1.3499440360
H  -2.3306591100  0.6900451418  1.5200131386
H   2.9975019124  0.0790201734  1.4391756743
H   1.9876520364  0.7714004124 -2.0853007899
H   2.2283604862 -1.4407762651  0.9396303243
H   1.3978794561 -0.3358691457  2.0445073768
H   3.3571008397  0.7989514162 -0.9686006026
H   2.6485442847 -0.7496508567 -1.4740321146
22
Image 52  Energy = -383.6554391864
C  -0.8660288222 -0.4645043204  0.4352746620
C   1.4530982757  0.3104083986 -0.0424535194
C  -1.4928408400  0.8728899834  0.8277513508
C   2.0491955106 -0.3886853329  1.1713649320
C   2.4284049627  0.2898500790 -1.2101964281
N   0.2409746220 -0.3712407872 -0.4933959325
N  -1.9078614961 -1.2262094846 -0.2552707511
O  -1.9311654051  1.5756640250 -0.3166636142
H  -2.4241518234  0.9285984699 -0.8417505506
H  -0.0999599499  0.0918020456 -1.3318500375
H  -0.5072444637 -0.9641131488  1.3436311774
H   1.2559114817  1.3613258594  0.2255372416
H  -2.6152216241 -1.5413857401  0.3949005065
H  -1.4912821735 -2.0367753402 -0.6947389936
H  -0.7704421263  1.5036365271  1.3450330687
H  -2.3258357615  0.6862400557  1.5196185513
H   3.0001894584  0.0735054176  1.4370482418
H   1.9901520678  0.7793663525 -2.0833227302
H   2.2231619195 -1.4425021553  0.9427283472
H   1.4018072914 -0.3294444058  2.0462499742
H   3.3583363888  0.8013537551 -0.9640712759
H   2.6507167104 -0.7461414475 -1.4769596316
22
Image 53  Energy = -383.6554881556
C  -0.8634846338 -0.4668198968  0.4324113720
C   1.4529245975  0.3084337561 -0.0430973964
C  -1.4887896860  0.8714428192  0.8246675124
C   2.0497740602 -0.3892670711  1.1703076687
C   2.4307847578  0.2958973227 -1.2096884279
N   0.2434465002 -0.3783757705 -0.4991987702
N  -1.9099626399 -1.2208322311 -0.2570897718
O  -1.9409775739  1.5734470444 -0.3143306973
H  -2.4242789118  0.9186319707 -0.8400753130
H  -0.0958184436  0.0824232706 -1.3358503786
H  -0.5026536381 -0.9679813965  1.3375410602
H   1.2442230183  1.3555062877  0.2279626704
H  -2.6291414916 -1.5196016711  0.3928346528
H  -1.5058171051 -2.0483566782 -0.6780569891
H  -0.7653204934  1.5066344407  1.3356997822
H  -2.3167116231  0.6794844248  1.5198388651
H   3.0059167849  0.0632206333  1.4325762739
H   1.9962870383  0.7938106776 -2.0791876626
H   2.2137903548 -1.4458174823  0.9489317961
H   1.4093006849 -0.3170315606  2.0497608750
H   3.3609031259  0.8062580234 -0.9549962619
H   2.6555195572 -0.7374681298 -1.4824962582
22
Image 54  Energy = -383.6555276009
C  -0.8649384993 -0.4668945291  0.4323317489
C   1.4519510875  0.3066990922 -0.0433802155
C  -1.4882956493  0.8722133908  0.8255673630
C   2.0508733532 -0.3894666445  1.1702853867
C   2.4302432411  0.2963537459 -1.2090492619
N   0.2422531570 -0.3801479875 -0.4980732075
N  -1.9120321032 -1.2220967709 -0.2568148445
O  -1.9427944041  1.5739262492 -0.3140201495
H  -2.4228265519  0.9202943489 -0.8410938659
H  -0.0977965755  0.0829752692 -1.3356644121
H  -0.5049792839 -0.9675733584  1.3376237815
H   1.2424457449  1.3529905258  0.2272604403
H  -2.6288540452 -1.5224353387  0.3914251099
H  -1.5049476166 -2.0478323817 -0.6784464246
H  -0.7636831800  1.5080141316  1.3345394192
H  -2.3161815544  0.6812237455  1.5212970842
H   3.0072179974  0.0631131801  1.4323248849
H   1.9986107352  0.7932971444 -2.0799422009
H   2.2153054050 -1.4457411314  0.9496940339
H   1.4108886737 -0.3165939463  2.0496596122
H   3.3598203211  0.8067629161 -0.9541563424
H   2.6576339886 -0.7354428724 -1.4829033331
22
Image 55  Energy = -383.6555562999
C  -0.8670900239 -0.4668112585  0.4323711512
C   1.4507129543  0.3043403671 -0.0435188992
C  -1.4880728808  0.8732379238  0.8264025354
C   2.0523058233 -0.3896933635  1.1704486267
C   2.4297172388  0.2971269792 -1.2080303637
N   0.2403749941 -0.3818879057 -0.4979662458
N  -1.9136441484 -1.2239106798 -0.2572218515
O  -1.9441342776  1.5747805838 -0.3130474567
H  -2.4215331152  0.9217922017 -0.8430835907
H  -0.0999462117  0.0830762091 -1.3348097479
H  -0.5082566682 -0.9670588958  1.3380994683
H   1.2403723005  1.3500541917  0.2262626438
H  -2.6293684809 -1.5260076535  0.3905729952
H  -1.5036997249 -2.0470965043 -0.6792620102
H  -0.7615792359  1.5096117639  1.3330783636
H  -2.3153255158  0.6837030489  1.5237705552
H   3.0090577243  0.0632298952  1.4315256257
H   2.0014657567  0.7927632669 -2.0810226275
H   2.2171662402 -1.4460123812  0.9506491444
H   1.4126475432 -0.3161600101  2.0496565407
H   3.3583232665  0.8075325090 -0.9528805853
H   2.6604206834 -0.7329715139 -1.4835296596
22
Image 56  Energy = -383.6555865016
C  -0.8701960720 -0.4676889457  0.4307318299
C   1.4487681410  0.3006407475 -0.0442566122
C  -1.4879591448  0.8746607618  0.8263945759
C   2.0542244323 -0.3909513496  1.1707683155
C   2.4299596661  0.2995248757 -1.2069876650
N   0.2387214148 -0.3864870430 -0.4982985915
N  -1.9169816246 -1.2241921592 -0.2569502518
O  -1.9472337023  1.5749365038 -0.3117904146
H  -2.4197818541  0.9215749274 -0.8461510525
H  -0.1023095992  0.0805914239 -1.3356292092
H  -0.5132613368 -0.9672492185  1.3386619982
H   1.2350755552  1.3453633844  0.2253622150
H  -2.6343941909 -1.5255714664  0.3895718429
H  -1.5038964135 -2.0505243914 -0.6784757592
H  -0.7574413748  1.5114167299  1.3283833229
H  -2.3107102984  0.6872754437  1.5299275404
H   3.0136029552  0.0618791870  1.4271765002
H   2.0066476472  0.7961990334 -2.0818570219
H   2.2175277656 -1.4481941363  0.9538096273
H   1.4163899170 -0.3130528451  2.0513348036
H   3.3567997206  0.8112460900 -0.9472007670
H   2.6663626556 -0.7277588023 -1.4860606049
22
Image 57  Energy = -383.6556198662
C  -0.8721289083 -0.4683704230  0.4310300468
C   1.4478567657  0.2985026207 -0.0445455225
C  -1.4876823884  0.8752580030  0.8260216960
C   2.0553896733 -0.3917898345  1.1710244645
C   2.4307279537  0.3013421481 -1.2067040560
N   0.2373288496 -0.3892446323 -0.4996796055
N  -1.9182190494 -1.2267648545 -0.2582586742
O  -1.9490360964  1.5750899351 -0.3116756364
H  -2.4187576463  0.9210703044 -0.8481965507
H  -0.1032695455  0.0778594404 -1.3359669879
H  -0.5171338824 -0.9672460232  1.3391257642
H   1.2317434760  1.3428233453  0.2249215195
H  -2.6382609798 -1.5244001769  0.3893324240
H  -1.5052108711 -2.0511530536 -0.6772154291
H  -0.7548450203  1.5117808355  1.3248380887
H  -2.3070592292  0.6902568047  1.5350957302
H   3.0162673967  0.0610280411  1.4229601393
H   2.0096847161  0.7991993161 -2.0822101581
H   2.2174053727 -1.4501889936  0.9561523676
H   1.4188440880 -0.3111032849  2.0527914243
H   3.3555822297  0.8144097138 -0.9424360140
H   2.6706873646 -0.7247204981 -1.4879404032
22
Image 58  Energy = -383.6556393610
C  -0.8726339085 -0.4691410146  0.4307714518
C   1.4477910493  0.2979747097 -0.0449081734
C  -1.4875241739  0.8747870460  0.8250190409
C   2.0553475133 -0.3923697058  1.1709188141
C   2.4319315623  0.3026857370 -1.2069028823
N   0.2373564553 -0.3906292972 -0.5006614357
N  -1.9188958705 -1.2270995430 -0.2582230541
O  -1.9498415654  1.5747809301 -0.3120547356
H  -2.4187820525  0.9192900036 -0.8488513068
H  -0.1026476712  0.0748861192 -1.3368371093
H  -0.5185165750 -0.9677326393  1.3394535490
H   1.2300227409  1.3423127956  0.2252466480
H  -2.6411529672 -1.5207353551  0.3890195428
H  -1.5073663956 -2.0528270352 -0.6755092247
H  -0.7535752441  1.5109541186  1.3222224094
H  -2.3039814833  0.6916713367  1.5381598720
H   3.0172214871  0.0599459871  1.4192178480
H   2.0105979915  0.8025932954 -2.0815948777
H   2.2159020241 -1.4517460950  0.9578704798
H   1.4203771364 -0.3095347621  2.0540273093
H   3.3551881376  0.8169950425 -0.9386072498
H   2.6730960863 -0.7234229506 -1.4893122846
22
Image 59  Energy = -383.6556585711
C  -0.8732191101 -0.4703903111  0.4302348262
C   1.4473512154  0.2973235981 -0.0456767170
C  -1.4869188627  0.8741046679  0.8236417002
C   2.0546699741 -0.3933419574  1.1701050267
C   2.4334053222  0.3044831356 -1.2068999482
N   0.2377923679 -0.3927818342 -0.5005743292
N  -1.9192683406 -1.2268524664 -0.2583160515
O  -1.9513326740  1.5733566763 -0.3130771107
H  -2.4186527950  0.9170005545 -0.8493001654
H  -0.1017126429  0.0701690202 -1.3387090661
H  -0.5204542130 -0.9684897190  1.3402201404
H   1.2281684238  1.3415308650  0.2257949719
H  -2.6453952011 -1.5156590175  0.3884841269
H  -1.5111840906 -2.0551407475 -0.6728987669
H  -0.7513145638  1.5090857958  1.3179609907
H  -2.2993473036  0.6944080604  1.5422338378
H   3.0179198038  0.0583035460  1.4130767246
H   2.0116612842  0.8077041958 -2.0799948371
H   2.2133900686 -1.4536072130  0.9604809655
H   1.4231702401 -0.3074714942  2.0555077291
H   3.3543050768  0.8211405292 -0.9326974339
H   2.6768803110 -0.7212371750 -1.4911319805
22
Image 60  Energy = -383.6556657645
C  -0.8734092214 -0.4716367568  0.4310298401
C   1.4462451572  0.2959357024 -0.0460662477
C  -1.4860143541  0.8732997183  0.8221749013
C   2.0540661329 -0.3940032318  1.1685404257
C   2.4342221804  0.3067236614 -1.2059833149
N   0.2375482615 -0.3949353246 -0.5007378981
N  -1.9223215601 -1.2268015808 -0.2573643811
O  -1.9525929030  1.5721165453 -0.3133688271
H  -2.4189673937  0.9140185346 -0.8505394895
H  -0.1007715984  0.0637424870 -1.3399689412
H  -0.5232535165 -0.9690211757  1.3412234204
H   1.2269362879  1.3400052428  0.2261346261
H  -2.6479950053 -1.5109515674  0.3859800892
H  -1.5153273817 -2.0575972231 -0.6706525503
H  -0.7469877337  1.5071416895  1.3127064501
H  -2.2944360592  0.6988386683  1.5462317058
H   3.0180872485  0.0565579329  1.4056122435
H   2.0131355978  0.8128475942 -2.0774383848
H   2.2107090645 -1.4553746991  0.9631069285
H   1.4270050607 -0.3055265296  2.0566459379
H   3.3521640977  0.8259246607 -0.9260400068
H   2.6818719401 -0.7176656591 -1.4927618899
22
Image 61  Energy = -383.6556802914
C  -0.8736262044 -0.4714349475  0.4306391641
C   1.4461670957  0.2960655756 -0.0460832788
C  -1.4857375840  0.8734685931  0.8226007542
C   2.0538753533 -0.3939537973  1.1684800104
C   2.4338320245  0.3064572292 -1.2056032891
N   0.2376274074 -0.3947548142 -0.4998837151
N  -1.9211866367 -1.2262503644 -0.2578632365
O  -1.9524541615  1.5717967309 -0.3135329838
H  -2.4189694840  0.9144662309 -0.8501300159
H  -0.1009606778  0.0642280630 -1.3400231078
H  -0.5226701198 -0.9690490299  1.3414477953
H   1.2277226262  1.3402104602  0.2260974234
H  -2.6477177661 -1.5121196187  0.3864763150
H  -1.5151534502 -2.0570448624 -0.6710302966
H  -0.7469131700  1.5072026470  1.3131949256
H  -2.2952813692  0.6987120719  1.5451635002
H   3.0177134441  0.0568747320  1.4063354454
H   2.0127067874  0.8120524175 -2.0773070867
H   2.2108724692 -1.4548827257  0.9625057623
H   1.4267381432 -0.3059738091  2.0562162773
H   3.3519913382  0.8253548175 -0.9269638754
H   2.6813382348 -0.7177869072 -1.4922718505
