22
Image 0  Energy = -383.6556802914
C  -0.8736262044 -0.4714349475  0.4306391641
C   1.4461670957  0.2960655756 -0.0460832788
C  -1.4857375840  0.8734685931  0.8226007542
C   2.0538753533 -0.3939537973  1.1684800104
C   2.4338320245  0.3064572292 -1.2056032891
N   0.2376274074 -0.3947548142 -0.4998837151
N  -1.9211866367 -1.2262503644 -0.2578632365
O  -1.9524541615  1.5717967309 -0.3135329838
H  -2.4189694840  0.9144662309 -0.8501300159
H  -0.1009606778  0.0642280630 -1.3400231078
H  -0.5226701198 -0.9690490299  1.3414477953
H   1.2277226262  1.3402104602  0.2260974234
H  -2.6477177661 -1.5121196187  0.3864763150
H  -1.5151534502 -2.0570448624 -0.6710302966
H  -0.7469131700  1.5072026470  1.3131949256
H  -2.2952813692  0.6987120719  1.5451635002
H   3.0177134441  0.0568747320  1.4063354454
H   2.0127067874  0.8120524175 -2.0773070867
H   2.2108724692 -1.4548827257  0.9625057623
H   1.4267381432 -0.3059738091  2.0562162773
H   3.3519913382  0.8253548175 -0.9269638754
H   2.6813382348 -0.7177869072 -1.4922718505
