22
Iteration 1  Energy = -72.4165073113
C  -0.8698228280 -1.1412324191  0.1596857503
C   1.2138746779  0.0865889777  0.0351825708
C  -0.8072891825  1.8063876768  0.7738936474
C   1.9317890732 -0.5236695544  1.2376972454
C   2.1785543964  0.5244311146 -1.0565024624
N   0.2414690448 -0.8984574528 -0.5597843664
N  -2.0082952818 -1.6002020075 -0.4234235137
O  -1.6068503858  1.4916095045 -0.2776647278
H  -2.0539600917  0.6296016384 -0.1756222536
H   0.0169779394 -0.6801151550 -1.5297328270
H  -0.8941705807 -0.8714832494  1.2090991973
H   0.5745774869  1.0033542467  0.4039139576
H  -2.6894061140 -1.9473617900  0.2497092330
H  -1.8853747215 -2.2485515018 -1.2025142261
H  -0.4115132462  2.8161699541  0.7226993646
H  -1.0197759949  1.4053999692  1.7698907869
H   2.6103798327  0.2077312386  1.6816942240
H   1.6507459337  1.0090877286 -1.8819920916
H   2.5196514316 -1.3952589904  0.9344644755
H   1.2273552126 -0.8353895104  2.0111029084
H   2.9130604717  1.2292291353 -0.6633551117
H   2.7118712715 -0.3454466803 -1.4511132589
22
Iteration 2  Energy = -72.4209621028
C  -0.8755878082 -1.1573832967  0.1717810977
C   1.2223067238  0.0832639535  0.0327718339
C  -0.8120116738  1.8084548599  0.7664444345
C   1.9373004477 -0.5205525554  1.2468479014
C   2.1848189383  0.5246503028 -1.0636699484
N   0.2357444360 -0.8985694886 -0.5530027699
N  -2.0074044781 -1.6117049111 -0.4240691361
O  -1.6091290434  1.5142452260 -0.2838563394
H  -2.1149800491  0.6824909195 -0.1876932822
H   0.0198647619 -0.7317823665 -1.5341278174
H  -0.8974465325 -0.9224200617  1.2318658644
H   0.5814620127  1.0004614248  0.3984388315
H  -2.7228092774 -1.9177026785  0.2322349975
H  -1.8867929076 -2.2532620869 -1.2077244314
H  -0.3896962840  2.8072322010  0.7305904875
H  -1.0146894196  1.3752905449  1.7509896952
H   2.6151663448  0.2152366685  1.6838733617
H   1.6506016373  1.0059350936 -1.8863097481
H   2.5292400883 -1.3917814800  0.9518966648
H   1.2377768946 -0.8275134192  2.0259932191
H   2.9159148822  1.2330239125 -0.6717681806
H   2.7223321548 -0.3407685287 -1.4615720433
22
Iteration 3  Energy = -72.4241165594
C  -0.8773101839 -1.1842425643  0.1828258215
C   1.2287519159  0.0813667188  0.0316979300
C  -0.8137953601  1.8207782604  0.7571850177
C   1.9439655503 -0.5171122715  1.2526125023
C   2.1883715988  0.5247169197 -1.0705318311
N   0.2281260829 -0.8959292961 -0.5428886958
N  -2.0082903100 -1.6218867996 -0.4230937709
O  -1.6119819324  1.5339779498 -0.2901745599
H  -2.1360820865  0.7157635288 -0.1809140246
H   0.0203192692 -0.7637408866 -1.5293593779
H  -0.8922963865 -1.0019751754  1.2571845031
H   0.5936809655  0.9954230702  0.3928830252
H  -2.7483475013 -1.9026238556  0.2138705215
H  -1.8996075704 -2.2392187296 -1.2278085209
H  -0.3668418543  2.8080997266  0.7236214512
H  -1.0041701004  1.3717632441  1.7356725727
H   2.6235848609  0.2216287715  1.6820749287
H   1.6484823746  1.0049697766 -1.8899306252
H   2.5350892164 -1.3912366669  0.9650944675
H   1.2455681751 -0.8150858664  2.0360544155
H   2.9174517580  1.2364204441 -0.6806929893
H   2.7287603368 -0.3370653338 -1.4717409125
22
Iteration 4  Energy = -72.4263912515
C  -0.8774457890 -1.2155424216  0.1900017553
C   1.2342162802  0.0808427709  0.0309328795
C  -0.8171308811  1.8309485265  0.7495528724
C   1.9511339352 -0.5106450084  1.2567796864
C   2.1899809928  0.5243302192 -1.0775064274
N   0.2230378694 -0.8956228636 -0.5317630644
N  -2.0059516506 -1.6374272023 -0.4271613071
O  -1.6189901369  1.5525271746 -0.2957846222
H  -2.1556419613  0.7434058270 -0.1794553972
H   0.0218944622 -0.7904466842 -1.5224996691
H  -0.8951439298 -1.0599719717  1.2693940376
H   0.6041252174  0.9928161391  0.3863478369
H  -2.7673734429 -1.9046373120  0.1879251381
H  -1.9090210065 -2.2112031425 -1.2651751340
H  -0.3508235327  2.8086281283  0.7161981563
H  -0.9940716157  1.3664881426  1.7218490872
H   2.6331520103  0.2304814229  1.6785074403
H   1.6441997411  1.0016012008 -1.8946885461
H   2.5394056128 -1.3891291391  0.9772868680
H   1.2519223990 -0.7979238913  2.0434103581
H   2.9167356429  1.2405108143 -0.6913746075
H   2.7332429832 -0.3346642034 -1.4801857582
22
Iteration 5  Energy = -72.4282068686
C  -0.8819234555 -1.2405086648  0.1948523485
C   1.2376724596  0.0789646947  0.0331574920
C  -0.8126554605  1.8450580406  0.7513161831
C   1.9572303568 -0.5110953543  1.2587867271
C   2.1892832872  0.5201843856 -1.0810690349
N   0.2158775717 -0.8944891577 -0.5205087649
N  -2.0072163326 -1.6441322753 -0.4322371779
O  -1.6211009115  1.5755314193 -0.2919435890
H  -2.1673742531  0.7732053358 -0.1704193921
H   0.0160697343 -0.7994979546 -1.5124815474
H  -0.9070881756 -1.1375071594  1.2828567744
H   0.6135711057  0.9919966841  0.3861499223
H  -2.7850072634 -1.9095055320  0.1611585525
H  -1.9238875130 -2.1539062303 -1.3129118217
H  -0.3316534673  2.8151926505  0.7194642602
H  -0.9806662706  1.3685855968  1.7180273222
H   2.6454131800  0.2281358823  1.6739312411
H   1.6392409639  0.9973956323 -1.8954334682
H   2.5382026720 -1.3952835159  0.9825875554
H   1.2585980814 -0.7879684387  2.0493218664
H   2.9172034489  1.2371719170 -0.6986914769
H   2.7311741951 -0.3383121345 -1.4864430586
22
Iteration 6  Energy = -72.4297658280
C  -0.8823431565 -1.2672550918  0.1953179334
C   1.2390626430  0.0819312850  0.0352712238
C  -0.8138889930  1.8572352207  0.7484681502
C   1.9648233984 -0.5028955815  1.2596471008
C   2.1860051258  0.5214929179 -1.0845253757
N   0.2134873323 -0.8949864814 -0.5113721596
N  -1.9998948402 -1.6595096908 -0.4401712237
O  -1.6272226764  1.5862360250 -0.2920165600
H  -2.1836240924  0.7939770537 -0.1545723164
H   0.0123515970 -0.8012120878 -1.5038281797
H  -0.9190325932 -1.2219944992  1.2882648494
H   0.6130655661  0.9936789967  0.3861021291
H  -2.7901463796 -1.9312933382  0.1320861887
H  -1.9311963353 -2.0855978415 -1.3660480462
H  -0.3253517244  2.8236433676  0.7100542985
H  -0.9801356150  1.3867060737  1.7172877731
H   2.6574186878  0.2370003171  1.6662221068
H   1.6316296388  0.9953508823 -1.8979128445
H   2.5407941608 -1.3910737605  0.9864968909
H   1.2694206432 -0.7707166914  2.0557529044
H   2.9136931124  1.2413629982 -0.7071749117
H   2.7281537515 -0.3367807052 -1.4899247767
22
Iteration 7  Energy = -72.4310153798
C  -0.8842614917 -1.2898532608  0.1944978012
C   1.2385564793  0.0829231117  0.0382176339
C  -0.8119263436  1.8661113579  0.7477997772
C   1.9743769561 -0.4945010750  1.2598184448
C   2.1795763572  0.5209881195 -1.0885759510
N   0.2126972280 -0.8988447648 -0.5029455776
N  -1.9911137386 -1.6806326280 -0.4482240899
O  -1.6323577325  1.5949303482 -0.2910440135
H  -2.2202681838  0.8321465826 -0.1202069709
H   0.0144683190 -0.8058324924 -1.4970368498
H  -0.9332446714 -1.2567278749  1.2846662141
H   0.6111870416  0.9935125789  0.3879489953
H  -2.7920961152 -1.9587737427  0.1040551398
H  -1.9428104915 -2.0013716029 -1.4173787826
H  -0.3134213125  2.8274748991  0.7034315947
H  -0.9773720565  1.3972072390  1.7167724110
H   2.6730839677  0.2466030281  1.6536156375
H   1.6196843443  0.9908525441 -1.9005327224
H   2.5443103817 -1.3872922501  0.9894297510
H   1.2849272154 -0.7517277560  2.0643980231
H   2.9078119938  1.2438598219 -0.7180931731
H   2.7213147787 -0.3375276053 -1.4940968736
22
Iteration 8  Energy = -72.4319513516
C  -0.8885387424 -1.3081150638  0.1922400604
C   1.2355014646  0.0839612647  0.0415807208
C  -0.8081079218  1.8797860869  0.7429789212
C   1.9809715151 -0.4840219380  1.2612004250
C   2.1703634016  0.5190102637 -1.0925599262
N   0.2115256697 -0.9039637259 -0.4958780881
N  -1.9838290637 -1.7052415550 -0.4601626503
O  -1.6361733952  1.6050018555 -0.2924095107
H  -2.2428049223  0.8630861451 -0.0994488759
H   0.0135590992 -0.8081994724 -1.4909033600
H  -0.9435794437 -1.2859785457  1.2815088591
H   0.6074548898  0.9944143101  0.3887749047
H  -2.7944169998 -1.9902349112  0.0735166298
H  -1.9518052713 -1.9255541835 -1.4556014276
H  -0.2975536957  2.8343010729  0.6864310527
H  -0.9753511571  1.4226775545  1.7170896096
H   2.6862245962  0.2585751172  1.6402603696
H   1.6047904947  0.9848373132 -1.9029276013
H   2.5444294593 -1.3821927302  0.9953721374
H   1.2965497217 -0.7288359945  2.0740684483
H   2.9001909909  1.2442636377 -0.7300532383
H   2.7099593562 -0.3410010546 -1.4978351896
22
Iteration 9  Energy = -72.4326128439
C  -0.8909467833 -1.3284064578  0.1921083975
C   1.2309849507  0.0844954989  0.0442098349
C  -0.7989755977  1.8987049977  0.7347611691
C   1.9835691429 -0.4731042041  1.2636641833
C   2.1606839602  0.5152802142 -1.0964041193
N   0.2084948875 -0.9086821476 -0.4893820001
N  -1.9779376824 -1.7304504950 -0.4687737552
O  -1.6363981287  1.6194293119 -0.2947170551
H  -2.2435654281  0.8824509901 -0.0884635884
H   0.0114743019 -0.8138459065 -1.4854489087
H  -0.9443961002 -1.3267773634  1.2819274796
H   0.6023617377  0.9971172411  0.3880632920
H  -2.7916687763 -2.0257207859  0.0541214530
H  -1.9604344991 -1.8754905354 -1.4756936604
H  -0.2821781779  2.8490262658  0.6663505192
H  -0.9648128119  1.4508881439  1.7133455446
H   2.6947802541  0.2711142026  1.6280937584
H   1.5912036185  0.9785187425 -1.9055182066
H   2.5411645658 -1.3767907614  1.0044693975
H   1.3035583223 -0.7043122148  2.0842558248
H   2.8927090938  1.2417106920 -0.7408662026
H   2.6976331157 -0.3466588672 -1.5012205741
22
Iteration 10  Energy = -72.4332925157
C  -0.8848831781 -1.3544766222  0.1943662669
C   1.2287160239  0.0857324298  0.0425520428
C  -0.7941392812  1.9183289547  0.7240688734
C   1.9845542843 -0.4652954651  1.2624983980
C   2.1565046194  0.5115778235 -1.1023557863
N   0.2063691073 -0.9096603415 -0.4870065201
N  -1.9768257973 -1.7387498355 -0.4700320817
O  -1.6365742619  1.6344904904 -0.3015913069
H  -2.2483811395  0.9043532322 -0.0835856392
H  -0.0004331254 -0.7977693537 -1.4796723836
H  -0.9138492979 -1.4281377468  1.2868250842
H   0.6029379094  1.0001895127  0.3805626905
H  -2.7836726647 -2.0580699011  0.0503703371
H  -1.9756029635 -1.8312115114 -1.4820416080
H  -0.2768546915  2.8680506879  0.6547266377
H  -0.9452134924  1.4550607215  1.6975713352
H   2.6999178776  0.2792929586  1.6178940200
H   1.5854061436  0.9732364962 -1.9112849188
H   2.5382217548 -1.3728851918  1.0086533157
H   1.3068169641 -0.6864154843  2.0876185421
H   2.8906140650  1.2382767215 -0.7516004665
H   2.6912443464 -0.3522200885 -1.5063246831
22
Iteration 11  Energy = -72.4334974960
C  -0.8834259319 -1.3666622481  0.1868796039
C   1.2313720049  0.0763967553  0.0338580831
C  -0.7885901595  1.9195995855  0.6988861125
C   1.9835342048 -0.4695030772  1.2583345535
C   2.1625940467  0.4934732439 -1.1116355913
N   0.2078155643 -0.9195282561 -0.4929357140
N  -1.9757294499 -1.7465004957 -0.4793532199
O  -1.6283913474  1.6339907178 -0.3279796280
H  -2.2523748337  0.9146161098 -0.1082373886
H   0.0013367732 -0.8073322579 -1.4856020183
H  -0.9113096091 -1.4463443586  1.2769775487
H   0.6077044884  0.9946257714  0.3642301605
H  -2.7816789720 -2.0711709102  0.0388269927
H  -1.9767617264 -1.8272982069 -1.4909244229
H  -0.2679182609  2.8673339650  0.6274974537
H  -0.9405666909  1.4582727760  1.6726932710
H   2.7010314228  0.2748585091  1.6098453947
H   1.5941736247  0.9524293080 -1.9240006723
H   2.5344308343 -1.3806119945  1.0112213428
H   1.3040101646 -0.6826118038  2.0839870960
H   2.8980965427  1.2200330798 -0.7635168833
H   2.6955931428 -0.3739764896 -1.5101057893
22
Iteration 12  Energy = -72.4341509418
C  -0.8776674959 -1.3924299515  0.1854806386
C   1.2297739690  0.0729376279  0.0335211241
C  -0.7790769035  1.9289476197  0.6929419242
C   1.9814506017 -0.4703343127  1.2590222972
C   2.1616498752  0.4857898094 -1.1133107370
N   0.2054702802 -0.9227594546 -0.4933894267
N  -1.9755997372 -1.7534028538 -0.4813964928
O  -1.6204477534  1.6543825351 -0.3372368792
H  -2.3042443751  0.9910548391 -0.1022079356
H  -0.0122980629 -0.7894184048 -1.4815617089
H  -0.8944654028 -1.5021911129  1.2741995184
H   0.6085859500  0.9938704977  0.3587805420
H  -2.7651421741 -2.1233768956  0.0345373199
H  -1.9875926733 -1.7962113157 -1.4956681248
H  -0.2444167777  2.8688649501  0.6254938083
H  -0.9299704439  1.4591152748  1.6623023263
H   2.7033860319  0.2723893387  1.6048887400
H   1.5931313667  0.9458884130 -1.9249524821
H   2.5273807879 -1.3854664073  1.0159355517
H   1.3025626387 -0.6748236748  2.0872907681
H   2.8999714581  1.2103859066 -0.7670533030
H   2.6910041949 -0.3838223189 -1.5119233122
22
Iteration 13  Energy = -72.4341619090
C  -0.8892088675 -1.3850242877  0.1854452732
C   1.2309986313  0.0655503111  0.0331162898
C  -0.7811073277  1.9436263585  0.6922385162
C   1.9777107416 -0.4852419256  1.2588867941
C   2.1682205799  0.4637605948 -1.1155617530
N   0.1962910021 -0.9215622161 -0.4929595655
N  -1.9919993789 -1.7321166809 -0.4811392953
O  -1.6115166923  1.6683741780 -0.3442730363
H  -2.3122525886  1.0262588193 -0.1087589664
H  -0.0213260729 -0.7858664857 -1.4807324066
H  -0.9076798748 -1.4967224341  1.2731580793
H   0.6230006875  0.9884297723  0.3554382811
H  -2.7815000148 -2.1012048678  0.0329142583
H  -2.0065625042 -1.7686070222 -1.4950168394
H  -0.2249660167  2.8702644298  0.6202613560
H  -0.9356407033  1.4734094619  1.6605250738
H   2.7103411538  0.2482143022  1.6023213609
H   1.6051522711  0.9297401913 -1.9277157087
H   2.5109002422 -1.4083615869  1.0173147185
H   1.2970439539 -0.6784655261  2.0884812830
H   2.9171670415  1.1788098539 -0.7719516643
H   2.6849981763 -0.4140641924 -1.5129165610
22
Iteration 14  Energy = -72.4345673398
C  -0.8809337841 -1.4129685034  0.1864190203
C   1.2237904735  0.0672824333  0.0362609276
C  -0.7629253854  1.9493457546  0.6933724704
C   1.9717080579 -0.4778312185  1.2630105386
C   2.1588725634  0.4681087278 -1.1126002651
N   0.1933992637 -0.9223630983 -0.4918296210
N  -1.9873402949 -1.7516466526 -0.4775063396
O  -1.6111752609  1.6888767092 -0.3358593327
H  -2.2924866105  1.0268822774 -0.1012075968
H  -0.0354681160 -0.7673026486 -1.4745718207
H  -0.8890887475 -1.5493379053  1.2717931998
H   0.6078972083  0.9942445098  0.3578175403
H  -2.7686153554 -2.1406351648  0.0347627426
H  -2.0164459595 -1.7511831951 -1.4924018693
H  -0.2142521842  2.8812301520  0.6257475654
H  -0.9217103786  1.4834112900  1.6633452387
H   2.7061233654  0.2566289148  1.6000293801
H   1.5939940920  0.9340523688 -1.9234563318
H   2.5029151657 -1.4030240509  1.0256816003
H   1.2927463614 -0.6641927635  2.0955178796
H   2.9069113990  1.1839082987 -0.7689846135
H   2.6762966172 -0.4085509307 -1.5114371917
22
Iteration 15  Energy = -72.4348616675
C  -0.8812331752 -1.4304040029  0.1804243397
C   1.2145270076  0.0643954698  0.0353160277
C  -0.7332137615  1.9537466185  0.6837780002
C   1.9585696070 -0.4757354749  1.2652106861
C   2.1503298113  0.4673392883 -1.1106045259
N   0.1870261946 -0.9244364527 -0.4959746109
N  -1.9883572315 -1.7663449058 -0.4823324082
O  -1.6039377890  1.7125193285 -0.3358976306
H  -2.2608406851  1.0264461193 -0.1042051829
H  -0.0468812688 -0.7574381123 -1.4753035668
H  -0.8822583167 -1.5822655674  1.2638904172
H   0.5909095882  0.9993958896  0.3561312587
H  -2.7676658224 -2.1602521135  0.0284403388
H  -2.0269681133 -1.7417027525 -1.4960807591
H  -0.1920774068  2.8912370735  0.6203565467
H  -0.9002305016  1.4974400598  1.6575180033
H   2.6934289933  0.2596029836  1.5990663128
H   1.5863815962  0.9330850685 -1.9221669405
H   2.4887969687 -1.4028553264  1.0334331118
H   1.2782107882 -0.6562029777  2.0978400611
H   2.8961564375  1.1842090935 -0.7645034142
H   2.6700985665 -0.4081378756 -1.5090415622
22
Iteration 16  Energy = -72.4349437431
C  -0.8683794190 -1.4446847042  0.1880739174
C   1.2127508077  0.0696862423  0.0316923710
C  -0.7376467250  1.9521667779  0.6719115223
C   1.9615229853 -0.4560974178  1.2646936305
C   2.1429666930  0.4750268641 -1.1174819239
N   0.1919965680 -0.9285725666 -0.4928284125
N  -1.9744507028 -1.7927685549 -0.4699007789
O  -1.6132080650  1.7037649810 -0.3417288784
H  -2.2553062073  1.0048176298 -0.1092000544
H  -0.0461225314 -0.7668147138 -1.4719175132
H  -0.8629287617 -1.5962781611  1.2715109892
H   0.5848097676  1.0028212284  0.3483601848
H  -2.7483699921 -2.1928531889  0.0442683369
H  -2.0190650022 -1.7650097329 -1.4829734994
H  -0.2032819323  2.8932044330  0.6047425961
H  -0.8965392015  1.4978057467  1.6475781184
H   2.6913669267  0.2870570529  1.5923679335
H   1.5735960005  0.9318983103 -1.9303784815
H   2.4980986317 -1.3812397064  1.0396952772
H   1.2830597318 -0.6346684055  2.0992693154
H   2.8827919832  1.2004370671 -0.7760559825
H   2.6699865090 -0.3976551536 -1.5126112463
22
Iteration 17  Energy = -72.4350954966
C  -0.8701368658 -1.4514389064  0.1861126893
C   1.2070153340  0.0690467972  0.0268219360
C  -0.7068103641  1.9640770142  0.6706187442
C   1.9538966543 -0.4554750163  1.2606286718
C   2.1340401404  0.4766934398 -1.1230330944
N   0.1828960702 -0.9232567830 -0.4966500665
N  -1.9765275798 -1.8031453716 -0.4681882527
O  -1.6019949022  1.7289668052 -0.3309790553
H  -2.2173354557  1.0047942293 -0.1036074051
H  -0.0589309123 -0.7574945905 -1.4739789284
H  -0.8569910485 -1.6116446714  1.2683153269
H   0.5818964426  1.0089909089  0.3461104544
H  -2.7461218516 -2.2100302095  0.0469874747
H  -2.0309667249 -1.7572324307 -1.4801850717
H  -0.1801036481  2.9103940134  0.6093434909
H  -0.8559532048  1.5037144569  1.6446457133
H   2.6852929216  0.2870810215  1.5859732666
H   1.5623511218  0.9339566267 -1.9340213729
H   2.4881436002 -1.3826009130  1.0386755852
H   1.2748046792 -0.6291783895  2.0957138822
H   2.8728085285  1.2032091814 -0.7816855263
H   2.6619636494 -0.3942783161 -1.5206684114
22
Iteration 18  Energy = -72.4351885990
C  -0.8702610552 -1.4615613367  0.1792406822
C   1.2013536815  0.0679734156  0.0263397028
C  -0.6835226002  1.9837867353  0.6669164139
C   1.9418283924 -0.4549617596  1.2637641516
C   2.1299498511  0.4788164015 -1.1202218355
N   0.1783731648 -0.9214911900 -0.5010424022
N  -1.9726317423 -1.8205904313 -0.4763058826
O  -1.6006730422  1.7326342233 -0.3128090818
H  -2.1907316985  0.9920929890 -0.0727973257
H  -0.0635302134 -0.7526218809 -1.4776318817
H  -0.8571544101 -1.6221879589  1.2613572124
H   0.5775240926  1.0134379080  0.3459949015
H  -2.7384407592 -2.2375339461  0.0365013990
H  -2.0301531083 -1.7639892374 -1.4873916202
H  -0.1513022442  2.9247851901  0.5691993954
H  -0.8305336697  1.5661401629  1.6620195593
H   2.6728206944  0.2875247180  1.5901129518
H   1.5587502153  0.9365175159 -1.9313288526
H   2.4754802167 -1.3836237777  1.0469057917
H   1.2587081481 -0.6243271118  2.0965365062
H   2.8664382661  1.2063566538 -0.7759301732
H   2.6603332333 -0.3903192194 -1.5185532854
22
Iteration 19  Energy = -72.4352798537
C  -0.8683507887 -1.4718017032  0.1744385400
C   1.1949695639  0.0688454965  0.0288073139
C  -0.6648852117  2.0051804625  0.6607713054
C   1.9314759569 -0.4530295944  1.2680764052
C   2.1248730709  0.4863545317 -1.1135958854
N   0.1759932551 -0.9204238360 -0.5039913571
N  -1.9717642321 -1.8271727931 -0.4804917589
O  -1.6070405212  1.7304121170 -0.2906045315
H  -2.1799405519  0.9851579539 -0.0254107061
H  -0.0705401646 -0.7403460237 -1.4773114842
H  -0.8503033133 -1.6466667805  1.2542107338
H   0.5688753800  1.0175312665  0.3498963276
H  -2.7357860973 -2.2469618344  0.0324434867
H  -2.0341767307 -1.7616037880 -1.4907971849
H  -0.1244161205  2.9355962722  0.5138232399
H  -0.8047355155  1.6395089180  1.6782125960
H   2.6634032017  0.2886889306  1.5941146705
H   1.5542879433  0.9464970585 -1.9237940175
H   2.4636687845 -1.3832852790  1.0545108916
H   1.2466279403 -0.6183226086  2.1003102251
H   2.8588379694  1.2142756366 -0.7645438210
H   2.6582526082 -0.3796828020 -1.5146653345
22
Iteration 20  Energy = -72.4353128151
C  -0.8689861560 -1.4709362643  0.1756072546
C   1.1946781635  0.0709335644  0.0294400814
C  -0.6552253144  2.0107736746  0.6841274613
C   1.9383740278 -0.4615047133  1.2598813197
C   2.1177792422  0.4962327292 -1.1156446236
N   0.1708339767 -0.9128412800 -0.5045212966
N  -1.9780006305 -1.8169557601 -0.4750081042
O  -1.6061896748  1.7384798651 -0.2585631263
H  -2.1770522191  0.9934519838  0.0100097054
H  -0.0826980956 -0.7229161858 -1.4741479280
H  -0.8419863875 -1.6629735186  1.2524966968
H   0.5717137002  1.0181427902  0.3623583779
H  -2.7388908543 -2.2409529218  0.0391175525
H  -2.0480432067 -1.7398200103 -1.4840093111
H  -0.1108777818  2.9360331985  0.5279058062
H  -0.7895396480  1.6540611978  1.7040477248
H   2.6742176892  0.2761742806  1.5863668683
H   1.5426303249  0.9645397330 -1.9179713716
H   2.4669493417 -1.3914685909  1.0361077689
H   1.2586238023 -0.6310319756  2.0954896457
H   2.8555788088  1.2197193119 -0.7654066011
H   2.6468121472 -0.3674196704 -1.5275819452
22
Iteration 21  Energy = -72.4354368524
C  -0.8647102120 -1.4902627979  0.1637561919
C   1.1897511366  0.0728335019  0.0326984762
C  -0.6447360362  2.0272671998  0.6845312668
C   1.9331051341 -0.4656189826  1.2599133219
C   2.1122503995  0.5083543264 -1.1088017480
N   0.1677215158 -0.9088659355 -0.5091825813
N  -1.9792635328 -1.8176314037 -0.4873382400
O  -1.6115471049  1.7364106142 -0.2378558131
H  -2.1729847690  0.9916100956  0.0511645453
H  -0.0927579629 -0.6998737161 -1.4731112839
H  -0.8263650659 -1.7233756244  1.2332237352
H   0.5646636623  1.0188796972  0.3714428330
H  -2.7338747166 -2.2602997446  0.0206974178
H  -2.0582461076 -1.7120211691 -1.4934588125
H  -0.0943332976  2.9427045776  0.4911228301
H  -0.7718605561  1.7090062307  1.7189420991
H   2.6713386840  0.2689552670  1.5880441988
H   1.5367982029  0.9839772123 -1.9065431842
H   2.4586709017 -1.3963641901  1.0327461919
H   1.2534360881 -0.6351519216  2.0956260840
H   2.8501242223  1.2288480915 -0.7524802730
H   2.6412591821 -0.3514064701 -1.5287207701
22
Iteration 22  Energy = -72.4355413989
C  -0.8615623789 -1.5027341058  0.1579405220
C   1.1854051082  0.0730102281  0.0331035400
C  -0.6234829431  2.0452651320  0.6668998140
C   1.9218318113 -0.4645981751  1.2638201475
C   2.1107659105  0.5096624681 -1.1046089730
N   0.1630586835 -0.9043116826 -0.5118712719
N  -1.9787054548 -1.8238924005 -0.4922030898
O  -1.6173090990  1.7333731840 -0.2210590388
H  -2.1643375034  0.9904799112  0.0991318177
H  -0.1030210194 -0.6835197575 -1.4714606563
H  -0.8134942569 -1.7564025386  1.2216964146
H   0.5615681904  1.0246819872  0.3680492643
H  -2.7228177005 -2.2922999903  0.0088573296
H  -2.0652496509 -1.6963851778 -1.4950179820
H  -0.0821489880  2.9590102576  0.4415948557
H  -0.7194387603  1.7440208321  1.7086616021
H   2.6636226455  0.2668240664  1.5908963290
H   1.5374100398  0.9857441183 -1.9035685711
H   2.4420337091 -1.3995919079  1.0419875504
H   1.2388978784 -0.6260482270  2.0985676149
H   2.8468708305  1.2304949284 -0.7451900327
H   2.6416171152 -0.3491333793 -1.5240850476
22
Iteration 23  Energy = -72.4355959968
C  -0.8601794389 -1.5061666853  0.1501214144
C   1.1825740881  0.0715723589  0.0233325510
C  -0.5956330914  2.0562951258  0.6539367034
C   1.9102923261 -0.4635151915  1.2590241596
C   2.1103901718  0.5066724606 -1.1111649785
N   0.1573058490 -0.8981395255 -0.5217161518
N  -1.9823356271 -1.8215861393 -0.4938121226
O  -1.6190494142  1.7351735305 -0.1991513653
H  -2.1520629762  0.9942701440  0.1466359286
H  -0.1154025815 -0.6678408313 -1.4770684890
H  -0.8001759059 -1.7731642366  1.2096446569
H   0.5610858417  1.0338696534  0.3560311472
H  -2.7208397283 -2.2973731854  0.0078245953
H  -2.0800631570 -1.6773762432 -1.4932468251
H  -0.0578102194  2.9634409613  0.3961074843
H  -0.6722889983  1.7847221610  1.7053241530
H   2.6580106236  0.2632758280  1.5829557942
H   1.5391610392  0.9829646196 -1.9115880319
H   2.4223091459 -1.4049252776  1.0453359505
H   1.2237517211 -0.6124674914  2.0933285168
H   2.8459389414  1.2274493227 -0.7501865615
H   2.6418766188 -0.3523870081 -1.5293976971
22
Iteration 24  Energy = -72.4356908874
C  -0.8547244041 -1.5185934782  0.1471514039
C   1.1722875448  0.0703360251  0.0237364324
C  -0.5777403447  2.0459188254  0.6420462207
C   1.8906567569 -0.4472868341  1.2683808016
C   2.0980438126  0.5220878321 -1.1011732020
N   0.1582134318 -0.9000098280 -0.5232752034
N  -1.9777229417 -1.8318922869 -0.4952838232
O  -1.6239983835  1.7276198215 -0.1934754787
H  -2.1439535999  0.9864415291  0.1668424549
H  -0.1147036683 -0.6695307729 -1.4785791045
H  -0.7878798344 -1.7956096177  1.2033413165
H   0.5314535399  1.0480518849  0.3580803368
H  -2.7127926091 -2.3142990946  0.0050461460
H  -2.0799690042 -1.6790188401 -1.4928185827
H  -0.0495734653  2.9540570017  0.3693863244
H  -0.6666675349  1.8184763328  1.7035704205
H   2.6306275463  0.2872145686  1.5928238237
H   1.5246486478  0.9912056785 -1.9042670676
H   2.4108724700 -1.3871580337  1.0678362195
H   1.1966870040 -0.5928525544  2.0971585621
H   2.8195787773  1.2540074854 -0.7334957706
H   2.6460132891 -0.3274934338 -1.5181007088
22
Iteration 25  Energy = -72.4358994440
C  -0.8546807184 -1.5239440582  0.1435997617
C   1.1675808155  0.0573936567  0.0155163730
C  -0.5412931980  2.0315425322  0.6358070449
C   1.8714898452 -0.4411813383  1.2692552309
C   2.0857310585  0.5272060352 -1.1001474315
N   0.1530264746 -0.8940059871 -0.5270111879
N  -1.9794854701 -1.8325135589 -0.4960355716
O  -1.6213412510  1.7296534262 -0.1844684851
H  -2.1290729284  0.9889060728  0.1874535715
H  -0.1184957644 -0.6679573742 -1.4843750489
H  -0.7803487127 -1.8074278098  1.1969793090
H   0.4995959670  1.0797329513  0.3641113830
H  -2.7119061791 -2.3195743761  0.0036602300
H  -2.0865840944 -1.6714272920 -1.4917369546
H  -0.0472862017  2.9600613453  0.3607022126
H  -0.6520196149  1.8563637151  1.7062323782
H   2.6041548502  0.3002577924  1.5951947551
H   1.5111326828  0.9948613391 -1.9037060563
H   2.4002032110 -1.3796416598  1.0829536307
H   1.1703897216 -0.5845086762  2.0929018351
H   2.8010886961  1.2632751239 -0.7277072147
H   2.6435471722 -0.3139784043 -1.5220839584
22
Iteration 26  Energy = -72.4362811522
C  -0.8514293338 -1.5289021211  0.1474501409
C   1.1683235148  0.0374874205  0.0099085055
C  -0.5120613454  2.0201097172  0.6316608049
C   1.8539589327 -0.4286401902  1.2821737142
C   2.0784464322  0.5371831947 -1.0943213863
N   0.1518252823 -0.8873412447 -0.5232809582
N  -1.9748657960 -1.8364907011 -0.4924128356
O  -1.6153026858  1.7273487923 -0.1780455600
H  -2.1235314756  0.9941807599  0.2051659104
H  -0.1129923213 -0.6743674309 -1.4862106090
H  -0.7709368022 -1.8177656962  1.1985931165
H   0.4777663665  1.0977232991  0.3671570517
H  -2.7059389910 -2.3279545096  0.0049604794
H  -2.0837868023 -1.6662713615 -1.4862662343
H  -0.0337807657  2.9533755228  0.3438048365
H  -0.6315098341  1.8812524333  1.7069717367
H   2.5762640125  0.3243532793  1.6078899907
H   1.5021981394  1.0050417391 -1.8977995577
H   2.3958993536 -1.3660442221  1.1234517766
H   1.1432876375 -0.5652748445  2.0999084653
H   2.7839431265  1.2798129579 -0.7130693428
H   2.6530901786 -0.2887950028 -1.5268918174
22
Iteration 27  Energy = -72.4394906835
C  -0.8554067215 -1.5306033914  0.1425957847
C   1.1704287630  0.0206996422  0.0010561017
C  -0.4940875425  2.0022877160  0.6382857364
C   1.8456918645 -0.4284382181  1.2766960914
C   2.0671246240  0.5455125171 -1.0927820622
N   0.1484227454 -0.8803622429 -0.5261906427
N  -1.9778061790 -1.8354852813 -0.4979834671
O  -1.6242701967  1.7282584459 -0.1722213484
H  -2.1245526916  0.9925805364  0.2117912085
H  -0.1162349389 -0.6687337347 -1.4910009670
H  -0.7712666901 -1.8230254678  1.1910714238
H   0.3908574346  1.1812245913  0.3957859648
H  -2.7085303593 -2.3294307634 -0.0024096736
H  -2.0875958559 -1.6597521865 -1.4906229412
H  -0.0631142362  2.9684408990  0.3641242537
H  -0.6547956517  1.9056136829  1.7182305469
H   2.5678757211  0.3251489711  1.6020051205
H   1.4860643416  1.0155201545 -1.8916037981
H   2.3905976187 -1.3648589806  1.1208657439
H   1.1328827060 -0.5676834616  2.0921020051
H   2.7714054245  1.2867902672 -0.7061037679
H   2.6457501624 -0.2733567972 -1.5344649719
22
Iteration 28  Energy = -72.4428501205
C  -0.8548465818 -1.5308000550  0.1419516797
C   1.1752386060  0.0077974727 -0.0049779661
C  -0.4914870964  2.0004100291  0.6422298292
C   1.8455157205 -0.4285688539  1.2753056776
C   2.0650926848  0.5490202888 -1.0931427160
N   0.1500377570 -0.8764732753 -0.5259330436
N  -1.9766971224 -1.8352696404 -0.4989133382
O  -1.6268815261  1.7288188995 -0.1712591877
H  -2.1257038491  0.9914598552  0.2121802596
H  -0.1137383093 -0.6668718681 -1.4918299235
H  -0.7696720426 -1.8241696281  1.1894087016
H   0.3511598137  1.2371027104  0.4214205641
H  -2.7073173840 -2.3300205901 -0.0037934474
H  -2.0867106395 -1.6584308056 -1.4912526519
H  -0.0790002668  2.9758387056  0.3724193760
H  -0.6684285234  1.9178105431  1.7210086349
H   2.5693537134  0.3255595145  1.6009726529
H   1.4817167213  1.0204087341 -1.8910526716
H   2.3928644961 -1.3660217926  1.1233108987
H   1.1320291287 -0.5697619385  2.0914887873
H   2.7698798852  1.2905620738 -0.7042384885
H   2.6468959547 -0.2660033503 -1.5411465197
22
Iteration 29  Energy = -72.4459914641
C  -0.8543528972 -1.5314570422  0.1421960611
C   1.1817579091 -0.0097572953 -0.0112405026
C  -0.4915660915  2.0037914055  0.6463128772
C   1.8455426297 -0.4299959218  1.2746463372
C   2.0622177858  0.5531066657 -1.0919262945
N   0.1515375373 -0.8727241368 -0.5245324729
N  -1.9755184631 -1.8351930044 -0.4993480660
O  -1.6288702280  1.7290937077 -0.1727306961
H  -2.1274826076  0.9919082614  0.2114256347
H  -0.1100910807 -0.6656201849 -1.4918880878
H  -0.7685118616 -1.8269052104  1.1884984619
H   0.3305600845  1.2773929267  0.4466190703
H  -2.7062706267 -2.3307759306 -0.0050300853
H  -2.0855217171 -1.6567661430 -1.4913252544
H  -0.0944751377  2.9857968903  0.3751092477
H  -0.6862861360  1.9394791976  1.7237480789
H   2.5696739614  0.3257831676  1.5986732309
H   1.4766021098  1.0264319979 -1.8882294027
H   2.3961533109 -1.3683500187  1.1282667240
H   1.1317535908 -0.5728506536  2.0915779074
H   2.7659582111  1.2945706130 -0.6985021868
H   2.6488567667 -0.2558265279 -1.5484996167
22
Iteration 30  Energy = -72.4486746863
C  -0.8537645629 -1.5311062298  0.1431645245
C   1.1897209243 -0.0292007556 -0.0188429207
C  -0.4943427809  2.0078910820  0.6534126129
C   1.8446803891 -0.4302429568  1.2737766804
C   2.0599474482  0.5560983847 -1.0912236623
N   0.1527142723 -0.8684779462 -0.5235910643
N  -1.9736962740 -1.8345194153 -0.4995527963
O  -1.6310027656  1.7296923453 -0.1752593563
H  -2.1301923720  0.9917603740  0.2072779091
H  -0.1057620430 -0.6638961056 -1.4925893411
H  -0.7671874154 -1.8277100783  1.1889468368
H   0.3347378318  1.2871874158  0.4604327681
H  -2.7047933559 -2.3306829745 -0.0061646966
H  -2.0831650279 -1.6551322399 -1.4913584635
H  -0.1141262599  2.9979407516  0.3853278083
H  -0.7074936502  1.9536787520  1.7279509440
H   2.5670445890  0.3295447667  1.5948210101
H   1.4710076095  1.0327353405 -1.8842391228
H   2.3999997335 -1.3692185791  1.1399216798
H   1.1288142915 -0.5715622672  2.0903974158
H   2.7609023215  1.2978404144 -0.6913609576
H   2.6532930027 -0.2429396856 -1.5596255079
22
Iteration 31  Energy = -72.4510539250
C  -0.8530474186 -1.5305569592  0.1444258671
C   1.1984698425 -0.0482149146 -0.0260705272
C  -0.4978016225  2.0127927025  0.6604498738
C   1.8439533990 -0.4309095000  1.2731467393
C   2.0579724722  0.5590145579 -1.0907447730
N   0.1529146585 -0.8649014041 -0.5232685996
N  -1.9716038306 -1.8339228051 -0.4996813057
O  -1.6329200974  1.7300177909 -0.1777010795
H  -2.1319481028  0.9911526397  0.2036017185
H  -0.1025228538 -0.6625030420 -1.4936630482
H  -0.7657789763 -1.8282169453  1.1897605027
H   0.3340054573  1.2984694123  0.4747218752
H  -2.7031691076 -2.3307247325 -0.0075097757
H  -2.0801968301 -1.6533080746 -1.4912771416
H  -0.1314284081  3.0088601790  0.3941787221
H  -0.7275256512  1.9672506930  1.7320683136
H   2.5632541601  0.3341707696  1.5905605263
H   1.4647494959  1.0400396423 -1.8789142763
H   2.4043361088 -1.3699676636  1.1545463408
H   1.1251643293 -0.5687433910  2.0888205107
H   2.7548615458  1.3013872203 -0.6832215598
H   2.6588219405 -0.2276429885 -1.5726695037
22
Iteration 32  Energy = -72.4532412366
C  -0.8535302391 -1.5304986105  0.1466035347
C   1.2074644417 -0.0668847425 -0.0322922991
C  -0.4973459566  2.0235077441  0.6596105932
C   1.8404309325 -0.4298039082  1.2747562283
C   2.0581379002  0.5565505782 -1.0903901590
N   0.1515010799 -0.8624102619 -0.5220939835
N  -1.9705680205 -1.8340763646 -0.4991730507
O  -1.6350497486  1.7295326496 -0.1775737048
H  -2.1291368519  0.9900398410  0.2090198907
H  -0.1012096616 -0.6622651376 -1.4937475603
H  -0.7657479912 -1.8290489249  1.1915664337
H   0.3334079759  1.3178913718  0.4824732738
H  -2.7029704298 -2.3311961290 -0.0084745733
H  -2.0785020200 -1.6508513267 -1.4902709552
H  -0.1427908275  3.0215306690  0.3850576672
H  -0.7329400778  1.9914537871  1.7304556973
H   2.5571956959  0.3403906035  1.5880456636
H   1.4619253867  1.0405416096 -1.8755472005
H   2.4045897149 -1.3697456868  1.1748386746
H   1.1168999697 -0.5603822414  2.0884697851
H   2.7513516020  1.3002698059 -0.6769978401
H   2.6660446176 -0.2193797638 -1.5826952199
22
Iteration 33  Energy = -72.4553852157
C  -0.8537341750 -1.5303121898  0.1486136188
C   1.2172419250 -0.0855054128 -0.0386448085
C  -0.4989180915  2.0341132560  0.6601222205
C   1.8372763202 -0.4292350586  1.2761120697
C   2.0584291630  0.5547688974 -1.0902217788
N   0.1500494610 -0.8600481830 -0.5215298283
N  -1.9693904716 -1.8340237812 -0.4985203619
O  -1.6367621220  1.7291721346 -0.1781386932
H  -2.1263406385  0.9888352910  0.2125160726
H  -0.1004443027 -0.6619067350 -1.4942329971
H  -0.7647555210 -1.8295941995  1.1931201520
H   0.3325151615  1.3370783244  0.4921121468
H  -2.7026096519 -2.3314513247 -0.0092463808
H  -2.0766875145 -1.6481882624 -1.4891101130
H  -0.1539355182  3.0333224663  0.3785779181
H  -0.7406440872  2.0124540008  1.7297605140
H   2.5515383646  0.3458008760  1.5855478603
H   1.4579832125  1.0424895173 -1.8706863230
H   2.4044973786 -1.3699515200  1.1960578064
H   1.1082080833 -0.5515088594  2.0870141771
H   2.7478808935  1.2995586721 -0.6706912412
H   2.6730789566 -0.2090216881 -1.5945596873
22
Iteration 34  Energy = -72.4573416189
C  -0.8528709379 -1.5293274494  0.1496415824
C   1.2274082216 -0.1029877524 -0.0458472516
C  -0.5048948437  2.0404494198  0.6675358061
C   1.8365140909 -0.4303691315  1.2752860926
C   2.0572961562  0.5571190157 -1.0907862704
N   0.1491481698 -0.8575198519 -0.5226506132
N  -1.9672302067 -1.8338103840 -0.4985465951
O  -1.6380312033  1.7290203952 -0.1795875809
H  -2.1259321958  0.9869593648  0.2097809521
H  -0.0992515141 -0.6610191212 -1.4960952653
H  -0.7625365033 -1.8285034600  1.1939783024
H   0.3291609951  1.3485101087  0.5086689571
H  -2.7008776697 -2.3320267339 -0.0106745670
H  -2.0735308286 -1.6464086894 -1.4888501190
H  -0.1662745308  3.0414074666  0.3853969964
H  -0.7579536747  2.0229770455  1.7343891348
H   2.5472535378  0.3499403865  1.5812537785
H   1.4497163209  1.0499482326 -1.8630777617
H   2.4070543804 -1.3708194817  1.2139291450
H   1.1019105589 -0.5452347426  2.0829294514
H   2.7420543154  1.3026243806 -0.6637093474
H   2.6783359748 -0.1917246731 -1.6103170362
22
Iteration 35  Energy = -72.4591451959
C  -0.8518580527 -1.5283004416  0.1504830533
C   1.2375830426 -0.1200088639 -0.0531722892
C  -0.5111668590  2.0471775832  0.6754838313
C   1.8357960660 -0.4318033006  1.2744174941
C   2.0564462830  0.5592330259 -1.0917203298
N   0.1482850535 -0.8550074839 -0.5241220036
N  -1.9651510304 -1.8336156962 -0.4984513366
O  -1.6389802082  1.7288490955 -0.1801638612
H  -2.1247912733  0.9847250982  0.2077839489
H  -0.0986432903 -0.6600648351 -1.4981842990
H  -0.7598992372 -1.8273654391  1.1946079986
H   0.3254115431  1.3630518262  0.5268800014
H  -2.6991058745 -2.3326940007 -0.0118656140
H  -2.0707652592 -1.6443746353 -1.4883757159
H  -0.1778100219  3.0492922275  0.3925668776
H  -0.7737706376  2.0320074499  1.7395551148
H   2.5434608570  0.3532985568  1.5771821423
H   1.4414131881  1.0573430351 -1.8553397577
H   2.4088865079 -1.3720670161  1.2314606958
H   1.0953267935 -0.5386304966  2.0785587433
H   2.7369537557  1.3052161691 -0.6574878302
H   2.6830490435 -0.1749111228 -1.6263288418
22
Iteration 36  Energy = -72.4608312325
C  -0.8518601689 -1.5279486160  0.1523606127
C   1.2470514700 -0.1374422856 -0.0587223317
C  -0.5139928324  2.0595831825  0.6746924930
C   1.8325943585 -0.4320498224  1.2766761734
C   2.0576391829  0.5568696393 -1.0917406735
N   0.1469751492 -0.8536449088 -0.5240454250
N  -1.9642380826 -1.8334367648 -0.4973905210
O  -1.6401630188  1.7284618754 -0.1810905303
H  -2.1206578958  0.9831385372  0.2111629507
H  -0.0982920157 -0.6601114864 -1.4986613901
H  -0.7586571712 -1.8274415250  1.1961810248
H   0.3260228624  1.3846636862  0.5373671742
H  -2.6991313392 -2.3323002222 -0.0119540696
H  -2.0694780898 -1.6414783317 -1.4867423109
H  -0.1862651942  3.0605159635  0.3825204305
H  -0.7789527207  2.0521883649  1.7377361634
H   2.5375758762  0.3574742084  1.5755912845
H   1.4367873893  1.0587497384 -1.8486904192
H   2.4069473766 -1.3725803966  1.2537367874
H   1.0850049285 -0.5285668214  2.0761737991
H   2.7342912839  1.3034682408 -0.6516144338
H   2.6888357282 -0.1651718842 -1.6377630213
22
Iteration 37  Energy = -72.4623967485
C  -0.8518498504 -1.5272154324  0.1546610406
C   1.2564497671 -0.1543936210 -0.0634543909
C  -0.5180732247  2.0720851510  0.6727286357
C   1.8294334715 -0.4321883886  1.2797109571
C   2.0594754662  0.5538887152 -1.0912340522
N   0.1463048107 -0.8528221269 -0.5235904340
N  -1.9632917057 -1.8330090985 -0.4958846654
O  -1.6416093281  1.7282472609 -0.1836128914
H  -2.1170519259  0.9817937117  0.2125154059
H  -0.0973835039 -0.6610958665 -1.4988978302
H  -0.7578696135 -1.8263867077  1.1984004617
H   0.3264539271  1.4056466014  0.5457325332
H  -2.6992139835 -2.3313294101 -0.0114128205
H  -2.0678638626 -1.6393738834 -1.4849008065
H  -0.1954456162  3.0716573459  0.3716714984
H  -0.7856823616  2.0719256888  1.7347581183
H   2.5317083344  0.3616220661  1.5748957397
H   1.4331056379  1.0587961112 -1.8420686614
H   2.4047439366 -1.3726190723  1.2766816165
H   1.0746363824 -0.5184235980  2.0741639602
H   2.7321951126  1.3013181267 -0.6456816450
H   2.6950912402 -0.1566208300 -1.6474710268
22
Iteration 38  Energy = -72.4638552145
C  -0.8503130438 -1.5260389950  0.1544116360
C   1.2658179403 -0.1694308276 -0.0708098825
C  -0.5262281831  2.0805031926  0.6818043208
C   1.8290542484 -0.4347046268  1.2782793657
C   2.0590085583  0.5558206898 -1.0929805651
N   0.1462360966 -0.8508527307 -0.5260828174
N  -1.9611000939 -1.8330532870 -0.4960977387
O  -1.6417780550  1.7277376344 -0.1836041347
H  -2.1145954156  0.9785027512  0.2103067727
H  -0.0962268004 -0.6610747533 -1.5018384635
H  -0.7547559178 -1.8246319889  1.1980749938
H   0.3252038223  1.4214714929  0.5633485753
H  -2.6969437203 -2.3321029098 -0.0122308278
H  -2.0658951913 -1.6378867419 -1.4847154899
H  -0.2092525444  3.0815090721  0.3803740099
H  -0.8028532384  2.0804137888  1.7413098541
H   2.5295584067  0.3622578539  1.5702174561
H   1.4252220890  1.0664017180 -1.8341501360
H   2.4043323554 -1.3750005264  1.2919605665
H   1.0684443104 -0.5116569840  2.0686002952
H   2.7289107060  1.3022352649 -0.6409719476
H   2.6970903934 -0.1413412970 -1.6631869786
22
Iteration 39  Energy = -72.4651375488
C  -0.8485633721 -1.5248729878  0.1543384779
C   1.2749905605 -0.1834612162 -0.0775976010
C  -0.5357254811  2.0886606748  0.6914477355
C   1.8289208052 -0.4378565925  1.2770909041
C   2.0585964886  0.5579075646 -1.0945133424
N   0.1465161300 -0.8493804503 -0.5285052286
N  -1.9586852153 -1.8335198683 -0.4959256495
O  -1.6424745628  1.7269834652 -0.1836154671
H  -2.1126721460  0.9746379546  0.2074808113
H  -0.0946952701 -0.6621441476 -1.5049185592
H  -0.7517009570 -1.8223205491  1.1981386254
H   0.3221924394  1.4365464683  0.5817879873
H  -2.6942555965 -2.3332592872 -0.0123369835
H  -2.0638688843 -1.6373590607 -1.4842419018
H  -0.2244333129  3.0912598570  0.3899411341
H  -0.8221518661  2.0888760022  1.7482248354
H   2.5284683182  0.3613544128  1.5659080893
H   1.4173833139  1.0739649900 -1.8257248083
H   2.4030499914 -1.3784426848  1.3063495423
H   1.0626722776 -0.5050627954  2.0632145839
H   2.7260734723  1.3030276508 -0.6364011241
H   2.6983628957 -0.1264674331 -1.6780846850
22
Iteration 40  Energy = -72.4661695437
C  -0.8463525463 -1.5223248928  0.1548380498
C   1.2848609740 -0.1966719088 -0.0839901340
C  -0.5471881971  2.0929641998  0.7011987557
C   1.8305990054 -0.4423528929  1.2754309310
C   2.0592035666  0.5607606623 -1.0952867985
N   0.1474661089 -0.8470775309 -0.5306779684
N  -1.9558368398 -1.8332851091 -0.4949394436
O  -1.6454641889  1.7278693391 -0.1845600395
H  -2.1151768995  0.9726310005  0.2015007646
H  -0.0937873590 -0.6609989372 -1.5072627260
H  -0.7481825446 -1.8179752850  1.1989760606
H   0.3151032058  1.4457966417  0.5992872554
H  -2.6904226070 -2.3346573798 -0.0115045240
H  -2.0612028076 -1.6374832203 -1.4832580948
H  -0.2383774991  3.0971008902  0.4026186142
H  -0.8433894561  2.0914608639  1.7551653033
H   2.5293462616  0.3586691015  1.5619886207
H   1.4106936748  1.0791222976 -1.8186080614
H   2.4036329989 -1.3831053253  1.3179691425
H   1.0593881257 -0.5013803343  2.0577435722
H   2.7216843322  1.3068663626 -0.6310610520
H   2.7034619665 -0.1104230000 -1.6890982006
22
Iteration 41  Energy = -72.4670482949
C  -0.8436813107 -1.5195086077  0.1557716099
C   1.2944801038 -0.2085615736 -0.0893949799
C  -0.5597832326  2.0974669252  0.7096093810
C   1.8332126559 -0.4482760006  1.2738919929
C   2.0607610490  0.5638599546 -1.0949849259
N   0.1487922197 -0.8444337787 -0.5323548427
N  -1.9529383164 -1.8325466279 -0.4930105863
O  -1.6496681848  1.7294141711 -0.1865551265
H  -2.1196467657  0.9720552981  0.1949758162
H  -0.0931976572 -0.6584636734 -1.5087298114
H  -0.7437855624 -1.8136739756  1.2001148279
H   0.3061120958  1.4530802348  0.6158839307
H  -2.6860584482 -2.3359963179 -0.0094648012
H  -2.0588074896 -1.6375075902 -1.4813887394
H  -0.2526542854  3.1027943228  0.4134324816
H  -0.8660259297  2.0956132465  1.7607014877
H   2.5326639671  0.3530431644  1.5586317504
H   1.4057165322  1.0819821027 -1.8126878371
H   2.4035646949 -1.3901250203  1.3273967334
H   1.0577461927 -0.4992282347  2.0529563141
H   2.7162789730  1.3125771908 -0.6245969282
H   2.7117292788 -0.0944465829 -1.6958102501
22
Iteration 42  Energy = -72.4679088668
C  -0.8407943068 -1.5177642967  0.1558967624
C   1.3029233730 -0.2191827055 -0.0947784487
C  -0.5726132341  2.1045835993  0.7186341278
C   1.8353513312 -0.4547902386  1.2719023832
C   2.0621375786  0.5667578106 -1.0949664541
N   0.1504253916 -0.8428612004 -0.5346300830
N  -1.9502110415 -1.8324123189 -0.4913967013
O  -1.6522084653  1.7299119296 -0.1884062207
H  -2.1216502984  0.9703852409  0.1894599998
H  -0.0913348205 -0.6587001895 -1.5114159648
H  -0.7391595407 -1.8105780152  1.2003845846
H   0.2975276727  1.4627968959  0.6352060482
H  -2.6819642361 -2.3372888835 -0.0072373994
H  -2.0572124030 -1.6377851041 -1.4797038083
H  -0.2684745356  3.1110339889  0.4231331495
H  -0.8906157892  2.1050325995  1.7664344030
H   2.5374243946  0.3451747009  1.5547012347
H   1.4012030568  1.0838454071 -1.8080954239
H   2.4007580998 -1.3991011524  1.3351226173
H   1.0561241121 -0.4964363186  2.0482173564
H   2.7104477463  1.3182753398 -0.6186051934
H   2.7200327602 -0.0795530268 -1.7012556218
22
Iteration 43  Energy = -72.4688649849
C  -0.8384805121 -1.5172220316  0.1552868534
C   1.3093009702 -0.2279381348 -0.0995721025
C  -0.5841031218  2.1166382564  0.7284140307
C   1.8351637341 -0.4582882944  1.2709431771
C   2.0630472347  0.5661874891 -1.0974056298
N   0.1524186790 -0.8434058833 -0.5370616111
N  -1.9479788405 -1.8332122791 -0.4908087210
O  -1.6519333683  1.7286753579 -0.1878921789
H  -2.1172930124  0.9657108942  0.1880962069
H  -0.0863989647 -0.6646164959 -1.5155614301
H  -0.7361411444 -1.8075854997  1.2002384563
H   0.2918037480  1.4798259376  0.6587886556
H  -2.6795491483 -2.3372432121 -0.0054947284
H  -2.0562788356 -1.6384373980 -1.4789195133
H  -0.2853776134  3.1236994465  0.4292912577
H  -0.9142110600  2.1239937146  1.7728148316
H   2.5401742569  0.3401891394  1.5512594536
H   1.3970028746  1.0915140352 -1.8001039603
H   2.3948968454 -1.4053942105  1.3442327667
H   1.0520180738 -0.4898615659  2.0442037320
H   2.7158220255  1.3117566981 -0.6176887665
H   2.7148654819 -0.0744568016 -1.7162946327
22
Iteration 44  Energy = -72.4698163346
C  -0.8362752776 -1.5168881485  0.1546250433
C   1.3151588027 -0.2360497631 -0.1039009277
C  -0.5957235436  2.1296104899  0.7370533793
C   1.8347923923 -0.4613910091  1.2701975594
C   2.0645921056  0.5641216968 -1.1002600527
N   0.1546367006 -0.8445515381 -0.5393661354
N  -1.9459115279 -1.8340476707 -0.4902894087
O  -1.6514163501  1.7273136100 -0.1877265561
H  -2.1123737362  0.9611025931  0.1870890832
H  -0.0818621593 -0.6700167596 -1.5191849367
H  -0.7335959976 -1.8048407963  1.2000617288
H   0.2855654626  1.4985268298  0.6834812157
H  -2.6775253866 -2.3366811794 -0.0036134381
H  -2.0554186073 -1.6393897825 -1.4782717422
H  -0.3013795998  3.1363395409  0.4326243921
H  -0.9379887260  2.1453836622  1.7776902201
H   2.5431503525  0.3350598193  1.5481253637
H   1.3944084600  1.0980547932 -1.7927327332
H   2.3883292110 -1.4114411227  1.3526161895
H   1.0481641077 -0.4828818999  2.0405174004
H   2.7232590669  1.3030904236 -0.6183677357
H   2.7086893885 -0.0728597344 -1.7310184578
22
Iteration 45  Energy = -72.4706919865
C  -0.8345033536 -1.5201149530  0.1538661784
C   1.3187515335 -0.2444020381 -0.1066107268
C  -0.6011576600  2.1482622739  0.7376555818
C   1.8320774172 -0.4657336068  1.2707870098
C   2.0650325607  0.5619503025 -1.1004592319
N   0.1557968084 -0.8474175052 -0.5409805988
N  -1.9460818633 -1.8341952710 -0.4888217694
O  -1.6490105464  1.7254477907 -0.1873717790
H  -2.1025561885  0.9575592355  0.1931138170
H  -0.0799204441 -0.6740169402 -1.5211737093
H  -0.7296713817 -1.8111127346  1.1981230846
H   0.2848976871  1.5214957248  0.6995068772
H  -2.6778918773 -2.3351493736 -0.0007716294
H  -2.0584294943 -1.6363098714 -1.4758380980
H  -0.3123260123  3.1525624817  0.4200205621
H  -0.9503855952  2.1782689734  1.7757214435
H   2.5463974025  0.3264221444  1.5458668315
H   1.3919210233  1.0989443651 -1.7877936046
H   2.3761292592 -1.4204772019  1.3622165307
H   1.0421459725 -0.4744011185  2.0383205954
H   2.7237282327  1.2991093563 -0.6157131710
H   2.7082165080 -0.0700513602 -1.7371090160
22
Iteration 46  Energy = -72.4714953379
C  -0.8328631995 -1.5226869303  0.1536273522
C   1.3217652395 -0.2517302931 -0.1086888402
C  -0.6075760588  2.1672427618  0.7379835889
C   1.8295973765 -0.4704635811  1.2712970493
C   2.0664142544  0.5587595262 -1.1005152463
N   0.1570546100 -0.8503385285 -0.5422735584
N  -1.9461929797 -1.8343528915 -0.4868921567
O  -1.6465210285  1.7237687319 -0.1877240533
H  -2.0928270662  0.9543815098  0.1982812568
H  -0.0781788440 -0.6777850410 -1.5226874355
H  -0.7265086820 -1.8152971893  1.1971023297
H   0.2821430069  1.5424486724  0.7150139615
H  -2.6784416490 -2.3328989922  0.0029041617
H  -2.0609796901 -1.6343036920 -1.4731657054
H  -0.3229731424  3.1684551176  0.4072847357
H  -0.9646626779  2.2110147944  1.7727144607
H   2.5512496476  0.3161136588  1.5432077615
H   1.3911903464  1.0960048763 -1.7856292561
H   2.3625699965 -1.4306803253  1.3709488120
H   1.0370263465 -0.4653313847  2.0364896456
H   2.7228883509  1.2962054143 -0.6130478544
H   2.7114391663 -0.0691202695 -1.7394895733
22
Iteration 47  Energy = -72.4722018913
C  -0.8307803365 -1.5247253814  0.1533872759
C   1.3245788844 -0.2575132315 -0.1106859938
C  -0.6155227163  2.1858915285  0.7390499101
C   1.8279455818 -0.4757095754  1.2711077820
C   2.0692525438  0.5554377841 -1.1005247384
N   0.1584763961 -0.8526488332 -0.5437856561
N  -1.9457327619 -1.8346732129 -0.4848180833
O  -1.6449868548  1.7221633195 -0.1876168336
H  -2.0839494297  0.9510672344  0.2034452163
H  -0.0770424803 -0.6802236443 -1.5240366502
H  -0.7229899459 -1.8178470539  1.1963359620
H   0.2769590307  1.5622183955  0.7301081650
H  -2.6782884293 -2.3306998330  0.0070177222
H  -2.0629952747 -1.6330254094 -1.4704512710
H  -0.3344831715  3.1839311504  0.3962316555
H  -0.9805829314  2.2417804547  1.7701208072
H   2.5589107223  0.3033387528  1.5396818435
H   1.3932044892  1.0878724105 -1.7885079852
H   2.3476449900 -1.4425237387  1.3775995973
H   1.0337207929 -0.4555764279  2.0347084528
H   2.7187851695  1.2972892741 -0.6101504913
H   2.7218245749 -0.0685922151 -1.7358404755
22
Iteration 48  Energy = -72.4728306011
C  -0.8281564503 -1.5267253390  0.1530973907
C   1.3271971112 -0.2619193351 -0.1125713086
C  -0.6246841077  2.2036234689  0.7412532658
C   1.8270971119 -0.4812680572  1.2703318598
C   2.0729315336  0.5519941378 -1.1007918673
N   0.1601422702 -0.8544628170 -0.5452579458
N  -1.9446864661 -1.8353209837 -0.4827451749
O  -1.6441580008  1.7206201259 -0.1869073881
H  -2.0763637932  0.9479182740  0.2085846820
H  -0.0765780750 -0.6808250722 -1.5248530696
H  -0.7188791635 -1.8201303808  1.1955509276
H   0.2705186442  1.5824587469  0.7458644458
H  -2.6773673417 -2.3290317471  0.0111856387
H  -2.0645006065 -1.6321533565 -1.4677425497
H  -0.3476230405  3.1990998751  0.3879571161
H  -0.9980008698  2.2696366154  1.7685638982
H   2.5693630079  0.2882149126  1.5351381201
H   1.3970215151  1.0784997467 -1.7933456990
H   2.3310657011 -1.4558617217  1.3824084581
H   1.0323430752 -0.4448084782  2.0331657691
H   2.7146077124  1.2990301507 -0.6077137984
H   2.7341414843 -0.0690570976 -1.7303300654
22
Iteration 49  Energy = -72.4734011368
C  -0.8254990355 -1.5287817491  0.1540369047
C   1.3296984605 -0.2658673475 -0.1132695626
C  -0.6330201235  2.2216413402  0.7408272548
C   1.8266184557 -0.4868424479  1.2705217800
C   2.0765312032  0.5477529732 -1.1008130808
N   0.1619475848 -0.8566050228 -0.5454694229
N  -1.9434479306 -1.8362934815 -0.4796581120
O  -1.6432720274  1.7190291830 -0.1872837751
H  -2.0689236985  0.9455488978  0.2138755917
H  -0.0763033844 -0.6811247228 -1.5241611283
H  -0.7150809475 -1.8221194857  1.1961348838
H   0.2658581752  1.6052367134  0.7578300689
H  -2.6763069034 -2.3276441637  0.0163188364
H  -2.0654501975 -1.6321291589 -1.4641691075
H  -0.3610208099  3.2146592467  0.3769504346
H  -1.0129241789  2.2970411599  1.7648850465
H   2.5821522512  0.2710032107  1.5309260256
H   1.4010760918  1.0722918733 -1.7952391158
H   2.3120926887 -1.4702917422  1.3878544922
H   1.0322083720 -0.4321017594  2.0330552477
H   2.7150253556  1.2964186306 -0.6060768150
H   2.7412758771 -0.0722108680 -1.7278287142
22
Iteration 50  Energy = -72.4739886002
C  -0.8221475070 -1.5311303991  0.1543264756
C   1.3322768737 -0.2686069681 -0.1135624619
C  -0.6436056844  2.2379998743  0.7429686783
C   1.8261751449 -0.4916363101  1.2711015400
C   2.0793104540  0.5437722042 -1.1018828934
N   0.1643260102 -0.8584606680 -0.5458182985
N  -1.9414528294 -1.8373998685 -0.4774875443
O  -1.6423183338  1.7173616877 -0.1879399148
H  -2.0635841259  0.9436379629  0.2174211312
H  -0.0756058786 -0.6798650158 -1.5232673341
H  -0.7103818737 -1.8250940059  1.1958783054
H   0.2594131217  1.6274426474  0.7726679159
H  -2.6742624016 -2.3271909794  0.0200773796
H  -2.0654506951 -1.6320854912 -1.4615107303
H  -0.3762600563  3.2292468737  0.3710281576
H  -1.0321715052  2.3208026713  1.7630978819
H   2.5953047586  0.2536122597  1.5274675486
H   1.4032197155  1.0770516405 -1.7892710072
H   2.2919195211 -1.4840653031  1.3932055016
H   1.0325065717 -0.4186081809  2.0332382197
H   2.7262228846  1.2848036212 -0.6067819269
H   2.7344457664 -0.0783913224 -1.7370544127
22
Iteration 51  Energy = -72.4744795040
C  -0.8202550373 -1.5343218240  0.1518940550
C   1.3333756925 -0.2704929471 -0.1149941195
C  -0.6527371481  2.2526216751  0.7499613778
C   1.8248241235 -0.4908591451  1.2712791539
C   2.0814943058  0.5367414338 -1.1068028755
N   0.1658371538 -0.8606251457 -0.5477039627
N  -1.9407434715 -1.8381189913 -0.4790040656
O  -1.6388662742  1.7162100530 -0.1855341049
H  -2.0547480152  0.9402132162  0.2211236237
H  -0.0748395343 -0.6791726950 -1.5241109357
H  -0.7074540865 -1.8306300342  1.1926528266
H   0.2564742006  1.6509532857  0.7874086619
H  -2.6741385880 -2.3265210000  0.0190510715
H  -2.0665456124 -1.6295046620 -1.4621000884
H  -0.3933019947  3.2449040740  0.3751486379
H  -1.0493774127  2.3363620867  1.7668740432
H   2.5900562449  0.2578571686  1.5288273710
H   1.4051507936  1.0858625730 -1.7820357206
H   2.2945855304 -1.4811197006  1.3955195131
H   1.0288155102 -0.4204356311  2.0309828683
H   2.7457527617  1.2639900955 -0.6144240469
H   2.7164827326 -0.0921408975 -1.7561798297
22
Iteration 52  Energy = -72.4748850540
C  -0.8183041608 -1.5378479539  0.1493260054
C   1.3343123549 -0.2721433211 -0.1167329131
C  -0.6619330211  2.2658521915  0.7579231841
C   1.8232165952 -0.4882118250  1.2713576033
C   2.0843905599  0.5285432266 -1.1123201562
N   0.1670835914 -0.8625642531 -0.5496866262
N  -1.9400190465 -1.8391609489 -0.4806131805
O  -1.6356491709  1.7154157865 -0.1825201794
H  -2.0452395091  0.9359211859  0.2239288174
H  -0.0740077720 -0.6794101133 -1.5253669276
H  -0.7042802965 -1.8367373388  1.1892453695
H   0.2547885399  1.6752406366  0.7984874519
H  -2.6738411276 -2.3266007026  0.0177586645
H  -2.0677812240 -1.6267913955 -1.4626419098
H  -0.4132557170  3.2612154483  0.3837450294
H  -1.0649182670  2.3454057477  1.7727365883
H   2.5814457185  0.2671623141  1.5306517809
H   1.4092158562  1.0906029984 -1.7783295783
H   2.3017013894 -1.4742707014  1.3978314140
H   1.0241880060 -0.4238619252  2.0283121124
H   2.7633106830  1.2441070653 -0.6234052243
H   2.7017436709 -0.1070645725 -1.7720938331
22
Iteration 53  Energy = -72.4752597884
C  -0.8158731693 -1.5414954708  0.1465223995
C   1.3352371870 -0.2736019460 -0.1188555427
C  -0.6703035801  2.2778391205  0.7675781274
C   1.8203194482 -0.4846574429  1.2714982209
C   2.0874808248  0.5204385525 -1.1179788769
N   0.1683161131 -0.8642333908 -0.5521037677
N  -1.9393546218 -1.8396350367 -0.4818231978
O  -1.6313746477  1.7152777612 -0.1787749649
H  -2.0366536620  0.9331936980  0.2270598411
H  -0.0732534370 -0.6797862719 -1.5271371047
H  -0.6999698060 -1.8435947827  1.1853304858
H   0.2527370232  1.6973289290  0.8128110797
H  -2.6730701032 -2.3268600896  0.0169268639
H  -2.0696022440 -1.6230819433 -1.4626085505
H  -0.4306916775  3.2757786438  0.3942347890
H  -1.0804978162  2.3537484861  1.7798828695
H   2.5750748368  0.2740962105  1.5310450074
H   1.4141650310  1.0956891704 -1.7748711707
H   2.3021485904 -1.4686465612  1.4022068927
H   1.0185626478 -0.4210683591  2.0255355805
H   2.7813106012  1.2236392075 -0.6325458209
H   2.6870037793 -0.1217987957 -1.7878283615
22
Iteration 54  Energy = -72.4755154328
C  -0.8140118055 -1.5449718653  0.1432864636
C   1.3355329358 -0.2744762849 -0.1214872979
C  -0.6771680745  2.2858437095  0.7787107591
C   1.8166785960 -0.4777918152  1.2715353337
C   2.0907080055  0.5118048324 -1.1244747439
N   0.1691921926 -0.8660710071 -0.5549183856
N  -1.9392579500 -1.8396177875 -0.4835497070
O  -1.6265419431  1.7156600299 -0.1749594385
H  -2.0292434982  0.9309460973  0.2283872085
H  -0.0721939424 -0.6818159041 -1.5298208940
H  -0.6962918824 -1.8507804039  1.1809032155
H   0.2508348393  1.7139042351  0.8286275234
H  -2.6727951132 -2.3270199710  0.0152921831
H  -2.0718503565 -1.6187494134 -1.4630517556
H  -0.4446367602  3.2866830270  0.4085701961
H  -1.0947362999  2.3564148725  1.7884669471
H   2.5621436751  0.2899161205  1.5323195939
H   1.4200385501  1.0980697525 -1.7744939863
H   2.3098979767 -1.4557965793  1.4066816125
H   1.0111313561 -0.4212907202  2.0219398960
H   2.7981506387  1.2040333822 -0.6432748349
H   2.6743215463 -0.1373490623 -1.8017175064
22
Iteration 55  Energy = -72.4758901672
C  -0.8115872103 -1.5482905328  0.1405669162
C   1.3361640000 -0.2757705244 -0.1241721738
C  -0.6854865039  2.2971575929  0.7888178736
C   1.8128817942 -0.4748161368  1.2709782367
C   2.0932053339  0.5047484925 -1.1300544158
N   0.1704932392 -0.8685048076 -0.5578922350
N  -1.9385077872 -1.8405397853 -0.4844250919
O  -1.6217038633  1.7147434665 -0.1706544990
H  -2.0213978550  0.9285678879  0.2329012015
H  -0.0710221747 -0.6846711984 -1.5326332605
H  -0.6922287114 -1.8562219359  1.1773432353
H   0.2470284206  1.7338255921  0.8494039716
H  -2.6714205084 -2.3282765617  0.0150057610
H  -2.0735392924 -1.6164295510 -1.4628608595
H  -0.4591128077  3.2986423265  0.4164719262
H  -1.1126055861  2.3685220950  1.7946196503
H   2.5619075138  0.2900066968  1.5294974408
H   1.4249394579  1.1041684338 -1.7707738145
H   2.2996641967 -1.4551718173  1.4122511821
H   1.0056910102 -0.4101506956  2.0190382385
H   2.8152575535  1.1839645195 -0.6521636111
H   2.6595796251 -0.1495871117 -1.8170728395
22
Iteration 56  Energy = -72.4762999491
C  -0.8095617769 -1.5504644891  0.1386687626
C   1.3366337169 -0.2769224075 -0.1260537767
C  -0.6939824267  2.3120590422  0.7950837976
C   1.8096740206 -0.4746812634  1.2704385063
C   2.0950471228  0.4993121653 -1.1339613161
N   0.1724989590 -0.8721235213 -0.5605820064
N  -1.9372516520 -1.8421265019 -0.4852693102
O  -1.6172269658  1.7129286816 -0.1669245678
H  -2.0108217572  0.9249713538  0.2392941457
H  -0.0679445684 -0.6911386022 -1.5359886164
H  -0.6900875689 -1.8573804324  1.1756537491
H   0.2444722008  1.7595369412  0.8662505082
H  -2.6701702632 -2.3289140441  0.0150768122
H  -2.0736583513 -1.6168601136 -1.4632639360
H  -0.4768541352  3.3137303814  0.4174604713
H  -1.1292720197  2.3858211138  1.7972655145
H   2.5685667415  0.2814152802  1.5255631382
H   1.4291016091  1.1101219322 -1.7664499213
H   2.2814578905 -1.4616246352  1.4175303760
H   1.0020697584 -0.3950696492  2.0169697956
H   2.8286352685  1.1673342702 -0.6581233951
H   2.6472791724 -0.1581584593 -1.8295627669
22
Iteration 57  Energy = -72.4766427950
C  -0.8077956916 -1.5518527431  0.1365407389
C   1.3369506917 -0.2775319379 -0.1281427294
C  -0.7034725332  2.3257728554  0.8025858454
C   1.8068675423 -0.4727724943  1.2696853126
C   2.0983365425  0.4917938311 -1.1389068753
N   0.1749718008 -0.8762185917 -0.5636121490
N  -1.9358941884 -1.8431618223 -0.4868761369
O  -1.6136182762  1.7118477119 -0.1626690641
H  -1.9991593481  0.9201603788  0.2441710481
H  -0.0631353784 -0.7005068833 -1.5404840647
H  -0.6887453442 -1.8571843269  1.1740215532
H   0.2411579888  1.7839276376  0.8805021376
H  -2.6694349316 -2.3281497079  0.0143153726
H  -2.0731358157 -1.6170139618 -1.4645698336
H  -0.4971162804  3.3290347265  0.4229160598
H  -1.1457812032  2.3977729458  1.8018549666
H   2.5708761216  0.2787489981  1.5224891193
H   1.4360062814  1.1121996459 -1.7659640448
H   2.2698784371 -1.4630927454  1.4219626829
H   0.9983583294 -0.3836675704  2.0142305129
H   2.8419895353  1.1501500266 -0.6654080242
H   2.6381020396 -0.1701148892 -1.8402486713
22
Iteration 58  Energy = -72.4769175724
C  -0.8061644290 -1.5521741995  0.1348634515
C   1.3379063723 -0.2781102398 -0.1300235665
C  -0.7146522779  2.3382279259  0.8100299654
C   1.8057196776 -0.4710138910  1.2687924432
C   2.1036249236  0.4822130430 -1.1442506217
N   0.1776752706 -0.8795956423 -0.5660973422
N  -1.9342317127 -1.8434961681 -0.4886087637
O  -1.6131012717  1.7120426415 -0.1582694920
H  -1.9890473594  0.9152125336  0.2476432949
H  -0.0579512515 -0.7091099181 -1.5444808809
H  -0.6879672185 -1.8556325015  1.1729812638
H   0.2358902049  1.8064316176  0.8911374067
H  -2.6688283164 -2.3262137238  0.0132430360
H  -2.0717488089 -1.6166993259 -1.4661272998
H  -0.5197856557  3.3439742649  0.4307202925
H  -1.1619487542  2.4055772072  1.8074472944
H   2.5723763105  0.2782888774  1.5198831936
H   1.4460422342  1.1106093486 -1.7684688499
H   2.2639215413 -1.4630797391  1.4250140453
H   0.9963378961 -0.3759689124  2.0116760290
H   2.8562365205  1.1321468600 -0.6733758934
H   2.6324113251 -0.1853779143 -1.8487622025
22
Iteration 59  Energy = -72.4771606402
C  -0.8043236296 -1.5519000165  0.1336482047
C   1.3392204277 -0.2786665766 -0.1323047460
C  -0.7264401344  2.3492121833  0.8185941259
C   1.8044967480 -0.4692212186  1.2676021373
C   2.1085471248  0.4733665968 -1.1499117296
N   0.1807236254 -0.8831617914 -0.5686397951
N  -1.9323000865 -1.8436772644 -0.4897429762
O  -1.6123430634  1.7129658414 -0.1546410296
H  -1.9791428393  0.9105132896  0.2486109930
H  -0.0526467608 -0.7179650545 -1.5484939999
H  -0.6870301379 -1.8525547197  1.1726302384
H   0.2299997347  1.8277898460  0.9026071288
H  -2.6683040100 -2.3230085888  0.0133085467
H  -2.0699183558 -1.6171252797 -1.4673153365
H  -0.5431087912  3.3582390958  0.4422151340
H  -1.1792080565  2.4093178441  1.8140852531
H   2.5774884513  0.2743998828  1.5158107804
H   1.4549728531  1.1090535232 -1.7711295752
H   2.2523153040 -1.4653542857  1.4288876348
H   0.9949178813 -0.3634035924  2.0090082231
H   2.8697376300  1.1153750087 -0.6819311803
H   2.6268767443 -0.1992344100 -1.8576219525
22
Iteration 60  Energy = -72.4773993568
C  -0.8022297098 -1.5508594486  0.1327979723
C   1.3411776198 -0.2793494508 -0.1349068899
C  -0.7393061249  2.3588844245  0.8273354403
C   1.8036227309 -0.4683106934  1.2660719914
C   2.1138920027  0.4651412310 -1.1555589293
N   0.1835843599 -0.8855765904 -0.5710451821
N  -1.9300276649 -1.8438335599 -0.4902953237
O  -1.6117052121  1.7137320054 -0.1521748023
H  -1.9725497834  0.9073929411  0.2486325684
H  -0.0485460478 -0.7240261115 -1.5518031503
H  -0.6856166517 -1.8482482530  1.1727183365
H   0.2201240264  1.8440783201  0.9214227000
H  -2.6671921375 -2.3198503815  0.0142091914
H  -2.0677008130 -1.6183776543 -1.4681230582
H  -0.5608442242  3.3685709234  0.4505868237
H  -1.2017755104  2.4179468985  1.8184783444
H   2.5862637839  0.2661816726  1.5107494697
H   1.4644392488  1.1089148491 -1.7729661097
H   2.2358476512 -1.4705130275  1.4329367679
H   0.9947073374 -0.3476154319  2.0062343754
H   2.8844636486  1.0981817447 -0.6905660063
H   2.6210297043 -0.2120561931 -1.8671810097
22
Iteration 61  Energy = -72.4776493386
C  -0.7992890585 -1.5496427605  0.1328376154
C   1.3437530904 -0.2799586361 -0.1373807170
C  -0.7525585617  2.3674828698  0.8349140014
C   1.8034778473 -0.4691192564  1.2643514272
C   2.1185299145  0.4593016164 -1.1603645582
N   0.1857429920 -0.8858097141 -0.5727147953
N  -1.9270998478 -1.8445990781 -0.4891935887
O  -1.6110112288  1.7134092424 -0.1509817329
H  -1.9709859712  0.9065597542  0.2495265553
H  -0.0476081599 -0.7242882565 -1.5531431144
H  -0.6823562230 -1.8442767314  1.1734033369
H   0.2063355138  1.8544182513  0.9465878157
H  -2.6641350643 -2.3191559519  0.0168547694
H  -2.0654464374 -1.6208815933 -1.4673347758
H  -0.5708800028  3.3744530743  0.4525009863
H  -1.2289848809  2.4340378119  1.8190300546
H   2.5996282783  0.2519028088  1.5049544692
H   1.4731399122  1.1159451328 -1.7688029567
H   2.2141136739 -1.4795525776  1.4367882323
H   0.9965958501 -0.3292385839  2.0037684440
H   2.9018734535  1.0788057037 -0.6981810858
H   2.6098182487 -0.2206346921 -1.8806814133
22
Iteration 62  Energy = -72.4779081420
C  -0.7954463151 -1.5492045782  0.1318186453
C   1.3462443052 -0.2805052635 -0.1399971506
C  -0.7632559513  2.3757660782  0.8402278033
C   1.8021246591 -0.4723887729  1.2624359847
C   2.1211404985  0.4582966076 -1.1631428116
N   0.1874658833 -0.8848130839 -0.5751642399
N  -1.9232508190 -1.8468304859 -0.4887100130
O  -1.6102128313  1.7112488472 -0.1486450639
H  -1.9707673910  0.9060399770  0.2546818003
H  -0.0486050150 -0.7204132593 -1.5543912480
H  -0.6779190699 -1.8416035188  1.1728092396
H   0.1932468603  1.8618569087  0.9703330538
H  -2.6589807188 -2.3219115465  0.0187264925
H  -2.0629044150 -1.6246906367 -1.4670353266
H  -0.5750972040  3.3777509715  0.4479154294
H  -1.2526054360  2.4551703553  1.8170275282
H   2.6186133755  0.2270868519  1.4984032587
H   1.4790476316  1.1291639003 -1.7597532315
H   2.1806151172 -1.4944790809  1.4413169517
H   0.9991287751 -0.3052021230  2.0011082811
H   2.9164025854  1.0632981923 -0.7020388779
H   2.5967102597 -0.2206947374 -1.8949248052
22
Iteration 63  Energy = -72.4781450109
C  -0.7921745024 -1.5494491724  0.1308413872
C   1.3480116867 -0.2812761485 -0.1416915341
C  -0.7719743446  2.3839421501  0.8465296363
C   1.7996306986 -0.4754236160  1.2616569812
C   2.1229671664  0.4578446549 -1.1644339897
N   0.1884297014 -0.8836432450 -0.5771135737
N  -1.9197809187 -1.8498314027 -0.4883537026
O  -1.6089007956  1.7075253649 -0.1428159909
H  -1.9698686538  0.9047931532  0.2651347187
H  -0.0506759129 -0.7152403206 -1.5548524749
H  -0.6743887120 -1.8402672873  1.1721336118
H   0.1816191223  1.8689631681  0.9944983801
H  -2.6539230632 -2.3261584549  0.0201805717
H  -2.0609446707 -1.6286455351 -1.4666822583
H  -0.5770770816  3.3799455694  0.4424909207
H  -1.2727254860  2.4782354525  1.8161594009
H   2.6362625424  0.2012743680  1.4929432443
H   1.4844401631  1.1431008940 -1.7486564343
H   2.1466128806 -1.5074030368  1.4480635700
H   1.0014021002 -0.2803116105  1.9990410207
H   2.9299104482  1.0479635845 -0.7042679109
H   2.5827490251 -0.2193629564 -1.9079219257
22
Iteration 64  Energy = -72.4783380703
C  -0.7890641256 -1.5521584116  0.1316629443
C   1.3500188509 -0.2851035354 -0.1439887072
C  -0.7789468279  2.3887012698  0.8524326436
C   1.8001479441 -0.4813537697  1.2594770986
C   2.1237951765  0.4543035197 -1.1673204524
N   0.1886176506 -0.8847240699 -0.5781468163
N  -1.9169499139 -1.8554926224 -0.4851946053
O  -1.6077048568  1.7013765562 -0.1362330142
H  -1.9702839201  0.9019746099  0.2768588363
H  -0.0544039297 -0.7122440021 -1.5541038661
H  -0.6698874581 -1.8415527070  1.1731511496
H   0.1704677083  1.8708453306  1.0182822543
H  -2.6489107380 -2.3332343322  0.0251206834
H  -2.0604925462 -1.6354840153 -1.4634519635
H  -0.5750402684  3.3776706100  0.4357721328
H  -1.2902156355  2.4999849131  1.8147181784
H   2.6541240072  0.1749645539  1.4853442346
H   1.4882571560  1.1532954790 -1.7386091152
H   2.1207109487 -1.5206555418  1.4522731223
H   1.0081143741 -0.2619576601  1.9968529390
H   2.9425229741  1.0298250836 -0.7094304115
H   2.5671888469 -0.2210191870 -1.9224047684
22
Iteration 65  Energy = -72.4783998803
C  -0.7905743417 -1.5600928487  0.1298091492
C   1.3480924722 -0.2927048168 -0.1441301300
C  -0.7844311566  2.3822611702  0.8588777293
C   1.7974111584 -0.4918867418  1.2591700423
C   2.1216280541  0.4486724979 -1.1661645490
N   0.1862192414 -0.8906827228 -0.5791848005
N  -1.9183273932 -1.8635568734 -0.4870822260
O  -1.6100873958  1.6924518079 -0.1305686965
H  -1.9732424020  0.8935899139  0.2830381538
H  -0.0579737880 -0.7149933891 -1.5542364746
H  -0.6711612137 -1.8508642435  1.1708832296
H   0.1634408714  1.8634155319  1.0303903481
H  -2.6495478390 -2.3428190132  0.0228403074
H  -2.0624762862 -1.6422736276 -1.4649622388
H  -0.5773086135  3.3691968508  0.4393173127
H  -1.2994450129  2.4981951277  1.8184160501
H   2.6567357333  0.1571524261  1.4843916808
H   1.4873889249  1.1533392886 -1.7317438929
H   2.1094196096 -1.5333927791  1.4526114922
H   1.0076960961 -0.2657169195  1.9966799254
H   2.9442956441  1.0182142008 -0.7081333617
H   2.5593596459 -0.2244740019 -1.9262617673
22
Iteration 66  Energy = -72.4784417824
C  -0.7842935185 -1.5532360360  0.1320894466
C   1.3534702552 -0.2856681460 -0.1456609103
C  -0.7810486554  2.3916567347  0.8588402623
C   1.8038536735 -0.4837497366  1.2574297071
C   2.1255853339  0.4550648016 -1.1692263193
N   0.1909595747 -0.8837113401 -0.5787876465
N  -1.9125030460 -1.8584196593 -0.4830221109
O  -1.6049969083  1.6979666979 -0.1293213005
H  -1.9686238959  0.9005291717  0.2866308909
H  -0.0550970761 -0.7079749895 -1.5533351939
H  -0.6635580503 -1.8426983166  1.1733610442
H   0.1655944057  1.8721469114  1.0354811212
H  -2.6425519578 -2.3378679992  0.0283887443
H  -2.0581237179 -1.6383972442 -1.4609698374
H  -0.5713634603  3.3760794129  0.4346935941
H  -1.2985277866  2.5134753439  1.8163096340
H   2.6669442168  0.1611639441  1.4798708435
H   1.4914572458  1.1623274226 -1.7316884200
H   2.1105599972 -1.5263988635  1.4531316659
H   1.0163792661 -0.2516691359  1.9955246538
H   2.9513912226  1.0216371578 -0.7131848538
H   2.5587418195 -0.2181421560 -1.9318552583
22
Iteration 67  Energy = -72.4785942511
C  -0.7797528580 -1.5494628275  0.1319348892
C   1.3580312079 -0.2836264139 -0.1473160192
C  -0.7836230863  2.4038378747  0.8603416453
C   1.8072420274 -0.4832669762  1.2558473417
C   2.1298339346  0.4566828470 -1.1712843178
N   0.1931894712 -0.8776488486 -0.5795051879
N  -1.9079238031 -1.8567416298 -0.4818968420
O  -1.6015802079  1.6986304202 -0.1247177195
H  -1.9679833168  0.9060194784  0.2980977183
H  -0.0561397543 -0.6973226818 -1.5523539477
H  -0.6579561031 -1.8391163300  1.1730455737
H   0.1567402481  1.8792836450  1.0574075707
H  -2.6359267246 -2.3385247385  0.0302034248
H  -2.0551929299 -1.6370265632 -1.4596729517
H  -0.5610892718  3.3784877741  0.4199948153
H  -1.3115121530  2.5484675087  1.8092566036
H   2.6830174956  0.1461328410  1.4738095861
H   1.4998360330  1.1785292569 -1.7203043813
H   2.0943764188 -1.5307828696  1.4566361355
H   1.0251462061 -0.2329207782  1.9940375173
H   2.9683275036  1.0071955936 -0.7182071498
H   2.5452151892 -0.2147633281 -1.9455227898
22
Iteration 68  Energy = -72.4787562565
C  -0.7773870081 -1.5491693028  0.1306033933
C   1.3610002859 -0.2854569933 -0.1497763812
C  -0.7874369900  2.4143886271  0.8601948007
C   1.8098734397 -0.4875035389  1.2530423404
C   2.1325161858  0.4542954245 -1.1742334172
N   0.1930056935 -0.8739434779 -0.5807423544
N  -1.9058126154 -1.8573590657 -0.4820161753
O  -1.6002725966  1.6963586031 -0.1199319199
H  -1.9703679246  0.9099456600  0.3112623298
H  -0.0600398726 -0.6877127879 -1.5515214950
H  -0.6540484907 -1.8411038261  1.1709473340
H   0.1437720640  1.8827652357  1.0822357104
H  -2.6314329780 -2.3426392821  0.0301339651
H  -2.0549793476 -1.6365985033 -1.4592773986
H  -0.5472483687  3.3756746480  0.3998578020
H  -1.3269080721  2.5885173513  1.7978844176
H   2.6971888774  0.1270563364  1.4666297847
H   1.5078151580  1.1927408493 -1.7074372953
H   2.0791034304 -1.5390717352  1.4576901812
H   1.0337813735 -0.2208313110  1.9919016976
H   2.9856303583  0.9857619933 -0.7253815639
H   2.5268860522 -0.2147091904 -1.9615473861
22
Iteration 69  Energy = -72.4789037184
C  -0.7729065107 -1.5498268304  0.1285581636
C   1.3645996812 -0.2854755909 -0.1540457521
C  -0.7928139135  2.4237272322  0.8571793667
C   1.8147699494 -0.4889240121  1.2480677065
C   2.1343338576  0.4545056111 -1.1795846284
N   0.1941225228 -0.8702269939 -0.5829919910
N  -1.9016069692 -1.8596242953 -0.4825679951
O  -1.6005064331  1.6929397289 -0.1178924483
H  -1.9736545289  0.9123984771  0.3212924069
H  -0.0628648366 -0.6790998939 -1.5518016219
H  -0.6471340522 -1.8445808753  1.1678839766
H   0.1285536334  1.8859660605  1.1049066029
H  -2.6243335253 -2.3490909516  0.0296719699
H  -2.0531385002 -1.6376582067 -1.4592003307
H  -0.5345872887  3.3707632517  0.3774906320
H  -1.3438311206  2.6274305731  1.7823102494
H   2.7105217214  0.1147705774  1.4572757387
H   1.5134039978  1.2060937529 -1.6987641426
H   2.0712809817 -1.5431146240  1.4554497058
H   1.0441468179 -0.2103733055  1.9882343681
H   2.9993252027  0.9705007556 -0.7354856844
H   2.5107534060 -0.2116279023 -1.9779281173
22
Iteration 70  Energy = -72.4790663199
C  -0.7730823568 -1.5514811386  0.1269704403
C   1.3650050709 -0.2876212097 -0.1535538520
C  -0.8010457716  2.4325820359  0.8572630417
C   1.8151254829 -0.4945944886  1.2479982825
C   2.1345790924  0.4533448530 -1.1783900186
N   0.1918991590 -0.8669067533 -0.5823929110
N  -1.9018177358 -1.8603070876 -0.4844199412
O  -1.6032868282  1.6901784708 -0.1137700634
H  -1.9817135717  0.9164021354  0.3328493644
H  -0.0678480351 -0.6690724039 -1.5491665397
H  -0.6458468939 -1.8523547026  1.1644660727
H   0.1072174404  1.8865003631  1.1348634129
H  -2.6226150624 -2.3543697851  0.0260941980
H  -2.0544698635 -1.6350298832 -1.4601281847
H  -0.5195173045  3.3626303565  0.3575694877
H  -1.3655609361  2.6700356985  1.7665802152
H   2.7188677129  0.0981127800  1.4545965276
H   1.5183524000  1.2182761810 -1.6838076561
H   2.0589765277 -1.5515842282  1.4566754273
H   1.0493952641 -0.2055327743  1.9892108202
H   3.0102075013  0.9537570661 -0.7372566164
H   2.4944744371 -0.2089986443 -1.9873944623
22
Iteration 71  Energy = -72.4791329579
C  -0.7653445758 -1.5525740763  0.1269471378
C   1.3736424963 -0.2900398295 -0.1529377145
C  -0.7931821039  2.4352776238  0.8599414459
C   1.8241825840 -0.4992421729  1.2481348942
C   2.1432794534  0.4512722137 -1.1774739887
N   0.1990081026 -0.8662911995 -0.5815180808
N  -1.8946242277 -1.8597080235 -0.4842193654
O  -1.5943292462  1.6894036940 -0.1094034987
H  -1.9754475579  0.9185624651  0.3398831744
H  -0.0621570684 -0.6649952471 -1.5471925314
H  -0.6372082402 -1.8568893251  1.1633414015
H   0.1087316698  1.8854469447  1.1491312902
H  -2.6148162515 -2.3553253559  0.0256022956
H  -2.0480043787 -1.6323116758 -1.4593159143
H  -0.5013744780  3.3577222553  0.3531158548
H  -1.3619422531  2.6861230168  1.7624063485
H   2.7311135489  0.0888692889  1.4536715536
H   1.5292777124  1.2219040060 -1.6767597104
H   2.0629465142 -1.5573775233  1.4566451146
H   1.0608066335 -0.2062595197  1.9901839179
H   3.0234394799  0.9447810004 -0.7378650106
H   2.4959603802 -0.2092624734 -1.9909204657
22
Iteration 72  Energy = -72.4793017582
C  -0.7613156010 -1.5554349819  0.1258412886
C   1.3776010604 -0.2922326182 -0.1530422736
C  -0.7974562176  2.4428066733  0.8577374944
C   1.8291093061 -0.5041866067  1.2472687290
C   2.1462010611  0.4502265445 -1.1774916029
N   0.2005873704 -0.8640330378 -0.5807978980
N  -1.8910765787 -1.8611244588 -0.4849761410
O  -1.5942722886  1.6859026124 -0.1069904917
H  -1.9823262671  0.9230444899  0.3500919212
H  -0.0639878207 -0.6560176359 -1.5442055602
H  -0.6311176936 -1.8663123929  1.1601202290
H   0.0884384655  1.8835713545  1.1790821125
H  -2.6091370494 -2.3613321961  0.0233552548
H  -2.0460423495 -1.6302474189 -1.4590090644
H  -0.4787966254  3.3454530777  0.3307153904
H  -1.3789467353  2.7297367195  1.7421951928
H   2.7429115898  0.0745317724  1.4496247401
H   1.5359284244  1.2325866011 -1.6634878242
H   2.0571450731 -1.5645357514  1.4569434107
H   1.0706872175 -0.2018105020  1.9907388816
H   3.0359447164  0.9298739932 -0.7415327331
H   2.4835263588 -0.2063994257 -2.0006912356
22
Iteration 73  Energy = -72.4794645981
C  -0.7583530251 -1.5584268717  0.1245503732
C   1.3810280359 -0.2956576924 -0.1541714103
C  -0.7996847509  2.4500260240  0.8547262435
C   1.8344046934 -0.5109947455  1.2450195540
C   2.1483758687  0.4478929408 -1.1787326269
N   0.2010648591 -0.8621981939 -0.5804857249
N  -1.8892303240 -1.8614560885 -0.4853046339
O  -1.5941582826  1.6831182593 -0.1044685904
H  -1.9908913403  0.9297941151  0.3610016362
H  -0.0675894466 -0.6466542881 -1.5411887097
H  -0.6256619692 -1.8763653694  1.1564297181
H   0.0688126118  1.8818952055  1.2068876758
H  -2.6051542624 -2.3660540508  0.0216559423
H  -2.0462381293 -1.6264573731 -1.4580216836
H  -0.4539070481  3.3315822237  0.3095029455
H  -1.3911814111  2.7718646477  1.7203895835
H   2.7560537102  0.0567569592  1.4432724980
H   1.5422823825  1.2418369634 -1.6512567266
H   2.0500247323 -1.5737392361  1.4559024841
H   1.0822990374 -0.1975204048  1.9904513312
H   3.0474111491  0.9135279415 -0.7466726376
H   2.4700162291 -0.2044818778 -2.0115086277
22
Iteration 74  Energy = -72.4795994238
C  -0.7552868068 -1.5622245833  0.1247657723
C   1.3848300579 -0.3009777849 -0.1561754050
C  -0.7989175484  2.4558559380  0.8484111891
C   1.8406904793 -0.5182804823  1.2419086352
C   2.1506574895  0.4426396469 -1.1817665391
N   0.2018332094 -0.8627863790 -0.5799921499
N  -1.8877207451 -1.8627634568 -0.4832596016
O  -1.5928876906  1.6799088290 -0.1043981258
H  -1.9985350643  0.9366846533  0.3696014798
H  -0.0708429420 -0.6415071406 -1.5383218439
H  -0.6196150017 -1.8859446744  1.1544933398
H   0.0532048148  1.8806417141  1.2278320483
H  -2.6017142215 -2.3704936698  0.0232551618
H  -2.0470688159 -1.6246759656 -1.4548391751
H  -0.4289670513  3.3172863529  0.2873973580
H  -1.3976370403  2.8093031363  1.6964979096
H   2.7698801657  0.0389073777  1.4351569743
H   1.5484462019  1.2461837860 -1.6430068321
H   2.0443102541 -1.5829690198  1.4549085996
H   1.0953129510 -0.1933936164  1.9893002086
H   3.0579204544  0.8961996254 -0.7541530752
H   2.4581313195 -0.2065585465 -2.0222625185
22
Iteration 75  Energy = -72.4797333554
C  -0.7532954890 -1.5647219844  0.1264787184
C   1.3873244674 -0.3044330247 -0.1559950440
C  -0.8023338159  2.4632282313  0.8437245757
C   1.8458890965 -0.5244946250  1.2407715519
C   2.1509761979  0.4407360711 -1.1819668903
N   0.2010578772 -0.8608801828 -0.5773649091
N  -1.8871208887 -1.8627812556 -0.4799510466
O  -1.5956831084  1.6777977848 -0.1023898611
H  -2.0126891056  0.9467119366  0.3807148666
H  -0.0759481975 -0.6330548130 -1.5330039100
H  -0.6145167499 -1.8951188332  1.1537668065
H   0.0318983745  1.8815188241  1.2522324561
H  -2.5988235790 -2.3747423172  0.0255117061
H  -2.0489969594 -1.6206178391 -1.4501057146
H  -0.4068601287  3.3028793729  0.2672310374
H  -1.4083036617  2.8494898892  1.6722339422
H   2.7836296476  0.0203006109  1.4284940395
H   1.5529745071  1.2549738819 -1.6300449483
H   2.0355856153 -1.5913400908  1.4559275288
H   1.1084291350 -0.1867047678  1.9904155959
H   3.0671341660  0.8807916671 -0.7591472249
H   2.4429570530 -0.2038804952 -2.0314793219
22
Iteration 76  Energy = -72.4798426108
C  -0.7509195695 -1.5670480270  0.1290458934
C   1.3905433135 -0.3084712693 -0.1549467318
C  -0.8067494641  2.4691093536  0.8400576421
C   1.8520026818 -0.5322488786  1.2402501878
C   2.1511988403  0.4401601631 -1.1803787418
N   0.2006111894 -0.8586638492 -0.5737560928
N  -1.8858020526 -1.8632371143 -0.4761100507
O  -1.6004251343  1.6755193951 -0.0996491337
H  -2.0309919182  0.9581029073  0.3921202194
H  -0.0807065708 -0.6240576309 -1.5265329232
H  -0.6090216647 -1.9034009063  1.1540231227
H   0.0113980497  1.8826371857  1.2734801809
H  -2.5952062255 -2.3796164642  0.0280635888
H  -2.0500939599 -1.6167981662 -1.4447704476
H  -0.3891606818  3.2888779032  0.2509489902
H  -1.4177469339  2.8837401703  1.6506543702
H   2.7978713216  0.0002055338  1.4226521796
H   1.5572866408  1.2653059868 -1.6139752606
H   2.0278973640 -1.6011257591  1.4569029548
H   1.1226781789 -0.1822852206  1.9923199262
H   3.0759129663  0.8664712743 -0.7621387378
H   2.4276494833 -0.1982612578 -2.0396715181
22
Iteration 77  Energy = -72.4799287991
C  -0.7495160525 -1.5672664491  0.1309993028
C   1.3941537914 -0.3127417085 -0.1536347432
C  -0.8119132004  2.4740613542  0.8357377961
C   1.8582740490 -0.5422381125  1.2396980267
C   2.1521401906  0.4405464090 -1.1773388185
N   0.2000469669 -0.8550534663 -0.5702977265
N  -1.8848137977 -1.8620778766 -0.4738566311
O  -1.6074015721  1.6753028148 -0.0987292239
H  -2.0533766417  0.9724563494  0.4003358078
H  -0.0850106234 -0.6132650521 -1.5201621609
H  -0.6052454128 -1.9090431978  1.1538827870
H  -0.0072627861  1.8833609843  1.2882382095
H  -2.5926026408 -2.3822043215  0.0286892068
H  -2.0506000351 -1.6116100666 -1.4412003880
H  -0.3761932977  3.2772690899  0.2373065374
H  -1.4254811690  2.9116585067  1.6318136805
H   2.8111897349 -0.0211618135  1.4180447164
H   1.5622762140  1.2759629379 -1.5967018428
H   2.0216969029 -1.6130927047  1.4560885781
H   1.1365592250 -0.1825342030  1.9944916613
H   3.0842699582  0.8538431800 -0.7626234695
H   2.4146309062 -0.1907754040 -2.0461120122
22
Iteration 78  Energy = -72.4799994306
C  -0.7458662077 -1.5658420153  0.1303164833
C   1.4002874284 -0.3156109119 -0.1538798216
C  -0.8168876903  2.4776300888  0.8294065015
C   1.8669975965 -0.5523552146  1.2373214005
C   2.1559697169  0.4429844094 -1.1750853171
N   0.2022032204 -0.8499558845 -0.5689934143
N  -1.8807002234 -1.8606311245 -0.4752717359
O  -1.6147342287  1.6758480977 -0.1009748668
H  -2.0744400873  0.9862112160  0.4038188831
H  -0.0857953079 -0.6013267903 -1.5161510325
H  -0.6002770578 -1.9115859300  1.1516594173
H  -0.0228874500  1.8834601237  1.2959222984
H  -2.5873625355 -2.3839316508  0.0255249948
H  -2.0470912338 -1.6069712019 -1.4416451369
H  -0.3671483418  3.2678184567  0.2242947956
H  -1.4314257064  2.9328965498  1.6144789164
H   2.8251031557 -0.0401986030  1.4131833746
H   1.5693913353  1.2870279610 -1.5816277658
H   2.0210852869 -1.6249999737  1.4513592113
H   1.1514516334 -0.1867775999  1.9951158582
H   3.0939421505  0.8453152529 -0.7628960242
H   2.4072433437 -0.1811268287 -2.0522374795
22
Iteration 79  Energy = -72.4800598101
C  -0.7466842864 -1.5629182931  0.1345759309
C   1.4021731676 -0.3183047579 -0.1518024036
C  -0.8245148946  2.4823407264  0.8229639815
C   1.8729846078 -0.5626677718  1.2366526042
C   2.1558336037  0.4437898315 -1.1717196024
N   0.2000153413 -0.8449799180 -0.5642857246
N  -1.8811360894 -1.8587552021 -0.4711183544
O  -1.6255056230  1.6774620196 -0.1022673569
H  -2.0936268225  0.9978823148  0.4080502644
H  -0.0908848777 -0.5911320498 -1.5091058884
H  -0.6002521341 -1.9096029802  1.1554253651
H  -0.0387036129  1.8860317683  1.3005175134
H  -2.5869229240 -2.3836889250  0.0291778038
H  -2.0479570496 -1.6042422336 -1.4371640671
H  -0.3641263267  3.2612106963  0.2113695745
H  -1.4386274795  2.9526466394  1.5993337765
H   2.8351520799 -0.0574316638  1.4099602171
H   1.5721022723  1.2947203321 -1.5678380228
H   2.0204792219 -1.6369354160  1.4470802894
H   1.1632450004 -0.1940500303  1.9983740784
H   3.0988793521  0.8370397603 -0.7624185151
H   2.3973617826 -0.1748009507 -2.0554274379
22
Iteration 80  Energy = -72.4801135735
C  -0.7483899770 -1.5589666447  0.1367639220
C   1.4042996609 -0.3216794597 -0.1505663352
C  -0.8307027147  2.4866292010  0.8167124514
C   1.8794191455 -0.5766068983  1.2344564023
C   2.1567938134  0.4442149461 -1.1683535113
N   0.1978118032 -0.8394825504 -0.5610577508
N  -1.8823444458 -1.8550992828 -0.4696830104
O  -1.6349401548  1.6797301653 -0.1040216908
H  -2.1056783898  1.0052963077  0.4104441735
H  -0.0953616340 -0.5797897331 -1.5035224808
H  -0.6020049578 -1.9064923409  1.1573009826
H  -0.0511943276  1.8886905550  1.3025109571
H  -2.5878207252 -2.3813644644  0.0296551662
H  -2.0486433912 -1.6002735541 -1.4357257420
H  -0.3622310949  3.2565186341  0.2000506192
H  -1.4438526991  2.9686620586  1.5865435575
H   2.8457233738 -0.0788288476  1.4061853052
H   1.5760939795  1.3018065963 -1.5544629715
H   2.0202525977 -1.6529351955  1.4389813351
H   1.1755565069 -0.2065812569  2.0009142518
H   3.1043393534  0.8285918881 -0.7610367292
H   2.3897490827 -0.1685368177 -2.0584035791
22
Iteration 81  Energy = -72.4801372365
C  -0.7413262237 -1.5577606281  0.1393500730
C   1.4119527260 -0.3233691563 -0.1542882089
C  -0.8272372928  2.4892329181  0.8058980829
C   1.8913462469 -0.5805493060  1.2287541383
C   2.1620572817  0.4426483760 -1.1736633998
N   0.2030576745 -0.8383060054 -0.5609021059
N  -1.8756847191 -1.8562484075 -0.4651403723
O  -1.6340042094  1.6786152356 -0.1093514028
H  -2.1041970979  1.0071734828  0.4094447869
H  -0.0929648442 -0.5775368349 -1.5021143044
H  -0.5932259007 -1.9033790728  1.1602706042
H  -0.0495999983  1.8922518839  1.2958587656
H  -2.5798660626 -2.3826008338  0.0359443765
H  -2.0432760431 -1.6036859203 -1.4315545998
H  -0.3564034566  3.2534851716  0.1841795811
H  -1.4389031127  2.9783901210  1.5723346718
H   2.8598830397 -0.0860197839  1.3971413522
H   1.5818852924  1.3022846030 -1.5558484799
H   2.0293499413 -1.6573916948  1.4323291078
H   1.1914985890 -0.2084082424  1.9978314867
H   3.1121091009  0.8240788547 -0.7695149383
H   2.3899517817 -0.1689023997 -2.0657887024
22
Iteration 82  Energy = -72.4801669792
C  -0.7371968269 -1.5539097796  0.1419429200
C   1.4175003662 -0.3240628183 -0.1588811619
C  -0.8273542825  2.4931949881  0.7943392400
C   1.9029071164 -0.5867373100  1.2209457735
C   2.1644097436  0.4435068961 -1.1793657263
N   0.2050136608 -0.8339843813 -0.5607112923
N  -1.8720146643 -1.8548289252 -0.4604966667
O  -1.6379956946  1.6786842624 -0.1139817739
H  -2.1073348332  1.0107810820  0.4100889628
H  -0.0949432045 -0.5702592566 -1.4998034598
H  -0.5871398616 -1.8978244094  1.1631430439
H  -0.0516945886  1.8970339926  1.2885466254
H  -2.5745588825 -2.3818980806  0.0421468970
H  -2.0408657809 -1.6047451954 -1.4273332602
H  -0.3540273659  3.2508543531  0.1665118313
H  -1.4366079015  2.9907149156  1.5573307928
H   2.8751101538 -0.0979849968  1.3851836400
H   1.5850701357  1.3066164054 -1.5549757590
H   2.0358766534 -1.6647457227  1.4217776181
H   1.2092366483 -0.2118422470  1.9942904179
H   3.1179500464  0.8201725392 -0.7789532508
H   2.3852894525 -0.1652000766 -2.0752221264
22
Iteration 83  Energy = -72.4801977352
C  -0.7376854312 -1.5485931416  0.1449300463
C   1.4209516698 -0.3267692835 -0.1590652975
C  -0.8295258459  2.4953504948  0.7847020069
C   1.9112947782 -0.5998176994  1.2168898899
C   2.1665969835  0.4437488314 -1.1781771400
N   0.2039572407 -0.8279903409 -0.5577812215
N  -1.8719173071 -1.8510130107 -0.4579316290
O  -1.6449993177  1.6785029124 -0.1170820027
H  -2.1155100561  1.0155482419  0.4121489828
H  -0.0993726020 -0.5576783279 -1.4938507645
H  -0.5879049005 -1.8915417884  1.1664911445
H  -0.0590670551  1.8981411869  1.2858852248
H  -2.5738847067 -2.3792455538  0.0443232182
H  -2.0396964131 -1.6031854429 -1.4255324260
H  -0.3497173928  3.2436895649  0.1506831539
H  -1.4362476497  3.0045486802  1.5420701685
H   2.8896825908 -0.1221884073  1.3776737547
H   1.5900317220  1.3124571616 -1.5450852874
H   2.0337484730 -1.6799647256  1.4130828272
H   1.2258117232 -0.2199537269  1.9951361978
H   3.1241070996  0.8126907321 -0.7800236514
H   2.3796892891 -0.1599790235 -2.0793085263
22
Iteration 84  Energy = -72.4802031592
C  -0.7422526804 -1.5447167234  0.1461259842
C   1.4214473270 -0.3323511152 -0.1597935386
C  -0.8219529085  2.5003743549  0.7732718857
C   1.9108299409 -0.6059403084  1.2162987120
C   2.1700849480  0.4340092799 -1.1798131820
N   0.2021941707 -0.8287065435 -0.5575561194
N  -1.8768580658 -1.8451833237 -0.4570430148
O  -1.6401700259  1.6834652538 -0.1259137725
H  -2.1134005187  1.0242633794  0.4055457386
H  -0.1002547959 -0.5580746767 -1.4937693021
H  -0.5944979369 -1.8854757315  1.1687230393
H  -0.0548762757  1.9018202412  1.2779859397
H  -2.5808555296 -2.3701535069  0.0458109714
H  -2.0427487852 -1.5996811300 -1.4255644504
H  -0.3379818262  3.2437042543  0.1366523764
H  -1.4271621549  3.0156002942  1.5276889300
H   2.8922655210 -0.1341964177  1.3757437863
H   1.5972551159  1.3048933739 -1.5472831921
H   2.0266854723 -1.6864274404  1.4143836661
H   1.2280717169 -0.2204454447  1.9941296700
H   3.1293087448  0.7991143499 -0.7823213174
H   2.3802322282 -0.1713753786 -2.0804723293
22
Iteration 85  Energy = -72.4802109675
C  -0.7470148502 -1.5418498002  0.1444300737
C   1.4218489363 -0.3394087602 -0.1638978511
C  -0.8128838299  2.5013674931  0.7700314321
C   1.9134022005 -0.6193796716  1.2100829504
C   2.1715690612  0.4262778824 -1.1835820623
N   0.1989355962 -0.8282105753 -0.5596517085
N  -1.8828950585 -1.8388004245 -0.4581205865
O  -1.6364832757  1.6869556214 -0.1264670583
H  -2.1121266983  1.0310869291  0.4069364391
H  -0.1048723809 -0.5531978043 -1.4941278116
H  -0.5996148967 -1.8833535867  1.1668297583
H  -0.0497078787  1.8995127017  1.2767541369
H  -2.5879801500 -2.3621819328  0.0448673582
H  -2.0483969605 -1.5930149822 -1.4266310864
H  -0.3241231408  3.2394807979  0.1310522200
H  -1.4147308219  3.0229826333  1.5227624789
H   2.8992584217 -0.1560747110  1.3672885596
H   1.6023714047  1.3014026813 -1.5466140620
H   2.0209630605 -1.7011294606  1.4059502431
H   1.2362460536 -0.2294914045  1.9906375953
H   3.1338518539  0.7849913000 -0.7876296981
H   2.3758972719 -0.1772590671 -2.0868356062
22
Iteration 86  Energy = -72.4802262262
C  -0.7488931309 -1.5373587329  0.1457619112
C   1.4238187408 -0.3422304402 -0.1634271950
C  -0.8119692109  2.4990305877  0.7604294445
C   1.9191229643 -0.6332518538  1.2068120939
C   2.1736458828  0.4258973662 -1.1811641183
N   0.1969274002 -0.8223138741 -0.5571884613
N  -1.8834270907 -1.8360946760 -0.4585020420
O  -1.6423154709  1.6836302684 -0.1289922052
H  -2.1224554343  1.0358743061  0.4103183579
H  -0.1102314337 -0.5386259900 -1.4879098791
H  -0.6026583536 -1.8783732393  1.1685087057
H  -0.0594589347  1.8941515387  1.2795807078
H  -2.5882107550 -2.3611552187  0.0431933838
H  -2.0469911761 -1.5921676642 -1.4278122750
H  -0.3101523855  3.2216837531  0.1138273812
H  -1.4106734850  3.0391726833  1.5028310420
H   2.9111088615 -0.1819743881  1.3610602870
H   1.6075780238  1.3059702749 -1.5369487902
H   2.0152401316 -1.7169445604  1.3979201444
H   1.2501622781 -0.2384411499  1.9919866857
H   3.1389942064  0.7775103000 -0.7863419589
H   2.3718413602 -0.1730371051 -2.0888555101
22
Iteration 87  Energy = -72.4802338556
C  -0.7499836952 -1.5364384461  0.1463805375
C   1.4243959601 -0.3440758443 -0.1622654579
C  -0.8084846819  2.4950747681  0.7503021843
C   1.9235419349 -0.6459525247  1.2041314311
C   2.1734012856  0.4279751032 -1.1776836088
N   0.1946586934 -0.8177945153 -0.5546593624
N  -1.8834822132 -1.8362365793 -0.4593339970
O  -1.6477743564  1.6776312193 -0.1290359947
H  -2.1323555232  1.0399699025  0.4183149950
H  -0.1167374379 -0.5240095704 -1.4807871076
H  -0.6036447092 -1.8795360715  1.1684399360
H  -0.0688885269  1.8875810848  1.2848437439
H  -2.5874428483 -2.3640369446  0.0406559329
H  -2.0461173793 -1.5918870535 -1.4286873383
H  -0.2912057232  3.1974873783  0.0936634751
H  -1.4024470734  3.0585232641  1.4793099329
H   2.9189942370 -0.2019266335  1.3568347240
H   1.6094498793  1.3125193542 -1.5254721233
H   2.0134040182 -1.7312348894  1.3889061701
H   1.2602217167 -0.2510750302  1.9939874232
H   3.1414475525  0.7733611713 -0.7840554283
H   2.3659249243 -0.1654995144 -2.0901368056
22
Iteration 88  Energy = -72.4802352265
C  -0.7509339392 -1.5353343366  0.1471910206
C   1.4240815643 -0.3442366445 -0.1618073094
C  -0.8012427669  2.4997502172  0.7420346940
C   1.9255990335 -0.6517343316  1.2023760234
C   2.1717284404  0.4311486410 -1.1757138050
N   0.1932052578 -0.8156110217 -0.5534436615
N  -1.8851712823 -1.8333620838 -0.4579624293
O  -1.6472122763  1.6785023652 -0.1276101927
H  -2.1313936156  1.0467561635  0.4268247671
H  -0.1205349295 -0.5168818111 -1.4771609109
H  -0.6035068845 -1.8808201273  1.1682752241
H  -0.0648499556  1.8932168769  1.2816787717
H  -2.5890573597 -2.3614096417  0.0418465151
H  -2.0484846678 -1.5873229686 -1.4267693427
H  -0.2806673546  3.1921214918  0.0778397879
H  -1.3904911197  3.0741233697  1.4659421479
H   2.9222343452 -0.2102120669  1.3544528814
H   1.6086319283  1.3182865682 -1.5180957388
H   2.0136052441 -1.7377859754  1.3832984399
H   1.2647327334 -0.2582091376  1.9949159730
H   3.1414023435  0.7730430299 -0.7831014905
H   2.3607816642 -0.1585139489 -2.0913091988
22
Iteration 89  Energy = -72.4802353458
C  -0.7508981893 -1.5352392011  0.1471874879
C   1.4240841006 -0.3440516995 -0.1616886851
C  -0.8011249748  2.4997434756  0.7421134068
C   1.9256368146 -0.6517482251  1.2024197446
C   2.1716558007  0.4315934422 -1.1754423254
N   0.1933215564 -0.8156165380 -0.5534482078
N  -1.8849958138 -1.8334790739 -0.4581129143
O  -1.6470123651  1.6785595837 -0.1276139129
H  -2.1313644866  1.0469682970  0.4267726396
H  -0.1203049887 -0.5170543812 -1.4772429884
H  -0.6036609397 -1.8804328681  1.1683949629
H  -0.0651614216  1.8931725119  1.2822564423
H  -2.5889644986 -2.3614129195  0.0416981966
H  -2.0481403424 -1.5876427026 -1.4269960472
H  -0.2800705899  3.1916832718  0.0779639462
H  -1.3904689937  3.0745108227  1.4655125923
H   2.9222354154 -0.2101759837  1.3545605665
H   1.6083907064  1.3185719558 -1.5178951660
H   2.0137202887 -1.7378201121  1.3831295262
H   1.2647697282 -0.2584505096  1.9950607080
H   3.1411797123  0.7737347733 -0.7826888385
H   2.3610166350 -0.1579773941 -2.0910176376
22
Iteration 1  Energy = -72.4165070728
C  -0.8698306399 -1.1412076272  0.1598013944
C   1.2138373305  0.0865927847  0.0352143363
C  -0.8071840251  1.8063777128  0.7738801469
C   1.9318421680 -0.5236976709  1.2377103486
C   2.1785470333  0.5244322347 -1.0565264977
N   0.2414787629 -0.8985110468 -0.5597433098
N  -2.0083126536 -1.6001660153 -0.4233133269
O  -1.6068259947  1.4915977783 -0.2776661322
H  -2.0538715942  0.6295810896 -0.1756953281
H   0.0169960834 -0.6803203096 -1.5297348573
H  -0.8941425134 -0.8714645314  1.2092112282
H   0.5746315843  1.0032822239  0.4039345415
H  -2.6894403117 -1.9473020324  0.2498150159
H  -1.8853845307 -2.2485392848 -1.2023830615
H  -0.4112924038  2.8161028708  0.7226327704
H  -1.0196141177  1.4053851171  1.7698787951
H   2.6104073080  0.2077324640  1.6816890213
H   1.6506935208  1.0090741348 -1.8820000306
H   2.5197161291 -1.3952647887  0.9344607237
H   1.2274224593 -0.8354199273  2.0111258400
H   2.9130253766  1.2292557701 -0.6633752751
H   2.7118770400 -0.3454312883 -1.4511393336
22
Iteration 2  Energy = -72.4210239724
C  -0.8709811882 -1.1653969727  0.1674450257
C   1.2211355082  0.0848640051  0.0343630048
C  -0.8144399429  1.8065731247  0.7757699000
C   1.9411610587 -0.5291721398  1.2399553463
C   2.1802094743  0.5379147439 -1.0603294254
N   0.2358520483 -0.8934372330 -0.5595600047
N  -2.0074422206 -1.6077402834 -0.4299257220
O  -1.6084693803  1.5095704511 -0.2760222136
H  -2.1101449387  0.6753648030 -0.1806566585
H   0.0119439131 -0.7090912620 -1.5349354415
H  -0.8869372173 -0.9508503742  1.2332578325
H   0.5798295634  0.9974672522  0.4091212190
H  -2.7172993488 -1.9252443599  0.2261696658
H  -1.8911206119 -2.2392329843 -1.2226859611
H  -0.3930814942  2.8056080981  0.7397014815
H  -1.0181273469  1.3744656123  1.7604859087
H   2.6195048372  0.2034836303  1.6813612020
H   1.6435087728  1.0259018248 -1.8774113925
H   2.5332683171 -1.3967487277  0.9347641442
H   1.2448810947 -0.8441576468  2.0188564825
H   2.9115189933  1.2435924143 -0.6639364529
H   2.7178292909 -0.3233074712 -1.4673356407
22
Iteration 3  Energy = -72.4235359506
C  -0.8688542487 -1.1927340487  0.1710179624
C   1.2261576030  0.0847028187  0.0371211781
C  -0.8219032790  1.8060963437  0.7785302833
C   1.9502002659 -0.5401576132  1.2383199988
C   2.1790047682  0.5587499740 -1.0576886210
N   0.2291874069 -0.8835120176 -0.5591978248
N  -2.0058944443 -1.6155010447 -0.4354268617
O  -1.6089751178  1.5218198018 -0.2779151988
H  -2.1324766554  0.7019581932 -0.1789236548
H   0.0003417963 -0.7007577506 -1.5322553233
H  -0.8773854661 -1.0301407454  1.2484711567
H   0.5877762979  0.9881569192  0.4202685121
H  -2.7347348187 -1.9209932968  0.2027974632
H  -1.9022385691 -2.2132015531 -1.2561753371
H  -0.3782832356  2.7951426127  0.7530627798
H  -1.0214505887  1.3540088612  1.7537096686
H   2.6297082764  0.1904335002  1.6815745280
H   1.6343427098  1.0568495735 -1.8633009911
H   2.5429086413 -1.4046399632  0.9258351453
H   1.2582676590 -0.8597566800  2.0190023146
H   2.9077892852  1.2630741936 -0.6540126061
H   2.7205379613 -0.2914398829 -1.4821761872
22
Iteration 4  Energy = -72.4257601575
C  -0.8678217634 -1.2224570683  0.1740904194
C   1.2315544087  0.0848687524  0.0373287738
C  -0.8269880535  1.8073728476  0.7843238459
C   1.9604569387 -0.5444894364  1.2358542565
C   2.1776020459  0.5711085512 -1.0610602844
N   0.2228443826 -0.8773001092 -0.5530519258
N  -2.0043801886 -1.6260158769 -0.4414354043
O  -1.6121525040  1.5412131471 -0.2766932241
H  -2.1558205656  0.7348799299 -0.1763413029
H  -0.0034229976 -0.7106265324 -1.5292194331
H  -0.8734605822 -1.0986574298  1.2582156422
H   0.5983066944  0.9821128396  0.4244253193
H  -2.7526570207 -1.9233317270  0.1758462632
H  -1.9159018028 -2.1712864353 -1.2999284675
H  -0.3625237634  2.7863363452  0.7704696507
H  -1.0173616730  1.3304150845  1.7481319368
H   2.6431279995  0.1846844204  1.6768358417
H   1.6250109487  1.0746126356 -1.8577524301
H   2.5500482298 -1.4101748695  0.9213411288
H   1.2698015049 -0.8613324358  2.0186818541
H   2.9049513501  1.2758136939 -0.6553256365
H   2.7210744405 -0.2713788607 -1.4973991141
22
Iteration 5  Energy = -72.4276008085
C  -0.8686721310 -1.2469532426  0.1771140852
C   1.2374382644  0.0854516520  0.0379871054
C  -0.8376011827  1.8121479278  0.7911715614
C   1.9714383728 -0.5448949165  1.2345028753
C   2.1781144475  0.5719803834 -1.0667419245
N   0.2180664647 -0.8748515333 -0.5421743588
N  -2.0018542591 -1.6352395331 -0.4463636387
O  -1.6145813214  1.5639649660 -0.2796508173
H  -2.1686009175  0.7627211577 -0.1891549685
H  -0.0005522396 -0.7332673850 -1.5244256548
H  -0.8789557130 -1.1754595757  1.2677598432
H   0.6106866029  0.9789660510  0.4248313046
H  -2.7667127857 -1.9293182517  0.1502067553
H  -1.9276812818 -2.1154335164 -1.3442340943
H  -0.3575495681  2.7830814170  0.7941653437
H  -1.0243944792  1.3086243476  1.7407422535
H   2.6589768686  0.1825907315  1.6708902471
H   1.6204664808  1.0759413236 -1.8595228860
H   2.5555399160 -1.4141403836  0.9200247357
H   1.2822153327 -0.8556711511  2.0207691830
H   2.9063775573  1.2775896873 -0.6642581587
H   2.7207399002 -0.2686229102 -1.5072293214
22
Iteration 6  Energy = -72.4292082266
C  -0.8717087339 -1.2712087279  0.1785839779
C   1.2386896032  0.0854738416  0.0387064933
C  -0.8274722563  1.8287179374  0.7837042022
C   1.9739840354 -0.5342564421  1.2398272729
C   2.1769279321  0.5653551091 -1.0716075723
N   0.2147281848 -0.8792348913 -0.5309977410
N  -1.9985056021 -1.6487439591 -0.4527117836
O  -1.6213341975  1.5802608876 -0.2766457514
H  -2.1738284877  0.7804077615 -0.1715091601
H   0.0004931152 -0.7507388374 -1.5163413465
H  -0.8925763553 -1.2452039153  1.2715203062
H   0.6097310786  0.9831143358  0.4189438468
H  -2.7781578447 -1.9384222857  0.1253928686
H  -1.9374429989 -2.0641262489 -1.3821618470
H  -0.3431546726  2.7977811901  0.7774202997
H  -1.0065687814  1.3318484595  1.7371270571
H   2.6650237800  0.1957367241  1.6664738180
H   1.6162579427  1.0629624059 -1.8662726350
H   2.5533424233 -1.4098552647  0.9346907558
H   1.2842351951 -0.8316220907  2.0306020955
H   2.9037315644  1.2757844680 -0.6750156025
H   2.7208885744 -0.2766317970 -1.5076495983
22
Iteration 7  Energy = -72.4305440859
C  -0.8766330438 -1.2911056533  0.1777643035
C   1.2386282489  0.0854895222  0.0408096861
C  -0.8188969775  1.8435906417  0.7807606849
C   1.9788200931 -0.5246958113  1.2435283216
C   2.1742603702  0.5579861555 -1.0760299851
N   0.2118169423 -0.8826715863 -0.5215598182
N  -1.9926843313 -1.6649073630 -0.4620991957
O  -1.6268362535  1.5938675326 -0.2706562613
H  -2.1932646953  0.8077508063 -0.1412825504
H   0.0017583970 -0.7589513637 -1.5091445639
H  -0.9132627508 -1.2812820003  1.2690702092
H   0.6100500509  0.9851830027  0.4159383597
H  -2.7862299086 -1.9563501016  0.0944359872
H  -1.9502608911 -1.9815401355 -1.4324473830
H  -0.3270998753  2.8091079276  0.7646839812
H  -0.9906054805  1.3505946264  1.7367996813
H   2.6762975319  0.2066639536  1.6572519314
H   1.6106349534  1.0501301316 -1.8720177388
H   2.5510358395 -1.4073377035  0.9456699577
H   1.2923021565 -0.8076049030  2.0420850328
H   2.9020662839  1.2714421038 -0.6868392886
H   2.7168318616 -0.2868090228 -1.5083710681
22
Iteration 8  Energy = -72.4314861969
C  -0.8817813687 -1.3029960152  0.1772251888
C   1.2405474609  0.0850956016  0.0457054873
C  -0.8273083753  1.8525143991  0.7893705565
C   1.9934272678 -0.5236187489  1.2417206275
C   2.1691029873  0.5535146195 -1.0804727268
N   0.2110095795 -0.8851610691 -0.5119654537
N  -1.9883596108 -1.6785866307 -0.4707892686
O  -1.6257758616  1.6087980883 -0.2739282501
H  -2.2499914249  0.8705560039 -0.1117734107
H   0.0112270913 -0.7745129071 -1.5047927807
H  -0.9248088768 -1.3085453058  1.2676554905
H   0.6184915191  0.9800014075  0.4226340408
H  -2.7912593307 -1.9747353775  0.0683980094
H  -1.9646404477 -1.8938561924 -1.4679841698
H  -0.3129647155  2.8063568314  0.7769049135
H  -1.0040267231  1.3499162316  1.7382888810
H   2.7011765172  0.2053330499  1.6421653669
H   1.6001662461  1.0441667105 -1.8735722376
H   2.5552934667 -1.4122468724  0.9422316002
H   1.3140543298 -0.7959679012  2.0499811650
H   2.9019159228  1.2666807415 -0.7002324376
H   2.7059915430 -0.2939681334 -1.5147333528
22
Iteration 9  Energy = -72.4320473150
C  -0.8841720519 -1.3175728484  0.1784792299
C   1.2423560225  0.0837038096  0.0512383779
C  -0.8418992679  1.8562960519  0.8013408591
C   2.0069100623 -0.5238993387  1.2403587793
C   2.1645655397  0.5461155966 -1.0840421652
N   0.2098288822 -0.8885048086 -0.5031777372
N  -1.9869201297 -1.6841135413 -0.4786931693
O  -1.6200005706  1.6310489769 -0.2821835003
H  -2.2713983681  0.9156599921 -0.1350372882
H   0.0071226263 -0.7716921151 -1.4954123107
H  -0.9220195355 -1.3548672202  1.2690761079
H   0.6266064724  0.9745342186  0.4296109094
H  -2.7951270600 -1.9874854586  0.0480234859
H  -1.9804546535 -1.8171624165 -1.4881197837
H  -0.3047053489  2.7965913170  0.8061250538
H  -1.0288341816  1.3337229573  1.7369820309
H   2.7272465254  0.2010950068  1.6254686007
H   1.5919709002  1.0377259479 -1.8739206656
H   2.5561952226 -1.4201670386  0.9403241161
H   1.3351523366 -0.7828009282  2.0595261869
H   2.9048022743  1.2563441706 -0.7127093326
H   2.6929728133 -0.3055071485 -1.5207704691
22
Iteration 10  Energy = -72.4322950915
C  -0.8805776085 -1.3322381101  0.1828850777
C   1.2413269328  0.0830993249  0.0533392804
C  -0.8494209786  1.8365666723  0.8079957003
C   2.0146520075 -0.5172143876  1.2397158628
C   2.1556354577  0.5513086887 -1.0860728279
N   0.2123536033 -0.8957043715 -0.4972207197
N  -1.9904544849 -1.6741962092 -0.4772230939
O  -1.6104957581  1.6457511463 -0.2959725608
H  -2.2864603546  0.9475169531 -0.1779887249
H   0.0055198853 -0.7717006154 -1.4880487474
H  -0.9005900683 -1.4220818372  1.2734439100
H   0.6193133473  0.9713396638  0.4338617465
H  -2.8040609017 -1.9686304834  0.0463078259
H  -1.9956831227 -1.7725325499 -1.4879593703
H  -0.3124354995  2.7759294800  0.8506935518
H  -1.0549901856  1.2877502486  1.7250959654
H   2.7339451284  0.2120494265  1.6182582384
H   1.5774742353  1.0384690861 -1.8746436761
H   2.5657354279 -1.4123543780  0.9400800189
H   1.3475834531 -0.7751783580  2.0627416253
H   2.8923085437  1.2669303082 -0.7181590995
H   2.6882504552 -0.2971292652 -1.5238433987
22
Iteration 11  Energy = -72.4331142978
C  -0.8739314332 -1.3604101861  0.1833426968
C   1.2392501229  0.0824519717  0.0567354573
C  -0.8529715183  1.8499954124  0.8088376852
C   2.0167929351 -0.5173519525  1.2397639353
C   2.1500352397  0.5527356222 -1.0854226483
N   0.2113060849 -0.8986832456 -0.4949030106
N  -1.9900418341 -1.6780147427 -0.4781178264
O  -1.6054636789  1.6612099835 -0.3016667055
H  -2.3436832286  1.0265174243 -0.1643170930
H  -0.0086192665 -0.7507307332 -1.4804320629
H  -0.8807867246 -1.5009096050  1.2694627228
H   0.6205306298  0.9693783156  0.4357835219
H  -2.7894316583 -2.0167702205  0.0432311369
H  -2.0054607117 -1.7364036221 -1.4919571857
H  -0.2969709300  2.7767102984  0.8538852356
H  -1.0558118725  1.2899777699  1.7185085608
H   2.7398345591  0.2108136913  1.6132963169
H   1.5689373990  1.0415995760 -1.8707604934
H   2.5642039051 -1.4146764543  0.9399555191
H   1.3521867420 -0.7706749298  2.0661024781
H   2.8883843228  1.2675760326 -0.7193452848
H   2.6806272511 -0.2949109123 -1.5272400264
22
Iteration 12  Energy = -72.4336604551
C  -0.8666012409 -1.3916636525  0.1824939770
C   1.2336133351  0.0813400148  0.0610397055
C  -0.8472916861  1.8530831148  0.8079262844
C   2.0171544518 -0.5149933928  1.2410140488
C   2.1382092378  0.5602203142 -1.0826350675
N   0.2095824899 -0.9040293150 -0.4932999181
N  -1.9930754105 -1.6801804536 -0.4758829933
O  -1.5959307756  1.6816717969 -0.3104019252
H  -2.3496889329  1.0718200760 -0.1743224685
H  -0.0231033122 -0.7317672366 -1.4722720509
H  -0.8608381988 -1.5645167008  1.2627099762
H   0.6098116370  0.9676572764  0.4408082328
H  -2.7740554422 -2.0691973852  0.0398628198
H  -2.0207437022 -1.6995060938 -1.4910687887
H  -0.2853754465  2.7754439420  0.8700771371
H  -1.0578617532  1.2787278205  1.7068865976
H   2.7408417675  0.2151949747  1.6092770084
H   1.5525395897  1.0505853918 -1.8636129551
H   2.5642353394 -1.4122719400  0.9407769833
H   1.3562832036 -0.7663508593  2.0709371475
H   2.8753122165  1.2762649466 -0.7164115677
H   2.6701402433 -0.2834048217 -1.5305897388
22
Iteration 13  Energy = -72.4339556769
C  -0.8582435930 -1.4160269766  0.1819436753
C   1.2321209507  0.0817018692  0.0638619413
C  -0.8596966491  1.8584960006  0.8148635241
C   2.0195806062 -0.5194844487  1.2388761922
C   2.1342789055  0.5593986586 -1.0825571488
N   0.2057169341 -0.9013513538 -0.4929313547
N  -1.9926946793 -1.6883072229 -0.4699037567
O  -1.5871398491  1.7088796732 -0.3203691341
H  -2.3401215427  1.0921378290 -0.2110047923
H  -0.0394429060 -0.7096721828 -1.4652175293
H  -0.8372000927 -1.6225241846  1.2563129654
H   0.6125044265  0.9655432272  0.4459366301
H  -2.7601869739 -2.1072615996  0.0407212041
H  -2.0340807513 -1.6726504588 -1.4845405648
H  -0.2911234291  2.7746159623  0.9031038334
H  -1.0772751245  1.2579651766  1.6947363516
H   2.7522562809  0.2051030553  1.6005801362
H   1.5480987955  1.0540728152 -1.8603869878
H   2.5572417921 -1.4218187697  0.9365974175
H   1.3626825200 -0.7630359216  2.0743629111
H   2.8770631741  1.2708173098 -0.7185550332
H   2.6598993978 -0.2859624261 -1.5347831292
22
Iteration 14  Energy = -72.4342226462
C  -0.8545435611 -1.4268707890  0.1785612410
C   1.2323785881  0.0815321103  0.0629316589
C  -0.8707935388  1.8877380275  0.8220086669
C   2.0165201885 -0.5230300936  1.2391906838
C   2.1375021974  0.5494893228 -1.0857712395
N   0.2018465216 -0.8971027751 -0.4948535623
N  -1.9841448491 -1.7156447432 -0.4732145505
O  -1.5891896960  1.7297043527 -0.3139800331
H  -2.3221310340  1.0859375185 -0.2163403525
H  -0.0441582271 -0.7062044323 -1.4668356008
H  -0.8309415522 -1.6372110441  1.2514221052
H   0.6258983395  0.9645244906  0.4434685653
H  -2.7478483875 -2.1410471288  0.0361065634
H  -2.0339110086 -1.6754510236 -1.4861610678
H  -0.2928844158  2.7981297423  0.9039690988
H  -1.0698857153  1.2730265341  1.6957995119
H   2.7584081984  0.1949350714  1.5954245925
H   1.5534670381  1.0459164600 -1.8641070879
H   2.5436172342 -1.4331263045  0.9413034960
H   1.3590928316 -0.7540250340  2.0779178485
H   2.8863415405  1.2565091434 -0.7254604037
H   2.6558903343 -0.3011477235 -1.5365317500
22
Iteration 15  Energy = -72.4344318585
C  -0.8545912979 -1.4345251402  0.1746914138
C   1.2294420169  0.0813035417  0.0595103312
C  -0.8618575066  1.9101090643  0.8254690238
C   2.0054331233 -0.5195390050  1.2429390434
C   2.1384089891  0.5413748957 -1.0888889406
N   0.1962930853 -0.8933664169 -0.4977900622
N  -1.9759901774 -1.7453210322 -0.4797734994
O  -1.5902829170  1.7466164525 -0.3027887956
H  -2.2979417569  1.0753024876 -0.2051694673
H  -0.0487734204 -0.7047855879 -1.4704081595
H  -0.8302302125 -1.6429274716  1.2480915789
H   0.6312882320  0.9682438225  0.4354940311
H  -2.7365457010 -2.1781970012  0.0277512543
H  -2.0310041050 -1.6867596684 -1.4912019987
H  -0.2867751257  2.8232032506  0.8982809344
H  -1.0497166682  1.2973088473  1.7028337333
H   2.7498891373  0.1968559982  1.5967969484
H   1.5567166263  1.0368809243 -1.8696577681
H   2.5286896340 -1.4350119783  0.9548451407
H   1.3433815107 -0.7397328752  2.0810138465
H   2.8890051686  1.2473931274 -0.7302130389
H   2.6545648478 -0.3125253401 -1.5360248339
22
Iteration 16  Energy = -72.4345464782
C  -0.8567507052 -1.4359538396  0.1708628456
C   1.2270084704  0.0829554536  0.0560983004
C  -0.8520962078  1.9324309102  0.8283322938
C   1.9944155689 -0.5161869571  1.2464087907
C   2.1423086173  0.5300514439 -1.0925321953
N   0.1897141281 -0.8860863376 -0.5001982474
N  -1.9669737966 -1.7724876026 -0.4887170696
O  -1.5937927763  1.7549553023 -0.2885270821
H  -2.2784975696  1.0613569656 -0.1853445544
H  -0.0517599363 -0.7037003596 -1.4748398442
H  -0.8350071520 -1.6372046154  1.2459863539
H   0.6360085783  0.9753489910  0.4264987397
H  -2.7237735909 -2.2157484982  0.0154173870
H  -2.0219974936 -1.7052289103 -1.4993330288
H  -0.2773680232  2.8473498545  0.8818546759
H  -1.0281102734  1.3308734540  1.7161251888
H   2.7436662901  0.1967081013  1.5971919615
H   1.5647509034  1.0248356800 -1.8768907314
H   2.5112542068 -1.4380952082  0.9672558999
H   1.3281666616 -0.7241439996  2.0843447972
H   2.8968587116  1.2331814564 -0.7364390769
H   2.6534155573 -0.3299515966 -1.5337866141
22
Iteration 17  Energy = -72.4345867113
C  -0.8589388854 -1.4348112063  0.1652029071
C   1.2263033165  0.0854305931  0.0521445728
C  -0.8394007215  1.9511022963  0.8278381249
C   1.9822951416 -0.5108224326  1.2516189530
C   2.1513315112  0.5154960394 -1.0953611673
N   0.1844770588 -0.8775160043 -0.5035480925
N  -1.9596507788 -1.7899648213 -0.4994597877
O  -1.6038004170  1.7532204959 -0.2698785009
H  -2.2699308636  1.0445072643 -0.1493222000
H  -0.0540465301 -0.6977694888 -1.4793124653
H  -0.8405170360 -1.6312306574  1.2415384889
H   0.6412935700  0.9849777080  0.4133834510
H  -2.7172503804 -2.2341753669  0.0023191234
H  -2.0148196122 -1.7138082645 -1.5093080428
H  -0.2691541949  2.8704093423  0.8551773176
H  -0.9949373353  1.3630657120  1.7286997878
H   2.7372339321  0.1977696938  1.5988709944
H   1.5806989664  1.0095956822 -1.8853093460
H   2.4912852841 -1.4404333969  0.9836228775
H   1.3109196566 -0.7039896068  2.0890728160
H   2.9107535208  1.2144421459 -0.7413615486
H   2.6561740242 -0.3525104433 -1.5281406951
22
Iteration 18  Energy = -72.4345892147
C  -0.8615911408 -1.4363554818  0.1653483628
C   1.2291981339  0.0776402097  0.0635387403
C  -0.8303602450  1.9501298666  0.8370563976
C   1.9764567210 -0.5226357303  1.2665274565
C   2.1622009677  0.5031466242 -1.0790971238
N   0.1855925244 -0.8797998806 -0.4979602855
N  -1.9595092179 -1.7891258766 -0.5046950537
O  -1.5998971124  1.7527364825 -0.2565424259
H  -2.2611288446  1.0401719016 -0.1346947007
H  -0.0485769494 -0.6969245387 -1.4741613212
H  -0.8490006136 -1.6329384472  1.2416969672
H   0.6465069700  0.9798611460  0.4221031656
H  -2.7210739560 -2.2308116478 -0.0066852160
H  -2.0110032063 -1.7094927981 -1.5144351945
H  -0.2612949472  2.8699722647  0.8627059168
H  -0.9826149096  1.3620135706  1.7379750063
H   2.7332982588  0.1820732185  1.6174492264
H   1.5980569115  1.0005133503 -1.8716464855
H   2.4820742649 -1.4545540961  1.0006197179
H   1.3006198022 -0.7128698624  2.1009196866
H   2.9236793942  1.1978178442 -0.7211161610
H   2.6643991465 -0.3673862205 -1.5096741081
22
Iteration 19  Energy = -72.4345893339
C  -0.8617169555 -1.4361734674  0.1653089445
C   1.2291752076  0.0776199735  0.0635631442
C  -0.8301465002  1.9504220690  0.8369348340
C   1.9764418737 -0.5226557610  1.2665096636
C   2.1621510584  0.5031063147 -1.0790562911
N   0.1855989133 -0.8798240493 -0.4979357529
N  -1.9594045987 -1.7892947711 -0.5048797405
O  -1.6000404915  1.7525782912 -0.2562991335
H  -2.2605110828  1.0393632699 -0.1342534897
H  -0.0483584483 -0.6972575096 -1.4742275902
H  -0.8495343271 -1.6320882216  1.2417567696
H   0.6465140484  0.9798532065  0.4221414209
H  -2.7212170838 -2.2305069741 -0.0068670665
H  -2.0107114204 -1.7098761933 -1.5146324859
H  -0.2612960804  2.8704218639  0.8621255088
H  -0.9821420432  1.3626624576  1.7381271694
H   2.7332197163  0.1820764642  1.6174763154
H   1.5980351578  1.0004665744 -1.8715910044
H   2.4821073323 -1.4545180508  1.0005382221
H   1.3006314033 -0.7129870851  2.1008766759
H   2.9236203557  1.1977553255 -0.7210674533
H   2.6643248540 -0.3674244108 -1.5096445622
