22
Iteration 89  Energy = -72.4802353458
C  -0.7508981893 -1.5352392011  0.1471874879
C   1.4240841006 -0.3440516995 -0.1616886851
C  -0.8011249748  2.4997434756  0.7421134068
C   1.9256368146 -0.6517482251  1.2024197446
C   2.1716558007  0.4315934422 -1.1754423254
N   0.1933215564 -0.8156165380 -0.5534482078
N  -1.8849958138 -1.8334790739 -0.4581129143
O  -1.6470123651  1.6785595837 -0.1276139129
H  -2.1313644866  1.0469682970  0.4267726396
H  -0.1203049887 -0.5170543812 -1.4772429884
H  -0.6036609397 -1.8804328681  1.1683949629
H  -0.0651614216  1.8931725119  1.2822564423
H  -2.5889644986 -2.3614129195  0.0416981966
H  -2.0481403424 -1.5876427026 -1.4269960472
H  -0.2800705899  3.1916832718  0.0779639462
H  -1.3904689937  3.0745108227  1.4655125923
H   2.9222354154 -0.2101759837  1.3545605665
H   1.6083907064  1.3185719558 -1.5178951660
H   2.0137202887 -1.7378201121  1.3831295262
H   1.2647697282 -0.2584505096  1.9950607080
H   3.1411797123  0.7737347733 -0.7826888385
H   2.3610166350 -0.1579773941 -2.0910176376
