%chk=ZINC_metal_large_resp.chk
%nproc=8
%mem=16000MB
#P PBE1PBE/def2SVP Pop(MK,ReadRadii) IOp(6/33=2) SCF=Tight

MAPLE RESP

1 1
 C      -12.55426039       1.57509584      11.08743406
 C      -11.57061522       0.67616588      10.38513046
 O      -11.20131358       0.85376009       9.23495348
 H      -12.25642846       1.75115904      12.12008783
 H      -13.53245677       1.09112001      11.10659142
 H      -12.63355314       2.50780097      10.53714530
 N      -11.10697645      -0.37497822      11.11782099
 H      -11.40361645      -0.51281740      12.07762525
 C      -10.23896274      -1.33558084      10.49041705
 H      -10.59539370      -1.50859641       9.47093527
 C       -8.78636955      -0.81302163      10.39718577
 H       -8.15058579      -1.51589038       9.85761040
 H       -8.81766883       0.10912876       9.81579133
 C       -8.22363910      -0.57724958      11.75346616
 N       -8.37715516       0.61123308      12.43106068
 H       -8.82793548       1.43782509      12.07333508
 C       -7.87844430       0.47639726      13.66728960
 H       -7.87319122       1.24419623      14.42164347
 N       -7.40737740      -0.74445587      13.82889379
 C       -7.61242233      -1.41171721      12.63742125
 H       -7.31351760      -2.43692460      12.48952249
 C      -10.29929742      -2.64316609      11.26673303
 O      -10.91505333      -2.75252027      12.31738899
 N       -9.62692028      -3.67749640      10.71938600
 C       -9.56968644      -4.96332044      11.35718938
 C       -8.14546613      -5.38321725      11.69894613
 O       -7.16358179      -4.77056309      11.31884361
 H       -9.07048451      -3.52950161       9.89408603
 H      -10.16809275      -4.90834758      12.26643159
 H      -10.00928637      -5.73371694      10.71714751
 N       -8.09285187      -6.51503687      12.43635182
 H       -8.94284420      -7.00644177      12.67976343
 C       -6.87897317      -7.26731477      12.66980801
 H       -6.15062249      -6.98217545      11.90900822
 C       -6.31650079      -7.00957037      14.08040968
 H       -7.06071639      -7.35394672      14.80003116
 H       -5.42295022      -7.61987129      14.23297746
 C       -6.01201970      -5.57572017      14.34259455
 N       -4.75721011      -5.02428680      14.20567881
 H       -3.92099355      -5.51807747      13.94365637
 C       -4.82638094      -3.71530800      14.51123081
 H       -3.98086062      -3.04831589      14.50483121
 N       -6.05631919      -3.38938395      14.83517733
 C       -6.80632761      -4.54106284      14.72788819
 H       -7.86454319      -4.54878541      14.92614455
 C       -7.28730022      -8.74018079      12.57289468
 O       -8.32588843      -9.09456316      13.10739170
 N       -6.45941052      -9.56908484      11.91606342
 C       -6.80166139     -10.96954713      11.70945332
 H       -5.69269173      -9.17424604      11.39947095
 H       -7.37155039     -11.31932674      12.56558031
 H       -7.41028669     -11.09550858      10.81308517
 H       -5.89167390     -11.55650241      11.61532451
 C      -12.83469474      -4.75549718      14.49841749
 C      -12.60652463      -3.64308269      15.49155552
 O      -12.95884850      -3.73049992      16.65975050
 H      -12.28727283      -4.59900447      13.56996458
 H      -13.90060285      -4.80693136      14.27674473
 H      -12.54920452      -5.69999446      14.95792193
 N      -11.98861850      -2.54578712      14.99076628
 H      -11.69758165      -2.53222618      14.02081543
 C      -11.71014912      -1.37212737      15.78763446
 H      -12.18648032      -1.52673993      16.75642407
 C      -10.20568998      -1.14638706      15.93959397
 H       -9.77067853      -1.13605314      14.93774293
 H      -10.01394781      -0.15847689      16.37088544
 C       -9.54424246      -2.19258613      16.77428367
 N       -8.17348333      -2.37615421      16.75772612
 C       -7.89925176      -3.32143992      17.63281257
 H       -6.91688634      -3.69352553      17.87453507
 N       -9.02827146      -3.76647281      18.20028868
 H       -9.08832840      -4.47059589      18.91538406
 C      -10.08586690      -3.06676554      17.66692300
 H      -11.11044854      -3.27214676      17.92657989
 C      -12.31154403      -0.15772280      15.08709306
 O      -11.91400677       0.18055609      13.97594376
 N      -13.27425197       0.48656715      15.76280631
 C      -13.95248329       1.66776311      15.25870444
 H      -13.55440941       0.11198374      16.65299780
 H      -13.77302870       1.73739743      14.18992124
 H      -15.02322272       1.58505550      15.43563397
 H      -13.57883128       2.57174823      15.74093116
 ZN      -6.74199506      -1.54554893      15.56126831
 H       -4.41443603      -0.85605262      16.91499877
 H       -5.38034939       5.82621317      12.19882514
 H       -6.63048039       6.79908801      12.98643160
 H       -5.21972015       7.58437973      12.27486969
 H       -3.12157326       7.23788013      15.11682631
 H       -2.81519532       6.12768427      13.77639120
 H       -3.25381455       7.81100284      13.45443406
 H       -6.57351987       3.19922683      17.75115002
 H       -7.03704027       5.58124934      17.97640072
 H       -6.21825281       7.19129080      16.25912807
 H       -4.00711585       4.52971355      13.01443597
 H       -3.54592551       2.15701416      12.73826495
 H       -4.31080822       0.53061585      14.46228929
 C       -5.20512013       2.01884789      15.68162829
 C       -4.51793242       1.58462205      14.58333892
 C       -4.08711293       2.50588369      13.60842207
 C       -4.34677322       3.83324806      13.76420880
 C       -5.05261552       4.32160642      14.89313494
 C       -5.31945398       5.71604219      15.05449809
 C       -6.02259859       6.13418216      16.14926313
 C       -6.48423726       5.22076544      17.11771785
 C       -6.23294818       3.88695243      16.99225662
 C       -5.50512753       3.40253296      15.87586186
 N       -4.87343990       6.69206075      14.11412535
 C       -3.44542969       6.96254886      14.11119064
 C       -5.55306797       6.70832342      12.83117318
 S       -5.81431704       0.81490101      16.84570469
 O       -7.25250339       0.74162636      16.56690842
 O       -5.39261034       1.20298163      18.16213975
 N       -5.24845652      -0.59824419      16.40752226

Zn 1.395

