7
Iter 0 Image 0  Energy = -29.6796137011
C   0.8260657415  0.5508603911 -0.1261794589
H   0.4554445983  1.2417513435 -0.8784317668
O   0.5680753083  1.0246514429  1.1187434847
C   1.4411098584 -0.5873603774 -0.4363613732
H   0.9099091373  0.3932317500  1.7666320721
H   1.5916834696 -0.8592929697 -1.4741885892
H   1.8089534565 -1.2734747403  0.3237244514
7
Iter 0 Image 1  Energy = -29.6618448561
C   1.0001975305  0.6793785265 -0.1302608745
H   0.5563133166  1.3034882874 -0.9028175093
O   0.5543622139  1.0156887897  1.1007035702
C   1.3861727904 -0.5914236713 -0.3622705070
H   0.7099736782  0.1663091274  1.6579100720
H   1.2792457445 -1.0101917967 -1.3573034890
H   2.1149762960 -1.0728824230  0.2879775575
7
Iter 0 Image 2  Energy = -29.6380032367
C   1.0493407089  0.7382748925 -0.1301843339
H   0.5944350049  1.3264235731 -0.9260971171
O   0.5429669934  1.0153037003  1.0841859290
C   1.3619470026 -0.5825035149 -0.2944300326
H   0.6739354784  0.0351564468  1.5596823038
H   1.1662337763 -1.0547414627 -1.2528964709
H   2.2123826056 -0.9875467951  0.2536785418
7
Iter 0 Image 3  Energy = -29.6105038589
C   1.0741405414  0.7827226587 -0.1260872923
H   0.6241146895  1.3399723977 -0.9485039012
O   0.5288084814  1.0220912483  1.0685529152
C   1.3447689444 -0.5734011164 -0.2327485906
H   0.6666644804 -0.0759114183  1.4720355154
H   1.0899494293 -1.0814244891 -1.1599975797
H   2.2727950036 -0.9236824408  0.2206877532
7
Iter 0 Image 4  Energy = -29.5866715378
C   1.0840275823  0.8184698356 -0.1183287843
H   0.6515967780  1.3474395933 -0.9702930359
O   0.5108856422  1.0372968767  1.0531209999
C   1.3321870658 -0.5653309585 -0.1771105865
H   0.6750232675 -0.1770081661  1.3952291050
H   1.0333710170 -1.0999548605 -1.0772014962
H   2.3141502172 -0.8705454805  0.1885226179
7
Iter 0 Image 5  Energy = -29.5743779531
C   1.0819136748  0.8475041201 -0.1074288050
H   0.6802272289  1.3504267710 -0.9915918155
O   0.4879387695  1.0623849341  1.0370570414
C   1.3232114295 -0.5585338204 -0.1272727155
H   0.6947441001 -0.2737226681  1.3294690220
H   0.9893628371 -1.1145238697 -1.0028852980
H   2.3438435301 -0.8231686270  0.1565913906
7
Iter 0 Image 6  Energy = -29.5817126548
C   1.0681679691  0.8702301339 -0.0941262487
H   0.7128800832  1.3501666040 -1.0122765507
O   0.4580780106  1.0987041858  1.0191681147
C   1.3172272056 -0.5528875501 -0.0826452947
H   0.7250811723 -0.3700277728  1.2748996787
H   0.9540175389 -1.1273817645 -0.9352093779
H   2.3657895902 -0.7784369963  0.1241284986
7
Iter 0 Image 7  Energy = -29.6112173861
C   1.0411506244  0.8859175469 -0.0794540203
H   0.7529279013  1.3480545336 -1.0316481812
O   0.4185292241  1.1471387076  0.9975834696
C   1.3137136007 -0.5481957384 -0.0420607515
H   0.7677097895 -0.4688646659  1.2315439363
H   0.9249968582 -1.1398089284 -0.8721242333
H   2.3822135718 -0.7338746154  0.0900986004
7
Iter 0 Image 8  Energy = -29.6479373342
C   0.9964002091  0.8924958638 -0.0651701304
H   0.8047643915  1.3461979653 -1.0474504537
O   0.3661090898  1.2079079003  0.9695863789
C   1.3122696605 -0.5444040795 -0.0037427659
H   0.8261884561 -0.5721758250  1.1988362231
H   0.9012961748 -1.1527227410 -0.8115117713
H   2.3942135881 -0.6869322440  0.0533913392
7
Iter 0 Image 9  Energy = -29.6817423916
C   0.9235553859  0.8851007631 -0.0556978044
H   0.8728502092  1.3483198306 -1.0533907893
O   0.3021326179  1.2816999028  0.9330886404
C   1.3125738458 -0.5417036668  0.0340510731
H   0.9032030803 -0.6813246845  1.1736037517
H   0.8851474732 -1.1676663242 -0.7525363581
H   2.4017789576 -0.6340589811  0.0148203066
7
Iter 0 Image 10  Energy = -29.7033978170
C   0.8151547293  0.8599861649 -0.0581793128
H   0.9477600153  1.3547779485 -1.0375963707
O   0.2507661577  1.3740020991  0.8907351887
C   1.3122322335 -0.5394742348  0.0713123692
H   0.9862393494 -0.8002723911  1.1437547493
H   0.8863226417 -1.1848416923 -0.7023401366
H   2.4027664432 -0.5738110543 -0.0137476671
7
Iter 0 Image 11  Energy = -29.7096971637
C   0.7840367852  0.8656586589 -0.0371164025
H   0.9809293880  1.3403901038 -1.0231241499
O   0.1875804579  1.4681235287  0.8223429327
C   1.3100769769 -0.5359012779  0.1153731248
H   1.0639489065 -0.9236344469  1.1059940899
H   0.8779311114 -1.1816924395 -0.6582837811
H   2.3967379442 -0.5425772870 -0.0312469938
7
Iter 1 Image 0  Energy = -29.6796137011
C   0.8260657415  0.5508603911 -0.1261794589
H   0.4554445983  1.2417513435 -0.8784317668
O   0.5680753083  1.0246514429  1.1187434847
C   1.4411098584 -0.5873603774 -0.4363613732
H   0.9099091373  0.3932317500  1.7666320721
H   1.5916834696 -0.8592929697 -1.4741885892
H   1.8089534565 -1.2734747403  0.3237244514
7
Iter 1 Image 1  Energy = -29.6621835595
C   0.9994048845  0.6786974624 -0.1308063893
H   0.5567568267  1.3038219702 -0.9030356823
O   0.5545550693  1.0152905252  1.1019509378
C   1.3867562963 -0.5911891860 -0.3626387499
H   0.7097077926  0.1668687610  1.6575114659
H   1.2789888789 -1.0103850744 -1.3570336806
H   2.1150718216 -1.0727376184  0.2879909181
7
Iter 1 Image 2  Energy = -29.6386984652
C   1.0484180133  0.7373814833 -0.1307300353
H   0.5950487162  1.3269323008 -0.9264325998
O   0.5431012181  1.0144044719  1.0858677549
C   1.3626939652 -0.5821867023 -0.2949833855
H   0.6735686554  0.0361454502  1.5588578598
H   1.1657642063 -1.0550674845 -1.2522734675
H   2.2126467955 -0.9872426794  0.2536326934
7
Iter 1 Image 3  Energy = -29.6114429599
C   1.0731036816  0.7818523875 -0.1266282711
H   0.6248115561  1.3405649091 -0.9489242429
O   0.5288318391  1.0208674657  1.0704217641
C   1.3455941356 -0.5731774707 -0.2332198288
H   0.6663701112 -0.0746117877  1.4708928246
H   1.0894193485 -1.0817995658 -1.1591907222
H   2.2731108980 -0.9233290981  0.2205872964
7
Iter 1 Image 4  Energy = -29.5873968518
C   1.0828154602  0.8175575324 -0.1187736397
H   0.6522872466  1.3480578043 -0.9707039055
O   0.5107822617  1.0366768300  1.0547634116
C   1.3330955696 -0.5652492937 -0.1774457991
H   0.6749276464 -0.1760257140  1.3942205713
H   1.0329490148 -1.1003277061 -1.0765639068
H   2.3143843706 -0.8703226128  0.1884420886
7
Iter 1 Image 5  Energy = -29.5748894504
C   1.0805278333  0.8467109225 -0.1078145555
H   0.6807236370  1.3510625129 -0.9918135691
O   0.4879996825  1.0623847535  1.0382781448
C   1.3240084102 -0.5586131793 -0.1270706243
H   0.6948800038 -0.2730375504  1.3284166654
H   0.9891838857 -1.1148168716 -1.0027744458
H   2.3439181175 -0.8233237476  0.1567172047
7
Iter 1 Image 6  Energy = -29.5822287267
C   1.0666447506  0.8696128427 -0.0943261196
H   0.7130198803  1.3508358158 -1.0122278322
O   0.4585224810  1.0994689749  1.0197248617
C   1.3178039776 -0.5531639689 -0.0819354078
H   0.7254055046 -0.3697853973  1.2738417751
H   0.9541649213 -1.1275065946 -0.9357007693
H   2.3656800548 -0.7790948327  0.1245623120
7
Iter 1 Image 7  Energy = -29.6118514007
C   1.0397871077  0.8854087899 -0.0794905324
H   0.7527170141  1.3487239216 -1.0314190231
O   0.4193487939  1.1481799226  0.9976926971
C   1.3141056172 -0.5485196097 -0.0410278932
H   0.7679567199 -0.4688102323  1.2303989814
H   0.9252682352 -1.1398143538 -0.8729174753
H   2.3820580822 -0.7348015983  0.0907020655
7
Iter 1 Image 8  Energy = -29.6485211617
C   0.9954037983  0.8921064365 -0.0651426543
H   0.8044087146  1.3467710603 -1.0472457770
O   0.3670478144  1.2086357283  0.9695445733
C   1.3124447650 -0.5446097077 -0.0023908462
H   0.8263164866 -0.5720588647  1.1974545151
H   0.9014917164 -1.1527009325 -0.8121811705
H   2.3941282750 -0.6877768801  0.0539001794
7
Iter 1 Image 9  Energy = -29.6820564336
C   0.9230791862  0.8848613382 -0.0556387522
H   0.8725458391  1.3487050692 -1.0533502812
O   0.3027607690  1.2820669584  0.9330750010
C   1.3126331417 -0.5418521806  0.0352353827
H   0.9032516046 -0.6811418475  1.1723840400
H   0.8852166800 -1.1676588264 -0.7528629444
H   2.4017543496 -0.6346136711  0.0150963742
7
Iter 1 Image 10  Energy = -29.7034922308
C   0.8153403886  0.8600207452 -0.0581354988
H   0.9475434001  1.3549468704 -1.0377159303
O   0.2507924832  1.3742073913  0.8908241159
C   1.3121520261 -0.5397723348  0.0720131489
H   0.9863265694 -0.8001462615  1.1430290899
H   0.8863420262 -1.1848509637 -0.7023938704
H   2.4027446763 -0.5740386069 -0.0136822351
7
Iter 1 Image 11  Energy = -29.7096971637
C   0.7840367852  0.8656586589 -0.0371164025
H   0.9809293880  1.3403901038 -1.0231241499
O   0.1875804579  1.4681235287  0.8223429327
C   1.3100769769 -0.5359012779  0.1153731248
H   1.0639489065 -0.9236344469  1.1059940899
H   0.8779311114 -1.1816924395 -0.6582837811
H   2.3967379442 -0.5425772870 -0.0312469938
7
Iter 2 Image 0  Energy = -29.6796137011
C   0.8260657415  0.5508603911 -0.1261794589
H   0.4554445983  1.2417513435 -0.8784317668
O   0.5680753083  1.0246514429  1.1187434847
C   1.4411098584 -0.5873603774 -0.4363613732
H   0.9099091373  0.3932317500  1.7666320721
H   1.5916834696 -0.8592929697 -1.4741885892
H   1.8089534565 -1.2734747403  0.3237244514
7
Iter 2 Image 1  Energy = -29.6653166181
C   0.9861454215  0.6710022967 -0.1315298279
H   0.5621447990  1.3085500716 -0.9058495863
O   0.5582893581  1.0128539600  1.1100049733
C   1.3952229515 -0.5886687982 -0.3686763346
H   0.7072321646  0.1717034742  1.6569956373
H   1.2767169026 -1.0135380345 -1.3558523595
H   2.1154899730 -1.0715360681  0.2888463639
7
Iter 2 Image 2  Energy = -29.6456470704
C   1.0327278058  0.7277008647 -0.1312663766
H   0.6030277906  1.3340205536 -0.9300139958
O   0.5469392990  1.0043049274  1.0988984429
C   1.3731065690 -0.5782420786 -0.3033895074
H   0.6692300176  0.0473723321  1.5525558973
H   1.1601899180 -1.0609539095 -1.2468390889
H   2.2160201714 -0.9838357894  0.2539933551
7
Iter 2 Image 3  Energy = -29.6215095884
C   1.0570849885  0.7730530929 -0.1278008003
H   0.6346568340  1.3495703147 -0.9543023275
O   0.5312065992  1.0029219500  1.0870120024
C   1.3556283802 -0.5693242588 -0.2398679242
H   0.6621308459 -0.0588777490  1.4572770182
H   1.0807524677 -1.0894487244 -1.1479319681
H   2.2797814190 -0.9175278211  0.2195527624
7
Iter 2 Image 4  Energy = -29.5961322850
C   1.0646356285  0.8081741753 -0.1195193743
H   0.6625644403  1.3572749973 -0.9764754216
O   0.5111967901  1.0240280246  1.0713312074
C   1.3421120280 -0.5634409318 -0.1817386404
H   0.6736734549 -0.1621571816  1.3784932588
H   1.0256335951 -1.1075354251 -1.0653476005
H   2.3214256333 -0.8659769075  0.1871952285
7
Iter 2 Image 5  Energy = -29.5809345907
C   1.0608532344  0.8371867107 -0.1076518036
H   0.6875872767  1.3602783941 -0.9954150721
O   0.4903026235  1.0595296833  1.0509755468
C   1.3290838453 -0.5597725059 -0.1272115976
H   0.6971478557 -0.2625620011  1.3121874328
H   0.9872595399 -1.1189821900 -0.9976995223
H   2.3490071902 -0.8253112355  0.1587538100
7
Iter 2 Image 6  Energy = -29.5879094368
C   1.0466447506  0.8602601723 -0.0945682014
H   0.7143254245  1.3601532050 -1.0119382151
O   0.4653453183  1.1092444450  1.0270889713
C   1.3194340956 -0.5571402079 -0.0793584395
H   0.7296103866 -0.3653476639  1.2604529364
H   0.9586252231 -1.1276699342 -0.9396786049
H   2.3672563108 -0.7891331851  0.1319402954
7
Iter 2 Image 7  Energy = -29.6190237767
C   1.0233326309  0.8778925809 -0.0820312614
H   0.7495063227  1.3577215974 -1.0284024001
O   0.4293327846  1.1631152128  1.0035675382
C   1.3133848616 -0.5548685450 -0.0339241722
H   0.7718577982 -0.4674109210  1.2142637316
H   0.9321032140 -1.1373253735 -0.8803304755
H   2.3817239089 -0.7487576878  0.1007958002
7
Iter 2 Image 8  Energy = -29.6553732371
C   0.9837286120  0.8859278210 -0.0680428029
H   0.7993007399  1.3544192922 -1.0438032867
O   0.3776947250  1.2230815886  0.9736551085
C   1.3107791278 -0.5508137877  0.0081337404
H   0.8288855392 -0.5723902781  1.1785247038
H   0.9072933772 -1.1492319472 -0.8173754613
H   2.3935593705 -0.7006259760  0.0628467987
7
Iter 2 Image 9  Energy = -29.6856146222
C   0.9162746899  0.8807080503 -0.0570426729
H   0.8688438436  1.3536686442 -1.0516137264
O   0.3099381557  1.2911746087  0.9350636429
C   1.3122316365 -0.5458204795  0.0441565259
H   0.9044590391 -0.6813434748  1.1569390931
H   0.8881027648 -1.1653005630 -0.7536148536
H   2.4013913877 -0.6427200123  0.0200508221
7
Iter 2 Image 10  Energy = -29.7042979813
C   0.8158734024  0.8605940159 -0.0558480107
H   0.9447202592  1.3570256213 -1.0386311394
O   0.2525057796  1.3774215661  0.8902126661
C   1.3121665816 -0.5423610260  0.0766439652
H   0.9869442332 -0.8002535395  1.1354563291
H   0.8871203732 -1.1843795916 -0.7017165275
H   2.4019109586 -0.5776802407 -0.0121784681
7
Iter 2 Image 11  Energy = -29.7096971637
C   0.7840367852  0.8656586589 -0.0371164025
H   0.9809293880  1.3403901038 -1.0231241499
O   0.1875804579  1.4681235287  0.8223429327
C   1.3100769769 -0.5359012779  0.1153731248
H   1.0639489065 -0.9236344469  1.1059940899
H   0.8779311114 -1.1816924395 -0.6582837811
H   2.3967379442 -0.5425772870 -0.0312469938
7
Iter 3 Image 0  Energy = -29.6796137011
C   0.8260657415  0.5508603911 -0.1261794589
H   0.4554445983  1.2417513435 -0.8784317668
O   0.5680753083  1.0246514429  1.1187434847
C   1.4411098584 -0.5873603774 -0.4363613732
H   0.9099091373  0.3932317500  1.7666320721
H   1.5916834696 -0.8592929697 -1.4741885892
H   1.8089534565 -1.2734747403  0.3237244514
7
Iter 3 Image 1  Energy = -29.6679641670
C   0.9722710949  0.6626299670 -0.1342452920
H   0.5673829962  1.3126305195 -0.9070575717
O   0.5618616212  1.0121936929  1.1163845538
C   1.4030888624 -0.5849004802 -0.3743912412
H   0.7054974605  0.1764109195  1.6607739528
H   1.2760794669 -1.0172881211 -1.3578686446
H   2.1150600679 -1.0713095571  0.2903431288
7
Iter 3 Image 2  Energy = -29.6510806447
C   1.0165379637  0.7174049263 -0.1345797874
H   0.6107896874  1.3409380985 -0.9309401963
O   0.5499978581  0.9984189633  1.1086975005
C   1.3829906305 -0.5735219932 -0.3129199160
H   0.6656882487  0.0569487428  1.5536198489
H   1.1564605447 -1.0683055853 -1.2454336920
H   2.2187766251 -0.9815162367  0.2554949087
7
Iter 3 Image 3  Energy = -29.6278969562
C   1.0405466635  0.7644751329 -0.1303515794
H   0.6451166265  1.3593407925 -0.9570317189
O   0.5323554625  0.9937181575  1.0965810228
C   1.3655253231 -0.5650874047 -0.2489626229
H   0.6577416316 -0.0509493078  1.4532341063
H   1.0718916943 -1.0998479985 -1.1381675436
H   2.2880641181 -0.9112826174  0.2186370064
7
Iter 3 Image 4  Energy = -29.6033283836
C   1.0471109464  0.8024803103 -0.1229242665
H   0.6746697195  1.3672575946 -0.9807654003
O   0.5109349138  1.0085311384  1.0854564501
C   1.3483017414 -0.5611693982 -0.1827905876
H   0.6724853010 -0.1503720336  1.3606804906
H   1.0158300473 -1.1176729783 -1.0499453776
H   2.3319088982 -0.8586878996  0.1842272993
7
Iter 3 Image 5  Energy = -29.5862600571
C   1.0416799794  0.8303157831 -0.1115473078
H   0.6960569519  1.3694366121 -0.9971327903
O   0.4914096323  1.0555438897  1.0643746061
C   1.3338514589 -0.5605327180 -0.1263321470
H   0.6995361729 -0.2535969495  1.2952705167
H   0.9840566903 -1.1255528419 -0.9902418518
H   2.3546506717 -0.8252469054  0.1595477552
7
Iter 3 Image 6  Energy = -29.5924789673
C   1.0266447506  0.8525035726 -0.0953718414
H   0.7162859286  1.3691333563 -1.0106609431
O   0.4728729471  1.1142850049  1.0366553178
C   1.3221924524 -0.5603920669 -0.0780306372
H   0.7331258000 -0.3569376606  1.2459803595
H   0.9628933374 -1.1300813079 -0.9442491374
H   2.3672262865 -0.7981440636  0.1396156055
7
Iter 3 Image 7  Energy = -29.6246913439
C   1.0048755096  0.8699461396 -0.0776210990
H   0.7460024167  1.3670978172 -1.0261692906
O   0.4434418983  1.1735825963  1.0064087498
C   1.3124946925 -0.5564265504 -0.0302808013
H   0.7749049462 -0.4637788190  1.1982255483
H   0.9398480560 -1.1366913424 -0.8891501946
H   2.3796739424 -0.7633629771  0.1125258007
7
Iter 3 Image 8  Energy = -29.6618328905
C   0.9684976252  0.8807909611 -0.0635007769
H   0.7939710522  1.3625921898 -1.0414571495
O   0.3925015883  1.2377541100  0.9740069085
C   1.3088699992 -0.5532395408  0.0141151397
H   0.8316997693 -0.5755073671  1.1598223283
H   0.9143478070 -1.1468467959 -0.8233972995
H   2.3913536063 -0.7151768324  0.0743496328
7
Iter 3 Image 9  Energy = -29.6891470021
C   0.9056953188  0.8772571102 -0.0549808465
H   0.8656318198  1.3589317229 -1.0494850780
O   0.3190881669  1.3036168181  0.9347112137
C   1.3117539743 -0.5482877146  0.0491371665
H   0.9067529584 -0.6858986671  1.1415029470
H   0.8917770541 -1.1633759628 -0.7537213645
H   2.4005421757 -0.6518766012  0.0267747910
7
Iter 3 Image 10  Energy = -29.7049352145
C   0.8167296547  0.8597192489 -0.0580364683
H   0.9418717936  1.3586778464 -1.0377809119
O   0.2532010493  1.3842406212  0.8923767450
C   1.3121793664 -0.5436025153  0.0788457266
H   0.9875124413 -0.8029569345  1.1290025051
H   0.8881672410 -1.1837312119 -0.7004097974
H   2.4015800456 -0.5819802760 -0.0100589807
7
Iter 3 Image 11  Energy = -29.7096971637
C   0.7840367852  0.8656586589 -0.0371164025
H   0.9809293880  1.3403901038 -1.0231241499
O   0.1875804579  1.4681235287  0.8223429327
C   1.3100769769 -0.5359012779  0.1153731248
H   1.0639489065 -0.9236344469  1.1059940899
H   0.8779311114 -1.1816924395 -0.6582837811
H   2.3967379442 -0.5425772870 -0.0312469938
7
Iter 4 Image 0  Energy = -29.6796137011
C   0.8260657415  0.5508603911 -0.1261794589
H   0.4554445983  1.2417513435 -0.8784317668
O   0.5680753083  1.0246514429  1.1187434847
C   1.4411098584 -0.5873603774 -0.4363613732
H   0.9099091373  0.3932317500  1.7666320721
H   1.5916834696 -0.8592929697 -1.4741885892
H   1.8089534565 -1.2734747403  0.3237244514
7
Iter 4 Image 1  Energy = -29.6704503512
C   0.9570772287  0.6546303650 -0.1366008839
H   0.5725601827  1.3171051920 -0.9083698348
O   0.5658936868  1.0110115515  1.1232281280
C   1.4117290493 -0.5831836409 -0.3825287380
H   0.7037125805  0.1827275875  1.6661813611
H   1.2764792181 -1.0209386629 -1.3599473363
H   2.1137896289 -1.0709854298  0.2919761919
7
Iter 4 Image 2  Energy = -29.6558402544
C   0.9990375986  0.7070720339 -0.1373580666
H   0.6187618993  1.3491820448 -0.9319710775
O   0.5530175666  0.9938893353  1.1177925205
C   1.3939484766 -0.5709801429 -0.3249464041
H   0.6620680917  0.0662873902  1.5576588676
H   1.1533135773 -1.0767071927 -1.2441286477
H   2.2210943418 -0.9783765534  0.2568914364
7
Iter 4 Image 3  Energy = -29.6347037470
C   1.0227237856  0.7547509638 -0.1353491176
H   0.6561149315  1.3705399463 -0.9591982589
O   0.5333438757  0.9821507764  1.1087582741
C   1.3766948330 -0.5619634195 -0.2592170966
H   0.6528534380 -0.0383276772  1.4510965812
H   1.0638199941 -1.1120317621 -1.1297295347
H   2.2956906630 -0.9047521122  0.2175777679
7
Iter 4 Image 4  Energy = -29.6087403810
C   1.0291191530  0.7956401443 -0.1250569688
H   0.6871134544  1.3794317735 -0.9850139896
O   0.5105196423  0.9953767209  1.0968611189
C   1.3556068547 -0.5588560232 -0.1824050796
H   0.6719868477 -0.1415743359  1.3415993673
H   1.0050750646 -1.1297868574 -1.0322372545
H   2.3418205470 -0.8498646553  0.1801914273
7
Iter 4 Image 5  Energy = -29.5908519393
C   1.0221546441  0.8223271624 -0.1130229566
H   0.7046408715  1.3808280564 -0.9996368891
O   0.4927832756  1.0512595777  1.0762250057
C   1.3385836375 -0.5604208857 -0.1259122813
H   0.7022324017 -0.2451006329  1.2772239209
H   0.9802083698 -1.1342567098 -0.9810635946
H   2.3606383574 -0.8242696757  0.1601255709
7
Iter 4 Image 6  Energy = -29.5961247301
C   1.0071374870  0.8441046939 -0.0977510072
H   0.7193772390  1.3792822874 -1.0090560621
O   0.4795662069  1.1142048708  1.0494481736
C   1.3241230971 -0.5627605945 -0.0783927218
H   0.7364019711 -0.3443299786  1.2287674587
H   0.9661795622 -1.1345146721 -0.9462117105
H   2.3684559468 -0.8056197583  0.1471345816
7
Iter 4 Image 7  Energy = -29.6289778715
C   0.9885788647  0.8648264670 -0.0881490034
H   0.7439106476  1.3756571865 -1.0203276891
O   0.4532533536  1.1851698965  1.0222654856
C   1.3134930968 -0.5631296873 -0.0275167089
H   0.7778716084 -0.4582609442  1.1806038458
H   0.9480185555 -1.1365383491 -0.8980164935
H   2.3761153234 -0.7773577348  0.1250792523
7
Iter 4 Image 8  Energy = -29.6676723874
C   0.9552601333  0.8755765510 -0.0702159095
H   0.7891058897  1.3704879770 -1.0363699375
O   0.4048148265  1.2562796140  0.9835344002
C   1.3075201853 -0.5562726899  0.0201424560
H   0.8347246017 -0.5804453219  1.1398223283
H   0.9222099870 -1.1449629837 -0.8304645044
H   2.3876057907 -0.7302963782  0.0874899024
7
Iter 4 Image 9  Energy = -29.6926306999
C   0.8953413535  0.8733685912 -0.0572604846
H   0.8626889962  1.3643940429 -1.0463647364
O   0.3270582416  1.3208115101  0.9379798515
C   1.3114584061 -0.5500567614  0.0545863631
H   0.9099376804 -0.6942231844  1.1249329452
H   0.8956368218 -1.1623777545 -0.7545610777
H   2.3991199310 -0.6615497753  0.0346259641
7
Iter 4 Image 10  Energy = -29.7055581874
C   0.8125547841  0.8623594346 -0.0519904287
H   0.9389211694  1.3612091966 -1.0380565939
O   0.2585774503  1.3890374315  0.8878086531
C   1.3120437742 -0.5443602133  0.0816261478
H   0.9883213167 -0.8070797048  1.1214821801
H   0.8892926237 -1.1836623370 -0.6995358383
H   2.4015304673 -0.5871370511 -0.0073953065
7
Iter 4 Image 11  Energy = -29.7096971637
C   0.7840367852  0.8656586589 -0.0371164025
H   0.9809293880  1.3403901038 -1.0231241499
O   0.1875804579  1.4681235287  0.8223429327
C   1.3100769769 -0.5359012779  0.1153731248
H   1.0639489065 -0.9236344469  1.1059940899
H   0.8779311114 -1.1816924395 -0.6582837811
H   2.3967379442 -0.5425772870 -0.0312469938
7
Iter 5 Image 0  Energy = -29.6796137011
C   0.8260657415  0.5508603911 -0.1261794589
H   0.4554445983  1.2417513435 -0.8784317668
O   0.5680753083  1.0246514429  1.1187434847
C   1.4411098584 -0.5873603774 -0.4363613732
H   0.9099091373  0.3932317500  1.7666320721
H   1.5916834696 -0.8592929697 -1.4741885892
H   1.8089534565 -1.2734747403  0.3237244514
7
Iter 5 Image 1  Energy = -29.6724354243
C   0.9425702625  0.6455155258 -0.1381911500
H   0.5772031271  1.3218947011 -0.9097227464
O   0.5700069947  1.0104771318  1.1285455464
C   1.4197481032 -0.5806202212 -0.3903477938
H   0.7021052644  0.1887284608  1.6732402472
H   1.2775277244 -1.0249790158 -1.3630847880
H   2.1120801024 -1.0706496012  0.2934995807
7
Iter 5 Image 2  Energy = -29.6597712106
C   0.9817742044  0.6960978895 -0.1398529897
H   0.6264281705  1.3578834026 -0.9327615114
O   0.5561167489  0.9898494728  1.1259674275
C   1.4046063427 -0.5681371121 -0.3366028739
H   0.6585351288  0.0757795583  1.5632841729
H   1.1507873155 -1.0860896027 -1.2442365400
H   2.2229936349 -0.9750166975  0.2581409051
7
Iter 5 Image 3  Energy = -29.6401815927
C   1.0053117386  0.7446235924 -0.1387959268
H   0.6665831160  1.3825430780 -0.9611800848
O   0.5347085262  0.9711421527  1.1185724793
C   1.3871390097 -0.5589766099 -0.2703805450
H   0.6479911191 -0.0257662528  1.4507427233
H   1.0565234280 -1.1251643039 -1.1215619907
H   2.3029845817 -0.8980349602  0.2165419210
7
Iter 5 Image 4  Energy = -29.6120467252
C   1.0111371034  0.7888775010 -0.1265115301
H   0.6986164929  1.3920467520 -0.9879672249
O   0.5103198640  0.9883654042  1.1046641068
C   1.3617999926 -0.5570554319 -0.1837915303
H   0.6723212744 -0.1372851935  1.3257920036
H   0.9959134054 -1.1422207715 -1.0156223839
H   2.3511334303 -0.8423614487  0.1773751951
7
Iter 5 Image 5  Energy = -29.5943276203
C   1.0031289668  0.8159292413 -0.1152293919
H   0.7129470421  1.3924870871 -1.0009732948
O   0.4941261147  1.0484331512  1.0868240202
C   1.3428981508 -0.5612983145 -0.1274490058
H   0.7047903101 -0.2381858607  1.2611454626
H   0.9768167108 -1.1436975971 -0.9715529332
H   2.3665342572 -0.8233008002  0.1611739126
7
Iter 5 Image 6  Energy = -29.5987944669
C   0.9888583120  0.8360930101 -0.0991369806
H   0.7231395041  1.3904226923 -1.0077874244
O   0.4855450761  1.1098542162  1.0614762034
C   1.3259805213 -0.5641443407 -0.0801117667
H   0.7390726772 -0.3301957063  1.2112084874
H   0.9679693905 -1.1408128101 -0.9451964755
H   2.3706760298 -0.8108501948  0.1534866624
7
Iter 5 Image 7  Energy = -29.6320720232
C   0.9699667675  0.8572110328 -0.0809206010
H   0.7414627481  1.3870100224 -1.0184285091
O   0.4677683040  1.1880670310  1.0268091186
C   1.3112567957 -0.5640741428 -0.0280720656
H   0.7801076798 -0.4491671043  1.1622843776
H   0.9551468846 -1.1387871119 -0.9047454868
H   2.3755322798 -0.7898928998  0.1370118399
7
Iter 5 Image 8  Energy = -29.6725453800
C   0.9392497703  0.8729436064 -0.0691123292
H   0.7843167628  1.3792745108 -1.0325807269
O   0.4205469512  1.2709010836  0.9882428627
C   1.3052500301 -0.5601407287  0.0231039668
H   0.8372042663 -0.5843032233  1.1198223283
H   0.9305883536 -1.1434651973 -0.8366282700
H   2.3840852584 -0.7448432691  0.1010908712
7
Iter 5 Image 9  Energy = -29.6955575413
C   0.8833544745  0.8716264130 -0.0565113702
H   0.8600442876  1.3699542959 -1.0437046332
O   0.3365962834  1.3378916329  0.9389533241
C   1.3107761179 -0.5518506382  0.0576479502
H   0.9128663559 -0.7047864259  1.1097297057
H   0.8998930761 -1.1616003321 -0.7550020411
H   2.3977107981 -0.6708682938  0.0428258717
7
Iter 5 Image 10  Energy = -29.7062991625
C   0.8128192476  0.8613894500 -0.0553450213
H   0.9358893096  1.3633680859 -1.0370884894
O   0.2593416804  1.3997103183  0.8910926666
C   1.3121267443 -0.5455730749  0.0840478086
H   0.9893912441 -0.8130258474  1.1142011812
H   0.8905208634 -1.1834391565 -0.6984473543
H   2.4011524885 -0.5920630460 -0.0045219814
7
Iter 5 Image 11  Energy = -29.7096971637
C   0.7840367852  0.8656586589 -0.0371164025
H   0.9809293880  1.3403901038 -1.0231241499
O   0.1875804579  1.4681235287  0.8223429327
C   1.3100769769 -0.5359012779  0.1153731248
H   1.0639489065 -0.9236344469  1.1059940899
H   0.8779311114 -1.1816924395 -0.6582837811
H   2.3967379442 -0.5425772870 -0.0312469938
7
Iter 6 Image 0  Energy = -29.6796137011
C   0.8260657415  0.5508603911 -0.1261794589
H   0.4554445983  1.2417513435 -0.8784317668
O   0.5680753083  1.0246514429  1.1187434847
C   1.4411098584 -0.5873603774 -0.4363613732
H   0.9099091373  0.3932317500  1.7666320721
H   1.5916834696 -0.8592929697 -1.4741885892
H   1.8089534565 -1.2734747403  0.3237244514
7
Iter 6 Image 1  Energy = -29.6740219361
C   0.9284457647  0.6370431647 -0.1411706755
H   0.5817724681  1.3259598942 -0.9100971060
O   0.5741287534  1.0100303048  1.1334718435
C   1.4272124391 -0.5779733823 -0.3973120129
H   0.7005380455  0.1947766220  1.6814995896
H   1.2792210506 -1.0292573680 -1.3671641465
H   2.1099230606 -1.0702122331  0.2947113967
7
Iter 6 Image 2  Energy = -29.6628695941
C   0.9649870524  0.6854214858 -0.1437117011
H   0.6340706837  1.3661326811 -0.9323539749
O   0.5590184412  0.9867807555  1.1336635852
C   1.4142572749 -0.5652390053 -0.3479278710
H   0.6551495298  0.0848690247  1.5701864152
H   1.1490182692 -1.0961405504 -1.2452105571
H   2.2247402890 -0.9714574939  0.2592926441
7
Iter 6 Image 3  Energy = -29.6439481890
C   0.9884442389  0.7355282369 -0.1426414696
H   0.6770387776  1.3943468832 -0.9616016306
O   0.5355086418  0.9656637164  1.1251150133
C   1.3967638614 -0.5565768486 -0.2822734966
H   0.6436569713 -0.0184674305  1.4528160132
H   1.0496027989 -1.1393255424 -1.1128909689
H   2.3102262301 -0.8908023085  0.2154150882
7
Iter 6 Image 4  Energy = -29.6143833464
C   0.9933010112  0.7842271831 -0.1317770984
H   0.7094118980  1.4040604551 -0.9885798050
O   0.5097697370  0.9856603037  1.1132903912
C   1.3670576813 -0.5570720267 -0.1865888937
H   0.6734768083 -0.1347241283  1.3129034881
H   0.9889719592 -1.1549716115 -1.0015894256
H   2.3592524590 -0.8368133383  0.1762799934
7
Iter 6 Image 5  Energy = -29.5969596124
C   0.9851144546  0.8107253098 -0.1199747569
H   0.7206930841  1.4041685256 -1.0004173643
O   0.4955498191  1.0471365493  1.0968719452
C   1.3475106909 -0.5618744751 -0.1298929988
H   0.7071293478 -0.2326784910  1.2479829903
H   0.9740050511 -1.1543831376 -0.9636923709
H   2.3712390989 -0.8227273624  0.1630613142
7
Iter 6 Image 6  Energy = -29.6008051699
C   0.9714404046  0.8299809817 -0.1023934447
H   0.7277816139  1.4020105999 -1.0052792568
O   0.4900234415  1.1046366585  1.0729296966
C   1.3300806994 -0.5658686477 -0.0826104091
H   0.7414022226 -0.3171251119  1.1950887921
H   0.9680497101 -1.1495216603 -0.9424964241
H   2.3724634247 -0.8137459332  0.1586997559
7
Iter 6 Image 7  Energy = -29.6335285521
C   0.9545632638  0.8511335034 -0.0881789927
H   0.7416577852  1.3974554148 -1.0125151389
O   0.4762082129  1.1895535047  1.0413630353
C   1.3131679175 -0.5668052467 -0.0288104365
H   0.7821913078 -0.4391440690  1.1431959443
H   0.9594864877 -1.1433970456 -0.9080674204
H   2.3739664996 -0.7984292030  0.1469516776
7
Iter 6 Image 8  Energy = -29.6762298858
C   0.9233536861  0.8690016985 -0.0626296597
H   0.7797225230  1.3894719765 -1.0301101865
O   0.4373967605  1.2820334347  0.9906577056
C   1.3028074628 -0.5612186223  0.0238216372
H   0.8386055800 -0.5871839239  1.0998223283
H   0.9378666470 -1.1439588062 -0.8419752641
H   2.3814887307 -0.7577789683  0.1143521201
7
Iter 6 Image 9  Energy = -29.6979091531
C   0.8716078646  0.8711165946 -0.0547394477
H   0.8574441913  1.3755738721 -1.0413750507
O   0.3468207734  1.3549821946  0.9393296961
C   1.3099772850 -0.5532361155  0.0588063013
H   0.9147790199 -0.7173415877  1.0964048238
H   0.9041148008 -1.1613671336 -0.7555179443
H   2.3964974299 -0.6793611885  0.0510304088
7
Iter 6 Image 10  Energy = -29.7067884570
C   0.8091180632  0.8644119877 -0.0506904355
H   0.9327608911  1.3657910569 -1.0370073919
O   0.2645474240  1.4072292546  0.8876531723
C   1.3118894581 -0.5461306846  0.0850244606
H   0.9900252458 -0.8202560272  1.1078724441
H   0.8919412165 -1.1834480661 -0.6975948508
H   2.4009592677 -0.5972308084 -0.0013185941
7
Iter 6 Image 11  Energy = -29.7096971637
C   0.7840367852  0.8656586589 -0.0371164025
H   0.9809293880  1.3403901038 -1.0231241499
O   0.1875804579  1.4681235287  0.8223429327
C   1.3100769769 -0.5359012779  0.1153731248
H   1.0639489065 -0.9236344469  1.1059940899
H   0.8779311114 -1.1816924395 -0.6582837811
H   2.3967379442 -0.5425772870 -0.0312469938
7
Iter 7 Image 0  Energy = -29.6796137011
C   0.8260657415  0.5508603911 -0.1261794589
H   0.4554445983  1.2417513435 -0.8784317668
O   0.5680753083  1.0246514429  1.1187434847
C   1.4411098584 -0.5873603774 -0.4363613732
H   0.9099091373  0.3932317500  1.7666320721
H   1.5916834696 -0.8592929697 -1.4741885892
H   1.8089534565 -1.2734747403  0.3237244514
7
Iter 7 Image 1  Energy = -29.6752615190
C   0.9145659943  0.6293765637 -0.1439303900
H   0.5860714237  1.3297708938 -0.9102743038
O   0.5783748505  1.0093115637  1.1381616306
C   1.4341965921 -0.5764858345 -0.4053206292
H   0.6989301995  0.2012837209  1.6904204033
H   1.2816697331 -1.0332737724 -1.3709501838
H   2.1074327901 -1.0696161149  0.2958323622
7
Iter 7 Image 2  Energy = -29.6651559538
C   0.9484341701  0.6757610474 -0.1472104104
H   0.6416836030  1.3743414725 -0.9314447049
O   0.5617932613  0.9853354088  1.1398667822
C   1.4233376755 -0.5637670594 -0.3599902334
H   0.6518665461  0.0923882845  1.5782680423
H   1.1477707354 -1.1065789812 -1.2456467117
H   2.2263555447 -0.9671132855  0.2600957432
7
Iter 7 Image 3  Energy = -29.6469515926
C   0.9719017394  0.7273352228 -0.1482843579
H   0.6876655141  1.4061312571 -0.9609553255
O   0.5358747738  0.9612311151  1.1321528682
C   1.4062487742 -0.5548266219 -0.2934487042
H   0.6396721658 -0.0116724196  1.4547419599
H   1.0428535777 -1.1547977062 -1.1043373645
H   2.3170249810 -0.8830341245  0.2140694612
7
Iter 7 Image 4  Energy = -29.6161366469
C   0.9762998678  0.7779076299 -0.1348943707
H   0.7190126651  1.4173779172 -0.9893793656
O   0.5101978952  0.9833716971  1.1201266546
C   1.3719262056 -0.5554979036 -0.1888866919
H   0.6751783170 -0.1317904090  1.3003978043
H   0.9829929688 -1.1690629268 -0.9893068212
H   2.3656336295 -0.8319391359  0.1758814696
7
Iter 7 Image 5  Energy = -29.5990403509
C   0.9681327137  0.8041188758 -0.1227943752
H   0.7275276094  1.4172979519 -0.9999659575
O   0.4977893083  1.0452521677  1.1050249405
C   1.3513344159 -0.5610387109 -0.1327256360
H   0.7098039951 -0.2268176021  1.2352237590
H   0.9716570281 -1.1663185262 -0.9565541966
H   2.3749964723 -0.8221272248  0.1657302178
7
Iter 7 Image 6  Energy = -29.6023749626
C   0.9550413625  0.8227166516 -0.1050427171
H   0.7324721018  1.4146791971 -1.0022182337
O   0.4937993859  1.1000131086  1.0830085843
C   1.3333558218 -0.5662280221 -0.0866491080
H   0.7439993217 -0.3049425758  1.1799258078
H   0.9676469696 -1.1601144936 -0.9390608936
H   2.3749265601 -0.8157569624  0.1639752843
7
Iter 7 Image 7  Energy = -29.6344241267
C   0.9378025108  0.8468150726 -0.0853179949
H   0.7423097742  1.4103761424 -1.0084418496
O   0.4859049479  1.1856435425  1.0477993952
C   1.3149406603 -0.5685109119 -0.0314648542
H   0.7843720082 -0.4283701117  1.1245712552
H   0.9620994936 -1.1509973345 -0.9090392015
H   2.3738120950 -0.8045895120  0.1558319267
7
Iter 7 Image 8  Energy = -29.6787440097
C   0.9119979125  0.8653682421 -0.0735630474
H   0.7765229728  1.3983548073 -1.0230549686
O   0.4485875030  1.2957497766  1.0054744723
C   1.3033599951 -0.5642094599  0.0244940163
H   0.8392350946 -0.5910166089  1.0798223283
H   0.9437383801 -1.1456449842 -0.8460169638
H   2.3777995407 -0.7682349643  0.1267828248
7
Iter 7 Image 9  Energy = -29.6998415655
C   0.8618958523  0.8702165867 -0.0555954355
H   0.8545254691  1.3812725303 -1.0387576518
O   0.3565707427  1.3733765556  0.9420887890
C   1.3092443665 -0.5538021902  0.0602009773
H   0.9157113104 -0.7315096190  1.0836219499
H   0.9079514630 -1.1620280111 -0.7569364698
H   2.3953421433 -0.6871592225  0.0593166152
7
Iter 7 Image 10  Energy = -29.7073597974
C   0.8089426264  0.8649747427 -0.0525851194
H   0.9293517343  1.3679699563 -1.0361993859
O   0.2668714081  1.4189135414  0.8897320251
C   1.3114627158 -0.5468260100  0.0867933086
H   0.9906540637 -0.8289208983  1.1014398753
H   0.8932477687 -1.1835985537 -0.6972307563
H   2.4007112319 -0.6021460832  0.0019888524
7
Iter 7 Image 11  Energy = -29.7096971637
C   0.7840367852  0.8656586589 -0.0371164025
H   0.9809293880  1.3403901038 -1.0231241499
O   0.1875804579  1.4681235287  0.8223429327
C   1.3100769769 -0.5359012779  0.1153731248
H   1.0639489065 -0.9236344469  1.1059940899
H   0.8779311114 -1.1816924395 -0.6582837811
H   2.3967379442 -0.5425772870 -0.0312469938
7
Iter 8 Image 0  Energy = -29.6796137011
C   0.8260657415  0.5508603911 -0.1261794589
H   0.4554445983  1.2417513435 -0.8784317668
O   0.5680753083  1.0246514429  1.1187434847
C   1.4411098584 -0.5873603774 -0.4363613732
H   0.9099091373  0.3932317500  1.7666320721
H   1.5916834696 -0.8592929697 -1.4741885892
H   1.8089534565 -1.2734747403  0.3237244514
7
Iter 8 Image 1  Energy = -29.6762069231
C   0.9007503102  0.6207837498 -0.1460285316
H   0.5901320072  1.3338627655 -0.9104698059
O   0.5829663877  1.0089176512  1.1418104805
C   1.4407217525 -0.5745231368 -0.4135645863
H   0.6972930509  0.2078776586  1.7008331494
H   1.2848972794 -1.0376976399 -1.3754330398
H   2.1044807966 -1.0688540146  0.2967912238
7
Iter 8 Image 2  Energy = -29.6669004625
C   0.9315850158  0.6658213740 -0.1504565306
H   0.6495935156  1.3830633645 -0.9301263886
O   0.5648457146  0.9843008454  1.1448961456
C   1.4321909758 -0.5620814120 -0.3721670190
H   0.6483515743  0.0996053550  1.5876827288
H   1.1467253828 -1.1185648153 -1.2463753816
H   2.2279493528 -0.9617778324  0.2604849223
7
Iter 8 Image 3  Energy = -29.6493667877
C   0.9550864543  0.7185384500 -0.1530683961
H   0.6985830474  1.4193057773 -0.9601775051
O   0.5365369393  0.9563899151  1.1382978843
C   1.4152007937 -0.5528191016 -0.3052127523
H   0.6357475524 -0.0042337786  1.4564393794
H   1.0360782769 -1.1724184866 -1.0950413924
H   2.3240084696 -0.8743960332  0.2127013232
7
Iter 8 Image 4  Energy = -29.6174675143
C   0.9585655842  0.7724130306 -0.1376990911
H   0.7284831218  1.4319115092 -0.9891712527
O   0.5115431656  0.9806788037  1.1256954619
C   1.3761128802 -0.5549818466 -0.1924486211
H   0.6774384521 -0.1282820392  1.2876184997
H   0.9778946731 -1.1843334304 -0.9763870288
H   2.3712036678 -0.8270391281  0.1763307436
7
Iter 8 Image 5  Energy = -29.6008796161
C   0.9506524599  0.7978868335 -0.1258139390
H   0.7343575053  1.4317907511 -0.9985025251
O   0.5005706108  1.0421297616  1.1130870351
C   1.3542218996 -0.5611901808 -0.1365476218
H   0.7134099982 -0.2195532212  1.2209161916
H   0.9698639606 -1.1795414601 -0.9486524134
H   2.3781651041 -0.8211555374  0.1694520228
7
Iter 8 Image 6  Energy = -29.6037911838
C   0.9382037966  0.8145862278 -0.1067893579
H   0.7373854635  1.4289254253 -0.9984543941
O   0.4976557669  1.0948499416  1.0925235606
C   1.3359121284 -0.5666259611 -0.0917401404
H   0.7475296222 -0.2917408489  1.1631708804
H   0.9672485495 -1.1726026819 -0.9346497136
H   2.3773062012 -0.8170251816  0.1698778948
7
Iter 8 Image 7  Energy = -29.6348432964
C   0.9223168685  0.8419944642 -0.0871980805
H   0.7438183474  1.4247898920 -1.0030492550
O   0.4929033511  1.1825876096  1.0578733638
C   1.3158814328 -0.5703215430 -0.0354178197
H   0.7876210298 -0.4182703147  1.1053924504
H   0.9638645172 -1.1610814763 -0.9084330189
H   2.3748359603 -0.8093317209  0.1647710599
7
Iter 8 Image 8  Energy = -29.6811621702
C   0.8956774696  0.8654531681 -0.0663081328
H   0.7730366117  1.4102851007 -1.0183528885
O   0.4658827521  1.3022887181  1.0068532515
C   1.3032523397 -0.5660341054  0.0210780404
H   0.8385807222 -0.5943627708  1.0598223283
H   0.9492443038 -1.1493851542 -0.8486235311
H   2.3755672107 -0.7778781210  0.1394695797
7
Iter 8 Image 9  Energy = -29.7014743900
C   0.8517720578  0.8709960703 -0.0551580520
H   0.8509956304  1.3874109744 -1.0359221020
O   0.3685479474  1.3920228883  0.9440322034
C   1.3083992580 -0.5544087255  0.0603536106
H   0.9153709851 -0.7477811903  1.0709182476
H   0.9121099647 -1.1630108865 -0.7586667955
H   2.3940454908 -0.6948625004  0.0683816497
7
Iter 8 Image 10  Energy = -29.7078348166
C   0.8071485174  0.8673736838 -0.0510113867
H   0.9256325158  1.3704358793 -1.0358406831
O   0.2714950283  1.4303533930  0.8890471127
C   1.3109499640 -0.5472703995  0.0881623829
H   0.9909660655 -0.8393444680  1.0950256299
H   0.8947037935 -1.1838791622 -0.6971364983
H   2.4003456444 -0.6073022490  0.0056922362
7
Iter 8 Image 11  Energy = -29.7096971637
C   0.7840367852  0.8656586589 -0.0371164025
H   0.9809293880  1.3403901038 -1.0231241499
O   0.1875804579  1.4681235287  0.8223429327
C   1.3100769769 -0.5359012779  0.1153731248
H   1.0639489065 -0.9236344469  1.1059940899
H   0.8779311114 -1.1816924395 -0.6582837811
H   2.3967379442 -0.5425772870 -0.0312469938
7
Iter 9 Image 0  Energy = -29.6796137011
C   0.8260657415  0.5508603911 -0.1261794589
H   0.4554445983  1.2417513435 -0.8784317668
O   0.5680753083  1.0246514429  1.1187434847
C   1.4411098584 -0.5873603774 -0.4363613732
H   0.9099091373  0.3932317500  1.7666320721
H   1.5916834696 -0.8592929697 -1.4741885892
H   1.8089534565 -1.2734747403  0.3237244514
7
Iter 9 Image 1  Energy = -29.6768286741
C   0.8885545085  0.6130995433 -0.1490280367
H   0.5936177335  1.3368963472 -0.9096373541
O   0.5875717156  1.0083521108  1.1446067501
C   1.4459064262 -0.5723769487 -0.4198721359
H   0.6956169312  0.2144766208  1.7118115889
H   1.2889984089 -1.0423377453 -1.3808928110
H   2.1009758633 -1.0677428782  0.2969508807
7
Iter 9 Image 2  Energy = -29.6680624700
C   0.9167986697  0.6571064283 -0.1550310599
H   0.6572750932  1.3909079000 -0.9276107588
O   0.5680134396  0.9820276538  1.1488570577
C   1.4389610411 -0.5597174586 -0.3827551917
H   0.6444034275  0.1072453876  1.5976880814
H   1.1461106500 -1.1318874920 -1.2472337742
H   2.2296792097 -0.9553155543  0.2600241039
7
Iter 9 Image 3  Energy = -29.6510013706
C   0.9395910343  0.7117956785 -0.1571845456
H   0.7088775619  1.4324604531 -0.9578187741
O   0.5374206680  0.9542372590  1.1407340708
C   1.4222495844 -0.5524399341 -0.3181529459
H   0.6324508978  0.0006111340  1.4594046662
H   1.0305887615 -1.1911998260 -1.0845232033
H   2.3300630282 -0.8650979956  0.2114792996
7
Iter 9 Image 4  Energy = -29.6186154550
C   0.9424466202  0.7695300949 -0.1446874551
H   0.7369179499  1.4460197908 -0.9853247565
O   0.5131488243  0.9776523003  1.1318341481
C   1.3782155185 -0.5567457997 -0.1982902352
H   0.6807635146 -0.1234024685  1.2757690752
H   0.9750312481 -1.2000172609 -0.9642442268
H   2.3747178574 -0.8226697262  0.1788821785
7
Iter 9 Image 5  Energy = -29.6027015513
C   0.9344819702  0.7929454325 -0.1313594740
H   0.7406583710  1.4464483613 -0.9940011497
O   0.5037428425  1.0343640460  1.1225485596
C   1.3552903357 -0.5629418187 -0.1387273669
H   0.7195955810 -0.2073554626  1.2010949578
H   0.9688971311 -1.1939059966 -0.9405718398
H   2.3785753035 -0.8191876093  0.1749550566
7
Iter 9 Image 6  Energy = -29.6051854408
C   0.9217290354  0.8096342882 -0.1101144400
H   0.7424219234  1.4431426042 -0.9923212847
O   0.5017233602  1.0873983572  1.1011645411
C   1.3385786674 -0.5695369138 -0.0949087392
H   0.7527925674 -0.2772750963  1.1431708804
H   0.9668883615 -1.1866937925 -0.9291080450
H   2.3771076202 -0.8163025016  0.1760558356
7
Iter 9 Image 7  Energy = -29.6354012704
C   0.9076447616  0.8365817938 -0.0885904038
H   0.7462660485  1.4403157369 -0.9964256557
O   0.4981639815  1.1793612980  1.0654935703
C   1.3172499287 -0.5706440690 -0.0388434409
H   0.7928281086 -0.4097661533  1.0854771288
H   0.9642218689 -1.1745413264 -0.9058990085
H   2.3748668197 -0.8109403575  0.1727265202
7
Iter 9 Image 8  Energy = -29.6824385291
C   0.8855906286  0.8626594572 -0.0694691694
H   0.7698193041  1.4237610146 -1.0119478208
O   0.4784170408  1.3105207975  1.0169996150
C   1.3027923205 -0.5669843581  0.0158253902
H   0.8365448694 -0.5990397367  1.0420262689
H   0.9529458428 -1.1561649801 -0.8505513519
H   2.3751314305 -0.7843853286  0.1510557231
7
Iter 9 Image 9  Energy = -29.7026883131
C   0.8422232460  0.8746980287 -0.0499657879
H   0.8464119432  1.3940487449 -1.0336880510
O   0.3841676079  1.4075608239  0.9427326674
C   1.3069254194 -0.5549305389  0.0581521253
H   0.9122311365 -0.7654007737  1.0597237209
H   0.9164665519 -1.1643064264 -0.7607740577
H   2.3928154224 -0.7013032035  0.0777581316
7
Iter 9 Image 10  Energy = -29.7082488304
C   0.8055415716  0.8707797275 -0.0485219365
H   0.9216697127  1.3726206676 -1.0355520420
O   0.2772924464  1.4422833905  0.8877190764
C   1.3101528549 -0.5477296464  0.0885217610
H   0.9905045762 -0.8517519938  1.0895820569
H   0.8963278670 -1.1839159647 -0.6973786201
H   2.3997524850 -0.6119195136  0.0095684994
7
Iter 9 Image 11  Energy = -29.7096971637
C   0.7840367852  0.8656586589 -0.0371164025
H   0.9809293880  1.3403901038 -1.0231241499
O   0.1875804579  1.4681235287  0.8223429327
C   1.3100769769 -0.5359012779  0.1153731248
H   1.0639489065 -0.9236344469  1.1059940899
H   0.8779311114 -1.1816924395 -0.6582837811
H   2.3967379442 -0.5425772870 -0.0312469938
7
Iter 10 Image 0  Energy = -29.6796137011
C   0.8260657415  0.5508603911 -0.1261794589
H   0.4554445983  1.2417513435 -0.8784317668
O   0.5680753083  1.0246514429  1.1187434847
C   1.4411098584 -0.5873603774 -0.4363613732
H   0.9099091373  0.3932317500  1.7666320721
H   1.5916834696 -0.8592929697 -1.4741885892
H   1.8089534565 -1.2734747403  0.3237244514
7
Iter 10 Image 1  Energy = -29.6771720713
C   0.8789043110  0.6079344307 -0.1508002316
H   0.5960042805  1.3389387414 -0.9086921113
O   0.5915038094  1.0076689076  1.1465677699
C   1.4494129096 -0.5722813383 -0.4266396010
H   0.6941767312  0.2204874356  1.7211904464
H   1.2934119811 -1.0456151895 -1.3847656662
H   2.0978275663 -1.0667659283  0.2970782687
7
Iter 10 Image 2  Energy = -29.6687179124
C   0.9051856053  0.6513054873 -0.1581505933
H   0.6634477646  1.3974687018 -0.9251018165
O   0.5706055469  0.9814056074  1.1500837093
C   1.4437394214 -0.5598633951 -0.3928858690
H   0.6409087803  0.1122702331  1.6075988136
H   1.1462560296 -1.1434216264 -1.2467389156
H   2.2310983817 -0.9487981578  0.2591331244
7
Iter 10 Image 3  Energy = -29.6520629591
C   0.9279330424  0.7063856828 -0.1634440848
H   0.7174171809  1.4436999171 -0.9541793793
O   0.5379476868  0.9524418610  1.1429811853
C   1.4277348075 -0.5513724467 -0.3276426443
H   0.6300376736  0.0049325373  1.4619252464
H   1.0261476896 -1.2091219057 -1.0758424784
H   2.3340234569 -0.8565988449  0.2101407495
7
Iter 10 Image 4  Energy = -29.6196368253
C   0.9306497112  0.7627285701 -0.1475118689
H   0.7427895776  1.4604418410 -0.9821414682
O   0.5156876418  0.9724386627  1.1352397011
C   1.3795064325 -0.5547198790 -0.2017097729
H   0.6849424601 -0.1160005509  1.2636564595
H   0.9727078565 -1.2159528423 -0.9558734983
H   2.3749578479 -0.8185688485  0.1822791877
7
Iter 10 Image 5  Energy = -29.6040537572
C   0.9224024525  0.7858672260 -0.1332361370
H   0.7451200888  1.4605787604 -0.9895126403
O   0.5072468493  1.0259374246  1.1286011507
C   1.3549143425 -0.5629516526 -0.1417305932
H   0.7259933371 -0.1947750446  1.1822564157
H   0.9682939916 -1.2077564491 -0.9335271817
H   2.3772704709 -0.8165333096  0.1810877257
7
Iter 10 Image 6  Energy = -29.6062663263
C   0.9098985093  0.8032553250 -0.1121930365
H   0.7462027944  1.4566270364 -0.9867243247
O   0.5050664561  1.0799019655  1.1079970217
C   1.3376263180 -0.5699822164 -0.0978518502
H   0.7588711948 -0.2647743069  1.1231708804
H   0.9667125504 -1.1999257548 -0.9229041493
H   2.3768637200 -0.8147350866  0.1824442145
7
Iter 10 Image 7  Energy = -29.6360024726
C   0.8947034285  0.8360938049 -0.0900259143
H   0.7489226260  1.4532232485 -0.9892261910
O   0.5024429509  1.1749045758  1.0705481306
C   1.3181162247 -0.5744109537 -0.0416766169
H   0.7988401361 -0.4025606999  1.0660645311
H   0.9647007884 -1.1865855794 -0.9011711268
H   2.3735153776 -0.8102974611  0.1794259149
7
Iter 10 Image 8  Energy = -29.6834819680
C   0.8758663445  0.8639586703 -0.0666825244
H   0.7673939977  1.4362687977 -1.0057948515
O   0.4905921303  1.3134881110  1.0196955492
C   1.3037855048 -0.5678267028  0.0113787770
H   0.8346540455 -0.6034936192  1.0270963512
H   0.9553110394 -1.1642095026 -0.8519853780
H   2.3736384013 -0.7878188595  0.1602307456
7
Iter 10 Image 9  Energy = -29.7035177863
C   0.8398674989  0.8741616012 -0.0563577873
H   0.8417966649  1.3996027508 -1.0304196436
O   0.3946149085  1.4252006914  0.9511177121
C   1.3054222776 -0.5554233332  0.0579196070
H   0.9083188096 -0.7816850901  1.0495382731
H   0.9198327874 -1.1659328927 -0.7637378841
H   2.3913883770 -0.7055570530  0.0858784617
7
Iter 10 Image 10  Energy = -29.7085659272
C   0.8058754509  0.8726880027 -0.0488307232
H   0.9180402384  1.3742039289 -1.0350781154
O   0.2817702104  1.4543969854  0.8888394887
C   1.3090707550 -0.5481717966  0.0896681193
H   0.9897164085 -0.8634637244  1.0846756244
H   0.8976357658 -1.1838902995 -0.6983034388
H   2.3991326731 -0.6153964330  0.0129678358
7
Iter 10 Image 11  Energy = -29.7096971637
C   0.7840367852  0.8656586589 -0.0371164025
H   0.9809293880  1.3403901038 -1.0231241499
O   0.1875804579  1.4681235287  0.8223429327
C   1.3100769769 -0.5359012779  0.1153731248
H   1.0639489065 -0.9236344469  1.1059940899
H   0.8779311114 -1.1816924395 -0.6582837811
H   2.3967379442 -0.5425772870 -0.0312469938
7
Iter 11 Image 0  Energy = -29.6796137011
C   0.8260657415  0.5508603911 -0.1261794589
H   0.4554445983  1.2417513435 -0.8784317668
O   0.5680753083  1.0246514429  1.1187434847
C   1.4411098584 -0.5873603774 -0.4363613732
H   0.9099091373  0.3932317500  1.7666320721
H   1.5916834696 -0.8592929697 -1.4741885892
H   1.8089534565 -1.2734747403  0.3237244514
7
Iter 11 Image 1  Energy = -29.6773743397
C   0.8713564110  0.6023451209 -0.1519710995
H   0.5975645122  1.3407620680 -0.9077606263
O   0.5951054228  1.0073043485  1.1477935577
C   1.4515417305 -0.5715771145 -0.4321841777
H   0.6928863647  0.2260881264  1.7299796016
H   1.2981131741 -1.0487053735 -1.3888735836
H   2.0946739740 -1.0658501117  0.2969551931
7
Iter 11 Image 2  Energy = -29.6691295719
C   0.8959137972  0.6455420483 -0.1612465369
H   0.6688499948  1.4037292981 -0.9225155011
O   0.5730030716  0.9805557585  1.1504651295
C   1.4472264128 -0.5593616315 -0.4013226073
H   0.6373701709  0.1170946924  1.6172376258
H   1.1465014609 -1.1552712785 -1.2463299264
H   2.2323766186 -0.9419220454  0.2576502707
7
Iter 11 Image 3  Energy = -29.6528234249
C   0.9181537563  0.7013183993 -0.1687361013
H   0.7248907918  1.4550339105 -0.9503353456
O   0.5387136004  0.9503298247  1.1438611198
C   1.4316889036 -0.5507538806 -0.3367726006
H   0.6282517541  0.0095556523  1.4640392292
H   1.0227030981 -1.2269355185 -1.0671970463
H   2.3368396342 -0.8481815551  0.2090793669
7
Iter 11 Image 4  Energy = -29.6206120765
C   0.9198265942  0.7587685469 -0.1509942680
H   0.7477532087  1.4739921559 -0.9770480326
O   0.5186366631  0.9657756184  1.1381398829
C   1.3800029825 -0.5563977246 -0.2073351633
H   0.6900249382 -0.1066667358  1.2513429008
H   0.9717325576 -1.2310044129 -0.9473182323
H   2.3732645832 -0.8141004821  0.1871516631
7
Iter 11 Image 5  Energy = -29.6051464742
C   0.9116151962  0.7812868453 -0.1359032088
H   0.7489353334  1.4738220713 -0.9830878803
O   0.5112175420  1.0167526745  1.1330273357
C   1.3540751795 -0.5646125643 -0.1460786683
H   0.7326948116 -0.1820976628  1.1642368517
H   0.9680330994 -1.2217488270 -0.9264383473
H   2.3746703688 -0.8130355822  0.1881826569
7
Iter 11 Image 6  Energy = -29.6069854415
C   0.8998368157  0.7985292448 -0.1147515700
H   0.7493746394  1.4699723637 -0.9804071676
O   0.5083027460  1.0729405781  1.1133684433
C   1.3367856017 -0.5710248028 -0.1019042954
H   0.7654558266 -0.2546906032  1.1042289831
H   0.9664870273 -1.2133327232 -0.9160164527
H   2.3749988931 -0.8120270841  0.1894208175
7
Iter 11 Image 7  Energy = -29.6366046733
C   0.8848040036  0.8325231276 -0.0904403386
H   0.7512110629  1.4668073426 -0.9829675980
O   0.5054785402  1.1711350278  1.0754324649
C   1.3165567613 -0.5752521807 -0.0446540055
H   0.8055274270 -0.3969018384  1.0460645311
H   0.9648792303 -1.1993207874 -0.8955594710
H   2.3727845239 -0.8086237399  0.1860631690
7
Iter 11 Image 8  Energy = -29.6842534012
C   0.8680743200  0.8659023184 -0.0662179217
H   0.7655047424  1.4485023950 -0.9989972128
O   0.5008302652  1.3159753942  1.0234407157
C   1.3042350399 -0.5696964502  0.0062322343
H   0.8331193937 -0.6084686839  1.0130022555
H   0.9573883210 -1.1726073810 -0.8519159466
H   2.3720894097 -0.7892406695  0.1683945598
7
Iter 11 Image 9  Energy = -29.7043348616
C   0.8346431746  0.8785151545 -0.0510189793
H   0.8369601986  1.4056371687 -1.0287097756
O   0.4098347179  1.4359575958  0.9500856189
C   1.3035524542 -0.5553902872  0.0565095472
H   0.9031610551 -0.7975625243  1.0402444473
H   0.9232150914 -1.1678950955 -0.7670101108
H   2.3898746348 -0.7088953145  0.0938379806
7
Iter 11 Image 10  Energy = -29.7088333732
C   0.8051826529  0.8757802616 -0.0463917683
H   0.9145887347  1.3755816997 -1.0350340015
O   0.2878276891  1.4649717134  0.8878834562
C   1.3078949443 -0.5485537462  0.0905841615
H   0.9884896957 -0.8754107506  1.0802017192
H   0.8989188193 -1.1837239928 -0.6995737744
H   2.3983389535 -0.6182785246  0.0162689940
7
Iter 11 Image 11  Energy = -29.7096971637
C   0.7840367852  0.8656586589 -0.0371164025
H   0.9809293880  1.3403901038 -1.0231241499
O   0.1875804579  1.4681235287  0.8223429327
C   1.3100769769 -0.5359012779  0.1153731248
H   1.0639489065 -0.9236344469  1.1059940899
H   0.8779311114 -1.1816924395 -0.6582837811
H   2.3967379442 -0.5425772870 -0.0312469938
7
Iter 12 Image 0  Energy = -29.6796137011
C   0.8260657415  0.5508603911 -0.1261794589
H   0.4554445983  1.2417513435 -0.8784317668
O   0.5680753083  1.0246514429  1.1187434847
C   1.4411098584 -0.5873603774 -0.4363613732
H   0.9099091373  0.3932317500  1.7666320721
H   1.5916834696 -0.8592929697 -1.4741885892
H   1.8089534565 -1.2734747403  0.3237244514
7
Iter 12 Image 1  Energy = -29.6775009549
C   0.8647375296  0.5978336881 -0.1534946074
H   0.5983494082  1.3415497650 -0.9059667399
O   0.5988724136  1.0068587567  1.1488579526
C   1.4530898062 -0.5715844757 -0.4359158684
H   0.6915880289  0.2322766691  1.7384135604
H   1.3038158473 -1.0517752073 -1.3940641797
H   2.0907885560 -1.0647921243  0.2961087328
7
Iter 12 Image 2  Energy = -29.6693619704
C   0.8882109655  0.6406551522 -0.1657268714
H   0.6740486644  1.4099622148 -0.9190378375
O   0.5755938455  0.9775660226  1.1511387092
C   1.4497100844 -0.5590720427 -0.4086995973
H   0.6330057597  0.1240852786  1.6267414325
H   1.1469049312 -1.1693840915 -1.2455148084
H   2.2337672780 -0.9334457061  0.2550374424
7
Iter 12 Image 3  Energy = -29.6534715658
C   0.9090167202  0.6975792638 -0.1730937333
H   0.7319530471  1.4678594107 -0.9450375397
O   0.5401775386  0.9484898166  1.1418396608
C   1.4339863420 -0.5528008284 -0.3483011002
H   0.6275130358  0.0144582818  1.4662784001
H   1.0207596745 -1.2467970573 -1.0564873536
H   2.3378351810 -0.8384220125  0.2087403253
7
Iter 12 Image 4  Energy = -29.6218379504
C   0.9102896062  0.7555523837 -0.1590433394
H   0.7521891426  1.4882541281 -0.9671722652
O   0.5221461246  0.9579234841  1.1413603767
C   1.3790883836 -0.5591544944 -0.2173053742
H   0.6973251880 -0.0949499649  1.2387920897
H   0.9715980075 -1.2490837778 -0.9384772273
H   2.3686050661 -0.8081747727  0.1957845063
7
Iter 12 Image 5  Energy = -29.6061915672
C   0.9017937840  0.7819958732 -0.1444409148
H   0.7522559693  1.4883352044 -0.9725729696
O   0.5171206817  1.0043085665  1.1349455537
C   1.3524145338 -0.5670180835 -0.1512147078
H   0.7410099129 -0.1707355551  1.1475454584
H   0.9674421149 -1.2391635981 -0.9187588964
H   2.3692045358 -0.8073554537  0.1984352279
7
Iter 12 Image 6  Energy = -29.6076905048
C   0.8901187296  0.8000699409 -0.1214134092
H   0.7519928549  1.4848915301 -0.9708433643
O   0.5125890505  1.0671878640  1.1159175385
C   1.3380995034 -0.5744248241 -0.1083366592
H   0.7731778588 -0.2505920818  1.0881308005
H   0.9658144528 -1.2298211264 -0.9082420491
H   2.3694490989 -0.8069443238  0.1987259090
7
Iter 12 Image 7  Energy = -29.6375388569
C   0.8758184230  0.8304403156 -0.0922540042
H   0.7531772362  1.4820408214 -0.9743399160
O   0.5086132719  1.1682473808  1.0791134734
C   1.3166996140 -0.5754484164 -0.0498093207
H   0.8127606503 -0.3949704969  1.0260645311
H   0.9644611034 -1.2151731328 -0.8887581715
H   2.3697112634 -0.8047694960  0.1939221820
7
Iter 12 Image 8  Energy = -29.6850506729
C   0.8624845946  0.8651995984 -0.0652612759
H   0.7636774929  1.4638797050 -0.9924473170
O   0.5102173575  1.3186305046  1.0283125844
C   1.3022136555 -0.5703207911 -0.0005821311
H   0.8319760900 -0.6154167205  0.9974465567
H   0.9592658479 -1.1834764748 -0.8500600416
H   2.3714064891 -0.7881288541  0.1765303396
7
Iter 12 Image 9  Energy = -29.7048826730
C   0.8341979751  0.8806711854 -0.0538846119
H   0.8306577480  1.4119696352 -1.0252246092
O   0.4254596145  1.4501842440  0.9571137525
C   1.3010631408 -0.5571688903  0.0541845023
H   0.8952856344 -0.8151986203  1.0298941709
H   0.9274214087 -1.1692818726 -0.7710865432
H   2.3871558237 -0.7108089539  0.1029420544
7
Iter 12 Image 10  Energy = -29.7090739077
C   0.8060226132  0.8782611421 -0.0453452822
H   0.9107754152  1.3763041586 -1.0348715833
O   0.2945192593  1.4779568697  0.8887949785
C   1.3063122578 -0.5494613340  0.0912396525
H   0.9862679330 -0.8896167748  1.0756282108
H   0.9004369888 -1.1827360620 -0.7014428404
H   2.3969070089 -0.6203413452  0.0199356428
7
Iter 12 Image 11  Energy = -29.7096971637
C   0.7840367852  0.8656586589 -0.0371164025
H   0.9809293880  1.3403901038 -1.0231241499
O   0.1875804579  1.4681235287  0.8223429327
C   1.3100769769 -0.5359012779  0.1153731248
H   1.0639489065 -0.9236344469  1.1059940899
H   0.8779311114 -1.1816924395 -0.6582837811
H   2.3967379442 -0.5425772870 -0.0312469938
7
Iter 13 Image 0  Energy = -29.6796137011
C   0.8260657415  0.5508603911 -0.1261794589
H   0.4554445983  1.2417513435 -0.8784317668
O   0.5680753083  1.0246514429  1.1187434847
C   1.4411098584 -0.5873603774 -0.4363613732
H   0.9099091373  0.3932317500  1.7666320721
H   1.5916834696 -0.8592929697 -1.4741885892
H   1.8089534565 -1.2734747403  0.3237244514
7
Iter 13 Image 1  Energy = -29.6775707817
C   0.8599459746  0.5943773702 -0.1541616440
H   0.5983318334  1.3418091349 -0.9043093862
O   0.6020564395  1.0069839895  1.1493917733
C   1.4532621424 -0.5723446513 -0.4402622383
H   0.6905239360  0.2375111440  1.7453328692
H   1.3094793486 -1.0536954076 -1.3977782878
H   2.0876419133 -1.0642745032  0.2957257529
7
Iter 13 Image 2  Energy = -29.6694836980
C   0.8824274883  0.6373650338 -0.1686983623
H   0.6781456467  1.4155985209 -0.9158172198
O   0.5777227162  0.9771299545  1.1496295923
C   1.4507853735 -0.5605585615 -0.4163422042
H   0.6290767982  0.1283462588  1.6359563610
H   1.1477281834 -1.1822201285 -1.2433697805
H   2.2353553222 -0.9252942579  0.2525801002
7
Iter 13 Image 3  Energy = -29.6539281076
C   0.9025993060  0.6935183480 -0.1797770552
H   0.7378869022  1.4791540164 -0.9385814589
O   0.5414616436  0.9476382154  1.1399537325
C   1.4354950772 -0.5524385797 -0.3567606824
H   0.6278610812  0.0186028299  1.4681394207
H   1.0190379957 -1.2667970573 -1.0477858231
H   2.3368995340 -0.8293108583  0.2087505567
7
Iter 13 Image 4  Energy = -29.6229842520
C   0.9035754354  0.7502686628 -0.1655028765
H   0.7550731889  1.5032751132 -0.9581481638
O   0.5267473079  0.9505407419  1.1409777962
C   1.3786907977 -0.5578037308 -0.2263115297
H   0.7047165414 -0.0855392108  1.2303414072
H   0.9708930311 -1.2685201563 -0.9327833498
H   2.3615452128 -0.8018544281  0.2053654993
7
Iter 13 Image 5  Energy = -29.6070567733
C   0.8958692512  0.7785505015 -0.1495464455
H   0.7539504963  1.5050260387 -0.9646762152
O   0.5235908937  0.9928874125  1.1330478239
C   1.3496170174 -0.5653669049 -0.1572910465
H   0.7490102316 -0.1632899238  1.1345779712
H   0.9664355808 -1.2564300482 -0.9114791581
H   2.3627680660 -0.8010101256  0.2093058266
7
Iter 13 Image 6  Energy = -29.6083909339
C   0.8838373265  0.7977348357 -0.1244888397
H   0.7533394035  1.5012680603 -0.9634553901
O   0.5174056366  1.0625415376  1.1145846450
C   1.3359609900 -0.5727530079 -0.1147954727
H   0.7810096207 -0.2501222321  1.0746869805
H   0.9649473905 -1.2466723504 -0.9014261433
H   2.3647411818 -0.8016298653  0.2088329979
7
Iter 13 Image 7  Energy = -29.6386568910
C   0.8679106846  0.8339288551 -0.0952627735
H   0.7545536576  1.4961430413 -0.9652061986
O   0.5123977386  1.1653551123  1.0794123818
C   1.3173901052 -0.5784302302 -0.0559414876
H   0.8193339761 -0.3965624795  1.0109153658
H   0.9639943466 -1.2303531729 -0.8820044297
H   2.3656610558 -0.7997141451  0.2020259274
7
Iter 13 Image 8  Energy = -29.6857509530
C   0.8575182215  0.8671622435 -0.0651055494
H   0.7624132409  1.4776843693 -0.9849193178
O   0.5186437626  1.3194802191  1.0311248646
C   1.3028515114 -0.5707716763 -0.0063181293
H   0.8306633208 -0.6231847309  0.9844608507
H   0.9601850817 -1.1949897931 -0.8484858890
H   2.3689664240 -0.7850136251  0.1831819138
7
Iter 13 Image 9  Energy = -29.7054803735
C   0.8328217639  0.8848282350 -0.0488978808
H   0.8244895819  1.4184681049 -1.0231211131
O   0.4432883728  1.4588753853  0.9582033789
C   1.2979908404 -0.5578355100  0.0524182901
H   0.8868191187 -0.8313797734  1.0198786896
H   0.9312338314 -1.1710403987 -0.7759270121
H   2.3845978578 -0.7115492836  0.1113843561
7
Iter 13 Image 10  Energy = -29.7092722720
C   0.8062880581  0.8814176703 -0.0425281535
H   0.9073607513  1.3764626331 -1.0349375173
O   0.3022377251  1.4888808623  0.8884151874
C   1.3044663321 -0.5503467234  0.0923086888
H   0.9836779849 -0.9029985375  1.0712791424
H   0.9017736904 -1.1815221531 -0.7038890136
H   2.3954369211 -0.6215270965  0.0232904372
7
Iter 13 Image 11  Energy = -29.7096971637
C   0.7840367852  0.8656586589 -0.0371164025
H   0.9809293880  1.3403901038 -1.0231241499
O   0.1875804579  1.4681235287  0.8223429327
C   1.3100769769 -0.5359012779  0.1153731248
H   1.0639489065 -0.9236344469  1.1059940899
H   0.8779311114 -1.1816924395 -0.6582837811
H   2.3967379442 -0.5425772870 -0.0312469938
7
Iter 14 Image 0  Energy = -29.6796137011
C   0.8260657415  0.5508603911 -0.1261794589
H   0.4554445983  1.2417513435 -0.8784317668
O   0.5680753083  1.0246514429  1.1187434847
C   1.4411098584 -0.5873603774 -0.4363613732
H   0.9099091373  0.3932317500  1.7666320721
H   1.5916834696 -0.8592929697 -1.4741885892
H   1.8089534565 -1.2734747403  0.3237244514
7
Iter 14 Image 1  Energy = -29.6776249325
C   0.8569354351  0.5910519093 -0.1544270813
H   0.5974013516  1.3417307575 -0.9027658399
O   0.6049625442  1.0074078520  1.1496172278
C   1.4524172387 -0.5730080850 -0.4433266936
H   0.6895962606  0.2423706452  1.7510096545
H   1.3152997992 -1.0551218417 -1.4014082798
H   2.0846289560 -1.0640641593  0.2952398355
7
Iter 14 Image 2  Energy = -29.6694985396
C   0.8787993447  0.6340373150 -0.1718852705
H   0.6814115618  1.4211159512 -0.9125356940
O   0.5797010846  0.9764712452  1.1479585439
C   1.4507399660 -0.5614034076 -0.4219744898
H   0.6251598505  0.1329388203  1.6438932386
H   1.1484957274 -1.1959149584 -1.2411538897
H   2.2369339963 -0.9168781538  0.2496360696
7
Iter 14 Image 3  Energy = -29.6542864358
C   0.8975647378  0.6909296723 -0.1867318809
H   0.7429029709  1.4903356746 -0.9314205472
O   0.5431893598  0.9468603894  1.1368669244
C   1.4357041852 -0.5536278900 -0.3655789468
H   0.6294564839  0.0226605070  1.4698300088
H   1.0183894599 -1.2867970573 -1.0387915070
H   2.3340343423 -0.8199943497  0.2097646725
7
Iter 14 Image 4  Energy = -29.6243359810
C   0.8981312114  0.7479693884 -0.1726345966
H   0.7568714297  1.5191342853 -0.9488825945
O   0.5324375682  0.9442277498  1.1377205601
C   1.3777945651 -0.5598554767 -0.2398254053
H   0.7125926871 -0.0795226508  1.2270208010
H   0.9713749090 -1.2872374172 -0.9264113051
H   2.3520391462 -0.7943488872  0.2169513336
7
Iter 14 Image 5  Energy = -29.6078902996
C   0.8916311024  0.7776513781 -0.1567231108
H   0.7548716407  1.5223828711 -0.9562310905
O   0.5303725923  0.9826293368  1.1300864425
C   1.3472661574 -0.5660172271 -0.1665301621
H   0.7569316477 -0.1594503781  1.1252106055
H   0.9654601725 -1.2735500302 -0.9033061083
H   2.3547082323 -0.7932790077  0.2214321828
7
Iter 14 Image 6  Energy = -29.6091567642
C   0.8791912472  0.7981099656 -0.1306944713
H   0.7541809092  1.5179281579 -0.9552052287
O   0.5223680794  1.0589333265  1.1126879638
C   1.3336774801 -0.5727218160 -0.1220019547
H   0.7896503750 -0.2533781917  1.0630367510
H   0.9640498761 -1.2637983172 -0.8939960861
H   2.3581235855 -0.7947061467  0.2201118070
7
Iter 14 Image 7  Energy = -29.6401936477
C   0.8643807625  0.8314464266 -0.0976856535
H   0.7549841577  1.5138120160 -0.9587557924
O   0.5156281378  1.1645274666  1.0787651744
C   1.3142507589 -0.5762853525 -0.0621259653
H   0.8262932561 -0.4022310950  0.9980341426
H   0.9630216367 -1.2473321870 -0.8756288588
H   2.3626828562 -0.7935703041  0.2113357443
7
Iter 14 Image 8  Energy = -29.6864709324
C   0.8538196782  0.8710556633 -0.0660024915
H   0.7614636548  1.4915612226 -0.9766223826
O   0.5261747415  1.3192305530  1.0329568041
C   1.3031249784 -0.5720964235 -0.0131900057
H   0.8293470914 -0.6324715452  0.9734297814
H   0.9608701651 -1.2072081726 -0.8459128196
H   2.3664412861 -0.7797042570  0.1892798851
7
Iter 14 Image 9  Energy = -29.7059149212
C   0.8340322227  0.8873177717 -0.0477663806
H   0.8180001891  1.4246222813 -1.0201190031
O   0.4610517078  1.4679786142  0.9632807626
C   1.2948968668 -0.5586551341  0.0505288420
H   0.8768633163 -0.8474243056  1.0097357490
H   0.9350808602 -1.1726127317 -0.7815941904
H   2.3813162335 -0.7108596885  0.1198729222
7
Iter 14 Image 10  Energy = -29.7094297475
C   0.8068108403  0.8842501104 -0.0393695414
H   0.9041215565  1.3759164702 -1.0351067429
O   0.3108877363  1.4996217988  0.8883130729
C   1.3023089885 -0.5512002070  0.0934738712
H   0.9803691161 -0.9166231333  1.0670591796
H   0.9030503215 -1.1797815480 -0.7070630376
H   2.3936928936 -0.6218168320  0.0266319633
7
Iter 14 Image 11  Energy = -29.7096971637
C   0.7840367852  0.8656586589 -0.0371164025
H   0.9809293880  1.3403901038 -1.0231241499
O   0.1875804579  1.4681235287  0.8223429327
C   1.3100769769 -0.5359012779  0.1153731248
H   1.0639489065 -0.9236344469  1.1059940899
H   0.8779311114 -1.1816924395 -0.6582837811
H   2.3967379442 -0.5425772870 -0.0312469938
7
Iter 15 Image 0  Energy = -29.6796137011
C   0.8260657415  0.5508603911 -0.1261794589
H   0.4554445983  1.2417513435 -0.8784317668
O   0.5680753083  1.0246514429  1.1187434847
C   1.4411098584 -0.5873603774 -0.4363613732
H   0.9099091373  0.3932317500  1.7666320721
H   1.5916834696 -0.8592929697 -1.4741885892
H   1.8089534565 -1.2734747403  0.3237244514
7
Iter 15 Image 1  Energy = -29.6776901102
C   0.8544651148  0.5897711540 -0.1543216791
H   0.5957033806  1.3408611511 -0.9010598714
O   0.6077936810  1.0080699225  1.1491258529
C   1.4517580438 -0.5749562381 -0.4448332799
H   0.6888903206  0.2467179144  1.7556413062
H   1.3211665723 -1.0559790317 -1.4051251072
H   2.0814644727 -1.0641178001  0.2945115779
7
Iter 15 Image 2  Energy = -29.6694440609
C   0.8757719288  0.6333400526 -0.1749962152
H   0.6838867761  1.4259845913 -0.9088593190
O   0.5818592964  0.9752407846  1.1459335386
C   1.4503120482 -0.5642061407 -0.4267397600
H   0.6214631134  0.1383137571  1.6504135895
H   1.1495660568 -1.2098852485 -1.2384152696
H   2.2383823144 -0.9084209851  0.2466019807
7
Iter 15 Image 3  Energy = -29.6546196109
C   0.8938872722  0.6886124144 -0.1919697395
H   0.7468060084  1.5024387994 -0.9246472824
O   0.5458468079  0.9460995186  1.1313282702
C   1.4341946168 -0.5558539616 -0.3753111310
H   0.6324769527  0.0263228577  1.4718927969
H   1.0188602022 -1.3067970573 -1.0295307797
H   2.3291696749 -0.8104555808  0.2121766287
7
Iter 15 Image 4  Energy = -29.6258510864
C   0.8949913528  0.7445828923 -0.1820317735
H   0.7579833468  1.5356173620 -0.9396099640
O   0.5387727394  0.9392814617  1.1337501594
C   1.3768539462 -0.5588257324 -0.2545998137
H   0.7209169563 -0.0772732124  1.2275478115
H   0.9714541907 -1.3071716129 -0.9208737830
H   2.3402689923 -0.7858441644  0.2297561632
7
Iter 15 Image 5  Energy = -29.6087121582
C   0.8888041019  0.7780458939 -0.1665538211
H   0.7554575382  1.5398512621 -0.9470221403
O   0.5369412291  0.9746491976  1.1279214109
C   1.3463377906 -0.5665631417 -0.1777253977
H   0.7643714549 -0.1590968070  1.1187986703
H   0.9636986966 -1.2920351690 -0.8956670210
H   2.3456307402 -0.7844843043  0.2341870675
7
Iter 15 Image 6  Energy = -29.6099861777
C   0.8753550871  0.7998241098 -0.1358779019
H   0.7546065246  1.5354847935 -0.9471943880
O   0.5282465498  1.0555880842  1.1085133265
C   1.3318426978 -0.5742413471 -0.1303660189
H   0.7986877781 -0.2590785338  1.0523237008
H   0.9630284427 -1.2811935562 -0.8857136720
H   2.3494744713 -0.7860165808  0.2322537434
7
Iter 15 Image 7  Energy = -29.6420447296
C   0.8601474876  0.8370538349 -0.1040954072
H   0.7555941913  1.5298257477 -0.9499590013
O   0.5203765397  1.1629887021  1.0756421754
C   1.3134256714 -0.5794905987 -0.0689286102
H   0.8333546105 -0.4111272215  0.9877678589
H   0.9624507510 -1.2637704310 -0.8677485799
H   2.3558923212 -0.7851130421  0.2212603724
7
Iter 15 Image 8  Energy = -29.6871848470
C   0.8528593809  0.8708677573 -0.0660636377
H   0.7604679099  1.5079581311 -0.9705808307
O   0.5323594648  1.3193442262  1.0350351930
C   1.2998054531 -0.5716262439 -0.0200355946
H   0.8289009500 -0.6430015543  0.9630358958
H   0.9614844116 -1.2205158095 -0.8428655111
H   2.3653640528 -0.7726594580  0.1954132769
7
Iter 15 Image 9  Energy = -29.7063395596
C   0.8351328100  0.8912049959 -0.0441183943
H   0.8114763619  1.4304773873 -1.0167607737
O   0.4808904950  1.4748014258  0.9669833928
C   1.2911888286 -0.5602252952  0.0469748799
H   0.8655140877 -0.8636613202  0.9996268795
H   0.9394380981 -1.1734953987 -0.7872985277
H   2.3776007485 -0.7087349435  0.1285312460
7
Iter 15 Image 10  Energy = -29.7095277673
C   0.8089919795  0.8851820775 -0.0393724208
H   0.9010825828  1.3742780420 -1.0348071226
O   0.3191642073  1.5119082333  0.8914644052
C   1.2999434220 -0.5523300592  0.0941760712
H   0.9762066296 -0.9304978214  1.0631029146
H   0.9043927373 -1.1770737896 -0.7107010961
H   2.3914598819 -0.6211000188  0.0300760103
7
Iter 15 Image 11  Energy = -29.7096971935
C   0.7840367852  0.8656586589 -0.0371164025
H   0.9809293880  1.3403901038 -1.0231241499
O   0.1875804579  1.4681235287  0.8223429327
C   1.3100769769 -0.5359012779  0.1153731248
H   1.0639489065 -0.9236344469  1.1059940899
H   0.8779311114 -1.1816924395 -0.6582837811
H   2.3967379442 -0.5425772870 -0.0312469938
7
Iter 16 Image 0  Energy = -29.6796137011
C   0.8260657415  0.5508603911 -0.1261794589
H   0.4554445983  1.2417513435 -0.8784317668
O   0.5680753083  1.0246514429  1.1187434847
C   1.4411098584 -0.5873603774 -0.4363613732
H   0.9099091373  0.3932317500  1.7666320721
H   1.5916834696 -0.8592929697 -1.4741885892
H   1.8089534565 -1.2734747403  0.3237244514
7
Iter 16 Image 1  Energy = -29.6777693695
C   0.8540939208  0.5877501785 -0.1543211789
H   0.5931388951  1.3398030892 -0.8996065481
O   0.6101303259  1.0092669093  1.1486064347
C   1.4495089833 -0.5757642542 -0.4458652459
H   0.6884517684  0.2504544730  1.7589432308
H   1.3269004016 -1.0561568427 -1.4082207196
H   2.0790172896 -1.0649864880  0.2944028017
7
Iter 16 Image 2  Energy = -29.6693921751
C   0.8751101165  0.6313661301 -0.1775425181
H   0.6851894938  1.4308823426 -0.9055091797
O   0.5837463528  0.9759461717  1.1425608126
C   1.4477560472 -0.5658253454 -0.4304751002
H   0.6184145387  0.1422993938  1.6562330715
H   1.1509497268 -1.2235988384 -1.2354296562
H   2.2400752588 -0.9007030427  0.2441011540
7
Iter 16 Image 3  Energy = -29.6549235499
C   0.8919581283  0.6868845928 -0.1989091848
H   0.7496808388  1.5134954441 -0.9173214630
O   0.5489238408  0.9459609225  1.1252949176
C   1.4321635129 -0.5569265649 -0.3833073948
H   0.6367606626  0.0290673338  1.4746751440
H   1.0197704892 -1.3267970573 -1.0218062982
H   2.3219840588 -0.8013176451  0.2153130880
7
Iter 16 Image 4  Energy = -29.6273851907
C   0.8930532128  0.7434075132 -0.1925567594
H   0.7585207678  1.5509165181 -0.9302095637
O   0.5456790465  0.9342543907  1.1297235765
C   1.3764628095 -0.5585656447 -0.2702029219
H   0.7291463115 -0.0766442724  1.2301821410
H   0.9715070567 -1.3262646945 -0.9159843923
H   2.3268723270 -0.7767368236  0.2429867276
7
Iter 16 Image 5  Energy = -29.6094769454
C   0.8877786252  0.7771321960 -0.1740075297
H   0.7554672083  1.5575669641 -0.9387203347
O   0.5438427929  0.9674749080  1.1240214079
C   1.3451767412 -0.5651536822 -0.1897202144
H   0.7711405849 -0.1607373061  1.1141239645
H   0.9615348419 -1.3107509838 -0.8886322819
H   2.3363007651 -0.7751651727  0.2468737714
7
Iter 16 Image 6  Energy = -29.6108035213
C   0.8733886282  0.8010541333 -0.1415582254
H   0.7546968023  1.5527937914 -0.9395714560
O   0.5341817591  1.0531536381  1.1037751955
C   1.3295923210 -0.5736171185 -0.1380668479
H   0.8073266460 -0.2672815242  1.0430225905
H   0.9613246565 -1.2991661262 -0.8781223616
H   2.3407307405 -0.7765698365  0.2444599019
7
Iter 16 Image 7  Energy = -29.6440279847
C   0.8578479852  0.8386140587 -0.1057364554
H   0.7557508233  1.5474159008 -0.9439924280
O   0.5258016749  1.1622426832  1.0695263495
C   1.3114441856 -0.5798983077 -0.0762608128
H   0.8401016811 -0.4218683360  0.9789283500
H   0.9615138703 -1.2806741622 -0.8600050970
H   2.3487813517 -0.7754648435  0.2314789100
7
Iter 16 Image 8  Energy = -29.6879007882
C   0.8519904780  0.8736904241 -0.0682508391
H   0.7601878171  1.5228937807 -0.9637171374
O   0.5380307631  1.3181340962  1.0357178910
C   1.2987303423 -0.5723955324 -0.0260198198
H   0.8286795210 -0.6546142468  0.9550341141
H   0.9617439390 -1.2338445375 -0.8394844814
H   2.3618787844 -0.7634969255  0.2006590793
7
Iter 16 Image 9  Energy = -29.7067064410
C   0.8377625541  0.8931006525 -0.0427748461
H   0.8052584573  1.4358905224 -1.0132243979
O   0.5001932140  1.4815511495  0.9734596283
C   1.2868953197 -0.5616013669  0.0441714366
H   0.8538037050 -0.8791044384  0.9892789927
H   0.9436502226 -1.1742461389 -0.7937887877
H   2.3736779962 -0.7052234796  0.1368166726
7
Iter 16 Image 10  Energy = -29.7096507019
C   0.8081998441  0.8890744417 -0.0332917320
H   0.8987171726  1.3719475092 -1.0351745381
O   0.3305357697  1.5199000516  0.8897585089
C   1.2972830992 -0.5533792815  0.0947485698
H   0.9716592017 -0.9437156506  1.0594221137
H   0.9056427044 -1.1739957768 -0.7148012445
H   2.3892036352 -0.6194646172  0.0332770835
7
Iter 16 Image 11  Energy = -29.7096971637
C   0.7840367852  0.8656586589 -0.0371164025
H   0.9809293880  1.3403901038 -1.0231241499
O   0.1875804579  1.4681235287  0.8223429327
C   1.3100769769 -0.5359012779  0.1153731248
H   1.0639489065 -0.9236344469  1.1059940899
H   0.8779311114 -1.1816924395 -0.6582837811
H   2.3967379442 -0.5425772870 -0.0312469938
7
Iter 17 Image 0  Energy = -29.6796137011
C   0.8260657415  0.5508603911 -0.1261794589
H   0.4554445983  1.2417513435 -0.8784317668
O   0.5680753083  1.0246514429  1.1187434847
C   1.4411098584 -0.5873603774 -0.4363613732
H   0.9099091373  0.3932317500  1.7666320721
H   1.5916834696 -0.8592929697 -1.4741885892
H   1.8089534565 -1.2734747403  0.3237244514
7
Iter 17 Image 1  Energy = -29.6778757042
C   0.8546408386  0.5878924990 -0.1539231490
H   0.5896824155  1.3379817693 -0.8983137712
O   0.6120612603  1.0106908820  1.1477769872
C   1.4472694519 -0.5781985184 -0.4463805031
H   0.6884320670  0.2535624388  1.7605976888
H   1.3324274100 -1.0551316581 -1.4103257745
H   2.0767281394 -1.0664303605  0.2945072782
7
Iter 17 Image 2  Energy = -29.6693315572
C   0.8754826879  0.6317983285 -0.1801075041
H   0.6851993813  1.4347448750 -0.9021164336
O   0.5855965532  0.9768777823  1.1389826348
C   1.4448896796 -0.5695148787 -0.4326374000
H   0.6163106242  0.1465139510  1.6602212655
H   1.1528362433 -1.2363350645 -1.2322036432
H   2.2409263665 -0.8937181783  0.2417997072
7
Iter 17 Image 3  Energy = -29.6551931715
C   0.8916766759  0.6868549445 -0.2071937921
H   0.7512300671  1.5231055183 -0.9097761268
O   0.5526869604  0.9453089099  1.1194591328
C   1.4290148640 -0.5590032343 -0.3908858840
H   0.6425132720  0.0320862215  1.4778511429
H   1.0218886109 -1.3451498233 -1.0152672507
H   2.3122310810 -0.7928354804  0.2197516305
7
Iter 17 Image 4  Energy = -29.6289262986
C   0.8930587816  0.7419453844 -0.1999143037
H   0.7580934812  1.5658174214 -0.9221388812
O   0.5537223188  0.9285647400  1.1237047640
C   1.3756823580 -0.5579984044 -0.2869823016
H   0.7368341620 -0.0771990655  1.2345374351
H   0.9716953792 -1.3437063568 -0.9115694365
H   2.3121550600 -0.7670567491  0.2563015409
7
Iter 17 Image 5  Energy = -29.6101518935
C   0.8882030954  0.7780918036 -0.1804972806
H   0.7550705544  1.5738727136 -0.9305960130
O   0.5510904893  0.9603569463  1.1190683701
C   1.3440485669 -0.5648716537 -0.2027815688
H   0.7770182905 -0.1640324221  1.1110191338
H   0.9594634190 -1.3280443385 -0.8813673339
H   2.3263471500 -0.7650061390  0.2590934858
7
Iter 17 Image 6  Energy = -29.6115774578
C   0.8734616358  0.8027512133 -0.1478229942
H   0.7545408058  1.5690012246 -0.9322794030
O   0.5399235169  1.0516140940  1.0989176086
C   1.3264238531 -0.5726984886 -0.1458711934
H   0.8151646368 -0.2776997215  1.0348891839
H   0.9592534967 -1.3163206774 -0.8702592664
H   2.3324736135 -0.7662807043  0.2563648779
7
Iter 17 Image 7  Energy = -29.6461108094
C   0.8592761169  0.8386285078 -0.1139473052
H   0.7559596949  1.5638204274 -0.9383590112
O   0.5297029995  1.1641497381  1.0678484837
C   1.3074284714 -0.5779830400 -0.0824194701
H   0.8465056788 -0.4358900672  0.9717501256
H   0.9598579930 -1.2978191727 -0.8527725233
H   2.3425106157 -0.7645394214  0.2418385243
7
Iter 17 Image 8  Energy = -29.6885810113
C   0.8518580571  0.8778323554 -0.0712201561
H   0.7607964998  1.5365327830 -0.9571169565
O   0.5426806394  1.3158055307  1.0347075466
C   1.2977679734 -0.5737219640 -0.0319502180
H   0.8289434151 -0.6669889605  0.9496262935
H   0.9618450328 -1.2469979754 -0.8352475355
H   2.3573500426 -0.7520946992  0.2051398537
7
Iter 17 Image 9  Energy = -29.7070309287
C   0.8404097457  0.8952453961 -0.0393241356
H   0.7996351878  1.4406463394 -1.0097913606
O   0.5201932140  1.4855986901  0.9787446053
C   1.2824850428 -0.5625940548  0.0415747965
H   0.8416427629 -0.8937251311  0.9792653713
H   0.9477129980 -1.1748286807 -0.8010802486
H   2.3691625588 -0.6999756113  0.1445496705
7
Iter 17 Image 10  Energy = -29.7097179359
C   0.8107983833  0.8882925572 -0.0344162658
H   0.8967744172  1.3684069474 -1.0348038367
O   0.3396011690  1.5307891126  0.8948514853
C   1.2941985175 -0.5544682390  0.0959784094
H   0.9665373897 -0.9558606263  1.0556560300
H   0.9066777051 -1.1701671973 -0.7197302804
H   2.3866538303 -0.6166258629  0.0364032180
7
Iter 17 Image 11  Energy = -29.7096971637
C   0.7840367852  0.8656586589 -0.0371164025
H   0.9809293880  1.3403901038 -1.0231241499
O   0.1875804579  1.4681235287  0.8223429327
C   1.3100769769 -0.5359012779  0.1153731248
H   1.0639489065 -0.9236344469  1.1059940899
H   0.8779311114 -1.1816924395 -0.6582837811
H   2.3967379442 -0.5425772870 -0.0312469938
7
Iter 18 Image 0  Energy = -29.6796137011
C   0.8260657415  0.5508603911 -0.1261794589
H   0.4554445983  1.2417513435 -0.8784317668
O   0.5680753083  1.0246514429  1.1187434847
C   1.4411098584 -0.5873603774 -0.4363613732
H   0.9099091373  0.3932317500  1.7666320721
H   1.5916834696 -0.8592929697 -1.4741885892
H   1.8089534565 -1.2734747403  0.3237244514
7
Iter 18 Image 1  Energy = -29.6780172801
C   0.8574974860  0.5885526259 -0.1529790601
H   0.5847329799  1.3357103665 -0.8976880334
O   0.6133648440  1.0128548442  1.1462290954
C   1.4444277197 -0.5804969999 -0.4444242487
H   0.6890997490  0.2555396792  1.7600772563
H   1.3375508166 -1.0530561693 -1.4120454609
H   2.0745679828 -1.0687373188  0.2947691847
7
Iter 18 Image 2  Energy = -29.6692804611
C   0.8781752095  0.6329801253 -0.1823746113
H   0.6832353655  1.4377597923 -0.8992605166
O   0.5874170660  0.9781666261  1.1351227537
C   1.4405864558 -0.5736822465 -0.4321130197
H   0.6157868181  0.1513105985  1.6613447645
H   1.1552950962 -1.2481484492 -1.2289433244
H   2.2407455269 -0.8880196239  0.2401626329
7
Iter 18 Image 3  Energy = -29.6554620332
C   0.8940513322  0.6861000355 -0.2135856350
H   0.7505212780  1.5322889567 -0.9036206080
O   0.5579053993  0.9443761563  1.1124650635
C   1.4233722293 -0.5615148000 -0.3985929668
H   0.6506355266  0.0354029053  1.4812737024
H   1.0259036868 -1.3608491677 -1.0105627396
H   2.2988520820 -0.7854370078  0.2265620660
7
Iter 18 Image 4  Energy = -29.6305506295
C   0.8958942270  0.7418361865 -0.2067584429
H   0.7564698981  1.5787166416 -0.9146598758
O   0.5629383460  0.9224924004  1.1168666681
C   1.3754616480 -0.5570447978 -0.3045728543
H   0.7433192269 -0.0799262645  1.2422464782
H   0.9718641075 -1.3589792278 -0.9083238628
H   2.2952941056 -0.7567279996  0.2691407188
7
Iter 18 Image 5  Energy = -29.6107080942
C   0.8911331997  0.7808965431 -0.1882057819
H   0.7542516372  1.5875932887 -0.9222452301
O   0.5584000661  0.9533235895  1.1148299975
C   1.3436120848 -0.5649349074 -0.2162134336
H   0.7816115559 -0.1694571293  1.1093966844
H   0.9571458899 -1.3434817486 -0.8740123475
H   2.3150871392 -0.7535727398  0.2703889127
7
Iter 18 Image 6  Energy = -29.6123392052
C   0.8754331511  0.8061228023 -0.1522480239
H   0.7540721113  1.5834376892 -0.9256937513
O   0.5461722223  1.0502112913  1.0923394510
C   1.3233551177 -0.5736922121 -0.1535287637
H   0.8217063425 -0.2899892036  1.0271557996
H   0.9569670786 -1.3312906797 -0.8613379538
H   2.3235355407 -0.7544327746  0.2672520606
7
Iter 18 Image 7  Energy = -29.6484277016
C   0.8608632744  0.8443899468 -0.1168362087
H   0.7562970428  1.5778980920 -0.9332344452
O   0.5361575718  1.1634919423  1.0579641277
C   1.3032311496 -0.5784030386 -0.0893467837
H   0.8507341542 -0.4523457786  0.9683018300
H   0.9580947274 -1.3132513306 -0.8443001643
H   2.3358636531 -0.7514128971  0.2513904803
7
Iter 18 Image 8  Energy = -29.6892588949
C   0.8542969649  0.8788668565 -0.0744054906
H   0.7625829178  1.5499700211 -0.9531882342
O   0.5449278082  1.3135387156  1.0333673768
C   1.2927547174 -0.5732094249 -0.0370955373
H   0.8306427705 -0.6802375554  0.9463268348
H   0.9616490454 -1.2607357769 -0.8300123742
H   2.3543874376 -0.7378257713  0.2089462753
7
Iter 18 Image 9  Energy = -29.7073450154
C   0.8440924374  0.8967027302 -0.0372454335
H   0.7949376500  1.4439749677 -1.0056393214
O   0.5401932140  1.4877128373  0.9859063257
C   1.2776609177 -0.5642447552  0.0380414390
H   0.8286517609 -0.9074080402  0.9700284704
H   0.9519456881 -1.1743610219 -0.8087276182
H   2.3637598880 -0.6920097210  0.1515748550
7
Iter 18 Image 10  Energy = -29.7098360425
C   0.8102622335  0.8901947255 -0.0288664555
H   0.8959163236  1.3635029784 -1.0352531803
O   0.3524251640  1.5363858964  0.8952104682
C   1.2908689600 -0.5554792056  0.0963395246
H   0.9604821968 -0.9667212611  1.0526213423
H   0.9076217010 -1.1654053790 -0.7254369777
H   2.3836648163 -0.6121110411  0.0393240323
7
Iter 18 Image 11  Energy = -29.7096971637
C   0.7840367852  0.8656586589 -0.0371164025
H   0.9809293880  1.3403901038 -1.0231241499
O   0.1875804579  1.4681235287  0.8223429327
C   1.3100769769 -0.5359012779  0.1153731248
H   1.0639489065 -0.9236344469  1.1059940899
H   0.8779311114 -1.1816924395 -0.6582837811
H   2.3967379442 -0.5425772870 -0.0312469938
