7
Iteration 1  Energy = -29.6073419517
C   0.8937128427  0.7847245505 -0.1760456198
H   0.7394239225  1.5702138572 -0.9284403318
O   0.5569707194  0.9839943951  1.1143373275
C   1.3318340277 -0.5680963008 -0.1978832264
H   0.7921768724 -0.2323351687  1.0645712488
H   1.0012154026 -1.3286151067 -0.9206088160
H   2.2959070897 -0.7394704051  0.3020224374
7
Iteration 2  Energy = -29.6073514289
C   0.8945685750  0.7897396929 -0.1866692276
H   0.7390218808  1.5688156894 -0.9451418449
O   0.5617872246  0.9995637802  1.1022084619
C   1.3288009677 -0.5645082451 -0.2035171951
H   0.7870680552 -0.2210544024  1.0577728590
H   0.9992623217 -1.3229050394 -0.9250914761
H   2.2913631916 -0.7394851324  0.2971296714
7
Iteration 3  Energy = -29.6073514438
C   0.8946106598  0.7897474482 -0.1866561424
H   0.7391018859  1.5687724171 -0.9451522446
O   0.5618267874  0.9995918417  1.1021309059
C   1.3287963411 -0.5644733676 -0.2035711292
H   0.7869718835 -0.2210362971  1.0576854285
H   0.9993470162 -1.3227857941 -0.9253076033
H   2.2912710274 -0.7395521304  0.2972100072
