7
Image 0  Energy = -29.67961370
C   0.8260657415  0.5508603911 -0.1261794589
H   0.4554445983  1.2417513435 -0.8784317668
O   0.5680753083  1.0246514429  1.1187434847
C   1.4411098584 -0.5873603774 -0.4363613732
H   0.9099091373  0.3932317500  1.7666320721
H   1.5916834696 -0.8592929697 -1.4741885892
H   1.8089534565 -1.2734747403  0.3237244514
7
Image 1  Energy = -29.67801728
C   0.8574974860  0.5885526259 -0.1529790601
H   0.5847329799  1.3357103665 -0.8976880334
O   0.6133648440  1.0128548442  1.1462290954
C   1.4444277197 -0.5804969999 -0.4444242487
H   0.6890997490  0.2555396792  1.7600772563
H   1.3375508166 -1.0530561693 -1.4120454609
H   2.0745679828 -1.0687373188  0.2947691847
7
Image 2  Energy = -29.66928046
C   0.8781752095  0.6329801253 -0.1823746113
H   0.6832353655  1.4377597923 -0.8992605166
O   0.5874170660  0.9781666261  1.1351227537
C   1.4405864558 -0.5736822465 -0.4321130197
H   0.6157868181  0.1513105985  1.6613447645
H   1.1552950962 -1.2481484492 -1.2289433244
H   2.2407455269 -0.8880196239  0.2401626329
7
Image 3  Energy = -29.65546203
C   0.8940513322  0.6861000355 -0.2135856350
H   0.7505212780  1.5322889567 -0.9036206080
O   0.5579053993  0.9443761563  1.1124650635
C   1.4233722293 -0.5615148000 -0.3985929668
H   0.6506355266  0.0354029053  1.4812737024
H   1.0259036868 -1.3608491677 -1.0105627396
H   2.2988520820 -0.7854370078  0.2265620660
7
Image 4  Energy = -29.63055063
C   0.8958942270  0.7418361865 -0.2067584429
H   0.7564698981  1.5787166416 -0.9146598758
O   0.5629383460  0.9224924004  1.1168666681
C   1.3754616480 -0.5570447978 -0.3045728543
H   0.7433192269 -0.0799262645  1.2422464782
H   0.9718641075 -1.3589792278 -0.9083238628
H   2.2952941056 -0.7567279996  0.2691407188
7
Image 5  Energy = -29.61070809
C   0.8911331997  0.7808965431 -0.1882057819
H   0.7542516372  1.5875932887 -0.9222452301
O   0.5584000661  0.9533235895  1.1148299975
C   1.3436120848 -0.5649349074 -0.2162134336
H   0.7816115559 -0.1694571293  1.1093966844
H   0.9571458899 -1.3434817486 -0.8740123475
H   2.3150871392 -0.7535727398  0.2703889127
7
Image 6  Energy = -29.61233921
C   0.8754331511  0.8061228023 -0.1522480239
H   0.7540721113  1.5834376892 -0.9256937513
O   0.5461722223  1.0502112913  1.0923394510
C   1.3233551177 -0.5736922121 -0.1535287637
H   0.8217063425 -0.2899892036  1.0271557996
H   0.9569670786 -1.3312906797 -0.8613379538
H   2.3235355407 -0.7544327746  0.2672520606
7
Image 7  Energy = -29.64842770
C   0.8608632744  0.8443899468 -0.1168362087
H   0.7562970428  1.5778980920 -0.9332344452
O   0.5361575718  1.1634919423  1.0579641277
C   1.3032311496 -0.5784030386 -0.0893467837
H   0.8507341542 -0.4523457786  0.9683018300
H   0.9580947274 -1.3132513306 -0.8443001643
H   2.3358636531 -0.7514128971  0.2513904803
7
Image 8  Energy = -29.68925889
C   0.8542969649  0.8788668565 -0.0744054906
H   0.7625829178  1.5499700211 -0.9531882342
O   0.5449278082  1.3135387156  1.0333673768
C   1.2927547174 -0.5732094249 -0.0370955373
H   0.8306427705 -0.6802375554  0.9463268348
H   0.9616490454 -1.2607357769 -0.8300123742
H   2.3543874376 -0.7378257713  0.2089462753
7
Image 9  Energy = -29.70734502
C   0.8440924374  0.8967027302 -0.0372454335
H   0.7949376500  1.4439749677 -1.0056393214
O   0.5401932140  1.4877128373  0.9859063257
C   1.2776609177 -0.5642447552  0.0380414390
H   0.8286517609 -0.9074080402  0.9700284704
H   0.9519456881 -1.1743610219 -0.8087276182
H   2.3637598880 -0.6920097210  0.1515748550
7
Image 10  Energy = -29.70983604
C   0.8102622335  0.8901947255 -0.0288664555
H   0.8959163236  1.3635029784 -1.0352531803
O   0.3524251640  1.5363858964  0.8952104682
C   1.2908689600 -0.5554792056  0.0963395246
H   0.9604821968 -0.9667212611  1.0526213423
H   0.9076217010 -1.1654053790 -0.7254369777
H   2.3836648163 -0.6121110411  0.0393240323
7
Image 11  Energy = -29.70969716
C   0.7840367852  0.8656586589 -0.0371164025
H   0.9809293880  1.3403901038 -1.0231241499
O   0.1875804579  1.4681235287  0.8223429327
C   1.3100769769 -0.5359012779  0.1153731248
H   1.0639489065 -0.9236344469  1.1059940899
H   0.8779311114 -1.1816924395 -0.6582837811
H   2.3967379442 -0.5425772870 -0.0312469938
