7
Iter 0 Image 0  Energy = -29.6796137011
C   0.8260657415  0.5508603911 -0.1261794589
H   0.4554445983  1.2417513435 -0.8784317668
O   0.5680753083  1.0246514429  1.1187434847
C   1.4411098584 -0.5873603774 -0.4363613732
H   0.9099091373  0.3932317500  1.7666320721
H   1.5916834696 -0.8592929697 -1.4741885892
H   1.8089534565 -1.2734747403  0.3237244514
7
Iter 0 Image 1  Energy = -29.6780227935
C   0.8575390357  0.5885513355 -0.1529381320
H   0.5846042396  1.3355995088 -0.8976902044
O   0.6133717410  1.0129158840  1.1461878407
C   1.4443972009 -0.5805054163 -0.4443946581
H   0.6891868671  0.2555922985  1.7601281355
H   1.3377070099 -1.0528650659 -1.4121880495
H   2.0744354840 -1.0689215167  0.2948338011
7
Iter 0 Image 2  Energy = -29.6692912048
C   0.8782344303  0.6329513596 -0.1823214884
H   0.6831259379  1.4376782757 -0.8992604054
O   0.5874394263  0.9782777142  1.1350388399
C   1.4405207533 -0.5736928581 -0.4320871263
H   0.6158238878  0.1513484010  1.6614598737
H   1.1554168813 -1.2480655703 -1.2291041666
H   2.2406802212 -0.8881304997  0.2402131523
7
Iter 0 Image 3  Energy = -29.6554803020
C   0.8941050910  0.6861041593 -0.2135782036
H   0.7504540068  1.5322208953 -0.9036050734
O   0.5579543958  0.9444438911  1.1123658969
C   1.4233637370 -0.5615241979 -0.3986346126
H   0.6506498336  0.0354392836  1.4815257474
H   1.0259903019 -1.3608333874 -1.0107350453
H   2.2987241681 -0.7854835659  0.2266001731
7
Iter 0 Image 4  Energy = -29.6306105024
C   0.8959991856  0.7418139588 -0.2068705555
H   0.7564422577  1.5786372527 -0.9146167358
O   0.5629810348  0.9224061094  1.1168574657
C   1.3755368128 -0.5570087038 -0.3048160610
H   0.7431931996 -0.0797800034  1.2426907509
H   0.9718964215 -1.3589890310 -0.9084391474
H   2.2951926470 -0.7567126440  0.2691331125
7
Iter 0 Image 5  Energy = -29.6106139934
C   0.8911725456  0.7810664121 -0.1879979354
H   0.7542254442  1.5875866175 -0.9222885097
O   0.5583649683  0.9536833679  1.1147222654
C   1.3434275685 -0.5649161664 -0.2157762056
H   0.7818162140 -0.1701464333  1.1087624270
H   0.9570831656 -1.3433899493 -0.8738520553
H   2.3151516666 -0.7535169524  0.2703688150
7
Iter 0 Image 6  Energy = -29.6123513049
C   0.8755122057  0.8061695728 -0.1522318986
H   0.7540690142  1.5833928066 -0.9257014530
O   0.5461733172  1.0502437735  1.0923204592
C   1.3233358315 -0.5736730156 -0.1534818004
H   0.8216920710 -0.2901195279  1.0271114705
H   0.9569414181 -1.3312815206 -0.8613022066
H   2.3235177066 -0.7543651762  0.2672242470
7
Iter 0 Image 7  Energy = -29.6484839982
C   0.8609518882  0.8444082976 -0.1168609633
H   0.7563090050  1.5778785998 -0.9332875457
O   0.5361283119  1.1636357366  1.0579811987
C   1.3032116341 -0.5784129702 -0.0892737419
H   0.8507228901 -0.4526024488  0.9682728777
H   0.9580779628 -1.3132195754 -0.8442340116
H   2.3358398813 -0.7513207037  0.2513410220
7
Iter 0 Image 8  Energy = -29.6892815894
C   0.8543433502  0.8789125507 -0.0744623630
H   0.7626393674  1.5499112990 -0.9532169341
O   0.5448638119  1.3136263782  1.0333559129
C   1.2927366007 -0.5732150013 -0.0370860487
H   0.8306518747 -0.6804416953  0.9464031935
H   0.9616432717 -1.2607255954 -0.8299503182
H   2.3543633848 -0.7377008720  0.2088954081
7
Iter 0 Image 9  Energy = -29.7073473102
C   0.8441268465  0.8966699192 -0.0372738498
H   0.7949670101  1.4439397020 -1.0056242053
O   0.5402050193  1.4877002011  0.9859753023
C   1.2776189157 -0.5642483936  0.0379902379
H   0.8286243322 -0.9074402770  0.9700455277
H   0.9519592073 -1.1743342998 -0.8087424613
H   2.3637402249 -0.6919198552  0.1515681655
7
Iter 0 Image 10  Energy = -29.7098370558
C   0.8103038724  0.8901459403 -0.0289290161
H   0.8958588818  1.3635116061 -1.0352178660
O   0.3526067337  1.5363651694  0.8953603375
C   1.2908424294 -0.5554834444  0.0962615078
H   0.9603405151 -0.9666765825  1.0525761152
H   0.9076574736 -1.1653736999 -0.7255312650
H   2.3836314893 -0.6121222750  0.0394189403
7
Iter 0 Image 11  Energy = -29.7096971637
C   0.7840367852  0.8656586589 -0.0371164025
H   0.9809293880  1.3403901038 -1.0231241499
O   0.1875804579  1.4681235287  0.8223429327
C   1.3100769769 -0.5359012779  0.1153731248
H   1.0639489065 -0.9236344469  1.1059940899
H   0.8779311114 -1.1816924395 -0.6582837811
H   2.3967379442 -0.5425772870 -0.0312469938
7
Iter 1 Image 0  Energy = -29.6796137011
C   0.8260657415  0.5508603911 -0.1261794589
H   0.4554445983  1.2417513435 -0.8784317668
O   0.5680753083  1.0246514429  1.1187434847
C   1.4411098584 -0.5873603774 -0.4363613732
H   0.9099091373  0.3932317500  1.7666320721
H   1.5916834696 -0.8592929697 -1.4741885892
H   1.8089534565 -1.2734747403  0.3237244514
7
Iter 1 Image 1  Energy = -29.6780638313
C   0.8577988132  0.5885842015 -0.1527370858
H   0.5835911429  1.3347202210 -0.8977263076
O   0.6134330060  1.0131735958  1.1461973221
C   1.4442885086 -0.5807508983 -0.4442198673
H   0.6898813012  0.2562560053  1.7602992760
H   1.3389589753 -1.0512681436 -1.4131378390
H   2.0732898186 -1.0703479652  0.2952632117
7
Iter 1 Image 2  Energy = -29.6693746811
C   0.8785188409  0.6329564742 -0.1821167828
H   0.6822077487  1.4368494967 -0.8992442516
O   0.5876625421  0.9786171550  1.1349739884
C   1.4402384956 -0.5741282575 -0.4318892763
H   0.6161209462  0.1523744659  1.6621323014
H   1.1565253563 -1.2471914277 -1.2305087075
H   2.2399675996 -0.8891110906  0.2405914302
7
Iter 1 Image 3  Energy = -29.6556361234
C   0.8945464484  0.6858739261 -0.2136421992
H   0.7498823206  1.5316650403 -0.9035497396
O   0.5583828031  0.9445255087  1.1120802836
C   1.4232556083 -0.5616034180 -0.3991129829
H   0.6506614949  0.0364831897  1.4835149293
H   1.0268077145 -1.3606192324 -1.0122914484
H   2.2977051279 -0.7859579513  0.2269400415
7
Iter 1 Image 4  Energy = -29.6309723026
C   0.8967807909  0.7413484593 -0.2071407317
H   0.7561820516  1.5782740639 -0.9145373969
O   0.5632833008  0.9223324411  1.1165709565
C   1.3759772892 -0.5566037881 -0.3063778080
H   0.7424535477 -0.0793899520  1.2456377883
H   0.9721099198 -1.3590068694 -0.9093086172
H   2.2944546744 -0.7565874198  0.2690945984
7
Iter 1 Image 5  Energy = -29.6099752402
C   0.8915403828  0.7824602294 -0.1870717083
H   0.7540915118  1.5874588449 -0.9225382152
O   0.5580411901  0.9557387636  1.1145483110
C   1.3421753633 -0.5650155011 -0.2123262575
H   0.7833623334 -0.1745885871  1.1037624270
H   0.9565591102 -1.3427607171 -0.8726671410
H   2.3154716837 -0.7529261238  0.2702313973
7
Iter 1 Image 6  Energy = -29.6125299400
C   0.8760531588  0.8065968608 -0.1517753848
H   0.7540344731  1.5831356810 -0.9258651836
O   0.5461841391  1.0508839093  1.0920319044
C   1.3230011949 -0.5735751460 -0.1527957674
H   0.8217478405 -0.2917543584  1.0261800526
H   0.9566964208 -1.3310953385 -0.8608539810
H   2.3235243298 -0.7538246896  0.2670172313
7
Iter 1 Image 7  Energy = -29.6489296174
C   0.8613856651  0.8448825678 -0.1162874244
H   0.7564269002  1.5776253060 -0.9336573179
O   0.5362036344  1.1644346711  1.0573044318
C   1.3029567842 -0.5783348201 -0.0887440779
H   0.8505064203 -0.4545939766  0.9681311805
H   0.9579287012 -1.3130202602 -0.8437535266
H   2.3358334600 -0.7506265576  0.2509455688
7
Iter 1 Image 8  Energy = -29.6894590622
C   0.8545669793  0.8791436321 -0.0742007245
H   0.7631039030  1.5495795762 -0.9536496041
O   0.5444870688  1.3141764198  1.0327761227
C   1.2924847279 -0.5731038558 -0.0367186743
H   0.8307876044 -0.6819984674  0.9467951548
H   0.9615578774 -1.2607326790 -0.8295353907
H   2.3542535132 -0.7366974770  0.2084719755
7
Iter 1 Image 9  Energy = -29.7073586947
C   0.8442072145  0.8966736963 -0.0369577413
H   0.7952183859  1.4437198246 -1.0055517723
O   0.5404649020  1.4872736629  0.9860524160
C   1.2773433344 -0.5642382985  0.0378747244
H   0.8284570647 -0.9076408843  0.9700267263
H   0.9520260715 -1.1742393515 -0.8090107141
H   2.3635245787 -0.6911816441  0.1515051017
7
Iter 1 Image 10  Energy = -29.7098367578
C   0.8103166929  0.8901389765 -0.0286910688
H   0.8954820664  1.3635627699 -1.0350953693
O   0.3542437103  1.5358591407  0.8959381526
C   1.2905558147 -0.5555374967  0.0958627194
H   0.9593121071 -0.9663612701  1.0521452806
H   0.9079052161 -1.1651598856 -0.7263096241
H   2.3834257784 -0.6121355128  0.0400886861
7
Iter 1 Image 11  Energy = -29.7096971637
C   0.7840367852  0.8656586589 -0.0371164025
H   0.9809293880  1.3403901038 -1.0231241499
O   0.1875804579  1.4681235287  0.8223429327
C   1.3100769769 -0.5359012779  0.1153731248
H   1.0639489065 -0.9236344469  1.1059940899
H   0.8779311114 -1.1816924395 -0.6582837811
H   2.3967379442 -0.5425772870 -0.0312469938
7
Iter 2 Image 0  Energy = -29.6796137011
C   0.8260657415  0.5508603911 -0.1261794589
H   0.4554445983  1.2417513435 -0.8784317668
O   0.5680753083  1.0246514429  1.1187434847
C   1.4411098584 -0.5873603774 -0.4363613732
H   0.9099091373  0.3932317500  1.7666320721
H   1.5916834696 -0.8592929697 -1.4741885892
H   1.8089534565 -1.2734747403  0.3237244514
7
Iter 2 Image 1  Energy = -29.6781098163
C   0.8581299265  0.5883448250 -0.1524745442
H   0.5824436854  1.3338180262 -0.8978215451
O   0.6134748495  1.0136524274  1.1460525189
C   1.4441507751 -0.5808282071 -0.4440005423
H   0.6907214613  0.2568172548  1.7605663740
H   1.3403738328 -1.0494760385 -1.4140839007
H   2.0719470218 -1.0719612781  0.2957003290
7
Iter 2 Image 2  Energy = -29.6694880045
C   0.8789009420  0.6323661829 -0.1817633798
H   0.6810416510  1.4359056218 -0.8993404687
O   0.5879441111  0.9794181401  1.1347620268
C   1.4398344886 -0.5742902607 -0.4316806247
H   0.6165199277  0.1534442303  1.6631929034
H   1.1579511801 -1.2460347089 -1.2323503609
H   2.2390492195 -0.8904423928  0.2411186233
7
Iter 2 Image 3  Energy = -29.6558357245
C   0.8949146756  0.6854325747 -0.2136261353
H   0.7491768684  1.5309659015 -0.9035299634
O   0.5588979415  0.9449435429  1.1118417047
C   1.4231980438 -0.5618183986 -0.3997643968
H   0.6506723239  0.0377612280  1.4860399967
H   1.0279076796 -1.3602784369 -1.0143829566
H   2.2964739715 -0.7866393647  0.2273606361
7
Iter 2 Image 4  Energy = -29.6312290794
C   0.8973937244  0.7414823050 -0.2074644882
H   0.7559167099  1.5778139602 -0.9144871937
O   0.5636355268  0.9222442900  1.1165345655
C   1.3763261146 -0.5566121250 -0.3074222668
H   0.7419159251 -0.0793096065  1.2478305110
H   0.9723141980 -1.3588346624 -0.9101414107
H   2.2937393859 -0.7564172314  0.2690890413
7
Iter 2 Image 5  Energy = -29.6094639367
C   0.8921126354  0.7834125731 -0.1863153384
H   0.7540235619  1.5874288943 -0.9228375878
O   0.5576998402  0.9570067407  1.1147253063
C   1.3408890384 -0.5651138385 -0.2091988484
H   0.7848803696 -0.1780608469  1.0987624270
H   0.9559959635 -1.3422467026 -0.8714281690
H   2.3156401637 -0.7520598952  0.2702310623
7
Iter 2 Image 6  Energy = -29.6128418213
C   0.8765203331  0.8074307468 -0.1512647246
H   0.7540221948  1.5828560544 -0.9260467927
O   0.5461734357  1.0520745227  1.0917263116
C   1.3226069623 -0.5736127447 -0.1515429558
H   0.8219959366 -0.2944512222  1.0244503655
H   0.9563095490 -1.3307713371 -0.8601433062
H   2.3236131382 -0.7531590928  0.2667600212
7
Iter 2 Image 7  Energy = -29.6494905865
C   0.8619961260  0.8453876805 -0.1166217674
H   0.7565906309  1.5772371756 -0.9339661084
O   0.5360828995  1.1658035983  1.0574605391
C   1.3027020025 -0.5783720274 -0.0879609100
H   0.8502674394 -0.4571384366  0.9677365019
H   0.9577063564 -1.3127145928 -0.8431745278
H   2.3358961027 -0.7498364592  0.2504651306
7
Iter 2 Image 8  Energy = -29.6896694368
C   0.8548565811  0.8792422923 -0.0745933431
H   0.7637013572  1.5490742424 -0.9540515087
O   0.5439215536  1.3151078697  1.0326841098
C   1.2922165262 -0.5730712905 -0.0362725448
H   0.8309029478 -0.6838100897  0.9472068407
H   0.9614547864 -1.2606558638 -0.8289919265
H   2.3541879295 -0.7355199409  0.2079572327
7
Iter 2 Image 9  Energy = -29.7073754734
C   0.8444459099  0.8963176160 -0.0373340719
H   0.7955315060  1.4435050957 -1.0053887716
O   0.5405694792  1.4871377308  0.9868261605
C   1.2770493843 -0.5643033459  0.0377507375
H   0.8282713847 -0.9078571222  0.9699564928
H   0.9521110251 -1.1741317273 -0.8093110931
H   2.3632628603 -0.6903012279  0.1514393144
7
Iter 2 Image 10  Energy = -29.7098473078
C   0.8107561079  0.8895785375 -0.0293149511
H   0.8951405585  1.3635051912 -1.0349346539
O   0.3555595274  1.5359398628  0.8973725149
C   1.2902334203 -0.5556359453  0.0955294507
H   0.9582404136 -0.9661456107  1.0516874852
H   0.9081478206 -1.1648738943 -0.7271458650
H   2.3831635308 -0.6120014136  0.0407448194
7
Iter 2 Image 11  Energy = -29.7096971637
C   0.7840367852  0.8656586589 -0.0371164025
H   0.9809293880  1.3403901038 -1.0231241499
O   0.1875804579  1.4681235287  0.8223429327
C   1.3100769769 -0.5359012779  0.1153731248
H   1.0639489065 -0.9236344469  1.1059940899
H   0.8779311114 -1.1816924395 -0.6582837811
H   2.3967379442 -0.5425772870 -0.0312469938
7
Iter 3 Image 0  Energy = -29.6796137011
C   0.8260657415  0.5508603911 -0.1261794589
H   0.4554445983  1.2417513435 -0.8784317668
O   0.5680753083  1.0246514429  1.1187434847
C   1.4411098584 -0.5873603774 -0.4363613732
H   0.9099091373  0.3932317500  1.7666320721
H   1.5916834696 -0.8592929697 -1.4741885892
H   1.8089534565 -1.2734747403  0.3237244514
7
Iter 3 Image 1  Energy = -29.6781633264
C   0.8583689271  0.5883266083 -0.1521897359
H   0.5811046854  1.3326558107 -0.8978887586
O   0.6135503661  1.0141237489  1.1458973562
C   1.4440874860 -0.5810466103 -0.4437406123
H   0.6917473692  0.2575388307  1.7608392854
H   1.3420764722 -1.0473257646 -1.4151969278
H   2.0703062364 -1.0739056212  0.2962180608
7
Iter 3 Image 2  Energy = -29.6696263766
C   0.8791382517  0.6320503999 -0.1813591410
H   0.6796264380  1.4345820662 -0.8993987561
O   0.5883358047  0.9803506330  1.1344992911
C   1.4395045562 -0.5748091355 -0.4315045010
H   0.6170324817  0.1548093192  1.6645153885
H   1.1597482405 -1.2444954389 -1.2346012309
H   2.2378557382 -0.8921210308  0.2417876846
7
Iter 3 Image 3  Energy = -29.6560728616
C   0.8952495072  0.6849967411 -0.2135556698
H   0.7483111295  1.5300409863 -0.9034849371
O   0.5595595996  0.9455959278  1.1115048053
C   1.4231210250 -0.5621057369 -0.4004184103
H   0.6507596576  0.0392095779  1.4890238457
H   1.0292730039 -1.3598477593 -1.0170297402
H   2.2949675718 -0.7875227018  0.2278989877
7
Iter 3 Image 4  Energy = -29.6315096235
C   0.8982164178  0.7412933848 -0.2078026576
H   0.7556079392  1.5773536273 -0.9144802650
O   0.5640691429  0.9218590137  1.1166209118
C   1.3765218060 -0.5562793367 -0.3084754969
H   0.7413291219 -0.0789784622  1.2500341668
H   0.9725087505 -1.3586791335 -0.9111017635
H   2.2929884098 -0.7562021651  0.2691438506
7
Iter 3 Image 5  Energy = -29.6089829868
C   0.8927805557  0.7843532255 -0.1854238666
H   0.7539968229  1.5873857435 -0.9231182742
O   0.5573545766  0.9584487751  1.1146674003
C   1.3395623141 -0.5651180721 -0.2062280540
H   0.7864895523 -0.1819475434  1.0937624270
H   0.9553454830 -1.3417990175 -0.8700391993
H   2.3157122603 -0.7509561703  0.2703184686
7
Iter 3 Image 6  Energy = -29.6132339156
C   0.8770968815  0.8082992307 -0.1505150983
H   0.7540219232  1.5826210771 -0.9263049208
O   0.5461904550  1.0534679569  1.0912615827
C   1.3221049549 -0.5735339143 -0.1500932474
H   0.8222876150 -0.2977730141  1.0223415179
H   0.9558034114 -1.3304101731 -0.8592195941
H   2.3237363039 -0.7523042259  0.2664687138
7
Iter 3 Image 7  Energy = -29.6501960224
C   0.8625297608  0.8459438774 -0.1158073199
H   0.7567540212  1.5769929214 -0.9345551409
O   0.5362125985  1.1672021260  1.0567765872
C   1.3023750995 -0.5783332769 -0.0870673705
H   0.8499417444 -0.4602250792  0.9671013272
H   0.9574093344 -1.3123330693 -0.8423981491
H   2.3360189924 -0.7488805514  0.2498889646
7
Iter 3 Image 8  Energy = -29.6899172133
C   0.8550213994  0.8795526465 -0.0744371110
H   0.7644252874  1.5484711779 -0.9545851829
O   0.5434136413  1.3160029925  1.0320371995
C   1.2919411887 -0.5730310241 -0.0358482001
H   0.8309771248 -0.6859578459  0.9477475000
H   0.9613310245 -1.2605564243 -0.8283112748
H   2.3541320183 -0.7341142677  0.2073359313
7
Iter 3 Image 9  Energy = -29.7073921031
C   0.8444932731  0.8962698130 -0.0369010371
H   0.7959231914  1.4432839673 -1.0052821712
O   0.5409091557  1.4865816246  0.9870057915
C   1.2766606021 -0.5643442385  0.0374512055
H   0.8280170090 -0.9081855629  0.9699269697
H   0.9522386889 -1.1739958099 -0.8096241536
H   2.3629996283 -0.6892427583  0.1513621907
7
Iter 3 Image 10  Energy = -29.7098501688
C   0.8107261943  0.8896062386 -0.0288892196
H   0.8948081256  1.3634070054 -1.0348528704
O   0.3575392942  1.5353941338  0.8980272420
C   1.2898832536 -0.5557335944  0.0950327741
H   0.9570014262 -0.9659754143  1.0512370610
H   0.9084352503 -1.1645374164 -0.7280868981
H   2.3828478315 -0.6117942168  0.0414707283
7
Iter 3 Image 11  Energy = -29.7096971637
C   0.7840367852  0.8656586589 -0.0371164025
H   0.9809293880  1.3403901038 -1.0231241499
O   0.1875804579  1.4681235287  0.8223429327
C   1.3100769769 -0.5359012779  0.1153731248
H   1.0639489065 -0.9236344469  1.1059940899
H   0.8779311114 -1.1816924395 -0.6582837811
H   2.3967379442 -0.5425772870 -0.0312469938
7
Iter 4 Image 0  Energy = -29.6796137011
C   0.8260657415  0.5508603911 -0.1261794589
H   0.4554445983  1.2417513435 -0.8784317668
O   0.5680753083  1.0246514429  1.1187434847
C   1.4411098584 -0.5873603774 -0.4363613732
H   0.9099091373  0.3932317500  1.7666320721
H   1.5916834696 -0.8592929697 -1.4741885892
H   1.8089534565 -1.2734747403  0.3237244514
7
Iter 4 Image 1  Energy = -29.6782357758
C   0.8587205839  0.5881049205 -0.1518983016
H   0.5792108460  1.3310683570 -0.8980433174
O   0.6136533735  1.0145846527  1.1459697773
C   1.4439676769 -0.5811698134 -0.4433881936
H   0.6932362674  0.2587724977  1.7610263007
H   1.3445151778 -1.0442989375 -1.4166852647
H   2.0679376049 -1.0766946823  0.2969576368
7
Iter 4 Image 2  Energy = -29.6698264694
C   0.8793971358  0.6314614062 -0.1809572730
H   0.6775286054  1.4325314149 -0.8995416723
O   0.5889628281  0.9811754882  1.1346408295
C   1.4391023411 -0.5754205958 -0.4311463568
H   0.6178245118  0.1574592113  1.6661458704
H   1.1624387098 -1.2421212082 -1.2380160002
H   2.2359873694 -0.8947189075  0.2428133542
7
Iter 4 Image 3  Energy = -29.6563957697
C   0.8956644555  0.6841915478 -0.2134557869
H   0.7470148327  1.5286542191 -0.9034977041
O   0.5606118380  0.9460509342  1.1115355019
C   1.4227388411 -0.5624397595 -0.4011731505
H   0.6509913339  0.0419412667  1.4927321813
H   1.0313663627 -1.3590786153 -1.0210185908
H   2.2928538232 -0.7889525680  0.2288164278
7
Iter 4 Image 4  Energy = -29.6318700081
C   0.8992735709  0.7407786152 -0.2078480114
H   0.7552182625  1.5768412747 -0.9145338582
O   0.5646351004  0.9216416344  1.1165479088
C   1.3767481702 -0.5559454194 -0.3101632454
H   0.7406601657 -0.0787697232  1.2529213409
H   0.9727945208 -1.3584067441 -0.9123084258
H   2.2919118032 -0.7557727064  0.2693230467
7
Iter 4 Image 5  Energy = -29.6085174596
C   0.8934825454  0.7858086020 -0.1846973907
H   0.7541116240  1.5871061542 -0.9231628425
O   0.5569559136  0.9604472400  1.1144360829
C   1.3385952302 -0.5654336925 -0.2034355364
H   0.7882004811 -0.1867714220  1.0887624270
H   0.9544502104 -1.3415317989 -0.8684298478
H   2.3154455538 -0.7492581209  0.2704660732
7
Iter 4 Image 6  Energy = -29.6138298279
C   0.8778808689  0.8095128990 -0.1494283944
H   0.7540875909  1.5824121971 -0.9266440671
O   0.5462368316  1.0554621777  1.0904958510
C   1.3213414242 -0.5734006495 -0.1482209517
H   0.8227462157 -0.3027293003  1.0193425474
H   0.9550197827 -1.3299458831 -0.8577437156
H   2.3239288305 -0.7509444932  0.2661377185
7
Iter 4 Image 7  Energy = -29.6512804693
C   0.8632510770  0.8472163139 -0.1155006330
H   0.7570584493  1.5764054080 -0.9350631610
O   0.5363355731  1.1694351126  1.0563089334
C   1.3019829583 -0.5783470505 -0.0856589974
H   0.8494540813 -0.4651395906  0.9659690131
H   0.9568705348 -1.3117349021 -0.8411735733
H   2.3362888673 -0.7474683564  0.2490573550
7
Iter 4 Image 8  Energy = -29.6902688062
C   0.8552596172  0.8797112096 -0.0742356543
H   0.7654578880  1.5476726866 -0.9554412471
O   0.5426915300  1.3174131970  1.0312914046
C   1.2915147926 -0.5728172339 -0.0349025806
H   0.8310967642 -0.6889910774  0.9482421388
H   0.9610804571 -1.2604823518 -0.8274432019
H   2.3541406342 -0.7321391261  0.2064280128
7
Iter 4 Image 9  Energy = -29.7074200875
C   0.8446979885  0.8958812225 -0.0371634752
H   0.7965238234  1.4429330277 -1.0050059002
O   0.5411781431  1.4862444011  0.9879653151
C   1.2761768520 -0.5644011572  0.0374000737
H   0.8277087735 -0.9087406791  0.9697258834
H   0.9523717704 -1.1738590934 -0.8101928362
H   2.3625841921 -0.6876906594  0.1512097557
7
Iter 4 Image 10  Energy = -29.7098615831
C   0.8112671558  0.8888974485 -0.0295958991
H   0.8944258011  1.3631257521 -1.0346249176
O   0.3596245337  1.5355006855  0.9000073268
C   1.2892993774 -0.5559026646  0.0946625614
H   0.9554182469 -0.9658713884  1.0505220915
H   0.9087786254 -1.1640403999 -0.7294008841
H   2.3824276254 -0.6113426961  0.0423685655
7
Iter 4 Image 11  Energy = -29.7096971637
C   0.7840367852  0.8656586589 -0.0371164025
H   0.9809293880  1.3403901038 -1.0231241499
O   0.1875804579  1.4681235287  0.8223429327
C   1.3100769769 -0.5359012779  0.1153731248
H   1.0639489065 -0.9236344469  1.1059940899
H   0.8779311114 -1.1816924395 -0.6582837811
H   2.3967379442 -0.5425772870 -0.0312469938
7
Iter 5 Image 0  Energy = -29.6796137011
C   0.8260657415  0.5508603911 -0.1261794589
H   0.4554445983  1.2417513435 -0.8784317668
O   0.5680753083  1.0246514429  1.1187434847
C   1.4411098584 -0.5873603774 -0.4363613732
H   0.9099091373  0.3932317500  1.7666320721
H   1.5916834696 -0.8592929697 -1.4741885892
H   1.8089534565 -1.2734747403  0.3237244514
7
Iter 5 Image 1  Energy = -29.6783047980
C   0.8589769868  0.5878866373 -0.1514656518
H   0.5774015466  1.3295910491 -0.8982155871
O   0.6137192196  1.0153630938  1.1456534391
C   1.4439365702 -0.5813126542 -0.4430928345
H   0.6947472111  0.2595953471  1.7614583001
H   1.3468717318 -1.0414059292 -1.4180306204
H   2.0655882520 -1.0793505529  0.2976315693
7
Iter 5 Image 2  Energy = -29.6700326568
C   0.8796969845  0.6304325668 -0.1803014401
H   0.6754148302  1.4306066813 -0.8998053417
O   0.5895743466  0.9827589667  1.1342318673
C   1.4386096523 -0.5757773690 -0.4309086748
H   0.6186989132  0.1594106969  1.6681473272
H   1.1651241696 -1.2396945936 -1.2413486974
H   2.2341225950 -0.8973701425  0.2439237232
7
Iter 5 Image 3  Energy = -29.6567112422
C   0.8959061269  0.6834403746 -0.2131840275
H   0.7457121155  1.5272638157 -0.9035294343
O   0.5616398782  0.9472002988  1.1113439942
C   1.4223670782 -0.5630097584 -0.4018734606
H   0.6513908124  0.0440486318  1.4964147988
H   1.0335142304 -1.3581683696 -1.0250064012
H   2.2907112381 -0.7904079797  0.2297734091
7
Iter 5 Image 4  Energy = -29.6322025126
C   0.8999789964  0.7410122169 -0.2083228612
H   0.7549456719  1.5761107563 -0.9143536867
O   0.5651966874  0.9213998708  1.1166030019
C   1.3772768857 -0.5560148365 -0.3116245514
H   0.7400553975 -0.0786183000  1.2556513228
H   0.9730131654 -1.3582407544 -0.9135000702
H   2.2907747961 -0.7552820173  0.2694856123
7
Iter 5 Image 5  Energy = -29.6081922865
C   0.8942127449  0.7864380330 -0.1838518199
H   0.7542439030  1.5870879015 -0.9233323149
O   0.5566331916  0.9620695517  1.1141686344
C   1.3376717400 -0.5652729750 -0.2013293298
H   0.7895488655 -0.1907088275  1.0847005379
H   0.9536073754 -1.3415545568 -0.8670853791
H   2.3153237337 -0.7476921466  0.2706686986
7
Iter 5 Image 6  Energy = -29.6144459164
C   0.8784853484  0.8109505175 -0.1487310517
H   0.7542378556  1.5821676957 -0.9268159178
O   0.5462633996  1.0575366999  1.0898398729
C   1.3208648015 -0.5734226001 -0.1464070070
H   0.8232160511 -0.3077156670  1.0165778196
H   0.9541915166 -1.3296279568 -0.8563510092
H   2.3239825690 -0.7495217290  0.2658263157
7
Iter 5 Image 7  Energy = -29.6523546642
C   0.8639777539  0.8480182584 -0.1147219147
H   0.7573527922  1.5761253838 -0.9357565268
O   0.5364958736  1.1717445893  1.0556891760
C   1.3015594163 -0.5781621994 -0.0845429081
H   0.8489123131 -0.4701395906  0.9649224208
H   0.9563108074 -1.3111763694 -0.8399063328
H   2.3366325796 -0.7460431428  0.2482550507
7
Iter 5 Image 8  Energy = -29.6906163013
C   0.8554963016  0.8799541956 -0.0745535772
H   0.7664835747  1.5467502789 -0.9561121233
O   0.5419387133  1.3189963876  1.0309631431
C   1.2911618552 -0.5728098176 -0.0341985959
H   0.8311125971 -0.6920496176  0.9487465491
H   0.9608546877 -1.2602445380 -0.8264488837
H   2.3541939502 -0.7302295554  0.2055423688
7
Iter 5 Image 9  Energy = -29.7074481612
C   0.8446826773  0.8957824092 -0.0366159894
H   0.7971299150  1.4426450543 -1.0048561848
O   0.5415951956  1.4856604485  0.9882631933
C   1.2756799917 -0.5644655919  0.0371438421
H   0.8273772544 -0.9093974889  0.9695881325
H   0.9525422927 -1.1736766993 -0.8106397367
H   2.3622342133 -0.6861810502  0.1510555682
7
Iter 5 Image 10  Energy = -29.7098685271
C   0.8111220015  0.8889986740 -0.0288039784
H   0.8941946406  1.3628161790 -1.0345973067
O   0.3620202844  1.5348901473  0.9006014434
C   1.2888090978 -0.5560347657  0.0941933099
H   0.9539999664 -0.9659272767  1.0499821505
H   0.9090905436 -1.1635647315 -0.7305533239
H   2.3820048245 -0.6108114844  0.0431165777
7
Iter 5 Image 11  Energy = -29.7096971637
C   0.7840367852  0.8656586589 -0.0371164025
H   0.9809293880  1.3403901038 -1.0231241499
O   0.1875804579  1.4681235287  0.8223429327
C   1.3100769769 -0.5359012779  0.1153731248
H   1.0639489065 -0.9236344469  1.1059940899
H   0.8779311114 -1.1816924395 -0.6582837811
H   2.3967379442 -0.5425772870 -0.0312469938
7
Iter 6 Image 0  Energy = -29.6796137011
C   0.8260657415  0.5508603911 -0.1261794589
H   0.4554445983  1.2417513435 -0.8784317668
O   0.5680753083  1.0246514429  1.1187434847
C   1.4411098584 -0.5873603774 -0.4363613732
H   0.9099091373  0.3932317500  1.7666320721
H   1.5916834696 -0.8592929697 -1.4741885892
H   1.8089534565 -1.2734747403  0.3237244514
7
Iter 6 Image 1  Energy = -29.6783686942
C   0.8591140067  0.5878321848 -0.1512020260
H   0.5756877516  1.3281014344 -0.8983435802
O   0.6138070776  1.0158370973  1.1456158723
C   1.4439729327 -0.5814853652 -0.4427737434
H   0.6962231530  0.2606353846  1.7616889294
H   1.3491716617 -1.0386282520 -1.4193190473
H   2.0632649256 -1.0819254969  0.2982721910
7
Iter 6 Image 2  Energy = -29.6702304846
C   0.8796667612  0.6300817907 -0.1798520343
H   0.6733635452  1.4284570021 -0.8999825201
O   0.5902376201  0.9838922881  1.1341436654
C   1.4384173390 -0.5766267477 -0.4307009277
H   0.6196093283  0.1617302529  1.6698884951
H   1.1678043873 -1.2371461554 -1.2445824306
H   2.2321425020 -0.9000216229  0.2450245229
7
Iter 6 Image 3  Energy = -29.6570123649
C   0.8960496747  0.6827624930 -0.2129654160
H   0.7444184731  1.5258217320 -0.9035590774
O   0.5627220577  0.9481989562  1.1112880341
C   1.4219721364 -0.5635201286 -0.4023545538
H   0.6518766193  0.0462488012  1.4998079943
H   1.0356469458 -1.3572472596 -1.0290481499
H   2.2885555677 -0.7918975901  0.2307700460
7
Iter 6 Image 4  Energy = -29.6325290120
C   0.9008462846  0.7403589111 -0.2085340304
H   0.7546769304  1.5756922519 -0.9143427815
O   0.5657514037  0.9210597325  1.1165845274
C   1.3774894121 -0.5553196681 -0.3130265329
H   0.7394659516 -0.0783296856  1.2581923238
H   0.9731632604 -1.3582681282 -0.9146717480
H   2.2898483578 -0.7548264733  0.2697370367
7
Iter 6 Image 5  Energy = -29.6079505301
C   0.8947795442  0.7872292394 -0.1832798214
H   0.7544268273  1.5870225668 -0.9234169869
O   0.5563278968  0.9636665791  1.1139235819
C   1.3369714149 -0.5653464203 -0.1998683706
H   0.7906165169 -0.1943294437  1.0815666504
H   0.9528709604 -1.3416341040 -0.8658562196
H   2.3152483876 -0.7462414232  0.2708702490
7
Iter 6 Image 6  Energy = -29.6150571173
C   0.8790715970  0.8118982764 -0.1477133737
H   0.7544087662  1.5821769700 -0.9271090936
O   0.5463494861  1.0594477850  1.0889571013
C   1.3202001589 -0.5731479687 -0.1447650770
H   0.8237156662 -0.3124250229  1.0140028836
H   0.9533993128 -1.3294833067 -0.8550399900
H   2.3240965533 -0.7480997618  0.2656066044
7
Iter 6 Image 7  Energy = -29.6534130043
C   0.8645211310  0.8490844522 -0.1139299593
H   0.7576937383  1.5758359561 -0.9363192277
O   0.5367496245  1.1739322365  1.0548818198
C   1.3013008609 -0.5780783004 -0.0834024009
H   0.8483850022 -0.4751395906  0.9639465268
H   0.9557186163 -1.3106965831 -0.8386974601
H   2.3368725577 -0.7445712238  0.2474596923
7
Iter 6 Image 8  Energy = -29.6909553474
C   0.8554912076  0.8803528232 -0.0738007888
H   0.7674643591  1.5459503143 -0.9568968789
O   0.5414888785  1.3202395787  1.0298160415
C   1.2908510642 -0.5726712132 -0.0335577600
H   0.8310532383 -0.6950607147  0.9492025705
H   0.9606018350 -1.2600475649 -0.8255015256
H   2.3542910896 -0.7283958818  0.2046772367
7
Iter 6 Image 9  Energy = -29.7074796027
C   0.8447375128  0.8955338483 -0.0364880381
H   0.7977480483  1.4423181064 -1.0046602292
O   0.5418783407  1.4853788992  0.9888836501
C   1.2752004630 -0.5645517849  0.0369366135
H   0.8270575892 -0.9101658169  0.9694393633
H   0.9527090523 -1.1734563555 -0.8110512774
H   2.3619105340 -0.6846898009  0.1508787520
7
Iter 6 Image 10  Energy = -29.7098788983
C   0.8114535691  0.8884965639 -0.0291396240
H   0.8940198433  1.3624082439 -1.0344448350
O   0.3637795771  1.5350104417  0.9020584679
C   1.2883332848 -0.5561910289  0.0938374608
H   0.9527171935 -0.9660936205  1.0494732285
H   0.9093636954 -1.1630602182 -0.7316143356
H   2.3815741900 -0.6102036368  0.0437685271
7
Iter 6 Image 11  Energy = -29.7096971637
C   0.7840367852  0.8656586589 -0.0371164025
H   0.9809293880  1.3403901038 -1.0231241499
O   0.1875804579  1.4681235287  0.8223429327
C   1.3100769769 -0.5359012779  0.1153731248
H   1.0639489065 -0.9236344469  1.1059940899
H   0.8779311114 -1.1816924395 -0.6582837811
H   2.3967379442 -0.5425772870 -0.0312469938
7
Iter 7 Image 0  Energy = -29.6796137011
C   0.8260657415  0.5508603911 -0.1261794589
H   0.4554445983  1.2417513435 -0.8784317668
O   0.5680753083  1.0246514429  1.1187434847
C   1.4411098584 -0.5873603774 -0.4363613732
H   0.9099091373  0.3932317500  1.7666320721
H   1.5916834696 -0.8592929697 -1.4741885892
H   1.8089534565 -1.2734747403  0.3237244514
7
Iter 7 Image 1  Energy = -29.6784287757
C   0.8593241074  0.5875206139 -0.1509437195
H   0.5740155941  1.3267451751 -0.8985244370
O   0.6138686996  1.0163031412  1.1456086613
C   1.4439102219 -0.5814270578 -0.4425001167
H   0.6976910507  0.2616479234  1.7619060823
H   1.3514258971 -1.0359829185 -1.4205321961
H   2.0610059299 -1.0844398950  0.2989243036
7
Iter 7 Image 2  Energy = -29.6704241252
C   0.8798555644  0.6290703262 -0.1794409590
H   0.6713022065  1.4264526300 -0.9003016412
O   0.5908868226  0.9848989657  1.1342083321
C   1.4380199361 -0.5768145420 -0.4303324617
H   0.6205713294  0.1641823415  1.6714545065
H   1.1704110142 -1.2346990246 -1.2478406288
H   2.2301946055 -0.9027238911  0.2461916335
7
Iter 7 Image 3  Energy = -29.6572992271
C   0.8961973301  0.6819394645 -0.2127649562
H   0.7431165775  1.5244139871 -0.9036548086
O   0.5638553008  0.9488830485  1.1114774735
C   1.4213821148 -0.5639050293 -0.4027645032
H   0.6524364014  0.0487105471  1.5028346065
H   1.0377950969 -1.3562436599 -1.0330617180
H   2.2864586494 -0.7934313651  0.2318727782
7
Iter 7 Image 4  Energy = -29.6328563309
C   0.9014387300  0.7402463239 -0.2087860814
H   0.7544753520  1.5752137291 -0.9142474577
O   0.5662763422  0.9208061043  1.1165517366
C   1.3778031729 -0.5554125545 -0.3147679151
H   0.7388730485 -0.0780566400  1.2608096997
H   0.9734348624 -1.3581035434 -0.9156251268
H   2.2889400932 -0.7543264695  0.2700039745
7
Iter 7 Image 5  Energy = -29.6077782130
C   0.8951780540  0.7879842229 -0.1828721513
H   0.7546457877  1.5869390932 -0.9234437115
O   0.5560400978  0.9652813494  1.1137046654
C   1.3366713068 -0.5655100292 -0.1988827350
H   0.7914260270 -0.1975588742  1.0793188545
H   0.9522223684 -1.3418510176 -0.8648801720
H   2.3150579016 -0.7449177327  0.2709943830
7
Iter 7 Image 6  Energy = -29.6156615084
C   0.8795258367  0.8131311926 -0.1471945658
H   0.7546504270  1.5821305288 -0.9272666289
O   0.5463857160  1.0612591500  1.0882944438
C   1.3195180118 -0.5732010613 -0.1432286784
H   0.8242971561 -0.3169225046  1.0116269954
H   0.9527030924 -1.3293566587 -0.8537430531
H   2.3241613002 -0.7466736628  0.2654505887
7
Iter 7 Image 7  Energy = -29.6544475323
C   0.8650620595  0.8500929842 -0.1135570224
H   0.7580818527  1.5755715806 -0.9367698754
O   0.5369354242  1.1761931997  1.0543277127
C   1.3008850575 -0.5779429117 -0.0822650009
H   0.8479418557 -0.4801395906  0.9630224873
H   0.9551446848 -1.3103133582 -0.8375481558
H   2.3371905970 -0.7430949548  0.2467288775
7
Iter 7 Image 8  Energy = -29.6912945873
C   0.8557440011  0.8803929710 -0.0742916597
H   0.7684338209  1.5451003178 -0.9575260855
O   0.5407980517  1.3219897738  1.0297867554
C   1.2905702262 -0.5725027555 -0.0326355479
H   0.8310132256 -0.6981528030  0.9494676554
H   0.9602922078 -1.2598585515 -0.8246656847
H   2.3543901312 -0.7266016017  0.2038034831
7
Iter 7 Image 9  Energy = -29.7075136071
C   0.8447055668  0.8953925658 -0.0361987807
H   0.7983804316  1.4419639394 -1.0044823785
O   0.5421843131  1.4851239648  0.9893069643
C   1.2747653678 -0.5645894167  0.0369510924
H   0.8267751020 -0.9110493204  0.9692150656
H   0.9528417075 -1.1732569181 -0.8115181252
H   2.3615890508 -0.6832177021  0.1506650087
7
Iter 7 Image 10  Energy = -29.7098866469
C   0.8113892256  0.8884808357 -0.0286422696
H   0.8939458168  1.3619710847 -1.0343912151
O   0.3656724042  1.5347284392  0.9026831153
C   1.2878391891 -0.5563306739  0.0936097779
H   0.9516011048 -0.9663416017  1.0489834425
H   0.9095938791 -1.1625960045 -0.7326062236
H   2.3811997309 -0.6095453314  0.0443022766
7
Iter 7 Image 11  Energy = -29.7096971637
C   0.7840367852  0.8656586589 -0.0371164025
H   0.9809293880  1.3403901038 -1.0231241499
O   0.1875804579  1.4681235287  0.8223429327
C   1.3100769769 -0.5359012779  0.1153731248
H   1.0639489065 -0.9236344469  1.1059940899
H   0.8779311114 -1.1816924395 -0.6582837811
H   2.3967379442 -0.5425772870 -0.0312469938
7
Iter 8 Image 0  Energy = -29.6796137011
C   0.8260657415  0.5508603911 -0.1261794589
H   0.4554445983  1.2417513435 -0.8784317668
O   0.5680753083  1.0246514429  1.1187434847
C   1.4411098584 -0.5873603774 -0.4363613732
H   0.9099091373  0.3932317500  1.7666320721
H   1.5916834696 -0.8592929697 -1.4741885892
H   1.8089534565 -1.2734747403  0.3237244514
7
Iter 8 Image 1  Energy = -29.6784874564
C   0.8593504646  0.5874692197 -0.1505797038
H   0.5723911749  1.3253837335 -0.8986825725
O   0.6139160474  1.0169366555  1.1453466197
C   1.4440247595 -0.5816255359 -0.4423038672
H   0.6992068115  0.2624345728  1.7622870725
H   1.3536751006 -1.0333611870 -1.4216463163
H   2.0586771362 -1.0868704784  0.2995173327
7
Iter 8 Image 2  Energy = -29.6706212527
C   0.8798181293  0.6284178798 -0.1788751172
H   0.6692268869  1.4243489012 -0.9006308094
O   0.5915609791  0.9863731161  1.1338823707
C   1.4377960030 -0.5774556820 -0.4301952070
H   0.6216404840  0.1661986799  1.6732770243
H   1.1730749750 -1.2320524763 -1.2509440093
H   2.2281240186 -0.9054636172  0.2474245406
7
Iter 8 Image 3  Energy = -29.6575868195
C   0.8962073284  0.6812415679 -0.2124579222
H   0.7417846835  1.5229709613 -0.9037591038
O   0.5650072466  0.9500766312  1.1114667059
C   1.4208084726 -0.5645750641 -0.4032038256
H   0.6531456274  0.0507127874  1.5059404413
H   1.0400272532 -1.3550690589 -1.0370908856
H   2.2842608557 -0.7949908355  0.2330434612
7
Iter 8 Image 4  Energy = -29.6331842011
C   0.9019532944  0.7399977107 -0.2091848379
H   0.7543188773  1.5747605900 -0.9141100714
O   0.5667846149  0.9206590297  1.1165237537
C   1.3783814079 -0.5551323238 -0.3161990062
H   0.7382801481 -0.0778441204  1.2635024550
H   0.9735949687 -1.3582384322 -0.9167612900
H   2.2879282890 -0.7538354915  0.2701678607
7
Iter 8 Image 5  Energy = -29.6076510912
C   0.8955859135  0.7881522134 -0.1823109523
H   0.7548585949  1.5870120560 -0.9235663023
O   0.5557878047  0.9667384016  1.1134865515
C   1.3362979427 -0.5652938679 -0.1980853369
H   0.7920917902 -0.2002595151  1.0774329303
H   0.9516544965 -1.3422358767 -0.8641265194
H   2.3149649981 -0.7437463828  0.2711087990
7
Iter 8 Image 6  Energy = -29.6162779397
C   0.8798383488  0.8142284493 -0.1465744568
H   0.7549304985  1.5821909609 -0.9274600221
O   0.5464357960  1.0630816472  1.0875355313
C   1.3190121742 -0.5732012477 -0.1416349537
H   0.8249127963 -0.3212851107  1.0093760167
H   0.9520204136 -1.3293885771 -0.8525729329
H   2.3240915088 -0.7452591207  0.2652699578
7
Iter 8 Image 7  Energy = -29.6554726726
C   0.8654975587  0.8509363101 -0.1128052201
H   0.7584983868  1.5754828984 -0.9373310326
O   0.5371675553  1.1784793999  1.0535379917
C   1.3004358862 -0.5778556720 -0.0813395281
H   0.8475205251 -0.4851395906  0.9622120201
H   0.9546279528 -1.3099521999 -0.8363594139
H   2.3374936684 -0.7415842039  0.2460242371
7
Iter 8 Image 8  Energy = -29.6916356897
C   0.8556590583  0.8808203291 -0.0734202992
H   0.7693915680  1.5443316906 -0.9582646850
O   0.5404847146  1.3233116580  1.0286299708
C   1.2902271343 -0.5724175783 -0.0320265892
H   0.8308817452 -0.7012694077  0.9497938856
H   0.9600301978 -1.2595853783 -0.8237223565
H   2.3545672400 -0.7248239532  0.2029490071
7
Iter 8 Image 9  Energy = -29.7075523204
C   0.8446534208  0.8952352065 -0.0358554556
H   0.7990382329  1.4415807011 -1.0043402557
O   0.5424586205  1.4850061694  0.9897105197
C   1.2743201588 -0.5646545849  0.0368794518
H   0.8264799548 -0.9120962262  0.9690235589
H   0.9529946903 -1.1729726201 -0.8119050620
H   2.3612964611 -0.6817315107  0.1504260999
7
Iter 8 Image 10  Energy = -29.7098962432
C   0.8115604522  0.8881168218 -0.0286817554
H   0.8939395417  1.3614614975 -1.0343060303
O   0.3671794223  1.5348741520  0.9037257195
C   1.2873870999 -0.5564656640  0.0933942035
H   0.9505825799 -0.9667100824  1.0485651864
H   0.9097953926 -1.1621000476 -0.7335127858
H   2.3807968587 -0.6088099219  0.0447543843
7
Iter 8 Image 11  Energy = -29.7096971637
C   0.7840367852  0.8656586589 -0.0371164025
H   0.9809293880  1.3403901038 -1.0231241499
O   0.1875804579  1.4681235287  0.8223429327
C   1.3100769769 -0.5359012779  0.1153731248
H   1.0639489065 -0.9236344469  1.1059940899
H   0.8779311114 -1.1816924395 -0.6582837811
H   2.3967379442 -0.5425772870 -0.0312469938
7
Iter 9 Image 0  Energy = -29.6796137011
C   0.8260657415  0.5508603911 -0.1261794589
H   0.4554445983  1.2417513435 -0.8784317668
O   0.5680753083  1.0246514429  1.1187434847
C   1.4411098584 -0.5873603774 -0.4363613732
H   0.9099091373  0.3932317500  1.7666320721
H   1.5916834696 -0.8592929697 -1.4741885892
H   1.8089534565 -1.2734747403  0.3237244514
7
Iter 9 Image 1  Energy = -29.6785432464
C   0.8594578864  0.5871929122 -0.1504503101
H   0.5707867211  1.3240586933 -0.8988405740
O   0.6139670538  1.0172670197  1.1454547503
C   1.4440213647 -0.5815129443 -0.4419738722
H   0.7007203022  0.2635185195  1.7624419841
H   1.3559328616 -1.0308496486 -1.4228202372
H   2.0563552989 -1.0893075725  0.3001268111
7
Iter 9 Image 2  Energy = -29.6708155489
C   0.8797186965  0.6278511144 -0.1785365729
H   0.6671444660  1.4221167598 -0.9009640821
O   0.5922761164  0.9874038580  1.1339255343
C   1.4376473333 -0.5780146101 -0.4298866608
H   0.6227913966  0.1686681112  1.6748035494
H   1.1757303343 -1.2293834340 -1.2541040658
H   2.2259331265 -0.9082749997  0.2487010996
7
Iter 9 Image 3  Energy = -29.6578715062
C   0.8961811648  0.6804586065 -0.2122320203
H   0.7404258533  1.5214695377 -0.9038781683
O   0.5662430528  0.9510944466  1.1116229678
C   1.4202405679 -0.5650110224 -0.4033672428
H   0.6539519375  0.0529023020  1.5088520671
H   1.0422569613 -1.3539331069 -1.0413170637
H   2.2819419312 -0.7966137833  0.2342583392
7
Iter 9 Image 4  Energy = -29.6335236347
C   0.9025623507  0.7392297381 -0.2094057838
H   0.7541624509  1.5744969517 -0.9140900925
O   0.5672897255  0.9203880437  1.1164597220
C   1.3785910206 -0.5545034644 -0.3177879720
H   0.7376605625 -0.0774278661  1.2661721992
H   0.9738163959 -1.3583956478 -0.9178393859
H   2.2871590867 -0.7534207878  0.2704302077
7
Iter 9 Image 5  Energy = -29.6075473195
C   0.8957859969  0.7887555811 -0.1819965240
H   0.7551174700  1.5869046660 -0.9235481532
O   0.5555546171  0.9681298359  1.1133606183
C   1.3358843576 -0.5655694587 -0.1975669755
H   0.7926693070 -0.2026639352  1.0758583478
H   0.9512700385 -1.3425003902 -0.8633973067
H   2.3149597533 -0.7426892627  0.2712291931
7
Iter 9 Image 6  Energy = -29.6168887085
C   0.8801277633  0.8148813737 -0.1456952033
H   0.7552213572  1.5824093273 -0.9277525990
O   0.5464784361  1.0648963722  1.0866587388
C   1.3182482986 -0.5729700370 -0.1401927682
H   0.8255397634 -0.3253847514  1.0072621539
H   0.9514427589 -1.3295241811 -0.8514745574
H   2.3241831574 -0.7439410911  0.2651333995
7
Iter 9 Image 7  Energy = -29.6564920610
C   0.8657633521  0.8519720542 -0.1123408783
H   0.7589856534  1.5753494622 -0.9377812807
O   0.5373793145  1.1808075132  1.0528430835
C   1.3002524325 -0.5778611143 -0.0801699803
H   0.8471785823 -0.4901395906  0.9614092796
H   0.9541009306 -1.3097237807 -0.8352991214
H   2.3375812657 -0.7400375802  0.2452779943
7
Iter 9 Image 8  Energy = -29.6919856435
C   0.8558098333  0.8809471942 -0.0738146418
H   0.7703801275  1.5434601466 -0.9588277414
O   0.5399223150  1.3251897656  1.0285576876
C   1.2899789431 -0.5723331387 -0.0312590547
H   0.8307316214 -0.7045819498  0.9500712173
H   0.9597330630 -1.2592918166 -0.8228462309
H   2.3546857499 -0.7230228500  0.2020577179
7
Iter 9 Image 9  Energy = -29.7075970835
C   0.8445926092  0.8950618726 -0.0355525889
H   0.7997303860  1.4411258325 -1.0042012236
O   0.5426903232  1.4850727616  0.9901383241
C   1.2738598032 -0.5647322663  0.0368256780
H   0.8261867409 -0.9133370071  0.9688351690
H   0.9531533085 -1.1726062265 -0.8122556910
H   2.3610283675 -0.6802178146  0.1501492001
7
Iter 9 Image 10  Energy = -29.7099052733
C   0.8115228711  0.8880115254 -0.0283168287
H   0.8940177992  1.3608901028 -1.0342533464
O   0.3687034049  1.5348578663  0.9043287035
C   1.2869599103 -0.5566050991  0.0931858753
H   0.9496709081 -0.9671837467  1.0482133754
H   0.9099731573 -1.1615932241 -0.7343388128
H   2.3803932948 -0.6080106634  0.0451199709
7
Iter 9 Image 11  Energy = -29.7096971637
C   0.7840367852  0.8656586589 -0.0371164025
H   0.9809293880  1.3403901038 -1.0231241499
O   0.1875804579  1.4681235287  0.8223429327
C   1.3100769769 -0.5359012779  0.1153731248
H   1.0639489065 -0.9236344469  1.1059940899
H   0.8779311114 -1.1816924395 -0.6582837811
H   2.3967379442 -0.5425772870 -0.0312469938
7
Iter 10 Image 0  Energy = -29.6796136862
C   0.8260657415  0.5508603911 -0.1261794589
H   0.4554445983  1.2417513435 -0.8784317668
O   0.5680753083  1.0246514429  1.1187434847
C   1.4411098584 -0.5873603774 -0.4363613732
H   0.9099091373  0.3932317500  1.7666320721
H   1.5916834696 -0.8592929697 -1.4741885892
H   1.8089534565 -1.2734747403  0.3237244514
7
Iter 10 Image 1  Energy = -29.6785986340
C   0.8594499899  0.5870721589 -0.1501569534
H   0.5691845280  1.3227414014 -0.8990111820
O   0.6139985905  1.0177575440  1.1453206480
C   1.4440949414 -0.5815839555 -0.4418306907
H   0.7022993166  0.2644231762  1.7627506847
H   1.3582316570 -1.0283101981 -1.4238869549
H   2.0539824597 -1.0917331465  0.3007529908
7
Iter 10 Image 2  Energy = -29.6710121846
C   0.8797968878  0.6267662005 -0.1781153466
H   0.6649930266  1.4199710080 -0.9014352641
O   0.5929917775  0.9885960877  1.1338743737
C   1.4373031723 -0.5781432637 -0.4295506032
H   0.6240436500  0.1710681229  1.6763610608
H   1.1783995759 -1.2267061457 -1.2572926317
H   2.2237133779 -0.9111852110  0.2500972235
7
Iter 10 Image 3  Energy = -29.6581554925
C   0.8961361922  0.6796507497 -0.2119696881
H   0.7390219027  1.5199400793 -0.9040510860
O   0.5675490215  0.9519444857  1.1119219787
C   1.4194735432 -0.5655296309 -0.4036494141
H   0.6548409996  0.0552938053  1.5116149861
H   1.0445954720 -1.3526196154 -1.0455530012
H   2.2796243416 -0.7983129009  0.2356251037
7
Iter 10 Image 4  Energy = -29.6338715619
C   0.9028494027  0.7393034200 -0.2098209922
H   0.7540671978  1.5740237703 -0.9139096422
O   0.5677883631  0.9201298560  1.1164629555
C   1.3790051958 -0.5548614289 -0.3196258697
H   0.7370263567 -0.0769310736  1.2689812724
H   0.9742019823 -1.3583244758 -0.9187970847
H   2.2863030889 -0.7529730850  0.2706482846
7
Iter 10 Image 5  Energy = -29.6074642009
C   0.8959350226  0.7890524934 -0.1815840199
H   0.7553722513  1.5868612236 -0.9235727206
O   0.5553551120  0.9695431915  1.1131982961
C   1.3356433693 -0.5656251801 -0.1969861323
H   0.7931856954 -0.2048559280  1.0745022006
H   0.9509149209 -1.3429031353 -0.8628867992
H   2.3148351670 -0.7417056193  0.2712684111
7
Iter 10 Image 6  Energy = -29.6175086862
C   0.8802296098  0.8162266082 -0.1455226513
H   0.7555845670  1.5823351256 -0.9277842346
O   0.5464439520  1.0667223972  1.0861286787
C   1.3175700274 -0.5733363681 -0.1387081383
H   0.8261937297 -0.3293845388  1.0052067709
H   0.9509833558 -1.3295407371 -0.8503472537
H   2.3242362895 -0.7426554576  0.2649660206
7
Iter 10 Image 7  Energy = -29.6575085735
C   0.8660260718  0.8527794874 -0.1116647380
H   0.7594933704  1.5753018910 -0.9383095829
O   0.5375655553  1.1832148638  1.0520468555
C   1.2996367275 -0.5777269878 -0.0791830266
H   0.8468811814 -0.4951395906  0.9606513427
H   0.9536757689 -1.3095128486 -0.8341948212
H   2.3379628560 -0.7385498196  0.2445930976
7
Iter 10 Image 8  Energy = -29.6923402911
C   0.8556857724  0.8812640326 -0.0729928187
H   0.7713679249  1.5427148117 -0.9595645393
O   0.5396735666  1.3267319944  1.0275190490
C   1.2896769335 -0.5721335290 -0.0303984237
H   0.8305794088 -0.7079294224  0.9502684955
H   0.9594300750 -1.2590608593 -0.8220413894
H   2.3548279652 -0.7212196880  0.2011486024
7
Iter 10 Image 9  Energy = -29.7076468831
C   0.8444677491  0.8949694659 -0.0351345336
H   0.8004602985  1.4405986017 -1.0040724996
O   0.5429436119  1.4851989396  0.9904336152
C   1.2734239458 -0.5647656642  0.0369968180
H   0.8259240743 -0.9147405023  0.9685748646
H   0.9532815030 -1.1722276569 -0.8126838671
H   2.3607403546 -0.6786660100  0.1498244896
7
Iter 10 Image 10  Energy = -29.7099147207
C   0.8115818185  0.8877668010 -0.0281994103
H   0.8941490420  1.3602600599 -1.0341797209
O   0.3700286728  1.5350456854  0.9050876132
C   1.2864911687 -0.5567486680  0.0931323675
H   0.9488593665 -0.9677203475  1.0478312541
H   0.9101162809 -1.1610849336 -0.7351515907
H   2.3800149945 -0.6071518321  0.0454184360
7
Iter 10 Image 11  Energy = -29.7096971637
C   0.7840367852  0.8656586589 -0.0371164025
H   0.9809293880  1.3403901038 -1.0231241499
O   0.1875804579  1.4681235287  0.8223429327
C   1.3100769769 -0.5359012779  0.1153731248
H   1.0639489065 -0.9236344469  1.1059940899
H   0.8779311114 -1.1816924395 -0.6582837811
H   2.3967379442 -0.5425772870 -0.0312469938
7
Iter 11 Image 0  Energy = -29.6796137011
C   0.8260657415  0.5508603911 -0.1261794589
H   0.4554445983  1.2417513435 -0.8784317668
O   0.5680753083  1.0246514429  1.1187434847
C   1.4411098584 -0.5873603774 -0.4363613732
H   0.9099091373  0.3932317500  1.7666320721
H   1.5916834696 -0.8592929697 -1.4741885892
H   1.8089534565 -1.2734747403  0.3237244514
7
Iter 11 Image 1  Energy = -29.6786526805
C   0.8594290398  0.5869023856 -0.1498624095
H   0.5675852600  1.3214652987 -0.8991915105
O   0.6140083181  1.0182989498  1.1451329183
C   1.4441870759 -0.5816272994 -0.4416507523
H   0.7039216800  0.2652727898  1.7631104834
H   1.3605506598 -1.0258204344 -1.4249566166
H   2.0515594405 -1.0941247130  0.3013564139
7
Iter 11 Image 2  Energy = -29.6712106532
C   0.8795847590  0.6262778602 -0.1776245517
H   0.6628343183  1.4176554101 -0.9018811706
O   0.5937489482  0.9900051603  1.1336046522
C   1.4372162043 -0.5789064502 -0.4294277694
H   0.6254111265  0.1732677640  1.6780505665
H   1.1811300168 -1.2238177161 -1.2603261038
H   2.2213160924 -0.9141152356  0.2515431974
7
Iter 11 Image 3  Energy = -29.6584420270
C   0.8960140010  0.6788990057 -0.2116354942
H   0.7375801730  1.5183768109 -0.9042392044
O   0.5688841589  0.9531525732  1.1120665442
C   1.4187095824 -0.5662060674 -0.4039452319
H   0.6558602570  0.0573628756  1.5144614564
H   1.0470043121 -1.3511709322 -1.0498227308
H   2.2771889872 -0.8000472988  0.2370535428
7
Iter 11 Image 4  Energy = -29.6342197871
C   0.9032673520  0.7385407252 -0.2101105158
H   0.7539595874  1.5737445762 -0.9138311678
O   0.5682621496  0.9200735787  1.1163799185
C   1.3795345921 -0.5542665938 -0.3209951836
H   0.7364245946 -0.0764889699  1.2718267504
H   0.9744573932 -1.3586564195 -0.9200704089
H   2.2853359176 -0.7525798999  0.2707395662
7
Iter 11 Image 5  Energy = -29.6074025399
C   0.8960801323  0.7890944400 -0.1812007580
H   0.7556170738  1.5868439820 -0.9236287660
O   0.5551580925  0.9709504867  1.1130903021
C   1.3353667648 -0.5655473925 -0.1965331831
H   0.7936591907 -0.2067888698  1.0734550669
H   0.9506576450 -1.3433609775 -0.8625539224
H   2.3147026390 -0.7408246113  0.2713105285
7
Iter 11 Image 6  Energy = -29.6181401676
C   0.8802824096  0.8169317595 -0.1446148488
H   0.7559147689  1.5825210535 -0.9280759251
O   0.5464893104  1.0685372119  1.0852352691
C   1.3169746019 -0.5732702199 -0.1370822702
H   0.8268107440 -0.3331728009  1.0031647014
H   0.9505396876 -1.3297254213 -0.8494049718
H   2.3242300063 -0.7414545484  0.2647172718
7
Iter 11 Image 7  Energy = -29.6585167861
C   0.8661737020  0.8538297824 -0.1113401796
H   0.7600571468  1.5751210034 -0.9387328302
O   0.5376820551  1.1857245427  1.0514511232
C   1.2991661678 -0.5778428652 -0.0781639234
H   0.8465901143 -0.5001395906  0.9599630932
H   0.9533220247 -1.3092572848 -0.8330912572
H   2.3382503215 -0.7370685719  0.2438531378
7
Iter 11 Image 8  Energy = -29.6927019870
C   0.8556983065  0.8814541173 -0.0729497260
H   0.7723895490  1.5418676734 -0.9601781358
O   0.5392608689  1.3286558704  1.0271455428
C   1.2892848786 -0.5720722504 -0.0296382591
H   0.8304073081 -0.7114306881  0.9504942873
H   0.9591802081 -1.2587069108 -0.8211607800
H   2.3550205207 -0.7194004796  0.2002260686
7
Iter 11 Image 9  Energy = -29.7077021962
C   0.8443343714  0.8948435736 -0.0346870383
H   0.8012246479  1.4400065455 -1.0039746671
O   0.5431674605  1.4854865245  0.9907311750
C   1.2729737217 -0.5648160718  0.0371363390
H   0.8256572114 -0.9163232192  0.9683352081
H   0.9534219804 -1.1717521856 -0.8130688334
H   2.3604621434 -0.6770779801  0.1494667158
7
Iter 11 Image 10  Energy = -29.7099240786
C   0.8115530394  0.8875903267 -0.0278866308
H   0.8943462898  1.3595892411 -1.0341467494
O   0.3713037042  1.5352109996  0.9056450305
C   1.2860510388 -0.5568749673  0.0930645104
H   0.9481232924 -0.9683443258  1.0475140714
H   0.9102379325 -1.1605633564 -0.7359046453
H   2.3796260455 -0.6062411560  0.0456533780
7
Iter 11 Image 11  Energy = -29.7096971637
C   0.7840367852  0.8656586589 -0.0371164025
H   0.9809293880  1.3403901038 -1.0231241499
O   0.1875804579  1.4681235287  0.8223429327
C   1.3100769769 -0.5359012779  0.1153731248
H   1.0639489065 -0.9236344469  1.1059940899
H   0.8779311114 -1.1816924395 -0.6582837811
H   2.3967379442 -0.5425772870 -0.0312469938
7
Iter 12 Image 0  Energy = -29.6796137011
C   0.8260657415  0.5508603911 -0.1261794589
H   0.4554445983  1.2417513435 -0.8784317668
O   0.5680753083  1.0246514429  1.1187434847
C   1.4411098584 -0.5873603774 -0.4363613732
H   0.9099091373  0.3932317500  1.7666320721
H   1.5916834696 -0.8592929697 -1.4741885892
H   1.8089534565 -1.2734747403  0.3237244514
7
Iter 12 Image 1  Energy = -29.6787063843
C   0.8594496735  0.5866051520 -0.1497974168
H   0.5659446448  1.3201478831 -0.8993515309
O   0.6140236182  1.0185666241  1.1452857051
C   1.4442016720 -0.5814662868 -0.4413249927
H   0.7056089611  0.2664486029  1.7632792312
H   1.3629787761 -1.0233353274 -1.4261442083
H   2.0490341257 -1.0965996729  0.3019917273
7
Iter 12 Image 2  Energy = -29.6714133388
C   0.8796233388  0.6251504087 -0.1773211421
H   0.6605644161  1.4153185258 -0.9024424192
O   0.5945409146  0.9911881853  1.1336025243
C   1.4369144809 -0.5789285557 -0.4289430616
H   0.6269346141  0.1758619222  1.6795443769
H   1.1838854281 -1.2209936592 -1.2636238150
H   2.2187782664 -0.9172300365  0.2531223706
7
Iter 12 Image 3  Energy = -29.6587371445
C   0.8958903912  0.6779805292 -0.2113930185
H   0.7360588812  1.5167224467 -0.9044441262
O   0.5703346104  0.9543198550  1.1123042730
C   1.4180191689 -0.5665626964 -0.4038920948
H   0.6570212245  0.0595677539  1.5172941047
H   1.0494450586 -1.3497736527 -1.0544523123
H   2.2744721396 -0.8018872707  0.2385220684
7
Iter 12 Image 4  Energy = -29.6345946705
C   0.9035639574  0.7381752213 -0.2105131940
H   0.7538761078  1.5733036511 -0.9136665875
O   0.5687520214  0.9198606214  1.1163984452
C   1.3797225690 -0.5543003791 -0.3228547448
H   0.7357938681 -0.0757423340  1.2748078744
H   0.9749747852 -1.3586877157 -0.9212173606
H   2.2845582749 -0.7522420572  0.2709845546
7
Iter 12 Image 5  Energy = -29.6073534703
C   0.8960561041  0.7895630881 -0.1809214948
H   0.7558759615  1.5866285250 -0.9235973229
O   0.5550040231  0.9723485435  1.1129683893
C   1.3348954491 -0.5659645043 -0.1963857505
H   0.7941293071 -0.2085365909  1.0727128957
H   0.9506378006 -1.3436268731 -0.8622592061
H   2.3146428934 -0.7400451175  0.2714217815
7
Iter 12 Image 6  Energy = -29.6187862819
C   0.8803536518  0.8177547381 -0.1442146840
H   0.7562737795  1.5825443909 -0.9282771968
O   0.5463648309  1.0707166762  1.0847350889
C   1.3162292839 -0.5734061090 -0.1357189752
H   0.8273920198 -0.3370805957  1.0014112637
H   0.9502451693 -1.3298190149 -0.8484606401
H   2.3243827970 -0.7403430453  0.2644644022
7
Iter 12 Image 7  Energy = -29.6595459646
C   0.8661605516  0.8545089829 -0.1101238129
H   0.7606224351  1.5751786664 -0.9394586875
O   0.5379261423  1.1882203584  1.0502978604
C   1.2990004916 -0.5776528514 -0.0767886726
H   0.8462612366 -0.5051395906  0.9592359435
H   0.9529494366 -1.3091754237 -0.8321762177
H   2.3383212344 -0.7355731205  0.2429527754
7
Iter 12 Image 8  Energy = -29.6930835909
C   0.8555477132  0.8818266032 -0.0725199364
H   0.7734750466  1.5409518266 -0.9608159647
O   0.5389664442  1.3306029976  1.0264210792
C   1.2889790393 -0.5720059024 -0.0288505355
H   0.8301804551 -0.7151732049  0.9507765300
H   0.9589462326 -1.2583252631 -0.8202959136
H   2.3551467012 -0.7175097185  0.1992237673
7
Iter 12 Image 9  Energy = -29.7077665693
C   0.8442167589  0.8946555389 -0.0343059554
H   0.8020583192  1.4392787536 -1.0038839136
O   0.5433374849  1.4860342664  0.9911264978
C   1.2724588480 -0.5649098883  0.0372038936
H   0.8253740161 -0.9181919011  0.9681341171
H   0.9535917507 -1.1711085081 -0.8133939224
H   2.3602043585 -0.6753910687  0.1490581952
7
Iter 12 Image 10  Energy = -29.7099341518
C   0.8115711110  0.8873346755 -0.0277258679
H   0.8946078986  1.3588261665 -1.0340828837
O   0.3724446234  1.5355365615  0.9062916442
C   1.2856417978 -0.5570177364  0.0929590805
H   0.9474361822 -0.9690783554  1.0472634843
H   0.9103453538 -1.1599866533 -0.7366046407
H   2.3791943720 -0.6052478932  0.0458381532
7
Iter 12 Image 11  Energy = -29.7096971637
C   0.7840367852  0.8656586589 -0.0371164025
H   0.9809293880  1.3403901038 -1.0231241499
O   0.1875804579  1.4681235287  0.8223429327
C   1.3100769769 -0.5359012779  0.1153731248
H   1.0639489065 -0.9236344469  1.1059940899
H   0.8779311114 -1.1816924395 -0.6582837811
H   2.3967379442 -0.5425772870 -0.0312469938
7
Iter 13 Image 0  Energy = -29.6796137011
C   0.8260657415  0.5508603911 -0.1261794589
H   0.4554445983  1.2417513435 -0.8784317668
O   0.5680753083  1.0246514429  1.1187434847
C   1.4411098584 -0.5873603774 -0.4363613732
H   0.9099091373  0.3932317500  1.7666320721
H   1.5916834696 -0.8592929697 -1.4741885892
H   1.8089534565 -1.2734747403  0.3237244514
7
Iter 13 Image 1  Energy = -29.6787583000
C   0.8593140687  0.5865768893 -0.1495071621
H   0.5643679737  1.3188695992 -0.8995086374
O   0.6140164482  1.0190482404  1.1450879519
C   1.4443260634 -0.5816087104 -0.4412617877
H   0.7073037035  0.2673334872  1.7636520089
H   1.3653561594 -1.0208901080 -1.4271475789
H   2.0465570526 -1.0989624247  0.3026237093
7
Iter 13 Image 2  Energy = -29.6716095722
C   0.8794030073  0.6246347122 -0.1769501383
H   0.6583736291  1.4129176027 -0.9029676922
O   0.5953453769  0.9923779161  1.1334953865
C   1.4368066945 -0.5795454032 -0.4287434834
H   0.6284969745  0.1783203850  1.6810241788
H   1.1866039558 -1.2180821500 -1.2666345159
H   2.2162118140 -0.9202562707  0.2547151084
7
Iter 13 Image 3  Energy = -29.6590213692
C   0.8957114682  0.6772821914 -0.2111264948
H   0.7345626631  1.5150732134 -0.9046664457
O   0.5717901437  0.9552263380  1.1126680022
C   1.4171567114 -0.5672299682 -0.4041397858
H   0.6581933360  0.0619135809  1.5199026256
H   1.0519221694 -1.3481785047 -1.0588041848
H   2.2719049853 -0.8037198849  0.2401051901
7
Iter 13 Image 4  Energy = -29.6349629080
C   0.9038112775  0.7376596677 -0.2108279718
H   0.7537918673  1.5729093712 -0.9135355563
O   0.5692351518  0.9197201846  1.1163686661
C   1.3800235745 -0.5542152868 -0.3244945408
H   0.7352043511 -0.0749544392  1.2777612190
H   0.9754862072 -1.3588165560 -0.9224762609
H   2.2836891520 -0.7519359213  0.2711434650
7
Iter 13 Image 5  Energy = -29.6073177075
C   0.8960468949  0.7895880098 -0.1805500239
H   0.7560914182  1.5865114327 -0.9236561585
O   0.5549078485  0.9736769719  1.1128246918
C   1.3346184117 -0.5659336619 -0.1959930005
H   0.7945565624 -0.2100486896  1.0721154893
H   0.9506048325 -1.3440596780 -0.8622497732
H   2.3144155736 -0.7393673068  0.2714480875
7
Iter 13 Image 6  Energy = -29.6194132036
C   0.8802317943  0.8188109721 -0.1435888808
H   0.7566296028  1.5824608354 -0.9284336032
O   0.5463694324  1.0726483029  1.0839347575
C   1.3155160707 -0.5736892643 -0.1343324913
H   0.8279207201 -0.3406455626  0.9998246046
H   0.9500502040 -1.3298815139 -0.8476526728
H   2.3245237114 -0.7393367213  0.2641875717
7
Iter 13 Image 7  Energy = -29.6605389780
C   0.8663248982  0.8554734073 -0.1102538105
H   0.7612157634  1.5748917595 -0.9398442460
O   0.5378528509  1.1910265147  1.0500926088
C   1.2983346580 -0.5778392574 -0.0757940383
H   0.8459938435 -0.5101395906  0.9586750613
H   0.9527683438 -1.3088419697 -0.8310977727
H   2.3387511668 -0.7342038363  0.2421614160
7
Iter 13 Image 8  Energy = -29.6934534377
C   0.8553919801  0.8820286923 -0.0719532194
H   0.7745279631  1.5401140708 -0.9615180384
O   0.5387019567  1.3325573203  1.0256874379
C   1.2886576441 -0.5718148718 -0.0278640287
H   0.8299819766 -0.7188244063  0.9509451588
H   0.9587100206 -1.2580051272 -0.8195715903
H   2.3552700837 -0.7156883379  0.1982133322
7
Iter 13 Image 9  Energy = -29.7078324026
C   0.8439814576  0.8946592173 -0.0335944864
H   0.8028953680  1.4385069620 -1.0038274225
O   0.5435915258  1.4864834501  0.9911731152
C   1.2719924347 -0.5649330026  0.0375254363
H   0.8251380756 -0.9201200576  0.9678621082
H   0.9537186075 -1.1704955370 -0.8138212453
H   2.3599240688 -0.6737338341  0.1486214192
7
Iter 13 Image 10  Energy = -29.7099433905
C   0.8114708298  0.8872367709 -0.0273333593
H   0.8949051608  1.3580621635 -1.0340479346
O   0.3735694486  1.5357387058  0.9066561111
C   1.2851996883 -0.5571557813  0.0929986209
H   0.9468584778 -0.9698082307  1.0469844150
H   0.9104193022 -1.1594480620 -0.7372835620
H   2.3788184284 -0.6042588000  0.0459646866
7
Iter 13 Image 11  Energy = -29.7096971637
C   0.7840367852  0.8656586589 -0.0371164025
H   0.9809293880  1.3403901038 -1.0231241499
O   0.1875804579  1.4681235287  0.8223429327
C   1.3100769769 -0.5359012779  0.1153731248
H   1.0639489065 -0.9236344469  1.1059940899
H   0.8779311114 -1.1816924395 -0.6582837811
H   2.3967379442 -0.5425772870 -0.0312469938
7
Iter 14 Image 0  Energy = -29.6796137011
C   0.8260657415  0.5508603911 -0.1261794589
H   0.4554445983  1.2417513435 -0.8784317668
O   0.5680753083  1.0246514429  1.1187434847
C   1.4411098584 -0.5873603774 -0.4363613732
H   0.9099091373  0.3932317500  1.7666320721
H   1.5916834696 -0.8592929697 -1.4741885892
H   1.8089534565 -1.2734747403  0.3237244514
7
Iter 14 Image 1  Energy = -29.6788103795
C   0.8592984330  0.5862223524 -0.1492541255
H   0.5627148668  1.3176453022 -0.8997163431
O   0.6139772696  1.0195626650  1.1449156871
C   1.4443436334 -0.5814883356 -0.4410903156
H   0.7090961187  0.2682603142  1.7640366387
H   1.3678378916 -1.0184448842 -1.4282304822
H   2.0439732516 -1.1013904439  0.3032774335
7
Iter 14 Image 2  Energy = -29.6718130177
C   0.8793187504  0.6236776759 -0.1764759476
H   0.6560561445  1.4105229812 -0.9036329965
O   0.5961755093  0.9938998034  1.1331831353
C   1.4365548025 -0.5798492427 -0.4285106710
H   0.6302409044  0.1806550386  1.6826623576
H   1.1894109418 -1.2150910798 -1.2697492354
H   2.2134843928 -0.9234483815  0.2564622072
7
Iter 14 Image 3  Energy = -29.6593169189
C   0.8955619757  0.6763346641 -0.2107575265
H   0.7329683200  1.5134106195 -0.9049571105
O   0.5733169730  0.9564409844  1.1129205685
C   1.4161945523 -0.5677745958 -0.4043764476
H   0.6595229878  0.0640967877  1.5226536355
H   1.0545072270 -1.3464749078 -1.0633587816
H   2.2691694433 -0.8056665863  0.2418145737
7
Iter 14 Image 4  Energy = -29.6353484458
C   0.9039995135  0.7369909428 -0.2111473173
H   0.7537001106  1.5724981799 -0.9134022297
O   0.5697338841  0.9197527628  1.1162980546
C   1.3805135532 -0.5539862131 -0.3259556669
H   0.7346302076 -0.0741456274  1.2809377062
H   0.9760300845 -1.3590807420 -0.9239963319
H   2.2826342232 -0.7516622716  0.2712048401
7
Iter 14 Image 5  Energy = -29.6072908109
C   0.8959973652  0.7895505175 -0.1802296118
H   0.7562882602  1.5863460776 -0.9237230234
O   0.5548402334  0.9750304292  1.1127455441
C   1.3343211922 -0.5659589300 -0.1956396991
H   0.7949692404 -0.2113873929  1.0716942790
H   0.9506878593 -1.3444574472 -0.8623821912
H   2.3141373924 -0.7387561624  0.2714740401
7
Iter 14 Image 6  Energy = -29.6200669622
C   0.8800748022  0.8195409304 -0.1427767985
H   0.7569744346  1.5824457255 -0.9287297590
O   0.5463893157  1.0747003243  1.0831107817
C   1.3149079806 -0.5737299993 -0.1326146165
H   0.8284756575 -0.3441577371  0.9982154377
H   0.9498867473 -1.3300467555 -0.8470814321
H   2.3245326013 -0.7383854289  0.2638156999
7
Iter 14 Image 7  Energy = -29.6615533298
C   0.8661556274  0.8564585567 -0.1088825051
H   0.7618042767  1.5747305302 -0.9404695453
O   0.5381389354  1.1935342241  1.0486190349
C   1.2977468754 -0.5777405442 -0.0747507869
H   0.8456171091 -0.5151395906  0.9583019616
H   0.9526221708 -1.3086096435 -0.8301602681
H   2.3391565324 -0.7328665010  0.2412813606
7
Iter 14 Image 8  Energy = -29.6938433564
C   0.8553141267  0.8822066500 -0.0718802624
H   0.7756470314  1.5391152576 -0.9621539225
O   0.5383057225  1.3348783587  1.0253650963
C   1.2881768063 -0.5717794454 -0.0269508820
H   0.8297570483 -0.7227373881  0.9511541915
H   0.9585482803 -1.2575118086 -0.8187381018
H   2.3554926012 -0.7138042939  0.1971429616
7
Iter 14 Image 9  Energy = -29.7079056865
C   0.8438373275  0.8944418616 -0.0332811013
H   0.8038004532  1.4376004860 -1.0037457319
O   0.5437181392  1.4873257268  0.9916031492
C   1.2715108778 -0.5649806287  0.0379213682
H   0.8249067325 -0.9222902442  0.9675743840
H   0.9538484935 -1.1697566507 -0.8142630061
H   2.3596195143 -0.6719733479  0.1481298748
7
Iter 14 Image 10  Energy = -29.7099528676
C   0.8114971995  0.8869264046 -0.0272211132
H   0.8952628100  1.3572221545 -1.0340016274
O   0.3745009190  1.5361934286  0.9072533477
C   1.2847484890 -0.5572870325  0.0930826730
H   0.9463396022 -0.9706268063  1.0467297401
H   0.9104668921 -1.1588736767 -0.7379434327
H   2.3784254196 -0.6031877021  0.0460393941
7
Iter 14 Image 11  Energy = -29.7096971637
C   0.7840367852  0.8656586589 -0.0371164025
H   0.9809293880  1.3403901038 -1.0231241499
O   0.1875804579  1.4681235287  0.8223429327
C   1.3100769769 -0.5359012779  0.1153731248
H   1.0639489065 -0.9236344469  1.1059940899
H   0.8779311114 -1.1816924395 -0.6582837811
H   2.3967379442 -0.5425772870 -0.0312469938
7
Iter 15 Image 0  Energy = -29.6796137011
C   0.8260657415  0.5508603911 -0.1261794589
H   0.4554445983  1.2417513435 -0.8784317668
O   0.5680753083  1.0246514429  1.1187434847
C   1.4411098584 -0.5873603774 -0.4363613732
H   0.9099091373  0.3932317500  1.7666320721
H   1.5916834696 -0.8592929697 -1.4741885892
H   1.8089534565 -1.2734747403  0.3237244514
7
Iter 15 Image 1  Energy = -29.6788602537
C   0.8591802152  0.5860539988 -0.1491596020
H   0.5611168398  1.3163763503 -0.8998664281
O   0.6139568109  1.0198465091  1.1449655652
C   1.4444397313 -0.5814795605 -0.4408554513
H   0.7108728116  0.2693799752  1.7642722072
H   1.3703013637 -1.0160610795 -1.4293111208
H   2.0413736868 -1.1037492225  0.3038933108
7
Iter 15 Image 2  Energy = -29.6720117247
C   0.8791534810  0.6229116188 -0.1761687577
H   0.6537776437  1.4080638375 -0.9042729236
O   0.5970282634  0.9951748531  1.1330634364
C   1.4364076616 -0.5802184698 -0.4281706391
H   0.6320433518  0.1831897724  1.6841248267
H   1.1921676205 -1.2121387441 -1.2728379349
H   2.2106634177 -0.9266160748  0.2582008459
7
Iter 15 Image 3  Energy = -29.6596089816
C   0.8953407751  0.6754920074 -0.2104738694
H   0.7313863033  1.5116952329 -0.9052098544
O   0.5748638252  0.9576688349  1.1131716192
C   1.4154310660 -0.5682612840 -0.4043901248
H   0.6609017350  0.0662179627  1.5253675050
H   1.0570257778 -1.3448387095 -1.0679792689
H   2.2662920006 -0.8076070780  0.2434529070
7
Iter 15 Image 4  Energy = -29.6357322103
C   0.9041568649  0.7363930738 -0.2114981609
H   0.7536004056  1.5720402492 -0.9132614774
O   0.5702202676  0.9197964442  1.1162767255
C   1.3807567119 -0.5539357792 -0.3275600019
H   0.7340838818 -0.0732568235  1.2840946200
H   0.9767025355 -1.3592021908 -0.9254661755
H   2.2817209051 -0.7514679348  0.2713535594
7
Iter 15 Image 5  Energy = -29.6072699195
C   0.8958854529  0.7897179896 -0.1799799321
H   0.7564674840  1.5860717627 -0.9237535657
O   0.5548021403  0.9763432246  1.1126955931
C   1.3338476518 -0.5662795014 -0.1954873286
H   0.7953680917 -0.2125796894  1.0714113387
H   0.9509207191 -1.3446796861 -0.8625108333
H   2.3139500043 -0.7382270008  0.2715640847
7
Iter 15 Image 6  Energy = -29.6207156843
C   0.8799630521  0.8201629817 -0.1421629976
H   0.7572987494  1.5823566164 -0.9290142102
O   0.5463145004  1.0769565845  1.0825481980
C   1.3141468956 -0.5739180262 -0.1311471625
H   0.8290384893 -0.3475881789  0.9967655147
H   0.9498598030 -1.3300809021 -0.8465353923
H   2.3246200497 -0.7375220027  0.2634853873
7
Iter 15 Image 7  Energy = -29.6625469989
C   0.8661612015  0.8571955611 -0.1087307154
H   0.7624068238  1.5744740223 -0.9410264392
O   0.5381224178  1.1964597478  1.0482246786
C   1.2975488350 -0.5776789021 -0.0732234402
H   0.8453008764 -0.5201395906  0.9578479458
H   0.9524592043 -1.3083974791 -0.8294300256
H   2.3392421698 -0.7315463271  0.2402772764
7
Iter 15 Image 8  Energy = -29.6942305929
C   0.8550438145  0.8825927017 -0.0711493097
H   0.7767612485  1.5381059393 -0.9628337074
O   0.5380912945  1.3370019479  1.0244717340
C   1.2877690830 -0.5717182267 -0.0261073433
H   0.8294772641 -0.7266599511  0.9514521003
H   0.9584181332 -1.2569987380 -0.8179463818
H   2.3556807718 -0.7119563501  0.1960520180
7
Iter 15 Image 9  Energy = -29.7079820699
C   0.8435882284  0.8943886382 -0.0325144137
H   0.8047227289  1.4366452852 -1.0037366728
O   0.5439236510  1.4880912178  0.9916685517
C   1.2709805462 -0.5650488636  0.0381600411
H   0.8246603248 -0.9245901184  0.9673571324
H   0.9540112457 -1.1689072111 -0.8146219568
H   2.3593548123 -0.6702117366  0.1476262639
7
Iter 15 Image 10  Energy = -29.7099621660
C   0.8113639283  0.8868102457 -0.0267718058
H   0.8956644490  1.3563656174 -1.0339922745
O   0.3754675653  1.5364868076  0.9075121120
C   1.2843542543 -0.5574121830  0.0930821002
H   0.9458712614 -0.9714886522  1.0465640579
H   0.9105052182 -1.1582899479 -0.7385291699
H   2.3780146528 -0.6021051158  0.0460739694
7
Iter 15 Image 11  Energy = -29.7096971637
C   0.7840367852  0.8656586589 -0.0371164025
H   0.9809293880  1.3403901038 -1.0231241499
O   0.1875804579  1.4681235287  0.8223429327
C   1.3100769769 -0.5359012779  0.1153731248
H   1.0639489065 -0.9236344469  1.1059940899
H   0.8779311114 -1.1816924395 -0.6582837811
H   2.3967379442 -0.5425772870 -0.0312469938
7
Iter 16 Image 0  Energy = -29.6796137011
C   0.8260657415  0.5508603911 -0.1261794589
H   0.4554445983  1.2417513435 -0.8784317668
O   0.5680753083  1.0246514429  1.1187434847
C   1.4411098584 -0.5873603774 -0.4363613732
H   0.9099091373  0.3932317500  1.7666320721
H   1.5916834696 -0.8592929697 -1.4741885892
H   1.8089534565 -1.2734747403  0.3237244514
7
Iter 16 Image 1  Energy = -29.6789114243
C   0.8589762119  0.5859709815 -0.1488664010
H   0.5594631347  1.3150886325 -0.9000362267
O   0.6138967338  1.0203796034  1.1446631532
C   1.4445390202 -0.5815843128 -0.4408508025
H   0.7127994208  0.2702872029  1.7647352762
H   1.3728907923 -1.0135982017 -1.4303000735
H   2.0386761420 -1.1061769400  0.3045935582
7
Iter 16 Image 2  Energy = -29.6722164816
C   0.8788693108  0.6223689034 -0.1758836216
H   0.6514136167  1.4054273447 -0.9049568324
O   0.5979556614  0.9964464351  1.1329442309
C   1.4362937825 -0.5808260629 -0.4279475125
H   0.6340611942  0.1858846940  1.6855783093
H   1.1950418749 -1.2089969975 -1.2759078082
H   2.2076059948 -0.9299375183  0.2601120998
7
Iter 16 Image 3  Energy = -29.6599108046
C   0.8950607268  0.6747906616 -0.2102281509
H   0.7297179752  1.5098289874 -0.9054812255
O   0.5765298593  0.9585958434  1.1136588484
C   1.4145132379 -0.5689794581 -0.4046343706
H   0.6623913357  0.0687533191  1.5280037535
H   1.0597202708 -1.3429189442 -1.0726697987
H   2.2633080795 -0.8097034376  0.2452898731
7
Iter 16 Image 4  Energy = -29.6361383712
C   0.9042882937  0.7357532692 -0.2118694073
H   0.7534692808  1.5715278834 -0.9131463492
O   0.5707502563  0.9198091916  1.1162881456
C   1.3808317856 -0.5539548311 -0.3292375666
H   0.7335477247 -0.0721644235  1.2874163808
H   0.9775357253 -1.3592436642 -0.9270641158
H   2.2808185033 -0.7513603707  0.2715520343
7
Iter 16 Image 5  Energy = -29.6072551972
C   0.8957738960  0.7895333699 -0.1795685908
H   0.7565872915  1.5858197839 -0.9238810325
O   0.5548605384  0.9776830134  1.1125711419
C   1.3334258711 -0.5662238371 -0.1950845496
H   0.7957643523 -0.2136500438  1.0712243606
H   0.9511983100 -1.3450043773 -0.8629436378
H   2.3136312859 -0.7377908001  0.2716216648
7
Iter 16 Image 6  Energy = -29.6213823324
C   0.8796318366  0.8212646493 -0.1413848547
H   0.7576152141  1.5819854193 -0.9291578697
O   0.5463839969  1.0792305468  1.0816357105
C   1.3132477081 -0.5744372056 -0.1298315687
H   0.8295569488 -0.3509734343  0.9955731007
H   0.9500222986 -1.3299544644 -0.8460826158
H   2.3247835372 -0.7367484266  0.2631874571
7
Iter 16 Image 7  Energy = -29.6635633773
C   0.8660471172  0.8579806633 -0.1075486850
H   0.7629942559  1.5741651259 -0.9417439339
O   0.5382463981  1.1994210832  1.0471162724
C   1.2965602878 -0.5779762241 -0.0723904690
H   0.8449518692 -0.5251395906  0.9575734978
H   0.9526217070 -1.3077827868 -0.8284073639
H   2.3398198961 -0.7303012071  0.2393399841
7
Iter 16 Image 8  Energy = -29.6946381992
C   0.8548772161  0.8827040465 -0.0710138281
H   0.7779365605  1.5369740755 -0.9635305092
O   0.5377137879  1.3396018663  1.0241301053
C   1.2875183571 -0.5715054422 -0.0247774783
H   0.8292075917 -0.7308448618  0.9516806479
H   0.9582530541 -1.2565118787 -0.8173679205
H   2.3557350374 -0.7100504997  0.1948181258
7
Iter 16 Image 9  Energy = -29.7080673343
C   0.8433362902  0.8942947157 -0.0318838353
H   0.8057285132  1.4354935877 -1.0037034014
O   0.5440865476  1.4891342524  0.9918365424
C   1.2704404291 -0.5650921411  0.0386818566
H   0.8244519254 -0.9271824262  0.9670612345
H   0.9541493610 -1.1679458122 -0.8150985649
H   2.3590484726 -0.6683349623  0.1470451295
7
Iter 16 Image 10  Energy = -29.7099711663
C   0.8113539622  0.8865334596 -0.0266733963
H   0.8961298265  1.3554120743 -1.0339305473
O   0.3762249652  1.5370175588  0.9079988896
C   1.2839179668 -0.5575669932  0.0932343520
H   0.9455005312 -0.9724086774  1.0463732675
H   0.9105043398 -1.1576796217 -0.7391079915
H   2.3776097326 -0.6009410150  0.0460444158
7
Iter 16 Image 11  Energy = -29.7096971637
C   0.7840367852  0.8656586589 -0.0371164025
H   0.9809293880  1.3403901038 -1.0231241499
O   0.1875804579  1.4681235287  0.8223429327
C   1.3100769769 -0.5359012779  0.1153731248
H   1.0639489065 -0.9236344469  1.1059940899
H   0.8779311114 -1.1816924395 -0.6582837811
H   2.3967379442 -0.5425772870 -0.0312469938
