7
Image 0  Energy = -29.67961370
C   0.8260657415  0.5508603911 -0.1261794589
H   0.4554445983  1.2417513435 -0.8784317668
O   0.5680753083  1.0246514429  1.1187434847
C   1.4411098584 -0.5873603774 -0.4363613732
H   0.9099091373  0.3932317500  1.7666320721
H   1.5916834696 -0.8592929697 -1.4741885892
H   1.8089534565 -1.2734747403  0.3237244514
7
Image 1  Energy = -29.67891142
C   0.8589762119  0.5859709815 -0.1488664010
H   0.5594631347  1.3150886325 -0.9000362267
O   0.6138967338  1.0203796034  1.1446631532
C   1.4445390202 -0.5815843128 -0.4408508025
H   0.7127994208  0.2702872029  1.7647352762
H   1.3728907923 -1.0135982017 -1.4303000735
H   2.0386761420 -1.1061769400  0.3045935582
7
Image 2  Energy = -29.67221648
C   0.8788693108  0.6223689034 -0.1758836216
H   0.6514136167  1.4054273447 -0.9049568324
O   0.5979556614  0.9964464351  1.1329442309
C   1.4362937825 -0.5808260629 -0.4279475125
H   0.6340611942  0.1858846940  1.6855783093
H   1.1950418749 -1.2089969975 -1.2759078082
H   2.2076059948 -0.9299375183  0.2601120998
7
Image 3  Energy = -29.65991080
C   0.8950607268  0.6747906616 -0.2102281509
H   0.7297179752  1.5098289874 -0.9054812255
O   0.5765298593  0.9585958434  1.1136588484
C   1.4145132379 -0.5689794581 -0.4046343706
H   0.6623913357  0.0687533191  1.5280037535
H   1.0597202708 -1.3429189442 -1.0726697987
H   2.2633080795 -0.8097034376  0.2452898731
7
Image 4  Energy = -29.63613837
C   0.9042882937  0.7357532692 -0.2118694073
H   0.7534692808  1.5715278834 -0.9131463492
O   0.5707502563  0.9198091916  1.1162881456
C   1.3808317856 -0.5539548311 -0.3292375666
H   0.7335477247 -0.0721644235  1.2874163808
H   0.9775357253 -1.3592436642 -0.9270641158
H   2.2808185033 -0.7513603707  0.2715520343
7
Image 5  Energy = -29.60725520
C   0.8957738960  0.7895333699 -0.1795685908
H   0.7565872915  1.5858197839 -0.9238810325
O   0.5548605384  0.9776830134  1.1125711419
C   1.3334258711 -0.5662238371 -0.1950845496
H   0.7957643523 -0.2136500438  1.0712243606
H   0.9511983100 -1.3450043773 -0.8629436378
H   2.3136312859 -0.7377908001  0.2716216648
7
Image 6  Energy = -29.62138233
C   0.8796318366  0.8212646493 -0.1413848547
H   0.7576152141  1.5819854193 -0.9291578697
O   0.5463839969  1.0792305468  1.0816357105
C   1.3132477081 -0.5744372056 -0.1298315687
H   0.8295569488 -0.3509734343  0.9955731007
H   0.9500222986 -1.3299544644 -0.8460826158
H   2.3247835372 -0.7367484266  0.2631874571
7
Image 7  Energy = -29.66356338
C   0.8660471172  0.8579806633 -0.1075486850
H   0.7629942559  1.5741651259 -0.9417439339
O   0.5382463981  1.1994210832  1.0471162724
C   1.2965602878 -0.5779762241 -0.0723904690
H   0.8449518692 -0.5251395906  0.9575734978
H   0.9526217070 -1.3077827868 -0.8284073639
H   2.3398198961 -0.7303012071  0.2393399841
7
Image 8  Energy = -29.69463820
C   0.8548772161  0.8827040465 -0.0710138281
H   0.7779365605  1.5369740755 -0.9635305092
O   0.5377137879  1.3396018663  1.0241301053
C   1.2875183571 -0.5715054422 -0.0247774783
H   0.8292075917 -0.7308448618  0.9516806479
H   0.9582530541 -1.2565118787 -0.8173679205
H   2.3557350374 -0.7100504997  0.1948181258
7
Image 9  Energy = -29.70806733
C   0.8433362902  0.8942947157 -0.0318838353
H   0.8057285132  1.4354935877 -1.0037034014
O   0.5440865476  1.4891342524  0.9918365424
C   1.2704404291 -0.5650921411  0.0386818566
H   0.8244519254 -0.9271824262  0.9670612345
H   0.9541493610 -1.1679458122 -0.8150985649
H   2.3590484726 -0.6683349623  0.1470451295
7
Image 10  Energy = -29.70997117
C   0.8113539622  0.8865334596 -0.0266733963
H   0.8961298265  1.3554120743 -1.0339305473
O   0.3762249652  1.5370175588  0.9079988896
C   1.2839179668 -0.5575669932  0.0932343520
H   0.9455005312 -0.9724086774  1.0463732675
H   0.9105043398 -1.1576796217 -0.7391079915
H   2.3776097326 -0.6009410150  0.0460444158
7
Image 11  Energy = -29.70969716
C   0.7840367852  0.8656586589 -0.0371164025
H   0.9809293880  1.3403901038 -1.0231241499
O   0.1875804579  1.4681235287  0.8223429327
C   1.3100769769 -0.5359012779  0.1153731248
H   1.0639489065 -0.9236344469  1.1059940899
H   0.8779311114 -1.1816924395 -0.6582837811
H   2.3967379442 -0.5425772870 -0.0312469938
