7
Image 0  Energy = -153.91544959
C   0.8260657415  0.5508603911 -0.1261794589
H   0.4554445983  1.2417513435 -0.8784317668
O   0.5680753083  1.0246514429  1.1187434847
C   1.4411098584 -0.5873603774 -0.4363613732
H   0.9099091373  0.3932317500  1.7666320721
H   1.5916834696 -0.8592929697 -1.4741885892
H   1.8089534565 -1.2734747403  0.3237244514
7
Image 1  Energy = -153.91366301
C   0.8603902717  0.5792148343 -0.1368637041
H   0.4828817557  1.2556706480 -0.8893618460
O   0.6622743861  1.0417423437  1.1235432054
C   1.4422065572 -0.5738828921 -0.4243306212
H   0.7723911959  0.2798348747  1.7003241725
H   1.4337875632 -0.9559141267 -1.4296001016
H   1.9473083117 -1.1363007468  0.3502242312
7
Image 2  Energy = -153.90379157
C   0.8800436868  0.6259051525 -0.1575186166
H   0.5218865487  1.3086752685 -0.9111573254
O   0.7057146991  1.0256110751  1.1307120755
C   1.4223646016 -0.5595038358 -0.3867166706
H   0.7340554934  0.1611302128  1.5549942211
H   1.2945027311 -1.0654663682 -1.3159917823
H   2.0426764134 -1.0059871965  0.3796188320
7
Image 3  Energy = -153.88398822
C   0.8908017613  0.6664121947 -0.1635847715
H   0.5840280257  1.3663413660 -0.9237285672
O   0.6974875032  0.9960940166  1.1379028587
C   1.3809790630 -0.5625267535 -0.3247628154
H   0.7104110285  0.0555352134  1.4102373862
H   1.1914211376 -1.1195259732 -1.1984690927
H   2.1461170953 -0.9119662565  0.3563444607
7
Image 4  Energy = -153.84514376
C   0.8948304064  0.7105340406 -0.1451362881
H   0.6299563212  1.4003376745 -0.9384656006
O   0.6729775644  1.0206033086  1.1317205183
C   1.3285323856 -0.5751417934 -0.2300692312
H   0.7125209723 -0.0659198021  1.2703687936
H   1.1344339324 -1.1399577836 -1.1028401611
H   2.2279946969 -0.8600930562  0.3083633812
7
Image 5  Energy = -153.81515331
C   0.8862097383  0.7620816011 -0.0984751965
H   0.6520281707  1.4076871060 -0.9471819214
O   0.6561960013  1.1259814170  1.1025991584
C   1.2943826309 -0.5945828019 -0.1461314557
H   0.7316112594 -0.2215916042  1.1630299693
H   1.1115805371 -1.1475371430 -1.0547405358
H   2.2692381720 -0.8416763863  0.2748412845
7
Image 6  Energy = -153.87243621
C   0.8853028695  0.8261947201 -0.0673389703
H   0.6665617720  1.4165640697 -0.9612556216
O   0.6476763456  1.2574055283  1.0531428932
C   1.2695166068 -0.5938622575 -0.0468941044
H   0.7684411175 -0.4589804711  1.0471690890
H   1.0753184022 -1.1434904547 -0.9912388943
H   2.2884287544 -0.8134692514  0.2603572893
7
Image 7  Energy = -153.91790709
C   0.8817522747  0.8707115037 -0.0335595910
H   0.7067917063  1.4025484954 -0.9851739960
O   0.6376588123  1.4028060140  1.0158927885
C   1.2759122884 -0.5686751622  0.0038747117
H   0.7616661170 -0.7246162940  0.9619020526
H   1.0127385745 -1.1343663546 -0.8943881554
H   2.3247241998 -0.7580448676  0.2253923768
7
Image 8  Energy = -153.93106533
C   0.8514064568  0.8875121228 -0.0089671975
H   0.8531810792  1.3396551453 -1.0196100348
O   0.5249893992  1.5361597037  0.9501818558
C   1.2606755998 -0.5532258885  0.0725777820
H   0.8401173277 -0.9754582950  0.9794358089
H   0.9230052599 -1.1075205819 -0.8000248769
H   2.3478639162 -0.6367505571  0.1203399338
7
Image 9  Energy = -153.93132892
C   0.8282366936  0.8785559496 -0.0101705461
H   1.0476769208  1.3960839641 -0.9617435265
O   0.2539062715  1.4558598870  0.8793783222
C   1.2834969262 -0.5448718616  0.0849017743
H   1.0459673731 -0.9293266302  1.0696625798
H   0.7865289780 -1.1494315563 -0.6728635573
H   2.3554290037 -0.6165040007 -0.0952259213
7
Image 10  Energy = -153.93015754
C   0.8400565113  0.8849889536  0.0311574139
H   1.3424058194  1.4357283206 -0.7975535653
O   0.0407785271  1.4106767493  0.7601961736
C   1.2690258152 -0.5502476359  0.0914985111
H   1.2747016333 -0.9528925646  1.1058559337
H   0.5792276562 -1.1306311634 -0.5285921043
H   2.2550432674 -0.6072549173 -0.3686265692
7
Image 11  Energy = -153.93122418
C   0.9646013470  0.9151838039  0.0794782572
H   1.2139949758  1.4613694688 -0.8563806837
O   0.5589375740  1.5138334647  1.0461477485
C   1.1733386801 -0.5741124768  0.0268768345
H   0.8955192111 -1.0261429734  0.9811989535
H   0.5718029517 -1.0057474169 -0.7819416417
H   2.2230468302 -0.7940170304 -0.2014406483
