7
Iter 0 Image 0  Energy = -153.9154495915
C   0.8260657415  0.5508603911 -0.1261794589
H   0.4554445983  1.2417513435 -0.8784317668
O   0.5680753083  1.0246514429  1.1187434847
C   1.4411098584 -0.5873603774 -0.4363613732
H   0.9099091373  0.3932317500  1.7666320721
H   1.5916834696 -0.8592929697 -1.4741885892
H   1.8089534565 -1.2734747403  0.3237244514
7
Iter 0 Image 1  Energy = -153.8877140740
C   0.9992239689  0.6786045412 -0.1304446010
H   0.5566610454  1.3034875546 -0.9028418262
O   0.5550141238  1.0150301468  1.1017475730
C   1.3867193217 -0.5909738271 -0.3624649903
H   0.7096838071  0.1670488558  1.6568154241
H   1.2790957557 -1.0101274131 -1.3569120293
H   2.1148435475 -1.0727030183  0.2880392699
7
Iter 0 Image 2  Energy = -153.8558377681
C   1.0481926338  0.7372331717 -0.1304063411
H   0.5948784298  1.3265319378 -0.9261731922
O   0.5436285116  1.0141047374  1.0856146276
C   1.3625948047 -0.5820095015 -0.2947410836
H   0.6736429256  0.0363956038  1.5579985365
H   1.1659755699 -1.0546446722 -1.2520743899
H   2.2123286946 -0.9872444372  0.2537206627
7
Iter 0 Image 3  Energy = -153.8211333331
C   1.0726972724  0.7814776785 -0.1262259228
H   0.6246807714  1.3402027693 -0.9486560049
O   0.5294342619  1.0208263999  1.0698634848
C   1.3454630330 -0.5729668901 -0.2329819246
H   0.6664816542 -0.0745670396  1.4703347125
H   1.0897046127 -1.0813284919 -1.1590558870
H   2.2727799643 -0.9232775862  0.2206603621
7
Iter 0 Image 4  Energy = -153.7901720666
C   1.0822162453  0.8169586181 -0.1182478791
H   0.6521536907  1.3477791380 -0.9703761503
O   0.5114869830  1.0368515125  1.0539731530
C   1.3329221847 -0.5650288582 -0.1770202338
H   0.6751623883 -0.1760638367  1.3937012321
H   1.0333599581 -1.0998371283 -1.0766347687
H   2.3139401202 -0.8702926054  0.1885434669
7
Iter 0 Image 5  Energy = -153.7792725876
C   1.0797109432  0.8459352952 -0.1066688811
H   0.6805635358  1.3508911465 -0.9914318219
O   0.4887522264  1.0631496709  1.0370874587
C   1.3240462555 -0.5586393872 -0.1270062433
H   0.6950053942 -0.2731997167  1.3281392359
H   0.9896584897 -1.1143489616 -1.0028987199
H   2.3435047253 -0.8234212069  0.1567177916
7
Iter 0 Image 6  Energy = -153.7985305824
C   1.0655634103  0.8690101543 -0.0927128735
H   0.7128987198  1.3507097788 -1.0118666347
O   0.4594307766  1.1002483535  1.0181860810
C   1.3178939255 -0.5533716906 -0.0818998710
H   0.7254906074 -0.3698599877  1.2737157364
H   0.9545812061 -1.1271109153 -0.9360426023
H   2.3653829242 -0.7792588528  0.1245589838
7
Iter 0 Image 7  Energy = -153.8323288846
C   1.0387855391  0.8849399117 -0.0782338101
H   0.7528183658  1.3486360612 -1.0312047602
O   0.4200780004  1.1481474773  0.9965673083
C   1.3143452469 -0.5485544962 -0.0411065788
H   0.7679294172 -0.4684768753  1.2301883809
H   0.9253458976 -1.1395598715 -0.8729047692
H   2.3819391026 -0.7347653670  0.0906330492
7
Iter 0 Image 8  Energy = -153.8692297961
C   0.9945824345  0.8917789263 -0.0642653703
H   0.8045382492  1.3467051437 -1.0471079244
O   0.3676353313  1.2084196695  0.9687630737
C   1.3126508022 -0.5445701542 -0.0025267760
H   0.8262771024 -0.5717332845  1.1972538634
H   0.9014798583 -1.1524976285 -0.8120759873
H   2.3940777921 -0.6877358323  0.0538979411
7
Iter 0 Image 9  Energy = -153.9027718787
C   0.9224892520  0.8847272147 -0.0549898481
H   0.8726016523  1.3486439499 -1.0532123499
O   0.3032820550  1.2818117798  0.9324471788
C   1.3127216389 -0.5418176955  0.0351998556
H   0.9032315098 -0.6808928535  1.1721437677
H   0.8852050984 -1.1675072104 -0.7527969275
H   2.4017103636 -0.6345983450  0.0151471435
7
Iter 0 Image 10  Energy = -153.9253803574
C   0.8149766960  0.8600551643 -0.0576068878
H   0.9476114349  1.3548693144 -1.0375526326
O   0.2511022002  1.3739631672  0.8901811793
C   1.3121027000 -0.5396121359  0.0720578541
H   0.9864335158 -0.8001565966  1.1428148836
H   0.8863223797 -1.1848121348 -0.7022754665
H   2.4026926434 -0.5739399386 -0.0136801102
7
Iter 0 Image 11  Energy = -153.9312241828
C   0.9646013470  0.9151838039  0.0794782572
H   1.2139949758  1.4613694688 -0.8563806837
O   0.5589375740  1.5138334647  1.0461477485
C   1.1733386801 -0.5741124768  0.0268768345
H   0.8955192111 -1.0261429734  0.9811989535
H   0.5718029517 -1.0057474169 -0.7819416417
H   2.2230468302 -0.7940170304 -0.2014406483
7
Iter 1 Image 0  Energy = -153.9154495915
C   0.8260657415  0.5508603911 -0.1261794589
H   0.4554445983  1.2417513435 -0.8784317668
O   0.5680753083  1.0246514429  1.1187434847
C   1.4411098584 -0.5873603774 -0.4363613732
H   0.9099091373  0.3932317500  1.7666320721
H   1.5916834696 -0.8592929697 -1.4741885892
H   1.8089534565 -1.2734747403  0.3237244514
7
Iter 1 Image 1  Energy = -153.8910689863
C   0.9886673340  0.6720241110 -0.1300425121
H   0.5593279662  1.3033971446 -0.9029697941
O   0.5614955692  1.0117293551  1.1081597665
C   1.3927863926 -0.5876034001 -0.3652393791
H   0.7078216479  0.1717498194  1.6487310994
H   1.2783743848 -1.0093183381 -1.3541133114
H   2.1127682613 -1.0716118136  0.2894129025
7
Iter 1 Image 2  Energy = -153.8627935195
C   1.0358031462  0.7288468974 -0.1306234094
H   0.5986555842  1.3275602408 -0.9265945037
O   0.5505841009  1.0045294084  1.0960548260
C   1.3696007330 -0.5785837876 -0.2983659450
H   0.6713464662  0.0465539997  1.5436371868
H   1.1636856052 -1.0539238394 -1.2452587951
H   2.2115659078 -0.9846160525  0.2550894586
7
Iter 1 Image 3  Energy = -153.8294604672
C   1.0580659112  0.7715511178 -0.1264749177
H   0.6301233715  1.3425163264 -0.9497859208
O   0.5354175787  1.0094734540  1.0806866284
C   1.3522539938 -0.5701917757 -0.2350245186
H   0.6652673256 -0.0627977314  1.4537311176
H   1.0865707732 -1.0812722261 -1.1503060107
H   2.2735426377 -0.9189122457  0.2211124520
7
Iter 1 Image 4  Energy = -153.7970768782
C   1.0643325224  0.8049999822 -0.1171836023
H   0.6574406354  1.3507041457 -0.9704843472
O   0.5170785492  1.0332757474  1.0615634487
C   1.3384951977 -0.5643787852 -0.1767779602
H   0.6770977435 -0.1673226109  1.3779832937
H   1.0331549918 -1.0987236931 -1.0708304620
H   2.3136418954 -0.8681879656  0.1896684358
7
Iter 1 Image 5  Energy = -153.7862972226
C   1.0599710886  0.8331513724 -0.1037163825
H   0.6835346342  1.3543554169 -0.9882151045
O   0.4953402243  1.0716256780  1.0402569236
C   1.3287772865 -0.5615354431 -0.1255874247
H   0.6977920639 -0.2679262766  1.3159013191
H   0.9938275460 -1.1120196261 -1.0039338536
H   2.3419987060 -0.8272843316  0.1592333286
7
Iter 1 Image 6  Energy = -153.8079976819
C   1.0455634103  0.8573758024 -0.0891228639
H   0.7125520432  1.3547642596 -1.0058295445
O   0.4689459297  1.1157564975  1.0172886700
C   1.3209441631 -0.5593004245 -0.0782056699
H   0.7287948757 -0.3666278035  1.2638813871
H   0.9618062569 -1.1230237466 -0.9444612483
H   2.3626348613 -0.7885777877  0.1303881106
7
Iter 1 Image 7  Energy = -153.8412815971
C   1.0213371299  0.8753527283 -0.0767204608
H   0.7520032334  1.3532279870 -1.0253624529
O   0.4294573478  1.1620260726  0.9958438700
C   1.3168486776 -0.5540083763 -0.0340746781
H   0.7709942617 -0.4667655221  1.2165981035
H   0.9301744027 -1.1358942040 -0.8788101309
H   2.3804265277 -0.7435718168  0.0964645253
7
Iter 1 Image 8  Energy = -153.8761227960
C   0.9816506011  0.8839286645 -0.0645914095
H   0.8026284414  1.3508422816 -1.0422185614
O   0.3769838530  1.2183775468  0.9687601562
C   1.3142148549 -0.5485007343  0.0063268529
H   0.8280415708 -0.5697179099  1.1818959855
H   0.9044718778 -1.1489771634 -0.8156437396
H   2.3932503491 -0.6955858622  0.0594094974
7
Iter 1 Image 9  Energy = -153.9064671494
C   0.9154337231  0.8789725567 -0.0557889987
H   0.8706772453  1.3512572919 -1.0500977696
O   0.3098496853  1.2875069782  0.9327137696
C   1.3134607703 -0.5440996325  0.0434673799
H   0.9041168629 -0.6786062502  1.1584248356
H   0.8864746494 -1.1649498427 -0.7534277570
H   2.4012286381 -0.6397142481  0.0186473436
7
Iter 1 Image 10  Energy = -153.9263218826
C   0.8150320734  0.8583439960 -0.0569955316
H   0.9465002698  1.3554075508 -1.0362880450
O   0.2516946820  1.3768211968  0.8888947980
C   1.3114714419 -0.5406537313  0.0769763535
H   0.9883580873 -0.8004061161  1.1349133533
H   0.8865433770 -1.1841458122 -0.7006833541
H   2.4016416445 -0.5750002382 -0.0128787276
7
Iter 1 Image 11  Energy = -153.9312241828
C   0.9646013470  0.9151838039  0.0794782572
H   1.2139949758  1.4613694688 -0.8563806837
O   0.5589375740  1.5138334647  1.0461477485
C   1.1733386801 -0.5741124768  0.0268768345
H   0.8955192111 -1.0261429734  0.9811989535
H   0.5718029517 -1.0057474169 -0.7819416417
H   2.2230468302 -0.7940170304 -0.2014406483
7
Iter 2 Image 0  Energy = -153.9154495915
C   0.8260657415  0.5508603911 -0.1261794589
H   0.4554445983  1.2417513435 -0.8784317668
O   0.5680753083  1.0246514429  1.1187434847
C   1.4411098584 -0.5873603774 -0.4363613732
H   0.9099091373  0.3932317500  1.7666320721
H   1.5916834696 -0.8592929697 -1.4741885892
H   1.8089534565 -1.2734747403  0.3237244514
7
Iter 2 Image 1  Energy = -153.8939827865
C   0.9752647132  0.6641409871 -0.1291049767
H   0.5610817410  1.3028703362 -0.9026510526
O   0.5690484704  1.0128084643  1.1118284503
C   1.4001162961 -0.5835117963 -0.3689143301
H   0.7074196168  0.1740041430  1.6435998915
H   1.2793384748 -1.0080604367 -1.3536301626
H   2.1089722315 -1.0718847908  0.2928109276
7
Iter 2 Image 2  Energy = -153.8683160033
C   1.0203309690  0.7193529689 -0.1302362523
H   0.6016779246  1.3287820761 -0.9261755352
O   0.5585552803  0.9995607181  1.1033266274
C   1.3779644967 -0.5746152981 -0.3032027457
H   0.6702811263  0.0539925190  1.5320038409
H   1.1618904602 -1.0538921514 -1.2410870389
H   2.2105412800 -0.9828139353  0.2593099346
7
Iter 2 Image 3  Energy = -153.8358179997
C   1.0408147957  0.7621212515 -0.1261647030
H   0.6358145901  1.3455971223 -0.9500363494
O   0.5412138751  1.0019971345  1.0895872759
C   1.3583947776 -0.5686781981 -0.2370540263
H   0.6657352414 -0.0538996009  1.4354459035
H   1.0821959881 -1.0829698797 -1.1416123113
H   2.2770723108 -0.9138009176  0.2237730254
7
Iter 2 Image 4  Energy = -153.8028472530
C   1.0446927928  0.7944946795 -0.1169814333
H   0.6628732171  1.3540108426 -0.9692921046
O   0.5221039755  1.0331737224  1.0696467081
C   1.3411163351 -0.5659932910 -0.1751208871
H   0.6809191607 -0.1601896910  1.3580053973
H   1.0326571437 -1.0984976183 -1.0647384917
H   2.3168788993 -0.8666318586  0.1924196046
7
Iter 2 Image 5  Energy = -153.7923481792
C   1.0399710886  0.8225098320 -0.1022152584
H   0.6855119844  1.3576573035 -0.9840506703
O   0.5027150022  1.0810376720  1.0452703488
C   1.3288846951 -0.5664074954 -0.1242944400
H   0.7014325918 -0.2616055763  1.3026005311
H   1.0004706457 -1.1094296530 -1.0075408381
H   2.3422555208 -0.8333953236  0.1641690989
7
Iter 2 Image 6  Energy = -153.8143890867
C   1.0268797817  0.8467861737 -0.0860454815
H   0.7109790450  1.3588087368 -0.9999030206
O   0.4801984738  1.1266566654  1.0193606120
C   1.3198285355 -0.5647167627 -0.0777089027
H   0.7310347878 -0.3590724953  1.2539488812
H   0.9717125011 -1.1183611813 -0.9546133880
H   2.3606084138 -0.7997343729  0.1389001437
7
Iter 2 Image 7  Energy = -153.8501573515
C   1.0035791876  0.8679169926 -0.0731670765
H   0.7504977047  1.3579370614 -1.0197032040
O   0.4398974187  1.1785868697  0.9949877182
C   1.3142426704 -0.5599895182 -0.0279608465
H   0.7759278571 -0.4683339169  1.2004608726
H   0.9378298316 -1.1314321800 -0.8853812818
H   2.3792668928 -0.7543184822  0.1047026030
7
Iter 2 Image 8  Energy = -153.8834994862
C   0.9666069152  0.8773570752 -0.0608591336
H   0.8002888763  1.3554861484 -1.0371711521
O   0.3881295165  1.2321716636  0.9670595403
C   1.3126602692 -0.5537593951  0.0123295638
H   0.8312876629 -0.5711185343  1.1639948196
H   0.9097700659 -1.1444165314 -0.8186202614
H   2.3924982444 -0.7053535807  0.0672053684
7
Iter 2 Image 9  Energy = -153.9105196377
C   0.9041430166  0.8749092790 -0.0519601432
H   0.8690213651  1.3542042516 -1.0464986690
O   0.3188562982  1.2959026304  0.9295319029
C   1.3135815767 -0.5474206706  0.0476607011
H   0.9058314760 -0.6797249929  1.1436899185
H   0.8889687355 -1.1614871844 -0.7521760123
H   2.4008390930 -0.6460164598  0.0236910847
7
Iter 2 Image 10  Energy = -153.9273065084
C   0.8114175923  0.8585899655 -0.0525457055
H   0.9459609000  1.3558153188 -1.0346313127
O   0.2541355166  1.3798277794  0.8837338760
C   1.3116743075 -0.5412919341  0.0788151075
H   0.9906047130 -0.8031850435  1.1279144084
H   0.8870356037 -1.1832903816 -0.6976254151
H   2.4004129435 -0.5760988485 -0.0117220924
7
Iter 2 Image 11  Energy = -153.9312241828
C   0.9646013470  0.9151838039  0.0794782572
H   1.2139949758  1.4613694688 -0.8563806837
O   0.5589375740  1.5138334647  1.0461477485
C   1.1733386801 -0.5741124768  0.0268768345
H   0.8955192111 -1.0261429734  0.9811989535
H   0.5718029517 -1.0057474169 -0.7819416417
H   2.2230468302 -0.7940170304 -0.2014406483
7
Iter 3 Image 0  Energy = -153.9154495915
C   0.8260657415  0.5508603911 -0.1261794589
H   0.4554445983  1.2417513435 -0.8784317668
O   0.5680753083  1.0246514429  1.1187434847
C   1.4411098584 -0.5873603774 -0.4363613732
H   0.9099091373  0.3932317500  1.7666320721
H   1.5916834696 -0.8592929697 -1.4741885892
H   1.8089534565 -1.2734747403  0.3237244514
7
Iter 3 Image 1  Energy = -153.8969133084
C   0.9615037309  0.6564430620 -0.1299143736
H   0.5621443596  1.3019098400 -0.9023005722
O   0.5773350387  1.0124338825  1.1176877009
C   1.4076712252 -0.5797642503 -0.3727636558
H   0.7070964173  0.1782877753  1.6380700638
H   1.2811664944 -1.0064284221 -1.3538427844
H   2.1043242683 -1.0725149697  0.2970023650
7
Iter 3 Image 2  Energy = -153.8730592202
C   1.0043037955  0.7097987612 -0.1317493393
H   0.6040078695  1.3298462460 -0.9253935651
O   0.5663844294  0.9964232235  1.1113432431
C   1.3864165599 -0.5715243254 -0.3086048015
H   0.6700637975  0.0611707472  1.5217007021
H   1.1609586397 -1.0539781385 -1.2382019257
H   2.2091064503 -0.9813696015  0.2648445165
7
Iter 3 Image 3  Energy = -153.8405756595
C   1.0234579539  0.7521610391 -0.1275757417
H   0.6408866752  1.3491236516 -0.9498038226
O   0.5466016969  0.9979887231  1.0982837774
C   1.3633371968 -0.5678237333 -0.2370512925
H   0.6674973080 -0.0466973768  1.4172932022
H   1.0785956274 -1.0852437442 -1.1342185683
H   2.2808650954 -0.9091416929  0.2270112395
7
Iter 3 Image 4  Energy = -153.8069578676
C   1.0254556623  0.7840911166 -0.1146569565
H   0.6671645015  1.3583228042 -0.9685881982
O   0.5278733328  1.0368181566  1.0747443853
C   1.3430886975 -0.5677237731 -0.1707172418
H   0.6855316347 -0.1565918791  1.3381751859
H   1.0329505342 -1.0990276419 -1.0600413576
H   2.3191771458 -0.8655220149  0.1950229594
7
Iter 3 Image 5  Energy = -153.7977345628
C   1.0199710886  0.8123132015 -0.0986012133
H   0.6866590287  1.3617427141 -0.9810859552
O   0.5113957232  1.0899756643  1.0494126609
C   1.3299625983 -0.5712403208 -0.1218088728
H   0.7051470466 -0.2555031819  1.2892754295
H   1.0076407035 -1.1076979543 -1.0126486425
H   2.3404653271 -0.8392233763  0.1693953568
7
Iter 3 Image 6  Energy = -153.8194542037
C   1.0085617569  0.8374272551 -0.0841591302
H   0.7090913784  1.3628947401 -0.9942398703
O   0.4915916479  1.1371546755  1.0235179813
C   1.3207468843 -0.5705317438 -0.0764482129
H   0.7328867826 -0.3513342368  1.2439636592
H   0.9819547716 -1.1149715852 -0.9663223469
H   2.3564083103 -0.8102723707  0.1476267282
7
Iter 3 Image 7  Energy = -153.8573504974
C   0.9872332636  0.8616060997 -0.0717637918
H   0.7485940346  1.3624452311 -1.0143875628
O   0.4509502983  1.1932773132  0.9967993619
C   1.3133411098 -0.5640600084 -0.0209855405
H   0.7800874113 -0.4700110155  1.1841145986
H   0.9457031401 -1.1279203512 -0.8938293385
H   2.3753322907 -0.7649704845  0.1139910856
7
Iter 3 Image 8  Energy = -153.8896786435
C   0.9537934201  0.8711011564 -0.0616209188
H   0.7979232050  1.3596538999 -1.0315616109
O   0.3979130619  1.2482978336  0.9695977675
C   1.3118121986 -0.5567552997  0.0197200466
H   0.8346344307 -0.5752798586  1.1456206330
H   0.9151574991 -1.1411954964 -0.8237691793
H   2.3900077384 -0.7154553870  0.0759520137
7
Iter 3 Image 9  Energy = -153.9135049291
C   0.8969330022  0.8686884185 -0.0560052901
H   0.8675816575  1.3568502902 -1.0419448584
O   0.3237104160  1.3093610919  0.9331958375
C   1.3136861594 -0.5485360440  0.0531175909
H   0.9082335742 -0.6841940921  1.1285855721
H   0.8909881435 -1.1594719983 -0.7522164343
H   2.4001085993 -0.6523308143  0.0292063431
7
Iter 3 Image 10  Energy = -153.9277634749
C   0.8120020300  0.8553172412 -0.0565764115
H   0.9456527411  1.3558840492 -1.0320825631
O   0.2518833170  1.3878464379  0.8855053619
C   1.3111525283 -0.5410295010  0.0821745228
H   0.9936561462 -0.8077934360  1.1205269571
H   0.8871370948 -1.1831167440 -0.6948691971
H   2.3997577191 -0.5767411901 -0.0107398007
7
Iter 3 Image 11  Energy = -153.9312241828
C   0.9646013470  0.9151838039  0.0794782572
H   1.2139949758  1.4613694688 -0.8563806837
O   0.5589375740  1.5138334647  1.0461477485
C   1.1733386801 -0.5741124768  0.0268768345
H   0.8955192111 -1.0261429734  0.9811989535
H   0.5718029517 -1.0057474169 -0.7819416417
H   2.2230468302 -0.7940170304 -0.2014406483
7
Iter 4 Image 0  Energy = -153.9154495915
C   0.8260657415  0.5508603911 -0.1261794589
H   0.4554445983  1.2417513435 -0.8784317668
O   0.5680753083  1.0246514429  1.1187434847
C   1.4411098584 -0.5873603774 -0.4363613732
H   0.9099091373  0.3932317500  1.7666320721
H   1.5916834696 -0.8592929697 -1.4741885892
H   1.8089534565 -1.2734747403  0.3237244514
7
Iter 4 Image 1  Energy = -153.8992998381
C   0.9474327012  0.6484542910 -0.1289720998
H   0.5619518501  1.3010355781 -0.9024171144
O   0.5863195062  1.0142925378  1.1209750155
C   1.4153077406 -0.5760770354 -0.3772083157
H   0.7075537574  0.1806819640  1.6342388853
H   1.2839754665 -1.0046137250 -1.3548008123
H   2.0987005053 -1.0734066741  0.3021231717
7
Iter 4 Image 2  Energy = -153.8768716198
C   0.9874667258  0.7000219331 -0.1320236499
H   0.6052364544  1.3311752571 -0.9249457460
O   0.5750818629  0.9954262444  1.1171984096
C   1.3949668105 -0.5685554991 -0.3139626489
H   0.6706921061  0.0669380006  1.5127722302
H   1.1607647144 -1.0545985962 -1.2366345580
H   2.2070328608 -0.9800404168  0.2715347901
7
Iter 4 Image 3  Energy = -153.8437735577
C   1.0049075547  0.7433116543 -0.1267140044
H   0.6450536875  1.3532888623 -0.9499024469
O   0.5532815614  0.9965119921  1.1036550753
C   1.3675663867 -0.5688377522 -0.2359736380
H   0.6703316572 -0.0414141047  1.3993318827
H   1.0760906359 -1.0877180984 -1.1272531710
H   2.2840100564 -0.9047757224  0.2307950830
7
Iter 4 Image 4  Energy = -153.8097327231
C   1.0054556623  0.7760173752 -0.1133722382
H   0.6709986824  1.3622909091 -0.9668701226
O   0.5343796608  1.0445956025  1.0788483143
C   1.3436765912 -0.5717645126 -0.1664124761
H   0.6907432521 -0.1560043311  1.3196395475
H   1.0352832449 -1.0990470325 -1.0562962893
H   2.3207043976 -0.8657212568  0.1984020223
7
Iter 4 Image 5  Energy = -153.8020848494
C   1.0003357706  0.8038875587 -0.0986604349
H   0.6876794054  1.3653669162 -0.9772903241
O   0.5199450045  1.0998435772  1.0560082582
C   1.3291280132 -0.5769046061 -0.1201041561
H   0.7091449742 -0.2502754540  1.2763007901
H   1.0161087943 -1.1058696413 -1.0180144951
H   2.3388995389 -0.8456816214  0.1756991057
7
Iter 4 Image 6  Energy = -153.8230993081
C   0.9914437450  0.8282361824 -0.0832234732
H   0.7064759486  1.3672581157 -0.9890239784
O   0.5031376702  1.1473859997  1.0293334149
C   1.3190137940 -0.5761875413 -0.0767812114
H   0.7347852047 -0.3437429950  1.2342077800
H   0.9936182883 -1.1115531697 -0.9778707313
H   2.3527668611 -0.8210298653  0.1572969767
7
Iter 4 Image 7  Energy = -153.8633374455
C   0.9721806669  0.8559953331 -0.0716141524
H   0.7459097476  1.3670992334 -1.0091164672
O   0.4621547613  1.2086016977  1.0012144247
C   1.3104843699 -0.5694255178 -0.0162476873
H   0.7841243004 -0.4721546745  1.1670672754
H   0.9553019670 -1.1237677220 -0.9020691626
H   2.3710857315 -0.7759815975  0.1247045762
7
Iter 4 Image 8  Energy = -153.8954692273
C   0.9396275984  0.8676035359 -0.0582042047
H   0.7954864904  1.3640170656 -1.0268864927
O   0.4097610652  1.2641286909  0.9696722383
C   1.3098855124 -0.5604659824  0.0246924220
H   0.8379863115 -0.5818762579  1.1268487537
H   0.9217500249 -1.1374716013 -0.8279343685
H   2.3867445408 -0.7255686354  0.0857504184
7
Iter 4 Image 9  Energy = -153.9169572395
C   0.8840790682  0.8678821922 -0.0494216361
H   0.8666466190  1.3598241245 -1.0385253868
O   0.3333267891  1.3210151764  0.9278912573
C   1.3135672149 -0.5501002926  0.0561591704
H   0.9110402551 -0.6921288183  1.1140310284
H   0.8935719079 -1.1576492676 -0.7513806935
H   2.3990096972 -0.6584762556  0.0351850070
7
Iter 4 Image 10  Energy = -153.9287410711
C   0.8055777841  0.8582400490 -0.0485259990
H   0.9459993111  1.3563062253 -1.0307032171
O   0.2551309739  1.3913130755  0.8765885485
C   1.3111841102 -0.5410895953  0.0839837620
H   0.9970811645 -0.8141949863  1.1138758039
H   0.8873561772 -1.1832083944 -0.6914518430
H   2.3989120581 -0.5769995133 -0.0098281719
7
Iter 4 Image 11  Energy = -153.9312241828
C   0.9646013470  0.9151838039  0.0794782572
H   1.2139949758  1.4613694688 -0.8563806837
O   0.5589375740  1.5138334647  1.0461477485
C   1.1733386801 -0.5741124768  0.0268768345
H   0.8955192111 -1.0261429734  0.9811989535
H   0.5718029517 -1.0057474169 -0.7819416417
H   2.2230468302 -0.7940170304 -0.2014406483
7
Iter 5 Image 0  Energy = -153.9154495915
C   0.8260657415  0.5508603911 -0.1261794589
H   0.4554445983  1.2417513435 -0.8784317668
O   0.5680753083  1.0246514429  1.1187434847
C   1.4411098584 -0.5873603774 -0.4363613732
H   0.9099091373  0.3932317500  1.7666320721
H   1.5916834696 -0.8592929697 -1.4741885892
H   1.8089534565 -1.2734747403  0.3237244514
7
Iter 5 Image 1  Energy = -153.9013780231
C   0.9337272931  0.6404803664 -0.1291801583
H   0.5611812325  1.2996942538 -0.9023123363
O   0.5956653125  1.0161209098  1.1245957258
C   1.4226008980 -0.5720589369 -0.3811166681
H   0.7082106721  0.1831734445  1.6306816627
H   1.2873498498 -1.0027855078 -1.3562525541
H   2.0925062610 -1.0742575856  0.3075230519
7
Iter 5 Image 2  Energy = -153.8799719691
C   0.9706962984  0.6903071965 -0.1329247326
H   0.6059113497  1.3322946768 -0.9244959447
O   0.5842171339  0.9953413356  1.1225552456
C   1.4029012057 -0.5654102991 -0.3188485853
H   0.6717922885  0.0719201772  1.5042964822
H   1.1611534426 -1.0554294430 -1.2352829216
H   2.2045698095 -0.9786567218  0.2786392772
7
Iter 5 Image 3  Energy = -153.8458005693
C   0.9866411047  0.7343744386 -0.1279774321
H   0.6489961031  1.3571751344 -0.9494438087
O   0.5601498545  0.9978369317  1.1089815623
C   1.3697678919 -0.5697030920 -0.2343014293
H   0.6738645152 -0.0382901271  1.3822479340
H   1.0750548703 -1.0898483028 -1.1205234517
H   2.2867671805 -0.9011781891  0.2349553930
7
Iter 5 Image 4  Energy = -153.8117836993
C   0.9861721409  0.7672229431 -0.1130548484
H   0.6741828798  1.3663804817 -0.9651637755
O   0.5414517746  1.0545210633  1.0832279844
C   1.3423250384 -0.5746639583 -0.1618448629
H   0.6961360946 -0.1569699641  1.3026211832
H   1.0393226171 -1.0990488175 -1.0543233254
H   2.3216509342 -0.8670750181  0.2024763879
7
Iter 5 Image 5  Energy = -153.8057971493
C   0.9803357706  0.7955909167 -0.0962885644
H   0.6882640344  1.3695143831 -0.9743831758
O   0.5298670853  1.1086390196  1.0607294628
C   1.3276458189 -0.5815710794 -0.1185532695
H   0.7132044265 -0.2453095303  1.2634291871
H   1.0249664649 -1.1044973204 -1.0234118584
H   2.3369578928 -0.8519996784  0.1824169470
7
Iter 5 Image 6  Energy = -153.8261048106
C   0.9729797331  0.8207957201 -0.0804577604
H   0.7037816717  1.3716173139 -0.9842149567
O   0.5164415547  1.1558427557  1.0331663571
C   1.3171584366 -0.5815178110 -0.0770420163
H   0.7366363672 -0.3362587016  1.2247670374
H   1.0056799763 -1.1087026389 -0.9893631266
H   2.3485637594 -0.8314099115  0.1670832192
7
Iter 5 Image 7  Energy = -153.8690581597
C   0.9554212737  0.8511898402 -0.0655413172
H   0.7422936344  1.3724248832 -1.0046980884
O   0.4766657353  1.2223275794  1.0013804817
C   1.3068119557 -0.5738598192 -0.0120268405
H   0.7877680885 -0.4744076738  1.1499329116
H   0.9657022437 -1.1200477188 -0.9112638134
H   2.3665786018 -0.7872603663  0.1361554511
7
Iter 5 Image 8  Energy = -153.9002465355
C   0.9264514160  0.8639690476 -0.0558026980
H   0.7927596505  1.3685266370 -1.0225229212
O   0.4218248536  1.2806129170  0.9714562472
C   1.3075923060 -0.5636008521  0.0286454535
H   0.8407122984 -0.5897669809  1.1080900985
H   0.9287534298 -1.1338374995 -0.8321148004
H   2.3831475821 -0.7355364842  0.0961873986
7
Iter 5 Image 9  Energy = -153.9193544694
C   0.8756277719  0.8646869584 -0.0507628856
H   0.8657915543  1.3624495885 -1.0345621509
O   0.3391362622  1.3368818983  0.9296261948
C   1.3131746340 -0.5509488978  0.0584325049
H   0.9136605336 -0.7024876523  1.1003305030
H   0.8962055939 -1.1560431696 -0.7504968066
H   2.3976451995 -0.6641718731  0.0413713791
7
Iter 5 Image 10  Energy = -153.9292553994
C   0.8052215952  0.8561650710 -0.0511171860
H   0.9464595073  1.3562366777 -1.0284267804
O   0.2522745976  1.4007493549  0.8767555311
C   1.3108974078 -0.5405826299  0.0859594739
H   1.0009592282 -0.8221589900  1.1077639214
H   0.8874120909 -1.1834371375 -0.6878572948
H   2.3980171525 -0.5766054832 -0.0091387719
7
Iter 5 Image 11  Energy = -153.9312241828
C   0.9646013470  0.9151838039  0.0794782572
H   1.2139949758  1.4613694688 -0.8563806837
O   0.5589375740  1.5138334647  1.0461477485
C   1.1733386801 -0.5741124768  0.0268768345
H   0.8955192111 -1.0261429734  0.9811989535
H   0.5718029517 -1.0057474169 -0.7819416417
H   2.2230468302 -0.7940170304 -0.2014406483
7
Iter 6 Image 0  Energy = -153.9154495915
C   0.8260657415  0.5508603911 -0.1261794589
H   0.4554445983  1.2417513435 -0.8784317668
O   0.5680753083  1.0246514429  1.1187434847
C   1.4411098584 -0.5873603774 -0.4363613732
H   0.9099091373  0.3932317500  1.7666320721
H   1.5916834696 -0.8592929697 -1.4741885892
H   1.8089534565 -1.2734747403  0.3237244514
7
Iter 6 Image 1  Energy = -153.9031492494
C   0.9206207308  0.6336474329 -0.1304866481
H   0.5595086458  1.2976960804 -0.9020599957
O   0.6056502940  1.0168161244  1.1289333704
C   1.4294307195 -0.5687799424 -0.3848203162
H   0.7089391819  0.1865659150  1.6269714942
H   1.2915465524 -1.0007714816 -1.3577225394
H   2.0855453914 -1.0748071797  0.3131233614
7
Iter 6 Image 2  Energy = -153.8823822611
C   0.9543186027  0.6817200283 -0.1355182437
H   0.6059464824  1.3327986227 -0.9239186714
O   0.5938579409  0.9961428631  1.1279137130
C   1.4097288124 -0.5629145990 -0.3233292874
H   0.6734495995  0.0758125473  1.4961139496
H   1.1624540976 -1.0562319926 -1.2333822380
H   2.2014859902 -0.9769605650  0.2860595948
7
Iter 6 Image 3  Energy = -153.8469224460
C   0.9688654050  0.7255426795 -0.1307799261
H   0.6523018859  1.3610236421 -0.9490714159
O   0.5679952619  1.0013365232  1.1141198588
C   1.3698066225 -0.5702721937 -0.2310194484
H   0.6781395331 -0.0370061104  1.3665319296
H   1.0761970170 -1.0917267914 -1.1153398871
H   2.2879357769 -0.8985309962  0.2394976447
7
Iter 6 Image 4  Energy = -153.8134483546
C   0.9661721409  0.7594172226 -0.1094241093
H   0.6762118122  1.3707422829 -0.9642550123
O   0.5510695539  1.0642237307  1.0852449360
C   1.3406242966 -0.5777330256 -0.1575438137
H   0.7014413850 -0.1579368196  1.2871751779
H   1.0454946197 -1.0990339010 -1.0546117524
H   2.3202276672 -0.8693127755  0.2073533080
7
Iter 6 Image 5  Energy = -153.8087756274
C   0.9604802118  0.7876409774 -0.0944863175
H   0.6885866339  1.3738168222 -0.9718252845
O   0.5405441614  1.1167122438  1.0654887846
C   1.3265314295 -0.5852802786 -0.1166740724
H   0.7173879155 -0.2409959978  1.2508202597
H   1.0341073064 -1.1038161765 -1.0287742492
H   2.3336038224 -0.8577108920  0.1893895989
7
Iter 6 Image 6  Energy = -153.8281364955
C   0.9554026338  0.8126435393 -0.0819562745
H   0.7012304193  1.3759352574 -0.9795725947
O   0.5288993151  1.1654423413  1.0404312751
C   1.3159325144 -0.5860994206 -0.0768312008
H   0.7387797495 -0.3300771423  1.2154888154
H   1.0178456572 -1.1067316872 -1.0003811249
H   2.3431511956 -0.8407461799  0.1767598331
7
Iter 6 Image 7  Energy = -153.8730321608
C   0.9416562694  0.8456180466 -0.0699472316
H   0.7381377241  1.3768365606 -0.9983838438
O   0.4896494289  1.2383975832  1.0100169741
C   1.3042877055 -0.5777752036 -0.0077736945
H   0.7904579751 -0.4774979753  1.1333572650
H   0.9768356367 -1.1168077184 -0.9217135696
H   2.3602167787 -0.7984045783  0.1483828684
7
Iter 6 Image 8  Energy = -153.9043041220
C   0.9140989128  0.8609424999 -0.0544347189
H   0.7896738077  1.3730309058 -1.0181141400
O   0.4346415805  1.2982225725  0.9743120203
C   1.3058896523 -0.5651125980  0.0322138846
H   0.8423083770 -0.6005996328  1.0897304628
H   0.9356497499 -1.1311561161 -0.8369364969
H   2.3789794503 -0.7449608717  0.1071677614
7
Iter 6 Image 9  Energy = -153.9214920326
C   0.8662906474  0.8638895492 -0.0482879340
H   0.8649545062  1.3651790078 -1.0314316341
O   0.3469954651  1.3518765071  0.9281355927
C   1.3126826040 -0.5503299334  0.0604416124
H   0.9156567254 -0.7156897517  1.0876871232
H   0.8985501799 -1.1553903965 -0.7502345794
H   2.3961114134 -0.6691681356  0.0476285616
7
Iter 6 Image 10  Energy = -153.9298135172
C   0.8011242633  0.8584706981 -0.0466052923
H   0.9473926525  1.3561509111 -1.0269013844
O   0.2524488071  1.4069224208  0.8701777951
C   1.3104071449 -0.5400191561  0.0884074725
H   1.0053460041 -0.8314949680  1.1021032796
H   0.8872484798 -1.1841887999 -0.6843336450
H   2.3972742329 -0.5754742377 -0.0089093270
7
Iter 6 Image 11  Energy = -153.9312241828
C   0.9646013470  0.9151838039  0.0794782572
H   1.2139949758  1.4613694688 -0.8563806837
O   0.5589375740  1.5138334647  1.0461477485
C   1.1733386801 -0.5741124768  0.0268768345
H   0.8955192111 -1.0261429734  0.9811989535
H   0.5718029517 -1.0057474169 -0.7819416417
H   2.2230468302 -0.7940170304 -0.2014406483
7
Iter 7 Image 0  Energy = -153.9154495915
C   0.8260657415  0.5508603911 -0.1261794589
H   0.4554445983  1.2417513435 -0.8784317668
O   0.5680753083  1.0246514429  1.1187434847
C   1.4411098584 -0.5873603774 -0.4363613732
H   0.9099091373  0.3932317500  1.7666320721
H   1.5916834696 -0.8592929697 -1.4741885892
H   1.8089534565 -1.2734747403  0.3237244514
7
Iter 7 Image 1  Energy = -153.9044972462
C   0.9086750882  0.6261868679 -0.1297591507
H   0.5563263657  1.2959562697 -0.9024538451
O   0.6160448994  1.0200355735  1.1300314407
C   1.4351578547 -0.5650693915 -0.3887431508
H   0.7103719944  0.1873313422  1.6250732066
H   1.2967367408 -0.9988215763 -1.3595216762
H   2.0779285687 -1.0752521227  0.3193118981
7
Iter 7 Image 2  Energy = -153.8841699298
C   0.9386914014  0.6730249819 -0.1364572907
H   0.6047334101  1.3336618212 -0.9242669928
O   0.6045493169  0.9980002484  1.1309472338
C   1.4153157295 -0.5598470913 -0.3267067963
H   0.6757851930  0.0781238185  1.4885038317
H   1.1645536649 -1.0576821495 -1.2320797784
H   2.1976127954 -0.9749147467  0.2939986027
7
Iter 7 Image 3  Energy = -153.8474202375
C   0.9498465158  0.7194014059 -0.1288601446
H   0.6545452081  1.3653596496 -0.9498534893
O   0.5784064178  1.0044335566  1.1155303181
C   1.3693427432 -0.5734150050 -0.2279732488
H   0.6829690837 -0.0359811959  1.3514400132
H   1.0792498349 -1.0932233357 -1.1111055632
H   2.2868816876 -0.8962083389  0.2447608562
7
Iter 7 Image 4  Energy = -153.8147995276
C   0.9461721409  0.7534153091 -0.1097191103
H   0.6780366445  1.3739645732 -0.9618508782
O   0.5608472970  1.0748637937  1.0901209229
C   1.3377309408 -0.5821454807 -0.1540672438
H   0.7072236369 -0.1588908714  1.2716755552
H   1.0532947066 -1.0986659215 -1.0554734698
H   2.3179361003 -0.8721747089  0.2132529347
7
Iter 7 Image 5  Energy = -153.8109752137
C   0.9413856575  0.7814411501 -0.0951247360
H   0.6887021929  1.3775280289 -0.9686702443
O   0.5512059218  1.1246263592  1.0714218954
C   1.3236528497 -0.5893110069 -0.1158923617
H   0.7219129559 -0.2374341084  1.2384240078
H   1.0440120127 -1.1031946924 -1.0333952546
H   2.3303698769 -0.8632890408  0.1971754011
7
Iter 7 Image 6  Energy = -153.8295758144
C   0.9373814248  0.8060323883 -0.0775974287
H   0.6981359798  1.3807634499 -0.9763698187
O   0.5432454172  1.1714016358  1.0432533186
C   1.3122365368 -0.5901950656 -0.0784332571
H   0.7412462258 -0.3231574936  1.2058889492
H   1.0306370081 -1.1051078311 -1.0098048724
H   2.3383588780 -0.8493704054  0.1870018275
7
Iter 7 Image 7  Energy = -153.8769645680
C   0.9247571260  0.8434698515 -0.0597597978
H   0.7326545695  1.3825219650 -0.9945330347
O   0.5082188636  1.2497963444  1.0076826592
C   1.2996272757 -0.5820034272 -0.0070859320
H   0.7924416336 -0.4805878616  1.1174902334
H   0.9895460207 -1.1134427263 -0.9312402929
H   2.3539960145 -0.8093874298  0.1613849084
7
Iter 7 Image 8  Energy = -153.9076670890
C   0.9020487604  0.8603138683 -0.0527417330
H   0.7860530767  1.3773170768 -1.0134912957
O   0.4488368090  1.3165552444  0.9770766242
C   1.3038277951 -0.5674044589  0.0325475892
H   0.8425227980 -0.6142492719  1.0725511411
H   0.9434422076 -1.1281973979 -0.8409509676
H   2.3745100713 -0.7539683308  0.1189474020
7
Iter 7 Image 9  Energy = -153.9232656459
C   0.8576156303  0.8643084663 -0.0461971368
H   0.8640827583  1.3677414598 -1.0284297200
O   0.3551346832  1.3683049488  0.9270727377
C   1.3117591358 -0.5500891435  0.0607431923
H   0.9169725768 -0.7318630095  1.0760679534
H   0.9012042002 -1.1545925607 -0.7494554081
H   2.3944725528 -0.6734433193  0.0541371179
7
Iter 7 Image 10  Energy = -153.9302343449
C   0.7999762026  0.8581995261 -0.0469497967
H   0.9487349528  1.3557017888 -1.0252061201
O   0.2490965136  1.4165397611  0.8677205565
C   1.3100442521 -0.5391866400  0.0899968881
H   1.0101442692 -0.8425993935  1.0976704673
H   0.8870245542 -1.1848310634 -0.6802415569
H   2.3962208404 -0.5734571070 -0.0090515293
7
Iter 7 Image 11  Energy = -153.9312241828
C   0.9646013470  0.9151838039  0.0794782572
H   1.2139949758  1.4613694688 -0.8563806837
O   0.5589375740  1.5138334647  1.0461477485
C   1.1733386801 -0.5741124768  0.0268768345
H   0.8955192111 -1.0261429734  0.9811989535
H   0.5718029517 -1.0057474169 -0.7819416417
H   2.2230468302 -0.7940170304 -0.2014406483
7
Iter 8 Image 0  Energy = -153.9154495915
C   0.8260657415  0.5508603911 -0.1261794589
H   0.4554445983  1.2417513435 -0.8784317668
O   0.5680753083  1.0246514429  1.1187434847
C   1.4411098584 -0.5873603774 -0.4363613732
H   0.9099091373  0.3932317500  1.7666320721
H   1.5916834696 -0.8592929697 -1.4741885892
H   1.8089534565 -1.2734747403  0.3237244514
7
Iter 8 Image 1  Energy = -153.9057146835
C   0.8967032851  0.6196293100 -0.1314512712
H   0.5524478153  1.2932418946 -0.9023009453
O   0.6274533659  1.0212316150  1.1332618112
C   1.4407949122 -0.5618231287 -0.3918791253
H   0.7117824023  0.1901605019  1.6222866548
H   1.3028218735 -0.9968356484 -1.3616278848
H   2.0692378553 -1.0752375771  0.3256494873
7
Iter 8 Image 2  Energy = -153.8856256394
C   0.9226639203  0.6654073167 -0.1385403921
H   0.6029594434  1.3340430614 -0.9246607118
O   0.6165157613  0.9989414302  1.1346166598
C   1.4201100011 -0.5575811821 -0.3296190601
H   0.6786455789  0.0810377005  1.4798649644
H   1.1675947821 -1.0592167689 -1.2301943658
H   2.1927520100 -0.9722647010  0.3024717018
7
Iter 8 Image 3  Energy = -153.8476995560
C   0.9317281517  0.7106452395 -0.1331899818
H   0.6569023114  1.3689978192 -0.9492067949
O   0.5888936851  1.0094714636  1.1212381469
C   1.3655133252 -0.5739751469 -0.2243506107
H   0.6886563105 -0.0355255331  1.3360712719
H   1.0843260198 -1.0944795375 -1.1075116196
H   2.2852216713 -0.8947675966  0.2508883111
7
Iter 8 Image 4  Energy = -153.8159424706
C   0.9261721409  0.7452089778 -0.1078919266
H   0.6790361475  1.3780533121 -0.9603095173
O   0.5721129050  1.0852104537  1.0946824515
C   1.3331613574 -0.5843938790 -0.1503734682
H   0.7135286407 -0.1594819462  1.2549804594
H   1.0624043081 -1.0989121189 -1.0572785987
H   2.3148259620 -0.8753181215  0.2201292889
7
Iter 8 Image 5  Energy = -153.8127461131
C   0.9214241457  0.7743847368 -0.0921421034
H   0.6882287775  1.3821472452 -0.9665273965
O   0.5637272133  1.1314246554  1.0750751606
C   1.3207973258 -0.5921917909 -0.1150718696
H   0.7267718987 -0.2337540201  1.2251275021
H   1.0544304803 -1.1033446648 -1.0380457931
H   2.3258616191 -0.8682994753  0.2055231926
7
Iter 8 Image 6  Energy = -153.8303980406
C   0.9189296070  0.8000733619 -0.0809766953
H   0.6955315073  1.3846371357 -0.9715483857
O   0.5571384761  1.1794014253  1.0510292831
C   1.3096015974 -0.5945101138 -0.0786016463
H   0.7442835623 -0.3178339598  1.1957856349
H   1.0436991651 -1.1042197800 -1.0191772405
H   2.3320575403 -0.8571814019  0.1974277496
7
Iter 8 Image 7  Energy = -153.8797507827
C   0.9107397901  0.8375038717 -0.0610689593
H   0.7265223481  1.3878577257 -0.9892231762
O   0.5251758780  1.2656939754  1.0156990547
C   1.2954410959 -0.5853134447 -0.0061294122
H   0.7937880827 -0.4845612707  1.1010769596
H   1.0029284937 -1.1105845637 -0.9417601421
H   2.3466457918 -0.8202295890  0.1753443995
7
Iter 8 Image 8  Energy = -153.9106469159
C   0.8887996687  0.8601932991 -0.0457977277
H   0.7815044774  1.3825212405 -1.0099450304
O   0.4667445612  1.3347486219  0.9765390451
C   1.3016823707 -0.5680091465  0.0322612451
H   0.8412228061 -0.6304020346  1.0548943293
H   0.9515870993 -1.1258817273 -0.8456454665
H   2.3697005235 -0.7628035416  0.1316323546
7
Iter 8 Image 9  Energy = -153.9247886515
C   0.8504847434  0.8642329052 -0.0462457350
H   0.8628282452  1.3703559726 -1.0254833039
O   0.3635007489  1.3872155119  0.9281883155
C   1.3105149096 -0.5491855132  0.0616216269
H   0.9175271941 -0.7508604741  1.0641302841
H   0.9038430919 -1.1541216178 -0.7493714614
H   2.3925425996 -0.6772699516  0.0610989995
7
Iter 8 Image 10  Energy = -153.9306109045
C   0.7978885706  0.8592958092 -0.0454119045
H   0.9505611441  1.3550331785 -1.0237816739
O   0.2458794388  1.4258060683  0.8630513445
C   1.3094178612 -0.5384163141  0.0925671094
H   1.0157717887 -0.8551111722  1.0931996398
H   0.8865774841 -1.1856804838 -0.6759562712
H   2.3951452983 -0.5705602087 -0.0097293267
7
Iter 8 Image 11  Energy = -153.9312241828
C   0.9646013470  0.9151838039  0.0794782572
H   1.2139949758  1.4613694688 -0.8563806837
O   0.5589375740  1.5138334647  1.0461477485
C   1.1733386801 -0.5741124768  0.0268768345
H   0.8955192111 -1.0261429734  0.9811989535
H   0.5718029517 -1.0057474169 -0.7819416417
H   2.2230468302 -0.7940170304 -0.2014406483
7
Iter 9 Image 0  Energy = -153.9154495915
C   0.8260657415  0.5508603911 -0.1261794589
H   0.4554445983  1.2417513435 -0.8784317668
O   0.5680753083  1.0246514429  1.1187434847
C   1.4411098584 -0.5873603774 -0.4363613732
H   0.9099091373  0.3932317500  1.7666320721
H   1.5916834696 -0.8592929697 -1.4741885892
H   1.8089534565 -1.2734747403  0.3237244514
7
Iter 9 Image 1  Energy = -153.9065002036
C   0.8880035795  0.6149148674 -0.1327383547
H   0.5481786534  1.2908119742 -0.9022882385
O   0.6371467378  1.0222807891  1.1351800390
C   1.4444306220 -0.5597099520 -0.3944814649
H   0.7132135549  0.1922477342  1.6205583269
H   1.3086844381 -0.9953222700 -1.3633528525
H   2.0615839208 -1.0748561758  0.3310612738
7
Iter 9 Image 2  Energy = -153.8865054290
C   0.9107649206  0.6594798405 -0.1415617734
H   0.6007084925  1.3339046212 -0.9248978581
O   0.6268715763  1.0004756938  1.1375322261
C   1.4220054657 -0.5555539345 -0.3315272481
H   0.6816870826  0.0824937034  1.4729943627
H   1.1712237973 -1.0606398303 -1.2285477398
H   2.1879801518 -0.9697932603  0.3099468146
7
Iter 9 Image 3  Energy = -153.8477339999
C   0.9167202036  0.7052657278 -0.1346178296
H   0.6578945889  1.3719777382 -0.9488951908
O   0.5989953662  1.0129417677  1.1243788540
C   1.3623573877 -0.5757338102 -0.2216997425
H   0.6937111927 -0.0347115601  1.3241560802
H   1.0900511550 -1.0955507841 -1.1058956313
H   2.2815115682 -0.8938223941  0.2565121573
7
Iter 9 Image 4  Energy = -153.8166594586
C   0.9092005912  0.7410875868 -0.1032500925
H   0.6790984406  1.3810517168 -0.9591425117
O   0.5830271539  1.0914406103  1.0962583424
C   1.3300086708 -0.5873473780 -0.1482148704
H   0.7187217223 -0.1588026672  1.2408497412
H   1.0705958842 -1.0995552604 -1.0589757188
H   2.3105889883 -0.8775079300  0.2264137948
7
Iter 9 Image 5  Energy = -153.8137241002
C   0.9062367635  0.7693071898 -0.0912858296
H   0.6874445180  1.3855349730 -0.9643977226
O   0.5739839519  1.1368858807  1.0789633951
C   1.3181398985 -0.5942038360 -0.1143381906
H   0.7310498204 -0.2314923287  1.2138501569
H   1.0631054899 -1.1041028224 -1.0415525826
H   2.3212810102 -0.8715623780  0.2126994570
7
Iter 9 Image 6  Energy = -153.8308868762
C   0.9041791293  0.7942393547 -0.0756203146
H   0.6926589433  1.3892478471 -0.9700511443
O   0.5698477682  1.1831879090  1.0521902770
C   1.3065307789 -0.5964982123 -0.0794609110
H   0.7473399048 -0.3131242627  1.1863758093
H   1.0542072481 -1.1045366122 -1.0255950803
H   2.3264776785 -0.8621493547  0.2061000477
7
Iter 9 Image 7  Energy = -153.8814210198
C   0.8983985567  0.8363685115 -0.0597608959
H   0.7209880101  1.3914922306 -0.9842878351
O   0.5414352091  1.2759503466  1.0190421066
C   1.2929036398 -0.5882994896 -0.0064924628
H   0.7936850192 -0.4880807820  1.0888232938
H   1.0141589640 -1.1089785968 -0.9503225976
H   2.3396720631 -0.8280855365  0.1869370960
7
Iter 9 Image 8  Energy = -153.9123764326
C   0.8832115104  0.8570362213 -0.0518686383
H   0.7769894675  1.3860412772 -1.0057945656
O   0.4789254702  1.3547486219  0.9865606192
C   1.3002204230 -0.5676999381  0.0313743527
H   0.8381741851 -0.6462107742  1.0411438576
H   0.9582843524 -1.1243767371 -0.8500376570
H   2.3654360881 -0.7691719727  0.1425607737
7
Iter 9 Image 9  Energy = -153.9258949541
C   0.8440649916  0.8665348243 -0.0421972185
H   0.8614415339  1.3725187977 -1.0238018970
O   0.3729263772  1.4016713764  0.9258607371
C   1.3090933835 -0.5480915593  0.0620955237
H   0.9169012945 -0.7687479841  1.0548376877
H   0.9060311453 -1.1539257526 -0.7498120020
H   2.3907828025 -0.6795928757  0.0669558892
7
Iter 9 Image 10  Energy = -153.9308631424
C   0.7954539297  0.8612482609 -0.0427697265
H   0.9526092841  1.3541298976 -1.0228654692
O   0.2431257997  1.4328107650  0.8575025452
C   1.3088183267 -0.5377812719  0.0950376483
H   1.0210173025 -0.8663683351  1.0902028801
H   0.8860152083 -1.1863866807 -0.6722786580
H   2.3942017355 -0.5672857535 -0.0108902937
7
Iter 9 Image 11  Energy = -153.9312241828
C   0.9646013470  0.9151838039  0.0794782572
H   1.2139949758  1.4613694688 -0.8563806837
O   0.5589375740  1.5138334647  1.0461477485
C   1.1733386801 -0.5741124768  0.0268768345
H   0.8955192111 -1.0261429734  0.9811989535
H   0.5718029517 -1.0057474169 -0.7819416417
H   2.2230468302 -0.7940170304 -0.2014406483
7
Iter 10 Image 0  Energy = -153.9154495915
C   0.8260657415  0.5508603911 -0.1261794589
H   0.4554445983  1.2417513435 -0.8784317668
O   0.5680753083  1.0246514429  1.1187434847
C   1.4411098584 -0.5873603774 -0.4363613732
H   0.9099091373  0.3932317500  1.7666320721
H   1.5916834696 -0.8592929697 -1.4741885892
H   1.8089534565 -1.2734747403  0.3237244514
7
Iter 10 Image 1  Energy = -153.9071590636
C   0.8798613120  0.6099144991 -0.1335940148
H   0.5430122230  1.2883804285 -0.9024834064
O   0.6473140394  1.0240920698  1.1361487801
C   1.4474303881 -0.5574659161 -0.3971508909
H   0.7149570633  0.1936694913  1.6194428514
H   1.3152883464 -0.9939543360 -1.3652755397
H   2.0533781312 -1.0742692725  0.3368509481
7
Iter 10 Image 2  Energy = -153.8871954830
C   0.8988842317  0.6540195555 -0.1438769839
H   0.5977038790  1.3338335863 -0.9254905227
O   0.6381901439  1.0021773266  1.1395913917
C   1.4233585534 -0.5539833060 -0.3330081434
H   0.6852798922  0.0836308990  1.4659760520
H   1.1756385477 -1.0624182195 -1.2271347593
H   2.1821862293 -0.9668930347  0.3178817348
7
Iter 10 Image 3  Energy = -153.8475690926
C   0.9013734406  0.7003036225 -0.1342314514
H   0.6582458759  1.3751581105 -0.9488070668
O   0.6103914997  1.0159182356  1.1262576724
C   1.3586749275 -0.5776352422 -0.2194991476
H   0.6991160651 -0.0335397552  1.3122136128
H   1.0967932460 -1.0968514885 -1.1048479536
H   2.2766463965 -0.8929868180  0.2628530115
7
Iter 10 Image 4  Energy = -153.8171208903
C   0.8926342172  0.7368904286 -0.1009071283
H   0.6788409851  1.3836114179 -0.9571944826
O   0.5940250205  1.0984156093  1.0999060170
C   1.3261467319 -0.5901698441 -0.1462093342
H   0.7242943088 -0.1582130241  1.2258751136
H   1.0794583327 -1.1005294186 -1.0608751786
H   2.3058418455 -0.8796384946  0.2333436735
7
Iter 10 Image 5  Energy = -153.8143643515
C   0.8911896627  0.7649914594 -0.0908534915
H   0.6862937954  1.3886974871 -0.9618812814
O   0.5847315884  1.1423151492  1.0831256735
C   1.3150107611 -0.5964961087 -0.1141101780
H   0.7355821434 -0.2294845837  1.2020365334
H   1.0722681321 -1.1051783255 -1.0448851575
H   2.3161653611 -0.8744784144  0.2205065741
7
Iter 10 Image 6  Energy = -153.8310656619
C   0.8904015255  0.7896461157 -0.0780430583
H   0.6899678846  1.3926328983 -0.9668199111
O   0.5814805788  1.1889017794  1.0585132488
C   1.3030663116 -0.5992115501 -0.0801292632
H   0.7508274775 -0.3100506876  1.1766813151
H   1.0650153846 -1.1050497881 -1.0314468986
H   2.3204822811 -0.8665021040  0.2151832414
7
Iter 10 Image 7  Energy = -153.8827470285
C   0.8864245909  0.8345083613 -0.0555531490
H   0.7145990953  1.3958802943 -0.9802811204
O   0.5590209997  1.2856912616  1.0210343775
C   1.2894081792 -0.5905832351 -0.0079738074
H   0.7932028940 -0.4918889605  1.0762370242
H   1.0259745040 -1.1077005898 -0.9586239583
H   2.3326111844 -0.8355404632  0.1990993202
7
Iter 10 Image 8  Energy = -153.9144289008
C   0.8736379005  0.8599974262 -0.0449291657
H   0.7716325591  1.3899969609 -1.0025239076
O   0.4971323793  1.3700370770  0.9854217030
C   1.2986218577 -0.5676788402  0.0292234657
H   0.8337864189 -0.6636048336  1.0271904327
H   0.9655743023 -1.1230742451 -0.8546603822
H   2.3608560652 -0.7753068630  0.1542165828
7
Iter 10 Image 9  Energy = -153.9268620208
C   0.8394277271  0.8679541631 -0.0411909173
H   0.8597394755  1.3744664807 -1.0219190098
O   0.3820308870  1.4187053042  0.9264764466
C   1.3072833837 -0.5470257563  0.0624287867
H   0.9155593228 -0.7887479841  1.0454338489
H   0.9084145577 -1.1535287026 -0.7504720791
H   2.3887861679 -0.6814566851  0.0731816393
7
Iter 10 Image 10  Energy = -153.9310689443
C   0.7940125183  0.8622160268 -0.0418037416
H   0.9550678098  1.3528939461 -1.0218917748
O   0.2386860158  1.4412388539  0.8531090396
C   1.3081947736 -0.5370175942  0.0975557730
H   1.0268484057 -0.8786575304  1.0876907050
H   0.8853346889 -1.1869823519 -0.6682657545
H   2.3930973758 -0.5633244628 -0.0124553100
7
Iter 10 Image 11  Energy = -153.9312241828
C   0.9646013470  0.9151838039  0.0794782572
H   1.2139949758  1.4613694688 -0.8563806837
O   0.5589375740  1.5138334647  1.0461477485
C   1.1733386801 -0.5741124768  0.0268768345
H   0.8955192111 -1.0261429734  0.9811989535
H   0.5718029517 -1.0057474169 -0.7819416417
H   2.2230468302 -0.7940170304 -0.2014406483
7
Iter 11 Image 0  Energy = -153.9154495915
C   0.8260657415  0.5508603911 -0.1261794589
H   0.4554445983  1.2417513435 -0.8784317668
O   0.5680753083  1.0246514429  1.1187434847
C   1.4411098584 -0.5873603774 -0.4363613732
H   0.9099091373  0.3932317500  1.7666320721
H   1.5916834696 -0.8592929697 -1.4741885892
H   1.8089534565 -1.2734747403  0.3237244514
7
Iter 11 Image 1  Energy = -153.9076633396
C   0.8744401004  0.6066144222 -0.1349384071
H   0.5372005506  1.2859854737 -0.9025625900
O   0.6563989463  1.0252400536  1.1366840985
C   1.4487755311 -0.5563128550 -0.3988366995
H   0.7167819598  0.1952510382  1.6190034662
H   1.3220746379 -0.9933685865 -1.3672523024
H   2.0455697735 -1.0730425920  0.3418411680
7
Iter 11 Image 2  Energy = -153.8876930574
C   0.8900900001  0.6505688280 -0.1447330608
H   0.5937093143  1.3338238492 -0.9266097572
O   0.6492462224  1.0028474735  1.1400565182
C   1.4224916290 -0.5533423484 -0.3330666606
H   0.6893975167  0.0847621077  1.4594915944
H   1.1809923415 -1.0647187440 -1.2263660884
H   2.1753144437 -0.9635743929  0.3251662060
7
Iter 11 Image 3  Energy = -153.8476172993
C   0.8902411026  0.6958552731 -0.1365756646
H   0.6574517178  1.3769772431 -0.9474916344
O   0.6207408430  1.0186779261  1.1295935383
C   1.3533425420 -0.5775804246 -0.2186668494
H   0.7041830155 -0.0323542171  1.3027486127
H   1.1044058665 -1.0984243299 -1.1050301902
H   2.2708763572 -0.8927848187  0.2693608501
7
Iter 11 Image 4  Energy = -153.8173765699
C   0.8812241165  0.7326535183 -0.1006570846
H   0.6774407370  1.3852882832 -0.9548610465
O   0.6035030778  1.1044041864  1.1045341295
C   1.3217212739 -0.5908104562 -0.1465658039
H   0.7287801355 -0.1579048250  1.2138860835
H   1.0877580309 -1.1024689155 -1.0627187467
H   2.3008140663 -0.8807951232  0.2403211283
7
Iter 11 Image 5  Energy = -153.8147125774
C   0.8797723609  0.7620201540 -0.0869803408
H   0.6840766411  1.3914004589 -0.9599852611
O   0.5950749593  1.1457919873  1.0843097586
C   1.3118255591 -0.5979974882 -0.1153329134
H   0.7395957455 -0.2281075734  1.1911385493
H   1.0803615422 -1.1071835443 -1.0472902978
H   2.3105346272 -0.8755573359  0.2280791565
7
Iter 11 Image 6  Energy = -153.8313540030
C   0.8781931430  0.7891559183 -0.0744940135
H   0.6871627442  1.3951239293 -0.9642165025
O   0.5932560981  1.1904853331  1.0586804825
C   1.2998316321 -0.6015806220 -0.0809888668
H   0.7545744539 -0.3078112251  1.1666810138
H   1.0739134276 -1.1068659868 -1.0350847696
H   2.3143099448 -0.8681406936  0.2233613247
7
Iter 11 Image 7  Energy = -153.8835782147
C   0.8793397391  0.8306905589 -0.0569836177
H   0.7080338359  1.3995860212 -0.9770908265
O   0.5737718793  1.2956046622  1.0277237267
C   1.2858005128 -0.5916994775 -0.0104258256
H   0.7918707146 -0.4963770641  1.0655622016
H   1.0360663875 -1.1074889283 -0.9645902326
H   2.3263583670 -0.8399491125  0.2097432456
7
Iter 11 Image 8  Energy = -153.9157863406
C   0.8687310995  0.8616228407 -0.0418828784
H   0.7649365246  1.3931477838 -0.9994012337
O   0.5151750315  1.3845256901  0.9879715751
C   1.2965943691 -0.5668458269  0.0266435876
H   0.8267154765 -0.6804165597  1.0152038761
H   0.9725894994 -1.1220725682 -0.8600201873
H   2.3564994723 -0.7795946959  0.1654239793
7
Iter 11 Image 9  Energy = -153.9276181804
C   0.8364184741  0.8708250211 -0.0387540161
H   0.8574439530  1.3757011663 -1.0207941302
O   0.3925920577  1.4336894193  0.9263231338
C   1.3049883113 -0.5465699068  0.0629410416
H   0.9124851104 -0.8087479841  1.0373180065
H   0.9107981285 -1.1527105194 -0.7520581670
H   2.3865154838 -0.6818203819  0.0789628455
7
Iter 11 Image 10  Energy = -153.9312046064
C   0.7929007113  0.8629156549 -0.0410865260
H   0.9580919768  1.3511478891 -1.0212989038
O   0.2332618422  1.4486709948  0.8487870965
C   1.3076198089 -0.5364268222  0.1002431997
H   1.0330006612 -0.8901959594  1.0865648107
H   0.8844666168 -1.1871667365 -0.6644831125
H   2.3918999739 -0.5585781280 -0.0147876144
7
Iter 11 Image 11  Energy = -153.9312241828
C   0.9646013470  0.9151838039  0.0794782572
H   1.2139949758  1.4613694688 -0.8563806837
O   0.5589375740  1.5138334647  1.0461477485
C   1.1733386801 -0.5741124768  0.0268768345
H   0.8955192111 -1.0261429734  0.9811989535
H   0.5718029517 -1.0057474169 -0.7819416417
H   2.2230468302 -0.7940170304 -0.2014406483
