7
Image 0  Energy = -153.91544959
C   0.8260657415  0.5508603911 -0.1261794589
H   0.4554445983  1.2417513435 -0.8784317668
O   0.5680753083  1.0246514429  1.1187434847
C   1.4411098584 -0.5873603774 -0.4363613732
H   0.9099091373  0.3932317500  1.7666320721
H   1.5916834696 -0.8592929697 -1.4741885892
H   1.8089534565 -1.2734747403  0.3237244514
7
Image 1  Energy = -153.90766334
C   0.8744401004  0.6066144222 -0.1349384071
H   0.5372005506  1.2859854737 -0.9025625900
O   0.6563989463  1.0252400536  1.1366840985
C   1.4487755311 -0.5563128550 -0.3988366995
H   0.7167819598  0.1952510382  1.6190034662
H   1.3220746379 -0.9933685865 -1.3672523024
H   2.0455697735 -1.0730425920  0.3418411680
7
Image 2  Energy = -153.88769306
C   0.8900900001  0.6505688280 -0.1447330608
H   0.5937093143  1.3338238492 -0.9266097572
O   0.6492462224  1.0028474735  1.1400565182
C   1.4224916290 -0.5533423484 -0.3330666606
H   0.6893975167  0.0847621077  1.4594915944
H   1.1809923415 -1.0647187440 -1.2263660884
H   2.1753144437 -0.9635743929  0.3251662060
7
Image 3  Energy = -153.84761730
C   0.8902411026  0.6958552731 -0.1365756646
H   0.6574517178  1.3769772431 -0.9474916344
O   0.6207408430  1.0186779261  1.1295935383
C   1.3533425420 -0.5775804246 -0.2186668494
H   0.7041830155 -0.0323542171  1.3027486127
H   1.1044058665 -1.0984243299 -1.1050301902
H   2.2708763572 -0.8927848187  0.2693608501
7
Image 4  Energy = -153.81737657
C   0.8812241165  0.7326535183 -0.1006570846
H   0.6774407370  1.3852882832 -0.9548610465
O   0.6035030778  1.1044041864  1.1045341295
C   1.3217212739 -0.5908104562 -0.1465658039
H   0.7287801355 -0.1579048250  1.2138860835
H   1.0877580309 -1.1024689155 -1.0627187467
H   2.3008140663 -0.8807951232  0.2403211283
7
Image 5  Energy = -153.81471258
C   0.8797723609  0.7620201540 -0.0869803408
H   0.6840766411  1.3914004589 -0.9599852611
O   0.5950749593  1.1457919873  1.0843097586
C   1.3118255591 -0.5979974882 -0.1153329134
H   0.7395957455 -0.2281075734  1.1911385493
H   1.0803615422 -1.1071835443 -1.0472902978
H   2.3105346272 -0.8755573359  0.2280791565
7
Image 6  Energy = -153.83135400
C   0.8781931430  0.7891559183 -0.0744940135
H   0.6871627442  1.3951239293 -0.9642165025
O   0.5932560981  1.1904853331  1.0586804825
C   1.2998316321 -0.6015806220 -0.0809888668
H   0.7545744539 -0.3078112251  1.1666810138
H   1.0739134276 -1.1068659868 -1.0350847696
H   2.3143099448 -0.8681406936  0.2233613247
7
Image 7  Energy = -153.88357821
C   0.8793397391  0.8306905589 -0.0569836177
H   0.7080338359  1.3995860212 -0.9770908265
O   0.5737718793  1.2956046622  1.0277237267
C   1.2858005128 -0.5916994775 -0.0104258256
H   0.7918707146 -0.4963770641  1.0655622016
H   1.0360663875 -1.1074889283 -0.9645902326
H   2.3263583670 -0.8399491125  0.2097432456
7
Image 8  Energy = -153.91578634
C   0.8687310995  0.8616228407 -0.0418828784
H   0.7649365246  1.3931477838 -0.9994012337
O   0.5151750315  1.3845256901  0.9879715751
C   1.2965943691 -0.5668458269  0.0266435876
H   0.8267154765 -0.6804165597  1.0152038761
H   0.9725894994 -1.1220725682 -0.8600201873
H   2.3564994723 -0.7795946959  0.1654239793
7
Image 9  Energy = -153.92761818
C   0.8364184741  0.8708250211 -0.0387540161
H   0.8574439530  1.3757011663 -1.0207941302
O   0.3925920577  1.4336894193  0.9263231338
C   1.3049883113 -0.5465699068  0.0629410416
H   0.9124851104 -0.8087479841  1.0373180065
H   0.9107981285 -1.1527105194 -0.7520581670
H   2.3865154838 -0.6818203819  0.0789628455
7
Image 10  Energy = -153.93120461
C   0.7929007113  0.8629156549 -0.0410865260
H   0.9580919768  1.3511478891 -1.0212989038
O   0.2332618422  1.4486709948  0.8487870965
C   1.3076198089 -0.5364268222  0.1002431997
H   1.0330006612 -0.8901959594  1.0865648107
H   0.8844666168 -1.1871667365 -0.6644831125
H   2.3918999739 -0.5585781280 -0.0147876144
7
Image 11  Energy = -153.93122418
C   0.9646013470  0.9151838039  0.0794782572
H   1.2139949758  1.4613694688 -0.8563806837
O   0.5589375740  1.5138334647  1.0461477485
C   1.1733386801 -0.5741124768  0.0268768345
H   0.8955192111 -1.0261429734  0.9811989535
H   0.5718029517 -1.0057474169 -0.7819416417
H   2.2230468302 -0.7940170304 -0.2014406483
