22
Image 0  Energy = -383.5281735566
C  -0.7781260000 -1.0675610000  0.3210590000
C   1.3025530000  0.0521200000 -0.0282990000
C  -0.9719930000  1.4562490000  0.8236570000
C   1.9812290000 -0.4184330000  1.2501750000
C   2.2640330000  0.4351680000 -1.1331070000
N   0.2911640000 -0.8768210000 -0.5003990000
N  -2.0191630000 -1.3720060000 -0.2331120000
O  -1.6647340000  1.6302230000 -0.4018370000
H  -2.2586320000  0.8701390000 -0.4758990000
H   0.0278490000 -0.6783120000 -1.4584950000
H  -0.6097590000 -1.3678560000  1.3411780000
H   0.6812640000  0.9183000000  0.2869410000
H  -2.5732630000 -2.0573610000  0.2574120000
H  -2.0524280000 -1.5045420000 -1.2338230000
H  -0.3689930000  2.3513920000  0.9917470000
H  -1.6396090000  1.2942150000  1.6746530000
H   2.7644490000  0.2914620000  1.5228460000
H   1.7251140000  0.7306950000 -2.0377940000
H   2.4355930000 -1.4060980000  1.1342150000
H   1.2730050000 -0.4472240000  2.0805790000
H   2.8503450000  1.2986970000 -0.8143220000
H   2.9600090000 -0.3688060000 -1.3889100000
22
Image 1  Energy = -383.5292433453
C  -0.7788470317 -1.0578435216  0.3220295903
C   1.3046338268  0.0514130715 -0.0285298766
C  -0.9795905335  1.4493897035  0.8249225429
C   1.9817324818 -0.4189914583  1.2489183060
C   2.2649762241  0.4341480450 -1.1335430252
N   0.2921717016 -0.8786231989 -0.5008733215
N  -2.0170230035 -1.3710667485 -0.2321390720
O  -1.6647874697  1.6299760161 -0.4014251031
H  -2.2583518663  0.8707545710 -0.4762128641
H   0.0275502067 -0.6779499026 -1.4580425115
H  -0.6096662241 -1.3683009846  1.3409795762
H   0.6825430402  0.9183669086  0.2859222318
H  -2.5728423667 -2.0566897022  0.2575499149
H  -2.0517562356 -1.5044585626 -1.2334716277
H  -0.3685339620  2.3499816220  0.9915746508
H  -1.6403187631  1.2955970077  1.6742955300
H   2.7643138001  0.2912053079  1.5227623631
H   1.7251996140  0.7305582980 -2.0375147935
H   2.4354758061 -1.4059710516  1.1342002216
H   1.2729090847 -0.4474107968  2.0803151799
H   2.8503562245  1.2983490070 -0.8143574703
H   2.9597624445 -0.3687936292 -1.3888954395
22
Image 2  Energy = -383.5301187463
C  -0.7795234630 -1.0483756264  0.3237964665
C   1.3060558697  0.0509723127 -0.0289069233
C  -0.9843202901  1.4441669643  0.8253227131
C   1.9821214606 -0.4194013418  1.2481690068
C   2.2657710939  0.4335052960 -1.1339216345
N   0.2933703914 -0.8800864423 -0.5011869999
N  -2.0154189727 -1.3702293767 -0.2315773282
O  -1.6652305751  1.6297572750 -0.4010577509
H  -2.2584275795  0.8711612107 -0.4768220350
H   0.0272826583 -0.6775534360 -1.4576793064
H  -0.6096085541 -1.3685212547  1.3404189706
H   0.6840838545  0.9181855563  0.2848008367
H  -2.5721645304 -2.0557904135  0.2577140853
H  -2.0509831296 -1.5042619213 -1.2328623631
H  -0.3689792803  2.3468133154  0.9912860340
H  -1.6422427694  1.2967037390  1.6749821600
H   2.7642104516  0.2909327508  1.5226653993
H   1.7253055717  0.7303859125 -2.0372330709
H   2.4354757191 -1.4060526659  1.1341491672
H   1.2729585429 -0.4475988227  2.0798282305
H   2.8504019705  1.2979601439 -0.8144249695
H   2.9597685568 -0.3690331734 -1.3889956833
22
Image 3  Energy = -383.5309524066
C  -0.7802511271 -1.0391379822  0.3257466579
C   1.3071615928  0.0506419655 -0.0293715742
C  -0.9878543152  1.4394916193  0.8253927368
C   1.9824678387 -0.4197337678  1.2476488409
C   2.2664857906  0.4330373169 -1.1342584952
N   0.2945669266 -0.8812927067 -0.5013263191
N  -2.0140495389 -1.3692949242 -0.2310762873
O  -1.6658672575  1.6296270104 -0.4007132915
H  -2.2587605846  0.8713961407 -0.4776188226
H   0.0270514830 -0.6771407961 -1.4573275057
H  -0.6095582774 -1.3685959247  1.3397846209
H   0.6857864549  0.9179140067  0.2836166070
H  -2.5713393684 -2.0547747068  0.2579293303
H  -2.0501180872 -1.5040054098 -1.2322086877
H  -0.3697281986  2.3428212687  0.9909648524
H  -1.6446662004  1.2976716575  1.6760227264
H   2.7641514407  0.2906668264  1.5225732674
H   1.7254194985  0.7301992267 -2.0369785545
H   2.4355370340 -1.4062410095  1.1340768187
H   1.2730582291 -0.4477923718  2.0792553806
H   2.8505035262  1.2975825449 -0.8145064376
H   2.9599101394 -0.3693999826 -1.3891608594
22
Image 4  Energy = -383.5317732221
C  -0.7810230913 -1.0301268095  0.3277447180
C   1.3081074463  0.0503634422 -0.0298730474
C  -0.9908747435  1.4349742611  0.8253488381
C   1.9828026061 -0.4200238001  1.2472345620
C   2.2671604723  0.4326511166 -1.1345728979
N   0.2956867585 -0.8822919766 -0.5013454159
N  -2.0128337338 -1.3682060144 -0.2305812482
O  -1.6666461968  1.6295491051 -0.4003761081
H  -2.2592714180  0.8715263550 -0.4785534828
H   0.0268625039 -0.6767223370 -1.4569478302
H  -0.6095151513 -1.3685428334  1.3391443603
H   0.6876065963  0.9176254484  0.2823888503
H  -2.5704108799 -2.0536863263  0.2582045955
H  -2.0491695369 -1.5037035556 -1.2315439348
H  -0.3705501691  2.3383615575  0.9906412952
H  -1.6472947091  1.2985483418  1.6771347622
H   2.7641382200  0.2904148947  1.5224924037
H   1.7255388007  0.7300067666 -2.0367588722
H   2.4356327653 -1.4064854288  1.1339906054
H   1.2731703926 -0.4479926610  2.0786535003
H   2.8506626145  1.2972311171 -0.8145950537
H   2.9601274509 -0.3698306637 -1.3893655957
22
Image 5  Energy = -383.5325887719
C  -0.7818246002 -1.0213374313  0.3297556081
C   1.3089659196  0.0501153827 -0.0303827031
C  -0.9936772548  1.4304810110  0.8252596357
C   1.9831395501 -0.4202890892  1.2468726533
C   2.2678170799  0.4323061276 -1.1348769035
N   0.2967096406 -0.8831216557 -0.5012776386
N  -2.0117503617 -1.3669495152 -0.2300810034
O  -1.6675403603  1.6294891552 -0.4000269464
H  -2.2599158623  0.8715926614 -0.4796009029
H   0.0267144686 -0.6763011432 -1.4565317596
H  -0.6094821865 -1.3683686568  1.3385180758
H   0.6895260769  0.9173568623  0.2811278745
H  -2.5693986976 -2.0525420742  0.2585371628
H  -2.0481441193 -1.5033635823 -1.2308723572
H  -0.3713501333  2.3335839695  0.9903274712
H  -1.6500094366  1.2993453181  1.6782120988
H   2.7641678271  0.2901777786  1.5224244100
H   1.7256641217  0.7298115798 -2.0365736407
H   2.4357492880 -1.4067598561  1.1338941648
H   1.2732815612 -0.4482000125  2.0780457639
H   2.8508748110  1.2969064610 -0.8146893675
H   2.9603896660 -0.3702932923 -1.3895966920
22
Image 6  Energy = -383.5334022057
C  -0.7826457613 -1.0127635127  0.3317683291
C   1.3097728571  0.0498906108 -0.0308858915
C  -0.9963971663  1.4259742302  0.8251418962
C   1.9834845673 -0.4205385229  1.2465400684
C   2.2684669935  0.4319846810 -1.1351768924
N   0.2976365962 -0.8838114248 -0.5011422086
N  -2.0107931782 -1.3655252138 -0.2295725005
O  -1.6685302021  1.6294242022 -0.3996515583
H  -2.2606700569  0.8716167828 -0.4807464147
H   0.0266031644 -0.6758774230 -1.4560819948
H  -0.6094620128 -1.3680780972  1.3379137008
H   0.6915374272  0.9171291875  0.2798401229
H  -2.5683146374 -2.0513503314  0.2589209177
H  -2.0470475014 -1.5029908657 -1.2301924198
H  -0.3720877249  2.3285576914  0.9900279760
H  -1.6527619342  1.3000609667  1.6792189638
H   2.7642361780  0.2899539598  1.5223691607
H   1.7257969387  0.7296145503 -2.0364199920
H   2.4358793903 -1.4070503180  1.1337892676
H   1.2733883261 -0.4484145023  2.0774412845
H   2.8511345725  1.2966047406 -0.8147899215
H   2.9606801618 -0.3707713927 -1.3898468889
22
Image 7  Energy = -383.5342154994
C  -0.7834806443 -1.0043970341  0.3337773304
C   1.3105476450  0.0496870203 -0.0313753727
C  -0.9990991524  1.4214493078  0.8249979788
C   1.9838401138 -0.4207763724  1.2462268420
C   2.2691157881  0.4316788114 -1.1354760353
N   0.2984752128 -0.8843849404 -0.5009510328
N  -2.0099585301 -1.3639370123 -0.2290535385
O  -1.6696012976  1.6293404471 -0.3992432451
H  -2.2615202774  0.8716101769 -0.4819798905
H   0.0265236696 -0.6754505614 -1.4556040135
H  -0.6094566849 -1.3676754020  1.3373355770
H   0.6936368316  0.9169555633  0.2785303496
H  -2.5671675525 -2.0501163864  0.2593492037
H  -2.0458847037 -1.5025899269 -1.2295020225
H  -0.3727459215  2.3233193568  0.9897441583
H  -1.6555319735  1.3006900040  1.6801466905
H   2.7643391657  0.2897411623  1.5223260154
H   1.7259387722  0.7294157715 -2.0362944762
H   2.4360191324 -1.4073490442  1.1336767770
H   1.2734911200 -0.4486360655  2.0768434615
H   2.8514367612  1.2963213356 -0.8148978200
H   2.9609895235 -0.3712562122 -1.3901119340
22
Image 8  Energy = -383.5350304533
C  -0.7843250832 -0.9962278235  0.3357784770
C   1.3113022963  0.0495038818 -0.0318479251
C  -1.0018137849  1.4169095242  0.8248278772
C   1.9842070637 -0.4210048285  1.2459284974
C   2.2697661318  0.4313843852 -1.1357757047
N   0.2992338080 -0.8848606471 -0.5007119687
N  -2.0092421578 -1.3621902448 -0.2285230212
O  -1.6707437963  1.6292301268 -0.3988019056
H  -2.2624575676  0.8715794189 -0.4832933590
H   0.0264712488 -0.6750198553 -1.4551031410
H  -0.6094678780 -1.3671644296  1.3367865710
H   0.6958208396  0.9168449159  0.2772026147
H  -2.5659651282 -2.0488443672  0.2598160441
H  -2.0446603276 -1.5021644100 -1.2287985968
H  -0.3733184924  2.3178915706  0.9894759844
H  -1.6583112135  1.3012272735  1.6809969489
H   2.7644732147  0.2895372008  1.5222943043
H   1.7260908023  0.7292151707 -2.0361939616
H   2.4361662290 -1.4076514244  1.1335571550
H   1.2735916172 -0.4488645420  2.0762534468
H   2.8517770046  1.2960520660 -0.8150141435
H   2.9613121702 -0.3717429624 -1.3903891871
22
Image 9  Energy = -383.5358488988
C  -0.7851760357 -0.9882437823  0.3377682102
C   1.3120451280  0.0493405334 -0.0323023842
C  -1.0045543485  1.4123564246  0.8246321158
C   1.9845854393 -0.4212249803  1.2456427218
C   2.2704192252  0.4310987042 -1.1360766682
N   0.2999196486 -0.8852524873 -0.5004305270
N  -2.0086387163 -1.3602911617 -0.2279794915
O  -1.6719509555  1.6290897758 -0.3983317006
H  -2.2634756478  0.8715283827 -0.4846800990
H   0.0264416497 -0.6745847826 -1.4545835700
H  -0.6094970528 -1.3665484061  1.3362683376
H   0.6980853395  0.9168034402  0.2758606513
H  -2.5647139692 -2.0475372442  0.2603160983
H  -2.0433785687 -1.5017171508 -1.2280800293
H  -0.3738044939  2.3122905618  0.9892229439
H  -1.6610963094  1.3016690726  1.6817749046
H   2.7646353108  0.2893401419  1.5222734868
H   1.7262539596  0.7290126147 -2.0361155756
H   2.4363193693 -1.4079546249  1.1334306796
H   1.2736917321 -0.4490996505  2.0756715811
H   2.8521517056  1.2957935075 -0.8151397789
H   2.9616445874 -0.3722288903 -1.3906769004
22
Image 10  Energy = -383.5366726715
C  -0.7860311299 -0.9804309070  0.3397439689
C   1.3127822240  0.0491961819 -0.0327387985
C  -1.0073245654  1.4077874566  0.8244117081
C   1.9849750303 -0.4214375071  1.2453683010
C   2.2710757440  0.4308197671 -1.1363793755
N   0.3005389094 -0.8855707239 -0.5001105626
N  -2.0081419877 -1.3582464591 -0.2274221009
O  -1.6732184320  1.6289182796 -0.3978389181
H  -2.2645694859  0.8714598928 -0.4861342420
H   0.0264310455 -0.6741449383 -1.4540486988
H  -0.6095455239 -1.3658299234  1.3357816817
H   0.7004253722  0.9168352581  0.2745079472
H  -2.5634198947 -2.0461972618  0.2608448462
H  -2.0420433021 -1.5012501787 -1.2273441357
H  -0.3742059628  2.3065288550  0.9889843823
H  -1.6638862333  1.3020133655  1.6824866341
H   2.7648229142  0.2891483666  1.5222631302
H   1.7264288810  0.7288080003 -2.0360568081
H   2.4364777613 -1.4082568056  1.1332975689
H   1.2737932653 -0.4493410153  2.0750978434
H   2.8525577746  1.2955427745 -0.8152754371
H   2.9619845929 -0.3727124786 -1.3909739280
22
Image 11  Energy = -383.5375037908
C  -0.7868885783 -0.9727736920  0.3417043640
C   1.3135180989  0.0490701310 -0.0331577147
C  -1.0101232347  1.4031960088  0.8241679261
C   1.9853755135 -0.4216428370  1.2451042628
C   2.2717360768  0.4305457875 -1.1366840096
N   0.3010968118 -0.8858227617 -0.4997552515
N  -2.0077454776 -1.3560631482 -0.2268502479
O  -1.6745430301  1.6287161731 -0.3973304059
H  -2.2657350749  0.8713759605 -0.4876506514
H   0.0264361381 -0.6737000848 -1.4535008310
H  -0.6096144735 -1.3650109449  1.3353265862
H   0.7028355631  0.9169427146  0.2731476818
H  -2.5620878862 -2.0448259439  0.2613983924
H  -2.0406580845 -1.5007648798 -1.2265888898
H  -0.3745266225  2.3006165506  0.9887596266
H  -1.6666807305  1.3022595516  1.6831378106
H   2.7650339129  0.2889605327  1.5222629213
H   1.7266158968  0.7286013095 -2.0360156365
H   2.4366409678 -1.4085567696  1.1331580335
H   1.2738977108 -0.4495881949  2.0745322115
H   2.8529926121  1.2952975324 -0.8154216385
H   2.9623308869 -0.3731929937 -1.3912795328
22
Image 12  Energy = -383.5383443159
C  -0.7877473083 -0.9652554257  0.3436491332
C   1.3142560081  0.0489616682 -0.0335600444
C  -1.0129462681  1.3985729091  0.8239016657
C   1.9857864533 -0.4218414174  1.2448498560
C   2.2724004413  0.4302752634 -1.1369908604
N   0.3015982336 -0.8860139074 -0.4993671623
N  -2.0074428280 -1.3537483974 -0.2262634378
O  -1.6759223505  1.6284845034 -0.3968125780
H  -2.2669689152  0.8712784103 -0.4892248258
H   0.0264540094 -0.6732500157 -1.4529417197
H  -0.6097049440 -1.3640929731  1.3349025920
H   0.7053103710  0.9171268254  0.2717827374
H  -2.5607220963 -2.0434241864  0.2619733613
H  -2.0392261490 -1.5002621363 -1.2258125613
H  -0.3747713944  2.2945614708  0.9885479948
H  -1.6694799414  1.3024080661  1.6837335560
H   2.7652666037  0.2887755983  1.5222726578
H   1.7268152273  0.7283925108 -2.0359901976
H   2.4368087367 -1.4088536802  1.1330122945
H   1.2740063619 -0.4498407000  2.0739745555
H   2.8534539855  1.2950558343 -0.8155787641
H   2.9626827604 -0.3736702178 -1.3915932446
22
Image 13  Energy = -383.5391963407
C  -0.7886067663 -0.9578585502  0.3455790053
C   1.3149981530  0.0488703794 -0.0339467275
C  -1.0157887367  1.3939073779  0.8236133797
C   1.9862075158 -0.4220335052  1.2446044150
C   2.2730692778  0.4300068483 -1.1373001289
N   0.3020475668 -0.8861480980 -0.4989485279
N  -2.0072278815 -1.3513091481 -0.2256616820
O  -1.6773539534  1.6282246754 -0.3962906689
H  -2.2682680928  0.8711687215 -0.4908528325
H   0.0264821178 -0.6727945401 -1.4523726181
H  -0.6098178168 -1.3630771471  1.3345089206
H   0.7078444837  0.9173874508  0.2704156384
H  -2.5593261403 -2.0419926746  0.2625669824
H  -2.0377504420 -1.4997424343 -1.2250135174
H  -0.3749458739  2.2883696364  0.9883487678
H  -1.6722837620  1.3024600173  1.6842779435
H   2.7655194901  0.2885926763  1.5222921567
H   1.7270268873  0.7281816129 -2.0359789904
H   2.4369809704 -1.4091470523  1.1328605625
H   1.2741202464 -0.4500980436  2.0734248300
H   2.8539399287  1.2948160093 -0.8157471105
H   2.9630398242 -0.3741442078 -1.3919147888
22
Image 14  Energy = -383.5400620513
C  -0.7894671128 -0.9505650726  0.3474953505
C   1.3157460697  0.0487960671 -0.0343188529
C  -1.0186453725  1.3891881001  0.8233030858
C   1.9866384063 -0.4222193689  1.2443672357
C   2.2737427381  0.4297393721 -1.1376120284
N   0.3024489999 -0.8862283239 -0.4985012818
N  -2.0070948400 -1.3487520189 -0.2250448738
O  -1.6788355208  1.6279378082 -0.3957688257
H  -2.2696299690  0.8710484083 -0.4925312431
H   0.0265182345 -0.6723334343 -1.4517944388
H  -0.6099538265 -1.3619643435  1.3341446586
H   0.7104329930  0.9177236371  0.2690485477
H  -2.5579030256 -2.0405318021  0.2631768569
H  -2.0362336396 -1.4992060385 -1.2241905230
H  -0.3750560355  2.2820453703  0.9881611837
H  -1.6750919117  1.3024168456  1.6847742727
H   2.7657913336  0.2884110544  1.5223213114
H   1.7272508527  0.7279686146 -2.0359806383
H   2.4371576405 -1.4094365548  1.1327030582
H   1.2742401899 -0.4503597352  2.0728830232
H   2.8544488030  1.2945767236 -0.8159268680
H   2.9634019900 -0.3746153074 -1.3922440007
22
Image 15  Energy = -383.5254097943
C  -0.7731362073 -1.0667822604  0.3136619516
C   1.3025780496  0.0480278965 -0.0293928579
C  -0.9634711469  1.4789961593  0.8317689885
C   1.9774576834 -0.4196679518  1.2474435677
C   2.2609523990  0.4339636606 -1.1316712853
N   0.3024103071 -0.8930896556 -0.5110624588
N  -1.9978274104 -1.4119974234 -0.2379913536
O  -1.6446824984  1.6365456243 -0.4074719166
H  -2.2360015040  0.8752216847 -0.4541241781
H   0.0238330154 -0.6813804808 -1.4641760205
H  -0.6051857948 -1.3941431545  1.3373627718
H   0.6545117817  0.9032792113  0.2953088643
H  -2.5888342166 -2.0712182507  0.2488185200
H  -2.0701143280 -1.5113534906 -1.2414462305
H  -0.3821309626  2.4167417635  0.9900213835
H  -1.6226706590  1.3141839099  1.6828620496
H   2.7579419662  0.2911995038  1.5205923898
H   1.7217939637  0.7321258936 -2.0337916039
H   2.4332786460 -1.4041992055  1.1363517788
H   1.2718030451 -0.4448620856  2.0819590779
H   2.8415897557  1.2981736295 -0.8114597765
H   2.9558110808 -0.3661250094 -1.3850986666
22
Image 16  Energy = -383.5259961944
C  -0.7728319694 -1.0620735563  0.3169808250
C   1.3030280596  0.0476546668 -0.0299723340
C  -0.9666284743  1.4775995350  0.8313771629
C   1.9778071875 -0.4199434392  1.2471103921
C   2.2614075086  0.4339752096 -1.1317703847
N   0.3016189054 -0.8931458510 -0.5099267645
N  -1.9984324180 -1.4108319646 -0.2384175018
O  -1.6451376074  1.6359110113 -0.4055754863
H  -2.2365066617  0.8754785534 -0.4553822536
H   0.0241505067 -0.6810618586 -1.4635135369
H  -0.6051923918 -1.3931239879  1.3348456506
H   0.6569186175  0.9031089304  0.2938244201
H  -2.5869856972 -2.0699029100  0.2493926579
H  -2.0687033935 -1.5108069519 -1.2405358270
H  -0.3834599916  2.4108622491  0.9896684157
H  -1.6244457884  1.3152603081  1.6828688965
H   2.7581163091  0.2911586805  1.5205020222
H   1.7217559626  0.7319322259 -2.0338245429
H   2.4334242326 -1.4047111293  1.1362664260
H   1.2717247907 -0.4451394553  2.0813418695
H   2.8420542817  1.2982147906 -0.8113933056
H   2.9562249961 -0.3667750889 -1.3854018064
22
Image 17  Energy = -383.5265180995
C  -0.7735076267 -1.0572019513  0.3188610100
C   1.3034573830  0.0472689279 -0.0304292369
C  -0.9697533095  1.4756101958  0.8311723426
C   1.9781661162 -0.4202103196  1.2467990052
C   2.2619201021  0.4338562277 -1.1319764476
N   0.3012767131 -0.8930569056 -0.5090051797
N  -1.9983188052 -1.4091478901 -0.2380804400
O  -1.6457242519  1.6355133461 -0.4041236673
H  -2.2371423308  0.8755470374 -0.4566384036
H   0.0243871365 -0.6807937552 -1.4627505029
H  -0.6050494934 -1.3924116530  1.3334116847
H   0.6593200451  0.9030250209  0.2923675989
H  -2.5853829647 -2.0688066683  0.2500420424
H  -2.0672968809 -1.5103534578 -1.2400282067
H  -0.3844133882  2.4054327954  0.9893774235
H  -1.6263781954  1.3162301599  1.6830266234
H   2.7582857799  0.2910926473  1.5204109828
H   1.7217546380  0.7317399563 -2.0338420643
H   2.4335654695 -1.4051878395  1.1361754101
H   1.2716640136 -0.4454187875  2.0807152598
H   2.8425070242  1.2982303191 -0.8113375563
H   2.9565697908 -0.3673174387 -1.3856826842
22
Image 18  Energy = -383.5270254207
C  -0.7743740705 -1.0522171986  0.3203226297
C   1.3039273151  0.0469189175 -0.0308024229
C  -0.9727157113  1.4731642603  0.8310805261
C   1.9785282404 -0.4204774273  1.2465103841
C   2.2624517817  0.4336757410 -1.1322250499
N   0.3011089290 -0.8929202216 -0.5082525095
N  -1.9981242475 -1.4073024093 -0.2376499134
O  -1.6465189974  1.6352347793 -0.4030396629
H  -2.2378472605  0.8755430289 -0.4579119236
H   0.0245880010 -0.6805403123 -1.4619778536
H  -0.6048747704 -1.3917975996  1.3324482299
H   0.6616997491  0.9030226428  0.2909453102
H  -2.5838651386 -2.0677661125  0.2507205120
H  -2.0658793061 -1.5099129923 -1.2395481820
H  -0.3851037578  2.4002755701  0.9891399525
H  -1.6284853665  1.3171161780  1.6833305087
H   2.7584552596  0.2910081045  1.5203206817
H   1.7217831853  0.7315481727 -2.0338545915
H   2.4337063004 -1.4056372258  1.1360803754
H   1.2716169686 -0.4456989560  2.0800865299
H   2.8429426676  1.2982062498 -0.8112993969
H   2.9568871938 -0.3678032224 -1.3859591421
22
Image 19  Energy = -383.5275324002
C  -0.7752556881 -1.0471521062  0.3216519523
C   1.3044495811  0.0466071964 -0.0311303167
C  -0.9755057673  1.4703535481  0.8310477819
C   1.9788929928 -0.4207452301  1.2462432998
C   2.2629906853  0.4334635936 -1.1324900358
N   0.3010295657 -0.8927583564 -0.5075944666
N  -1.9979548426 -1.4053733079 -0.2372088903
O  -1.6474947651  1.6350382926 -0.4022237046
H  -2.2386163740  0.8754909505 -0.4592148901
H   0.0247629205 -0.6802843171 -1.4612407554
H  -0.6047059521 -1.3912047073  1.3317311175
H   0.6640513251  0.9030933803  0.2895581674
H  -2.5823868743 -2.0667326065  0.2514093198
H  -2.0644541510 -1.5094710426 -1.2390565374
H  -0.3856019790  2.3952728596  0.9889459830
H  -1.6307465379  1.3179350502  1.6837465785
H   2.7586277374  0.2909082059  1.5202331225
H   1.7218367697  0.7313564035 -2.0338663124
H   2.4338490993 -1.4060652475  1.1359819056
H   1.2715802720 -0.4459794713  2.0794611296
H   2.8433635436  1.2981425969 -0.8112809565
H   2.9571954022 -0.3682557189 -1.3862385007
22
Image 20  Energy = -383.5129245169
C  -0.7493986082 -1.2384502186  0.2737660252
C   1.2829613837  0.0419564078 -0.0247678724
C  -0.9004480010  1.6253777088  0.8450999464
C   1.9653118118 -0.4183847480  1.2497665224
C   2.2432922401  0.4408129601 -1.1231003472
N   0.2919760366 -0.8997578828 -0.5200959367
N  -1.9867283842 -1.5036175294 -0.2598712841
O  -1.5912803572  1.6464877576 -0.4100002624
H  -2.1832273583  0.8832943572 -0.4009919492
H   0.0234215243 -0.6953095364 -1.4763254416
H  -0.5945599907 -1.4411228906  1.3247920741
H   0.5840668072  0.8786589553  0.3250388773
H  -2.6229685797 -2.1138691188  0.2322724755
H  -2.1124404743 -1.5271797238 -1.2661589928
H  -0.4039932142  2.5952728596  0.9907589265
H  -1.5491653556  1.3469534236  1.6784125180
H   2.7464409930  0.2960639821  1.5162431014
H   1.7116456865  0.7373535398 -2.0310253058
H   2.4280540986 -1.4010748131  1.1418621283
H   1.2659448540 -0.4386597030  2.0908210519
H   2.8246211739  1.3058933501 -0.8022337967
H   2.9463806116 -0.3570592425 -1.3757974991
22
Image 21  Energy = -383.5137986037
C  -0.7472756680 -1.2344574920  0.2783598423
C   1.2812201979  0.0420702481 -0.0244430069
C  -0.9072273527  1.6248816307  0.8427869192
C   1.9656732385 -0.4187985502  1.2494876293
C   2.2435472014  0.4408986651 -1.1230527718
N   0.2931650992 -0.9018271265 -0.5213538547
N  -1.9917512769 -1.5030921038 -0.2628757265
O  -1.5892639434  1.6461937250 -0.4062654561
H  -2.1825807486  0.8836719394 -0.4011050569
H   0.0235817570 -0.6951577713 -1.4756219040
H  -0.5943478336 -1.4414828307  1.3227432790
H   0.5878281010  0.8798288134  0.3239271206
H  -2.6207915649 -2.1134194121  0.2320811320
H  -2.1107761280 -1.5273932436 -1.2638194930
H  -0.4048615533  2.5924434380  0.9903198414
H  -1.5488356789  1.3484001140  1.6781568187
H   2.7462901342  0.2959691727  1.5159388437
H   1.7114814264  0.7371056780 -2.0308381544
H   2.4279990099 -1.4015413283  1.1418136139
H   1.2658940547 -0.4391216250  2.0901364707
H   2.8246682252  1.3057744474 -0.8020333268
H   2.9462702004 -0.3573064940 -1.3758778001
22
Image 22  Energy = -383.5144083319
C  -0.7480312308 -1.2309266667  0.2806096964
C   1.2797898287  0.0423358376 -0.0243289144
C  -0.9132456258  1.6256438333  0.8409759682
C   1.9658961048 -0.4191768716  1.2492430582
C   2.2436047848  0.4410078788 -1.1228608130
N   0.2951045765 -0.9038167331 -0.5223606339
N  -1.9938691361 -1.5011639740 -0.2632009131
O  -1.5877586287  1.6457457769 -0.4032258330
H  -2.1819641756  0.8839333003 -0.4012962039
H   0.0235843864 -0.6949680685 -1.4751703416
H  -0.5939188799 -1.4422112556  1.3221148333
H   0.5918640447  0.8807973256  0.3226424682
H  -2.6193716632 -2.1136319531  0.2320717766
H  -2.1094220594 -1.5278952492 -1.2633088950
H  -0.4056354969  2.5893677317  0.9897929371
H  -1.5489281465  1.3493233886  1.6783239420
H   2.7461819495  0.2958969262  1.5156419689
H   1.7113396100  0.7368605681 -2.0306646959
H   2.4279376011 -1.4019991959  1.1417098810
H   1.2658907652 -0.4396280000  2.0894907834
H   2.8247662725  1.3056985921 -0.8018368660
H   2.9460920152 -0.3575532967 -1.3758982417
22
Image 23  Energy = -383.5149438352
C  -0.7491408070 -1.2274903989  0.2822382673
C   1.2787152803  0.0426825029 -0.0242522265
C  -0.9187149810  1.6269189285  0.8397620542
C   1.9660551305 -0.4195139201  1.2489917534
C   2.2435844606  0.4411224232 -1.1226234614
N   0.2969317571 -0.9059299624 -0.5232095690
N  -1.9954753295 -1.4988371281 -0.2630315628
O  -1.5867200326  1.6452929532 -0.4009301528
H  -2.1814148546  0.8840659302 -0.4015287099
H   0.0235590551 -0.6947447818 -1.4748341206
H  -0.5934712678 -1.4430929766  1.3219363443
H   0.5960286524  0.8816704262  0.3212427511
H  -2.6181657119 -2.1140275446  0.2320801639
H  -2.1081310757 -1.5285105531 -1.2631630545
H  -0.4062352632  2.5864036505  0.9892322574
H  -1.5493146446  1.3499141054  1.6787497311
H   2.7460948693  0.2958277344  1.5153544175
H   1.7112152978  0.7366233188 -2.0304983355
H   2.4278667381 -1.4024378792  1.1415607973
H   1.2659032232 -0.4401626771  2.0888953097
H   2.8248920412  1.3056470527 -0.8016433054
H   2.9458443565 -0.3577813084 -1.3758643878
22
Image 24  Energy = -383.5154310131
C  -0.7502576778 -1.2241304448  0.2836489624
C   1.2779423525  0.0430122712 -0.0241985333
C  -0.9237808245  1.6284033272  0.8390240469
C   1.9661897254 -0.4198189028  1.2487386518
C   2.2435443615  0.4412365159 -1.1223834762
N   0.2985805802 -0.9080810472 -0.5239550377
N  -1.9969651884 -1.4963379422 -0.2627413163
O  -1.5860381250  1.6448951597 -0.3992390788
H  -2.1809536051  0.8840582530 -0.4017908380
H   0.0235299534 -0.6945051960 -1.4745501107
H  -0.5930458926 -1.4440587866  1.3219336288
H   0.6002322565  0.8824976218  0.3197611102
H  -2.6170395106 -2.1144803958  0.2320624714
H  -2.1068568647 -1.5291952904 -1.2630943906
H  -0.4066467653  2.5836729976  0.9886685971
H  -1.5499354786  1.3502678557  1.6793605215
H   2.7460218388  0.2957538810  1.5150785393
H   1.7111036889  0.7363964019 -2.0303359036
H   2.4277863283 -1.4028512304  1.1413726926
H   1.2659218250 -0.4407156913  2.0883446962
H   2.8250346903  1.3056098468 -0.8014548100
H   2.9455392253 -0.3579893086 -1.3757854609
22
Image 25  Energy = -383.5124091963
C  -0.7483752413 -1.2460686759  0.2718145207
C   1.2821611615  0.0417650305 -0.0245226074
C  -0.8973201675  1.6314053290  0.8456944639
C   1.9647752357 -0.4182804171  1.2499136768
C   2.2425215106  0.4410968890 -1.1227404836
N   0.2915547223 -0.8999481481 -0.5205456012
N  -1.9862152300 -1.5075147337 -0.2607381332
O  -1.5891288467  1.6469460591 -0.4103850074
H  -2.1810871412  0.8835937306 -0.3987155794
H   0.0233712602 -0.6959042607 -1.4769261019
H  -0.5941774337 -1.4430365387  1.3245388922
H   0.5808047602  0.8776762171  0.3264707680
H  -2.6245976358 -2.1157001640  0.2315307045
H  -2.1143578453 -1.5278495993 -1.2672391571
H  -0.4046873903  2.6031710800  0.9908495465
H  -1.5459678497  1.3480595720  1.6781861670
H   2.7459703228  0.2962689471  1.5160976399
H   1.7112523470  0.7375958625 -2.0309222062
H   2.4278308221 -1.4008657536  1.1420965425
H   1.2657239539 -0.4383560049  2.0912855634
H   2.8238878709  1.3061998973 -0.8018870511
H   2.9459677098 -0.3566144264 -1.3753915989
22
Image 26  Energy = -383.5133459557
C  -0.7459674291 -1.2420842493  0.2766121749
C   1.2803013798  0.0418568836 -0.0241850960
C  -0.9043157621  1.6308098700  0.8432328418
C   1.9651347992 -0.4186935739  1.2496356262
C   2.2427674004  0.4412006777 -1.1226803028
N   0.2927262924 -0.9021018033 -0.5218221095
N  -1.9915415845 -1.5070304879 -0.2639493472
O  -1.5869802355  1.6466713480 -0.4064732700
H  -2.1803692110  0.8840201183 -0.3987826930
H   0.0235355679 -0.6957508079 -1.4762205734
H  -0.5939884129 -1.4433877121  1.3223467177
H   0.5846074124  0.8789316404  0.3253888508
H  -2.6223565754 -2.1152424410  0.2312961928
H  -2.1126591978 -1.5280837835 -1.2647518755
H  -0.4055898768  2.6003619352  0.9903953237
H  -1.5454834597  1.3495803586  1.6778598241
H   2.7458059211  0.2961753634  1.5157847679
H   1.7110773494  0.7373443693 -2.0307255046
H   2.4277664277 -1.4013348403  1.1420498922
H   1.2656737606 -0.4388267523  2.0905967718
H   2.8239212271  1.3060794101 -0.8016796629
H   2.9458411017 -0.3568556304 -1.3754635900
22
Image 27  Energy = -383.5139839404
C  -0.7466899927 -1.2386251734  0.2789231443
C   1.2787612689  0.0421230085 -0.0240588862
C  -0.9105012662  1.6315791536  0.8412834447
C   1.9653497573 -0.4190738728  1.2493911926
C   2.2428026274  0.4413244631 -1.1224693113
N   0.2947345776 -0.9041395863 -0.5228801349
N  -1.9937402289 -1.5050647626 -0.2642992961
O  -1.5853594465  1.6462308292 -0.4032787901
H  -2.1796849232  0.8843206138 -0.3989338107
H   0.0235348387 -0.6955653723 -1.4757637417
H  -0.5935655419 -1.4441148731  1.3216735243
H   0.5887037216  0.8799588496  0.3241202105
H  -2.6209203983 -2.1154838820  0.2312578126
H  -2.1112964559 -1.5286154970 -1.2642138635
H  -0.4064048224  2.5972679261  0.9898456368
H  -1.5454457983  1.3505442346  1.6779851510
H   2.7456857817  0.2961066770  1.5154785859
H   1.7109252051  0.7370960258 -2.0305438170
H   2.4276948168 -1.4017942283  1.1419466042
H   1.2656722580 -0.4393441575  2.0899486307
H   2.8240077584  1.3060055947 -0.8014745510
H   2.9456431574 -0.3570960782 -1.3754727780
22
Image 28  Energy = -383.5145400381
C  -0.7477940909 -1.2352687944  0.2805645655
C   1.2775951578  0.0424884917 -0.0239658419
C  -0.9161066518  1.6329075751  0.8399643920
C   1.9654974929 -0.4194133614  1.2491382138
C   2.2427546897  0.4414530335 -1.1222097772
N   0.2966281923 -0.9063088135 -0.5237756046
N  -1.9953980085 -1.5026844131 -0.2641228284
O  -1.5842271298  1.6457791658 -0.4008659030
H  -2.1790708553  0.8844861426 -0.3991289224
H   0.0235037847 -0.6953457938 -1.4754282028
H  -0.5931197041 -1.4449990257  1.3214871169
H   0.5929399676  0.8808741536  0.3227270171
H  -2.6197079447 -2.1159153701  0.2312393017
H  -2.1100006385 -1.5292632411 -1.2640648780
H  -0.4070434590  2.5942803301  0.9892582589
H  -1.5457155063  1.3511565695  1.6783837185
H   2.7455867477  0.2960417681  1.5151811029
H   1.7107906143  0.7368561067 -2.0303700537
H   2.4276131267 -1.4022339356  1.1417966178
H   1.2656866193 -0.4398911865  2.0893529759
H   2.8241224609  1.3059576034 -0.8012714075
H   2.9453720321 -0.3573171132 -1.3754249049
22
Image 29  Energy = -383.5150433376
C  -0.7489085114 -1.2319916167  0.2819705980
C   1.2767477701  0.0428451571 -0.0238933398
C  -0.9212875677  1.6344665325  0.8391529767
C   1.9656192449 -0.4197202850  1.2488827763
C   2.2426849407  0.4415811692 -1.1219467478
N   0.2983350420 -0.9085215514 -0.5245640977
N  -1.9969343330 -1.5001253564 -0.2638201807
O  -1.5834686913  1.6453808998 -0.3990923703
H  -2.1785492324  0.8845042959 -0.3993551598
H   0.0234681361 -0.6951095607 -1.4751483851
H  -0.5926944998 -1.4459689136  1.3214915280
H   0.5972205981  0.8817328210  0.3212449589
H  -2.6185786778 -2.1164064786  0.2311954965
H  -2.1087223714 -1.5299820635 -1.2639989002
H  -0.4074883703  2.5915338566  0.9886662904
H  -1.5462291892  1.3515193621  1.6789770714
H   2.7455013600  0.2959721817  1.5148949678
H   1.7106686715  0.7366271421 -2.0302005582
H   2.4275213736 -1.4026478062  1.1416062001
H   1.2657070271 -0.4404573083  2.0888040568
H   2.8242540002  1.3059248672 -0.8010727665
H   2.9450401754 -0.3575174529 -1.3753294607
22
Image 30  Energy = -383.5145339750
C  -0.7552784885 -1.2095997093  0.2803677827
C   1.2871547167  0.0421150264 -0.0261069205
C  -0.9109817364  1.6111749024  0.8461740654
C   1.9673034304 -0.4192352335  1.2488929526
C   2.2462992953  0.4395999845 -1.1245430146
N   0.2939202059 -0.9004211398 -0.5187577599
N  -1.9862824271 -1.4934947340 -0.2569971886
O  -1.5984001811  1.6446839822 -0.4100565641
H  -2.1897694623  0.8815445436 -0.4081990243
H   0.0236593537 -0.6934276308 -1.4741520689
H  -0.5944326090 -1.4383854006  1.3252907611
H   0.5953752372  0.8797472575  0.3188147095
H  -2.6175796018 -2.1086625292  0.2351932151
H  -2.1062768903 -1.5251711360 -1.2640556949
H  -0.4026877239  2.5722704873  0.9905616073
H  -1.5628551063  1.3452240075  1.6814108466
H   2.7477920993  0.2952589719  1.5164512762
H   1.7127250142  0.7364911452 -2.0311986525
H   2.4289232274 -1.4023324632  1.1411533789
H   1.2663669150 -0.4397183095  2.0885788742
H   2.8269198676  1.3049105329 -0.8030493950
H   2.9480117849 -0.3589326580 -1.3773081614
22
Image 31  Energy = -383.5153850754
C  -0.7529497837 -1.2056975760  0.2848729728
C   1.2852946197  0.0422111843 -0.0257167280
C  -0.9180283652  1.6098251281  0.8438686697
C   1.9677255476 -0.4196430427  1.2486714636
C   2.2466380696  0.4396825390 -1.1245905815
N   0.2949444612 -0.9021859992 -0.5198418107
N  -1.9911673309 -1.4930451798 -0.2600975487
O  -1.5965150604  1.6445394113 -0.4063504881
H  -2.1892868648  0.8818166961 -0.4083763360
H   0.0238285887 -0.6932711636 -1.4734769390
H  -0.5943129695 -1.4386401896  1.3233382704
H   0.5991317089  0.8808019448  0.3176269387
H  -2.6154800403 -2.1081164373  0.2350983028
H  -2.1046252163 -1.5252698913 -1.2616302797
H  -0.4032180666  2.5699008402  0.9902587240
H  -1.5626475743  1.3466973482  1.6810058389
H   2.7477140094  0.2951457538  1.5161999316
H   1.7126214216  0.7362448640 -2.0310385614
H   2.4289107661 -1.4027869668  1.1411022454
H   1.2663261784 -0.4401560840  2.0878823306
H   2.8270291525  1.3047683282 -0.8029045362
H   2.9479736704 -0.3591816114 -1.3774368546
22
Image 32  Energy = -383.5159495493
C  -0.7535526531 -1.2021663920  0.2870406610
C   1.2839084933  0.0424226528 -0.0255961843
C  -0.9239709589  1.6100316437  0.8420847325
C   1.9679871395 -0.4200085825  1.2484669080
C   2.2467514626  0.4397617297 -1.1244568948
N   0.2966603530 -0.9039194265 -0.5206819547
N  -1.9931477842 -1.4911980995 -0.2604282144
O  -1.5952504429  1.6441332455 -0.4033802529
H  -2.1887927526  0.8820556442 -0.4086543416
H   0.0238464269 -0.6930771371 -1.4730285094
H  -0.5939603295 -1.4393035688  1.3227417672
H   0.6030765883  0.8817321984  0.3163133690
H  -2.6140970651 -2.1082073410  0.2351622677
H  -2.1032744553 -1.5256691908 -1.2610727167
H  -0.4038151978  2.5669808510  0.9898443085
H  -1.5629601840  1.3476442791  1.6810970155
H   2.7476758954  0.2950563984  1.5159532590
H   1.7125367393  0.7360047543 -2.0309019293
H   2.4288929802 -1.4032357007  1.1409980398
H   1.2663321921 -0.4406371415  2.0872343840
H   2.8271874904  1.3046714390 -0.8027610971
H   2.9478729817 -0.3594323598 -1.3775095884
22
Image 33  Energy = -383.5164392901
C  -0.7545524720 -1.1986985255  0.2886302395
C   1.2829412773  0.0426859547 -0.0255452281
C  -0.9292269398  1.6108611945  0.8409057888
C   1.9681790297 -0.4203313386  1.2482442815
C   2.2467830081  0.4398329675 -1.1242683694
N   0.2982707407 -0.9057769524 -0.5213816710
N  -1.9946127372 -1.4889710560 -0.2602539557
O  -1.5944634530  1.6437140857 -0.4011608095
H  -2.1883698136  0.8821760976 -0.4089814513
H   0.0238393129 -0.6928513543 -1.4726816890
H  -0.5935812954 -1.4401256261  1.3225489893
H   0.6070910142  0.8826175861  0.3149206664
H  -2.6129117481 -2.1084720319  0.2352395506
H  -2.1019846423 -1.5261803672 -1.2608810501
H  -0.4043174237  2.5640249715  0.9893832665
H  -1.5635939297  1.3482708958  1.6814652224
H   2.7476551924  0.2949697667  1.5157134575
H   1.7124678029  0.7357725070 -2.0307740975
H   2.4288653675 -1.4036655087  1.1408520334
H   1.2663518410 -0.4411448565  2.0866411782
H   2.8273694348  1.3045963871 -0.8026191533
H   2.9477073519 -0.3596649019 -1.3775321699
22
Image 34  Energy = -383.5168836978
C  -0.7555824798 -1.1952902705  0.2900292034
C   1.2822940594  0.0429212876 -0.0255327721
C  -0.9340273694  1.6119422089  0.8401983373
C   1.9683453706 -0.4206229164  1.2480122650
C   2.2467979109  0.4398973362 -1.1240765016
N   0.2997178235 -0.9076719569 -0.5219873231
N  -1.9959628302 -1.4865860194 -0.2599617237
O  -1.5940199039  1.6433566889 -0.3995347160
H  -2.1880403752  0.8821580056 -0.4093405323
H   0.0238295008 -0.6926095156 -1.4723813141
H  -0.5932188921 -1.4410305581  1.3225072498
H   0.6111069819  0.8834881155  0.3134728771
H  -2.6117980803 -2.1087906802  0.2352906280
H  -2.1007106736 -1.5267577367 -1.2607633642
H  -0.4046743548  2.5612198158  0.9889116690
H  -1.5644623862  1.3486748666  1.6820178371
H   2.7476450434  0.2948780800  1.5154828784
H   1.7124105424  0.7355491200 -2.0306493135
H   2.4288277297 -1.4040701380  1.1406710029
H   1.2663760099 -0.4416694248  2.0860940508
H   2.8275642277  1.3045319806 -0.8024812523
H   2.9474890623 -0.3598783928 -1.3775141583
22
Image 35  Energy = -383.5158569993
C  -0.7689837781 -1.1540579244  0.2915489466
C   1.2943679112  0.0386856556 -0.0295113604
C  -0.9341768682  1.6238866353  0.8594992310
C   1.9708397237 -0.4234679194  1.2462713903
C   2.2519399980  0.4365165740 -1.1275508834
N   0.3037642231 -0.9130079086 -0.5219370427
N  -1.9754512099 -1.5062978983 -0.2591535958
O  -1.6010355336  1.6443999064 -0.4119618073
H  -2.1887164934  0.8763080179 -0.4094535195
H   0.0232962383 -0.6921668740 -1.4722711522
H  -0.5869514562 -1.4641025897  1.3233807855
H   0.6120024869  0.8694300491  0.3036541138
H  -2.6142591366 -2.1104522705  0.2390966909
H  -2.1025483243 -1.5258900062 -1.2678008374
H  -0.4067442224  2.5827237374  0.9920567086
H  -1.5936262124  1.3610596455  1.6972534532
H   2.7478963438  0.2928771035  1.5152153271
H   1.7131399860  0.7351043472 -2.0298145606
H   2.4308084494 -1.4068363115  1.1409648040
H   1.2654058758 -0.4413241675  2.0814625353
H   2.8278070444  1.3027538649 -0.8024796237
H   2.9511319659 -0.3625018110 -1.3800042023
22
Image 36  Energy = -383.5171626228
C  -0.7649097546 -1.1529759223  0.2980765674
C   1.2915866130  0.0385915496 -0.0292145191
C  -0.9422437077  1.6227968104  0.8559378686
C   1.9712735404 -0.4237451994  1.2461723378
C   2.2520635744  0.4369115776 -1.1273859894
N   0.3037560317 -0.9141235355 -0.5222721485
N  -1.9815638278 -1.5058029871 -0.2631293663
O  -1.5991010059  1.6443462815 -0.4062587390
H  -2.1879666124  0.8769940454 -0.4097165221
H   0.0237115536 -0.6919702343 -1.4716330625
H  -0.5875558453 -1.4632494922  1.3195700124
H   0.6164292680  0.8711714170  0.3023907381
H  -2.6116717090 -2.1094175036  0.2388510207
H  -2.1006615029 -1.5259097022 -1.2644573298
H  -0.4077871433  2.5788125500  0.9917536866
H  -1.5924790646  1.3629164115  1.6954771190
H   2.7481230233  0.2928046116  1.5151143288
H   1.7131514082  0.7348240645 -2.0298582965
H   2.4308739247 -1.4073183909  1.1408653079
H   1.2653918143 -0.4418772385  2.0808710545
H   2.8282490087  1.3026867028 -0.8024577540
H   2.9512374275 -0.3628259601 -1.3802309177
22
Image 37  Energy = -383.5178448498
C  -0.7647892093 -1.1518555218  0.3004891804
C   1.2897621391  0.0385676515 -0.0291677314
C  -0.9487719581  1.6231231060  0.8532800856
C   1.9715122913 -0.4239926505  1.2460300271
C   2.2520021099  0.4371036841 -1.1271194274
N   0.3044959890 -0.9152521279 -0.5223520405
N  -1.9837360204 -1.5035360941 -0.2632992262
O  -1.5979297810  1.6441101098 -0.4018716164
H  -2.1872864778  0.8775238356 -0.4100525721
H   0.0238922085 -0.6917903728 -1.4710733198
H  -0.5876730590 -1.4632671124  1.3180828865
H   0.6207706794  0.8729020124  0.3011078427
H  -2.6100860396 -2.1092200573  0.2388451209
H  -2.0991585077 -1.5262421055 -1.2635724875
H  -0.4088164589  2.5746175681  0.9913493481
H  -1.5920513213  1.3641655239  1.6944243182
H   2.7483427189  0.2927382951  1.5149921852
H   1.7131865874  0.7345630590 -2.0299108549
H   2.4309152685 -1.4077589295  1.1407178575
H   1.2654255890 -0.4424658297  2.0803451836
H   2.8287009874  1.3026642403 -0.8024121697
H   2.9511992799 -0.3630584283 -1.3803671910
22
Image 38  Energy = -383.5183597104
C  -0.7653018007 -1.1505253257  0.3018604450
C   1.2885897652  0.0386036201 -0.0291487937
C  -0.9542569936  1.6239541786  0.8515237708
C   1.9716794630 -0.4242150698  1.2458469326
C   2.2519025772  0.4371910699 -1.1268585112
N   0.3052473718 -0.9164952859 -0.5224577059
N  -1.9852741601 -1.5008701330 -0.2628777438
O  -1.5973803007  1.6439035342 -0.3987208490
H  -2.1867279950  0.8778699376 -0.4104201410
H   0.0240177202 -0.6916162142 -1.4705361469
H  -0.5876587936 -1.4636176621  1.3173978109
H   0.6249908424  0.8746307904  0.2998233971
H  -2.6087851493 -2.1092695244  0.2388950387
H  -2.0977235809 -1.5266866675 -1.2631352234
H  -0.4096800813  2.5706028237  0.9909092836
H  -1.5921119008  1.3650325737  1.6938504505
H   2.7485382239  0.2926574660  1.5148557794
H   1.7132390396  0.7343149089 -2.0299550177
H   2.4309346310 -1.4081566947  1.1405356136
H   1.2654736754 -0.4430707586  2.0798769613
H   2.8291282934  1.3026353237 -0.8023566327
H   2.9510661650 -0.3632330359 -1.3804433194
22
Image 39  Energy = -383.5187850920
C  -0.7659134258 -1.1490734838  0.3029182279
C   1.2878566803  0.0386473448 -0.0291419722
C  -0.9590359874  1.6249359210  0.8504249622
C   1.9718258308 -0.4244239310  1.2456492847
C   2.2518233718  0.4372260477 -1.1266332288
N   0.3059527094 -0.9177735985 -0.5225850150
N  -1.9867179357 -1.4980712285 -0.2623710674
O  -1.5972619159  1.6437921884 -0.3965098981
H  -2.1863079265  0.8780248362 -0.4108089765
H   0.0241161899 -0.6914415467 -1.4700353085
H  -0.5876059324 -1.4641290403  1.3170495920
H   0.6290758108  0.8763469685  0.2985410011
H  -2.6075979292 -2.1094152468  0.2389428502
H  -2.0963098932 -1.5271996295 -1.2627977726
H  -0.4103318647  2.5669214585  0.9904711663
H  -1.5925371817  1.3656282102  1.6936291215
H   2.7487103940  0.2925579352  1.5147116901
H   1.7133020790  0.7340768761 -2.0299862319
H   2.4309368707 -1.4085155202  1.1403252345
H   1.2655280479 -0.4436824731  2.0794516660
H   2.8295243507  1.3025842826 -0.8023001667
H   2.9508746669 -0.3633765165 -1.3804797631
22
Image 40  Energy = -383.5159786601
C  -0.7686747853 -1.1528087921  0.2918942645
C   1.2943104155  0.0387931007 -0.0295785507
C  -0.9341078790  1.6213958356  0.8587393598
C   1.9707617410 -0.4233539887  1.2462426515
C   2.2518877664  0.4365370368 -1.1274886900
N   0.3039640410 -0.9129508166 -0.5219180704
N  -1.9754430299 -1.5051989326 -0.2588009598
O  -1.6011839667  1.6444617725 -0.4117430887
H  -2.1889252034  0.8766244683 -0.4097191805
H   0.0232036755 -0.6920431238 -1.4722372772
H  -0.5873116997 -1.4628809853  1.3232532019
H   0.6119384888  0.8697998898  0.3039329603
H  -2.6140852920 -2.1099492277  0.2389368918
H  -2.1023908564 -1.5257965854 -1.2673484687
H  -0.4070243522  2.5802415510  0.9917821466
H  -1.5931347702  1.3606285243  1.6970118422
H   2.7478635406  0.2928895525  1.5152353059
H   1.7131589603  0.7350930800 -2.0297734299
H   2.4307411853 -1.4067048116  1.1409309206
H   1.2655182679 -0.4413360356  2.0815849290
H   2.8278005303  1.3027069479 -0.8025414193
H   2.9510402290 -0.3625086020 -1.3799299563
22
Image 41  Energy = -383.5172374172
C  -0.7647594046 -1.1517234483  0.2982465774
C   1.2915889221  0.0387071844 -0.0292701060
C  -0.9420449546  1.6203749780  0.8552915801
C   1.9712011499 -0.4236342386  1.2461467361
C   2.2520271688  0.4369240018 -1.1273430794
N   0.3039293933 -0.9140170869 -0.5222318622
N  -1.9814927341 -1.5046924821 -0.2627320161
O  -1.5993289608  1.6443821394 -0.4061726561
H  -2.1882315994  0.8772665002 -0.4100248741
H   0.0236277491 -0.6918518836 -1.4715814297
H  -0.5878710322 -1.4620497814  1.3195681317
H   0.6163525336  0.8714935827  0.3026481400
H  -2.6114883328 -2.1089087948  0.2387295970
H  -2.1004877994 -1.5257918743 -1.2640461642
H  -0.4079986462  2.5763547538  0.9914926147
H  -1.5920809752  1.3624253541  1.6952874019
H   2.7480936755  0.2928231947  1.5151326105
H   1.7131665477  0.7348156841 -2.0298237448
H   2.4308087876 -1.4071917830  1.1408296725
H   1.2654954553 -0.4418841229  2.0809895397
H   2.8282496477  1.3026528746 -0.8025126299
H   2.9511504182 -0.3628348941 -1.3801586525
22
Image 42  Energy = -383.5179008898
C  -0.7646952976 -1.1505980761  0.3005999191
C   1.2898077137  0.0386876417 -0.0292132264
C  -0.9484869203  1.6207223245  0.8527260213
C   1.9714484583 -0.4238847265  1.2460093148
C   2.2519813637  0.4371136241 -1.1270918936
N   0.3046293067 -0.9151044951 -0.5222946844
N  -1.9836715498 -1.5024374424 -0.2629171442
O  -1.5982195022  1.6441286067 -0.4018896297
H  -2.1876043192  0.8777569745 -0.4103995266
H   0.0238201035 -0.6916740478 -1.4710122630
H  -0.5879624787 -1.4620683308  1.3181389214
H   0.6206816791  0.8731828618  0.3013467550
H  -2.6098850330 -2.1086990221  0.2387580385
H  -2.0989681506 -1.5261001572 -1.2631762951
H  -0.4089565300  2.5721999403  0.9911045822
H  -1.5917276068  1.3636313878  1.6942700290
H   2.7483166079  0.2927617690  1.5150096730
H   1.7131983822  0.7345570955 -2.0298819649
H   2.4308527116 -1.4076370827  1.1406812702
H   1.2655209900 -0.4424671804  2.0804588046
H   2.8287070425  1.3026395570 -0.8024625400
H   2.9511200390 -0.3630713648 -1.3802987742
22
Image 43  Energy = -383.5184051706
C  -0.7652414188 -1.1492663204  0.3019506500
C   1.2886665121  0.0387241568 -0.0291874560
C  -0.9539130915  1.6215536779  0.8510356067
C   1.9716249047 -0.4241102569  1.2458317095
C   2.2518963028  0.4372007003 -1.1268434793
N   0.3053438562 -0.9163085861 -0.5223830536
N  -1.9852197867 -1.4997847935 -0.2625140745
O  -1.5977164970  1.6439075345 -0.3988120317
H  -2.1870940977  0.8780691661 -0.4108030721
H   0.0239566770 -0.6915002513 -1.4704707630
H  -0.5879308960 -1.4624108931  1.3174827722
H   0.6248904743  0.8748751457  0.3000460127
H  -2.6085684317 -2.1087366346  0.2388402084
H  -2.0975197693 -1.5265217680 -1.2627538771
H  -0.4097523369  2.5682254527  0.9906819613
H  -1.5918510491  1.3644659059  1.6937218167
H   2.7485156556  0.2926852077  1.5148732856
H   1.7132481286  0.7343109925 -2.0299309066
H   2.4308750889 -1.4080395840  1.1404987487
H   1.2655615461 -0.4430663934  2.0799851495
H   2.8291391398  1.3026177463 -0.8024040817
H   2.9509961012 -0.3632503477 -1.3803797384
22
Image 44  Energy = -383.5188242525
C  -0.7658770338 -1.1478130662  0.3030020212
C   1.2879560942  0.0387664233 -0.0291760043
C  -0.9586511932  1.6225268953  0.8499816182
C   1.9717803438 -0.4243220837  1.2456394446
C   2.2518299129  0.4372359680 -1.1266284623
N   0.3060164174 -0.9175503319 -0.5224932642
N  -1.9866707345 -1.4969988480 -0.2620227938
O  -1.5976334233  1.6437820117 -0.3966489623
H  -2.1867172985  0.8781958319 -0.4112256879
H   0.0240651835 -0.6913251078 -1.4699679853
H  -0.5878652782 -1.4629105843  1.3171508413
H   0.6289654860  0.8765588238  0.2987491046
H  -2.6073678559 -2.1088711895  0.2389180329
H  -2.0960950663 -1.5270128546 -1.2624317632
H  -0.4103424752  2.5645782010  0.9902611923
H  -1.5923308395  1.3650365171  1.6935189691
H   2.7486916795  0.2925894953  1.5147298272
H   1.7133091145  0.7340747313 -2.0299661790
H   2.4308807081 -1.4084031683  1.1402886803
H   1.2656091132 -0.4436723994  2.0795540997
H   2.8295397275  1.3025725719 -0.8023457619
H   2.9508144319 -0.3633979811 -1.3804215800
22
Image 45  Energy = -383.5243443559
C  -0.8043880175 -0.9707838932  0.3468139202
C   1.3154010444  0.0371753613 -0.0379878389
C  -1.0383498591  1.5563013347  0.8628503759
C   1.9867843592 -0.4310459556  1.2406372483
C   2.2728539444  0.4278446793 -1.1371071086
N   0.3173882382 -0.9238445733 -0.5136326535
N  -1.9821925720 -1.4443338452 -0.2465148139
O  -1.6466363396  1.6346013669 -0.3942646643
H  -2.2264637212  0.8627878692 -0.4545063667
H   0.0261751198 -0.6797864640 -1.4568504618
H  -0.5862002385 -1.4652966123  1.3207658434
H   0.7105338912  0.8863254524  0.2525308736
H  -2.5762822427 -2.0803157856  0.2588062387
H  -2.0573751445 -1.5161081868 -1.2517492117
H  -0.3991051315  2.4448834920  0.9942461305
H  -1.6939877538  1.3620899273  1.7128815147
H   2.7606016581  0.2854776648  1.5174559072
H   1.7230374664  0.7279663836 -2.0325488735
H   2.4387589234 -1.4179353087  1.1354930333
H   1.2682724518 -0.4515517671  2.0633206417
H   2.8470519628  1.2944817184 -0.8093179916
H   2.9640290985 -0.3752930122 -1.3928556724
22
Image 46  Energy = -383.5257578888
C  -0.7985168338 -0.9783673027  0.3497943101
C   1.3162164451  0.0339720142 -0.0393747743
C  -1.0418566033  1.5525402555  0.8604311738
C   1.9870146712 -0.4308401134  1.2405242547
C   2.2734164427  0.4278302810 -1.1373280125
N   0.3136440186 -0.9208026065 -0.5096300493
N  -1.9835948834 -1.4392490609 -0.2459786337
O  -1.6479680597  1.6357093910 -0.3921636315
H  -2.2265937562  0.8631417937 -0.4551769744
H   0.0265960534 -0.6795116166 -1.4564144170
H  -0.5883802604 -1.4604389529  1.3159394025
H   0.7112318464  0.8908650973  0.2527576022
H  -2.5751122599 -2.0795923388  0.2588882564
H  -2.0558432824 -1.5161835422 -1.2501499691
H  -0.3998130544  2.4402267502  0.9943974265
H  -1.6945287424  1.3630175928  1.7116433568
H   2.7610915004  0.2852433718  1.5175765032
H   1.7233935812  0.7276872866 -2.0326983792
H   2.4388931927 -1.4181549242  1.1352367293
H   1.2684948690 -0.4521144571  2.0629991913
H   2.8478071773  1.2942491409 -0.8095916917
H   2.9643150765 -0.3755882099 -1.3932156040
22
Image 47  Energy = -383.5266051472
C  -0.7951554652 -0.9839065463  0.3503526162
C   1.3163230649  0.0327241408 -0.0398212302
C  -1.0440388363  1.5491421067  0.8589278509
C   1.9873309872 -0.4309064366  1.2403329299
C   2.2739306504  0.4274076499 -1.1376988780
N   0.3111728314 -0.9180829543 -0.5072364527
N  -1.9846814927 -1.4343415833 -0.2445082493
O  -1.6498107884  1.6365600948 -0.3909883384
H  -2.2267998907  0.8634479008 -0.4559583520
H   0.0268998853 -0.6794488223 -1.4553755719
H  -0.5898484829 -1.4569767671  1.3135150154
H   0.7125862773  0.8941870900  0.2526889052
H  -2.5738156563 -2.0787171133  0.2587833684
H  -2.0542331328 -1.5162965047 -1.2488607265
H  -0.4006640704  2.4354291840  0.9945181728
H  -1.6954620111  1.3637846027  1.7107033978
H   2.7615463842  0.2850267563  1.5176546842
H   1.7237499386  0.7274255142 -2.0328621001
H   2.4390430958 -1.4183336112  1.1350529373
H   1.2686743197 -0.4526394249  2.0626861388
H   2.8484917955  1.2939985678 -0.8097944950
H   2.9646677329 -0.3758439953 -1.3936455515
22
Image 48  Energy = -383.5272396754
C  -0.7930346703 -0.9879982036  0.3499759149
C   1.3163050998  0.0323934990 -0.0398804728
C  -1.0455533618  1.5457860655  0.8579403609
C   1.9876335924 -0.4310425573  1.2401395078
C   2.2743608443  0.4268829057 -1.1380479087
N   0.3095235934 -0.9156902036 -0.5056564442
N  -1.9858018178 -1.4296824982 -0.2431169348
O  -1.6518383722  1.6373558636 -0.3903390497
H  -2.2271589850  0.8636124000 -0.4568251516
H   0.0270788787 -0.6794292052 -1.4542732954
H  -0.5908984339 -1.4543110706  1.3124468511
H   0.7141695670  0.8969355959  0.2525185388
H  -2.5724833128 -2.0777984785  0.2586623099
H  -2.0525822700 -1.5163959851 -1.2474992593
H  -0.4014799354  2.4307158484  0.9946366119
H  -1.6966445829  1.3644462163  1.7099635608
H   2.7619652378  0.2848024148  1.5177038728
H   1.7241062538  0.7271707976 -2.0330450962
H   2.4392123471 -1.4185192969  1.1348852934
H   1.2688497772 -0.4531422938  2.0623775325
H   2.8491022771  1.2936776886 -0.8099875197
H   2.9650754118 -0.3761296541 -1.3941131500
22
Image 49  Energy = -383.5277726597
C  -0.7915800998 -0.9910342714  0.3493388897
C   1.3163352599  0.0325237322 -0.0397777922
C  -1.0467131075  1.5423556625  0.8572280473
C   1.9879132199 -0.4311872560  1.2399637202
C   2.2747369702  0.4263484388 -1.1383515597
N   0.3084043830 -0.9135825471 -0.5045253898
N  -1.9869993568 -1.4252562373 -0.2419062579
O  -1.6539311771  1.6381199854 -0.3899794024
H  -2.2276551446  0.8636604546 -0.4577633428
H   0.0271595679 -0.6793913281 -1.4532839378
H  -0.5917026072 -1.4521029961  1.3121247265
H   0.7158174441  0.8993689324  0.2523175638
H  -2.5711448361 -2.0768607452  0.2585607080
H  -2.0509278108 -1.5164803413 -1.2461203069
H  -0.4022026100  2.4261414411  0.9947660614
H  -1.6980021569  1.3650309490  1.7093694080
H   2.7623537369  0.2845645152  1.5177362882
H   1.7244620187  0.7269183700 -2.0332397299
H   2.4393925460 -1.4187127489  1.1347128698
H   1.2690266036 -0.4536281174  2.0620789648
H   2.8496548804  1.2932908535 -0.8101893210
H   2.9655094153 -0.3764468968 -1.3945941341
22
Image 50  Energy = -383.5251230758
C  -0.7758861001 -1.0887107524  0.3273319344
C   1.3025780269  0.0404023341 -0.0326045687
C  -1.0119571012  1.5696236905  0.8445450902
C   1.9817826832 -0.4256577312  1.2444138856
C   2.2641098413  0.4308877157 -1.1324435727
N   0.3048606646 -0.9085930037 -0.5114073417
N  -2.0028636465 -1.4276954022 -0.2431485334
O  -1.6402705992  1.6396653052 -0.3906020472
H  -2.2196620835  0.8684877933 -0.4437322756
H   0.0258019982 -0.6830103564 -1.4610318011
H  -0.5983973638 -1.4411250397  1.3231130258
H   0.6895780564  0.9116952889  0.2756224459
H  -2.5867129225 -2.0877755106  0.2484260847
H  -2.0653215626 -1.5223935368 -1.2483955552
H  -0.3948987945  2.4623527857  0.9949935266
H  -1.6501306399  1.3449301883  1.6905038396
H   2.7611955979  0.2871640482  1.5193905683
H   1.7240207011  0.7294004838 -2.0346339599
H   2.4366079008 -1.4116281433  1.1355277728
H   1.2702852493 -0.4509585327  2.0733486492
H   2.8457442423  1.2954211238 -0.8108642238
H   2.9594427684 -0.3688428554 -1.3898872530
22
Image 51  Energy = -383.5254130800
C  -0.7761883419 -1.0853336503  0.3258588255
C   1.3022670182  0.0416277552 -0.0321842725
C  -1.0142210670  1.5682010305  0.8455840885
C   1.9820797044 -0.4259272696  1.2441017338
C   2.2646628815  0.4306653371 -1.1328520439
N   0.3052862816 -0.9090573606 -0.5111892882
N  -2.0042639664 -1.4254968886 -0.2432374843
O  -1.6413189461  1.6401108182 -0.3913041328
H  -2.2199176078  0.8681916955 -0.4442118340
H   0.0256660567 -0.6828650487 -1.4601920589
H  -0.5979802767 -1.4419722177  1.3247029713
H   0.6923390185  0.9116518310  0.2744494826
H  -2.5854587570 -2.0871942998  0.2481380826
H  -2.0639138593 -1.5227880417 -1.2470340003
H  -0.3954280497  2.4598470153  0.9946482771
H  -1.6516003702  1.3452489306  1.6910934130
H   2.7612074230  0.2869664056  1.5192602710
H   1.7240628407  0.7291761181 -2.0345767843
H   2.4366290410 -1.4118616153  1.1352869493
H   1.2704204331 -0.4513761031  2.0729701935
H   2.8460242739  1.2952108468 -0.8108214682
H   2.9595531867 -0.3693853955 -1.3900252321
22
Image 52  Energy = -383.5256489849
C  -0.7766419984 -1.0824882403  0.3259214036
C   1.3024752318  0.0422520868 -0.0320644975
C  -1.0162931235  1.5668388067  0.8460925406
C   1.9822969999 -0.4261035058  1.2438488474
C   2.2650992487  0.4304655574 -1.1331127316
N   0.3057834908 -0.9093215211 -0.5111326203
N  -2.0052600772 -1.4230606021 -0.2430749536
O  -1.6423565235  1.6404496035 -0.3916908154
H  -2.2202040622  0.8679314836 -0.4447625732
H   0.0255699555 -0.6826885383 -1.4595073948
H  -0.5977666180 -1.4424159637  1.3252642831
H   0.6947535652  0.9119930107  0.2734107609
H  -2.5843122907 -2.0867245905  0.2479676898
H  -2.0626104304 -1.5232263375 -1.2461477245
H  -0.3959177298  2.4573289498  0.9943691855
H  -1.6533023998  1.3455090532  1.6918551792
H   2.7612529003  0.2867737716  1.5191507904
H   1.7241153471  0.7289638128 -2.0345567752
H   2.4366572101 -1.4121063425  1.1350033337
H   1.2705772999 -0.4517937733  2.0725959595
H   2.8463296812  1.2949998851 -0.8108114619
H   2.9596612395 -0.3699367135 -1.3901527365
22
Image 53  Energy = -383.5258716772
C  -0.7770610429 -1.0798242091  0.3264455691
C   1.3029008905  0.0425649355 -0.0321068149
C  -1.0182735554  1.5654796178  0.8463714893
C   1.9825053320 -0.4262581443  1.2436224041
C   2.2655177024  0.4302628639 -1.1333236452
N   0.3062033240 -0.9095023504 -0.5109649310
N  -2.0060847970 -1.4205596946 -0.2427513064
O  -1.6433999437  1.6407191462 -0.3918934775
H  -2.2205296917  0.8676783867 -0.4453711871
H   0.0254774846 -0.6824759109 -1.4589508473
H  -0.5976422855 -1.4426994615  1.3254570326
H   0.6969670515  0.9125297279  0.2724479674
H  -2.5832059247 -2.0862708810  0.2478393852
H  -2.0613393399 -1.5236717048 -1.2454768578
H  -0.3963617237  2.4548166087  0.9941360268
H  -1.6551044208  1.3457427096  1.6926437136
H   2.7613256210  0.2865870563  1.5190598727
H   1.7241787535  0.7287568193 -2.0345508736
H   2.4366865847 -1.4123416854  1.1346994549
H   1.2707315048 -0.4522067367  2.0722337091
H   2.8466538731  1.2947865517 -0.8108252071
H   2.9597615180 -0.3704737541 -1.3902757864
22
Image 54  Energy = -383.5260887927
C  -0.7774327634 -1.0772374341  0.3271314224
C   1.3034165237  0.0427156723 -0.0322246352
C  -1.0201865648  1.5640936279  0.8465571798
C   1.9827241903 -0.4264100737  1.2434111229
C   2.2659426118  0.4300457334 -1.1335257464
N   0.3065305997 -0.9096174091 -0.5107145737
N  -2.0068134815 -1.4180468216 -0.2423612170
O  -1.6444648262  1.6409407273 -0.3919892000
H  -2.2208957693  0.8674218248 -0.4460288426
H   0.0253897127 -0.6822435728 -1.4584555035
H  -0.5975670242 -1.4428990315  1.3254984494
H   0.6990501684  0.9131636457  0.2715314629
H  -2.5821189869 -2.0858073512  0.2477368488
H  -2.0600756545 -1.5241066282 -1.2448893559
H  -0.3967649889  2.4523113833  0.9939388874
H  -1.6569535484  1.3459643845  1.6934051721
H   2.7614214733  0.2864049795  1.5189849883
H   1.7242546880  0.7285520207 -2.0345499232
H   2.4367194476 -1.4125675999  1.1343854832
H   1.2708775699 -0.4526132333  2.0718814017
H   2.8469928956  1.2945695489 -0.8108566836
H   2.9598606471 -0.3709945007 -1.3904010488
22
Image 55  Energy = -383.5258758697
C  -0.7770723827 -1.1085189983  0.3372245141
C   1.3002028061  0.0428046704 -0.0326533860
C  -1.0893133201  1.6733349949  0.8603103522
C   1.9882593089 -0.4322329144  1.2401240284
C   2.2702450717  0.4244711794 -1.1347233904
N   0.3202485670 -0.9358316882 -0.5175124663
N  -2.0252509421 -1.4192869392 -0.2459611734
O  -1.6495775529  1.6541921734 -0.3756538898
H  -2.1991850331  0.8566132902 -0.4293081255
H   0.0237120782 -0.6826726163 -1.4551849187
H  -0.5941505864 -1.5139223959  1.3242598258
H   0.7587853067  0.9404408584  0.2469016440
H  -2.5820383353 -2.1076939775  0.2367574250
H  -2.0504410789 -1.5485558713 -1.2442486037
H  -0.4120559325  2.5141220300  1.0001556587
H  -1.6952479166  1.3766883844  1.7020407402
H   2.7682738049  0.2781693874  1.5195562537
H   1.7313370957  0.7236942530 -2.0367102848
H   2.4411168559 -1.4189946322  1.1295619032
H   1.2734277819 -0.4640884518  2.0640360261
H   2.8553968845  1.2862975258 -0.8139561086
H   2.9632343033 -0.3753904466 -1.3965494530
22
Image 56  Energy = -383.5262440635
C  -0.7773913272 -1.1084411221  0.3364467469
C   1.3039427273  0.0411034813 -0.0338297770
C  -1.0884276971  1.6730206391  0.8636604604
C   1.9881200305 -0.4321655543  1.2397667186
C   2.2709035791  0.4238110131 -1.1351665884
N   0.3184091612 -0.9342367718 -0.5152892436
N  -2.0240357592 -1.4159207825 -0.2439758584
O  -1.6521059329  1.6538333937 -0.3791935482
H  -2.1991474412  0.8567817998 -0.4295091377
H   0.0235685841 -0.6826317487 -1.4545208787
H  -0.5941599037 -1.5140182753  1.3232504412
H   0.7576101903  0.9418462347  0.2470456400
H  -2.5814351734 -2.1075252126  0.2364934946
H  -2.0493073758 -1.5495850834 -1.2448934464
H  -0.4131583135  2.5128803987  0.9999280856
H  -1.6965054497  1.3767395900  1.7028690274
H   2.7682439104  0.2780353102  1.5194711572
H   1.7312711216  0.7235709032 -2.0367927132
H   2.4410007626 -1.4190479559  1.1289202665
H   1.2736049366 -0.4644949542  2.0641301846
H   2.8557563253  1.2862424298 -0.8138778899
H   2.9631498274 -0.3761579166 -1.3964665732
22
Image 57  Energy = -383.5264172871
C  -0.7773159941 -1.1081717701  0.3364487296
C   1.3060182166  0.0405561709 -0.0343202100
C  -1.0884834521  1.6721195097  0.8648710312
C   1.9882714534 -0.4322772016  1.2395277254
C   2.2717116108  0.4232560951 -1.1357747644
N   0.3171102350 -0.9326170972 -0.5138876277
N  -2.0237900680 -1.4132859137 -0.2432561992
O  -1.6534288960  1.6541023151 -0.3808498346
H  -2.1995154092  0.8563929915 -0.4297610985
H   0.0234665275 -0.6826463486 -1.4536835937
H  -0.5941738753 -1.5140756513  1.3223097977
H   0.7571113053  0.9423640575  0.2469131811
H  -2.5805511295 -2.1070225762  0.2361642651
H  -2.0481113523 -1.5503772606 -1.2446030664
H  -0.4139647352  2.5120713368  0.9998324788
H  -1.6978607077  1.3768124101  1.7038312766
H   2.7682240403  0.2778869039  1.5193976236
H   1.7312367230  0.7234118449 -2.0368249604
H   2.4409174133 -1.4190988602  1.1283518550
H   1.2737492360 -0.4648661604  2.0641184990
H   2.8560729893  1.2860699734 -0.8138429172
H   2.9632126514 -0.3769649527 -1.3964956212
22
Image 58  Energy = -383.5265480733
C  -0.7772135563 -1.1077300481  0.3366217339
C   1.3073191892  0.0404641979 -0.0345557651
C  -1.0888750145  1.6710380657  0.8653762931
C   1.9884980032 -0.4324292050  1.2393600213
C   2.2724861620  0.4227847287 -1.1363565311
N   0.3161974177 -0.9310554716 -0.5127990421
N  -2.0238899050 -1.4109503064 -0.2428605847
O  -1.6544498122  1.6543607262 -0.3817491214
H  -2.1999146163  0.8559898724 -0.4300528945
H   0.0233397069 -0.6826452353 -1.4528889877
H  -0.5941633323 -1.5141774655  1.3215633216
H   0.7569285709  0.9425547122  0.2466831269
H  -2.5795749847 -2.1063758263  0.2358199573
H  -2.0468877981 -1.5510783081 -1.2440977867
H  -0.4146977896  2.5113615206  0.9997934827
H  -1.6991925026  1.3769323165  1.7047103847
H   2.7682358935  0.2777388446  1.5193428064
H   1.7312311304  0.7232335343 -2.0368520726
H   2.4408727477 -1.4191843572  1.1278151456
H   1.2738960784 -0.4652203754  2.0640374159
H   2.8563884127  1.2858347113 -0.8138500871
H   2.9633727819 -0.3778068147 -1.3965942458
22
Image 59  Energy = -383.5266621948
C  -0.7771471460 -1.1071533895  0.3368517959
C   1.3082346015  0.0405654809 -0.0346830157
C  -1.0894014172  1.6699076846  0.8656260017
C   1.9887370351 -0.4325802070  1.2392272161
C   2.2731871622  0.4223592068 -1.1368686443
N   0.3155270804 -0.9295864815 -0.5118855899
N  -2.0241149704 -1.4087551528 -0.2425820499
O  -1.6553770689  1.6545333660 -0.3822717028
H  -2.2003025937  0.8556320887 -0.4303790657
H   0.0231875253 -0.6826141104 -1.4521727884
H  -0.5941329902 -1.5143218791  1.3209819323
H   0.7569102758  0.9426378438  0.2464248026
H  -2.5785858047 -2.1056738232  0.2354956348
H  -2.0456533290 -1.5517297978 -1.2435532460
H  -0.4154263290  2.5106471249  0.9997807560
H  -1.7004783060  1.3770947229  1.7054695688
H   2.7682808566  0.2775943257  1.5193068472
H   1.7312521984  0.7230430114 -2.0368862036
H   2.4408587346 -1.4193004540  1.1272949133
H   1.2740489061 -0.4655651642  2.0639152975
H   2.8567171480  1.2855635280 -0.8138926924
H   2.9635852123 -0.3786581082 -1.3967331956
22
Image 60  Energy = -383.5250252424
C  -0.7660090595 -1.1814172188  0.3234934425
C   1.3006863313  0.0405059542 -0.0322828901
C  -1.0824479557  1.7417722363  0.8707034849
C   1.9850688229 -0.4326897232  1.2395554311
C   2.2680517787  0.4230658675 -1.1343379023
N   0.3153392732 -0.9355857885 -0.5167001505
N  -2.0296329420 -1.4315230570 -0.2502551675
O  -1.6379040200  1.6617199319 -0.3811772510
H  -2.1762834481  0.8565630485 -0.4064266481
H   0.0213122754 -0.6876228908 -1.4550877946
H  -0.5910379416 -1.5455357150  1.3177396000
H   0.7435131106  0.9444654822  0.2546338160
H  -2.5898184011 -2.1251399312  0.2234343835
H  -2.0561834562 -1.5668906031 -1.2496258804
H  -0.4274491627  2.5874717608  1.0003592935
H  -1.6773351486  1.3910379855  1.7050893380
H   2.7654237140  0.2773482992  1.5179845947
H   1.7292517209  0.7235093032 -2.0364420976
H   2.4390923007 -1.4183938662  1.1262243208
H   1.2737512519 -0.4669900244  2.0671216185
H   2.8528495564  1.2856947589 -0.8116899397
H   2.9596680880 -0.3777260218 -1.3938469460
22
Image 61  Energy = -383.5252095671
C  -0.7668955984 -1.1794471465  0.3225811417
C   1.3004260888  0.0415092781 -0.0319379321
C  -1.0861618455  1.7392833794  0.8705396469
C   1.9853117495 -0.4329326913  1.2394984127
C   2.2684806784  0.4228345457 -1.1346510636
N   0.3155531409 -0.9349539424 -0.5163711418
N  -2.0291932262 -1.4289928922 -0.2491509897
O  -1.6375946850  1.6620434177 -0.3804997999
H  -2.1763006860  0.8562710474 -0.4063798936
H   0.0210392555 -0.6876219802 -1.4544774781
H  -0.5905975097 -1.5467186726  1.3183481905
H   0.7443512752  0.9435941093  0.2539426241
H  -2.5891765453 -2.1248953055  0.2231556328
H  -2.0550685420 -1.5678971945 -1.2500374285
H  -0.4274856430  2.5883517162  1.0002410309
H  -1.6772075277  1.3917151504  1.7051092182
H   2.7654267585  0.2772621713  1.5179277015
H   1.7292330688  0.7232997335 -2.0364267153
H   2.4390499208 -1.4185539955  1.1256764608
H   1.2738802341 -0.4673626183  2.0669684907
H   2.8531103680  1.2854200520 -0.8117156439
H   2.9597259602 -0.3785683732 -1.3938738091
22
Image 62  Energy = -383.5253116937
C  -0.7671804613 -1.1776667961  0.3228183004
C   1.3005415951  0.0420349403 -0.0317853185
C  -1.0881101552  1.7383163837  0.8705042318
C   1.9854790910 -0.4330764711  1.2394267169
C   2.2688229628  0.4225962613 -1.1348565320
N   0.3156541944 -0.9343847651 -0.5161179802
N  -2.0293778519 -1.4268514251 -0.2489257569
O  -1.6378450247  1.6619275040 -0.3802477214
H  -2.1762564331  0.8561650287 -0.4064690723
H   0.0208042977 -0.6875736407 -1.4539875208
H  -0.5902845045 -1.5476565770  1.3183347697
H   0.7449652395  0.9431425589  0.2533915194
H  -2.5883815613 -2.1244624346  0.2228608283
H  -2.0539362817 -1.5687663010 -1.2498994801
H  -0.4282291682  2.5882369801  1.0000616035
H  -1.6776346727  1.3920867520  1.7056114970
H   2.7654550394  0.2771712688  1.5178900992
H   1.7292322908  0.7230927608 -2.0364317051
H   2.4390183254 -1.4187292172  1.1251121154
H   1.2740209319 -0.4677400017  2.0668244232
H   2.8533994057  1.2851494412 -0.8117656981
H   2.9597494321 -0.3793724613 -1.3938826644
22
Image 63  Energy = -383.5254014926
C  -0.7673385484 -1.1759643314  0.3233103731
C   1.3008148418  0.0423204766 -0.0317445603
C  -1.0894872696  1.7378063603  0.8705539152
C   1.9856280351 -0.4331927729  1.2393430005
C   2.2691407542  0.4223444574 -1.1350191793
N   0.3156970532 -0.9338650359 -0.5158158408
N  -2.0296937200 -1.4248714534 -0.2488456856
O  -1.6382238217  1.6617774191 -0.3801396581
H  -2.1762799140  0.8559958654 -0.4066158140
H   0.0205751911 -0.6874878293 -1.4535809952
H  -0.5900163816 -1.5485197863  1.3181524415
H   0.7454672137  0.9429220551  0.2529204838
H  -2.5875378571 -2.1239348433  0.2225584412
H  -2.0527907939 -1.5695826040 -1.2496582386
H  -0.4291579659  2.5878435224  0.9998721557
H  -1.6782447741  1.3923591047  1.7062311335
H   2.7655021390  0.2770771779  1.5178666851
H   1.7292482397  0.7228837502 -2.0364406893
H   2.4389905947 -1.4188963892  1.1245470180
H   1.2741612549 -0.4681171795  2.0666875873
H   2.8537069482  1.2848759396 -0.8118344852
H   2.9597454713 -0.3801341149 -1.3938814351
22
Image 64  Energy = -383.5254863367
C  -0.7674806357 -1.1743134541  0.3238646236
C   1.3011454440  0.0424923831 -0.0317564940
C  -1.0906485063  1.7374394476  0.8706582945
C   1.9857768198 -0.4333027920  1.2392513495
C   2.2694512099  0.4220799215 -1.1351669717
N   0.3156963161 -0.9333812154 -0.5154909206
N  -2.0300123666 -1.4229778667 -0.2487923721
O  -1.6386486881  1.6616392481 -0.3800836540
H  -2.1763602630  0.8557629864 -0.4067943496
H   0.0203527395 -0.6873780985 -1.4532153719
H  -0.5897729163 -1.5493486529  1.3179122584
H   0.7459149643  0.9428334560  0.2524981609
H  -2.5866875482 -2.1233587496  0.2222671645
H  -2.0516351009 -1.5703629824 -1.2493910239
H  -0.4301199910  2.5873802889  0.9996911012
H  -1.6789272723  1.3925942302  1.7068623550
H   2.7655639469  0.2769794156  1.5178540022
H   1.7292803556  0.7226709145 -2.0364479234
H   2.4389672333 -1.4190530792  1.1239874749
H   1.2742988570 -0.4684922511  2.0665534877
H   2.8540277279  1.2845960742 -0.8119179487
H   2.9597243643 -0.3808594351 -1.3938765878
22
Image 65  Energy = -383.5253753695
C  -0.7585940114 -1.2369408391  0.3188615770
C   1.2987517651  0.0420806183 -0.0314600261
C  -1.1275642878  1.8439089871  0.8851231330
C   1.9857670552 -0.4376329172  1.2363063505
C   2.2705085177  0.4170309830 -1.1358003963
N   0.3205321730 -0.9452429455 -0.5176164027
N  -2.0386478386 -1.4288189842 -0.2540677303
O  -1.6275649411  1.6754772710 -0.3734154108
H  -2.1415058023  0.8509049153 -0.3762968225
H   0.0154941407 -0.6918699468 -1.4494280655
H  -0.5824909115 -1.6195649737  1.3082382747
H   0.7598353097  0.9526849098  0.2454299138
H  -2.5894744832 -2.1467998441  0.2025070419
H  -2.0472241715 -1.6037395628 -1.2537371564
H  -0.4608037174  2.6857615040  1.0002993806
H  -1.6799342091  1.4277902446  1.7184165437
H   2.7650939027  0.2720891092  1.5158420032
H   1.7297909517  0.7190208172 -2.0362900207
H   2.4385363846 -1.4227552475  1.1155957322
H   1.2761790387 -0.4785529587  2.0643609666
H   2.8559498074  1.2786037045 -0.8109080504
H   2.9572719529 -0.3897951198 -1.3934936432
22
Image 66  Energy = -383.5254682569
C  -0.7585253186 -1.2351741511  0.3182242187
C   1.2990089795  0.0419925012 -0.0314017512
C  -1.1294742931  1.8425154421  0.8853050781
C   1.9858633008 -0.4376984072  1.2363032283
C   2.2705670253  0.4166928734 -1.1357805920
N   0.3198096275 -0.9446703854 -0.5168557874
N  -2.0384201199 -1.4279554948 -0.2543481519
O  -1.6278303623  1.6749707938 -0.3728465097
H  -2.1412420760  0.8511292651 -0.3763660192
H   0.0152522886 -0.6918013752 -1.4492367188
H  -0.5821578152 -1.6205608842  1.3082177400
H   0.7594975118  0.9525116819  0.2452608383
H  -2.5886182556 -2.1456645999  0.2024443722
H  -2.0460018748 -1.6041006633 -1.2531754362
H  -0.4617902631  2.6858661230  1.0001912713
H  -1.6794583729  1.4286768871  1.7181935696
H   2.7652527009  0.2720368916  1.5159170612
H   1.7299063015  0.7187885825 -2.0363399197
H   2.4385587085 -1.4228948128  1.1149814226
H   1.2762529685 -0.4788997894  2.0643135834
H   2.8563256777  1.2782506300 -0.8110923498
H   2.9571302862 -0.3903713841 -1.3934419564
22
Image 67  Energy = -383.5255366860
C  -0.7586337054 -1.2336543966  0.3183520004
C   1.2991743044  0.0419847942 -0.0313037045
C  -1.1305451262  1.8418507205  0.8853346461
C   1.9859889640 -0.4377846916  1.2362998898
C   2.2706477218  0.4163604449 -1.1357919056
N   0.3193449691 -0.9440150431 -0.5165003308
N  -2.0381353892 -1.4269819701 -0.2545770700
O  -1.6281110361  1.6746186514 -0.3724859566
H  -2.1411709784  0.8510793757 -0.3764832538
H   0.0150570956 -0.6917501837 -1.4489873316
H  -0.5818910019 -1.6214071519  1.3078410993
H   0.7592099531  0.9523336615  0.2451001798
H  -2.5878348153 -2.1446166163  0.2024537560
H  -2.0448145863 -1.6044888063 -1.2528276451
H  -0.4630223834  2.6856291630  1.0000658514
H  -1.6793626744  1.4292849010  1.7183839230
H   2.7653988509  0.2719675558  1.5159884218
H   1.7300252854  0.7185495918 -2.0363773101
H   2.4385793414 -1.4230124933  1.1143872268
H   1.2763290946 -0.4792456456  2.0642637189
H   2.8566857084  1.2778751603 -0.8112771064
H   2.9569870327 -0.3909372976 -1.3933919072
22
Image 68  Energy = -383.5255992972
C  -0.7587807841 -1.2322057538  0.3186946320
C   1.2992989799  0.0420192420 -0.0312194974
C  -1.1313200417  1.8414011743  0.8853473148
C   1.9861184900 -0.4378806911  1.2362924132
C   2.2707404130  0.4160446816 -1.1358099217
N   0.3189935359 -0.9433794658 -0.5162070518
N  -2.0378477479 -1.4259791241 -0.2547476965
O  -1.6284099271  1.6743461798 -0.3722561764
H  -2.1411935224  0.8508924893 -0.3766185936
H   0.0148627789 -0.6916776226 -1.4487759803
H  -0.5816458130 -1.6222121018  1.3073777035
H   0.7589582652  0.9521761442  0.2449546569
H  -2.5871038761 -2.1436073547  0.2024989634
H  -2.0436384024 -1.6048865328 -1.2525999228
H  -0.4642699189  2.6853501744  0.9999419315
H  -1.6794329597  1.4297700514  1.7187302943
H   2.7655375522  0.2718855697  1.5160578129
H   1.7301458900  0.7183059099 -2.0364083874
H   2.4386020418 -1.4231185915  1.1138089307
H   1.2764107016 -0.4795916785  2.0642124234
H   2.8570379266  1.2774853627 -0.8114640910
H   2.9568430454 -0.3914983375 -1.3933425666
22
Image 69  Energy = -383.5256588857
C  -0.7589312259 -1.2307830705  0.3191096157
C   1.2994065152  0.0420796588 -0.0311507266
C  -1.1319727994  1.8410128499  0.8853705584
C   1.9862448989 -0.4379783966  1.2362775101
C   2.2708390615  0.4157416975 -1.1358313935
N   0.3186990964 -0.9427789640 -0.5159287601
N  -2.0375699967 -1.4249730100 -0.2548929328
O  -1.6287332659  1.6741084141 -0.3721062508
H  -2.1412640810  0.8506353987 -0.3767636563
H   0.0146677486 -0.6915844038 -1.4485936071
H  -0.5814102839 -1.6230044476  1.3069002622
H   0.7587352203  0.9520464692  0.2448247458
H  -2.5864170281 -2.1426224980  0.2025696320
H  -2.0424675454 -1.6052838389 -1.2524339970
H  -0.4654740095  2.6851068484  0.9998249903
H  -1.6795946966  1.4301876607  1.7191418579
H   2.7656707274  0.2717927351  1.5161260430
H   1.7302678466  0.7180590727 -2.0364359309
H   2.4386278500 -1.4232174476  1.1132441284
H   1.2764976722 -0.4799381678  2.0641602591
H   2.8573872352  1.2770880354 -0.8116521247
H   2.9566976868 -0.3920548709 -1.3932930315
22
Image 70  Energy = -383.5255470073
C  -0.7559858788 -1.2501480484  0.3167085229
C   1.2976395921  0.0403415327 -0.0311740434
C  -1.1396796573  1.8821383588  0.8916570926
C   1.9854017881 -0.4397118530  1.2352998576
C   2.2699060665  0.4141008978 -1.1353179798
N   0.3198365761 -0.9477284544 -0.5173676620
N  -2.0350073054 -1.4378840641 -0.2600305879
O  -1.6201827377  1.6782317845 -0.3696205594
H  -2.1254353066  0.8498924302 -0.3631235746
H   0.0126901716 -0.6938517939 -1.4483721628
H  -0.5767343585 -1.6518478915  1.3004998763
H   0.7550129653  0.9492930941  0.2442843394
H  -2.5886686392 -2.1505357504  0.1961859655
H  -2.0429396864 -1.6163446731 -1.2557465032
H  -0.4806165235  2.7300575318  0.9994130459
H  -1.6747481025  1.4474684854  1.7247574635
H   2.7642630548  0.2706218257  1.5149917985
H   1.7293749262  0.7169506539 -2.0357311267
H   2.4380728040 -1.4245930157  1.1102940777
H   1.2763633831 -0.4828297635  2.0635292951
H   2.8566092627  1.2751916105 -0.8105927574
H   2.9547342447 -0.3951732042 -1.3920770054
22
Image 71  Energy = -383.5256250742
C  -0.7560490970 -1.2487938422  0.3168460221
C   1.2974767161  0.0404555959 -0.0310196121
C  -1.1413714482  1.8806986176  0.8911791988
C   1.9855170553 -0.4398288028  1.2353105107
C   2.2699155011  0.4138302313 -1.1353101929
N   0.3194867566 -0.9472725283 -0.5171147238
N  -2.0346114642 -1.4364480113 -0.2595790451
O  -1.6201519707  1.6782556818 -0.3687655737
H  -2.1253768418  0.8497225813 -0.3631520930
H   0.0125285175 -0.6937769075 -1.4481638146
H  -0.5765046858 -1.6526474612  1.3000089011
H   0.7548733276  0.9492605923  0.2441713516
H  -2.5882141211 -2.1498762409  0.1965285520
H  -2.0416626256 -1.6168308484 -1.2562874034
H  -0.4815561941  2.7301909461  0.9993053916
H  -1.6743920937  1.4482498124  1.7247545702
H   2.7644145599  0.2705155036  1.5150694148
H   1.7295223851  0.7166890609 -2.0357825803
H   2.4381185278 -1.4246737509  1.1097693556
H   1.2764360085 -0.4832042339  2.0635069870
H   2.8569664287  1.2747685579 -0.8107900433
H   2.9545413999 -0.3956448607 -1.3920177998
22
Image 72  Energy = -383.5256846452
C  -0.7560742443 -1.2475017533  0.3172087151
C   1.2973914525  0.0405585943 -0.0309022882
C  -1.1422649446  1.8799892334  0.8909644758
C   1.9856111838 -0.4399297052  1.2353107040
C   2.2699202486  0.4135607964 -1.1352921736
N   0.3192180054 -0.9468133014 -0.5169056716
N  -2.0344240743 -1.4352099186 -0.2595540226
O  -1.6204101775  1.6780679116 -0.3683495364
H  -2.1253215219  0.8495772557 -0.3632360185
H   0.0123638141 -0.6936866215 -1.4479910912
H  -0.5762766103 -1.6534168148  1.2994730504
H   0.7547301867  0.9492706320  0.2440827881
H  -2.5876881324 -2.1491101331  0.1968258663
H  -2.0403969413 -1.6172391415 -1.2564507788
H  -0.4827364265  2.7299825291  0.9991745819
H  -1.6743029013  1.4488170327  1.7250026450
H   2.7645555284  0.2703988810  1.5151434702
H   1.7296653819  0.7164297291 -2.0358368184
H   2.4381660718 -1.4247530438  1.1092514765
H   1.2765178593 -0.4835798107  2.0634865514
H   2.8573183409  1.2743455055 -0.8109840247
H   2.9543445435 -0.3961181629 -1.3919545293
22
Image 73  Energy = -383.5257396950
C  -0.7561345994 -1.2462342140  0.3176035323
C   1.2973530504  0.0406634096 -0.0308108271
C  -1.1428943359  1.8794912225  0.8908625511
C   1.9856955851 -0.4400236563  1.2353006299
C   2.2699309420  0.4132962661 -1.1352745188
N   0.3189976089 -0.9463631342 -0.5166989066
N  -2.0342962257 -1.4340779939 -0.2596327910
O  -1.6207452029  1.6778733409 -0.3681228956
H  -2.1253171961  0.8493611225 -0.3633396231
H   0.0121949314 -0.6935809929 -1.4478427642
H  -0.5760459420 -1.6541847391  1.2989554909
H   0.7545934788  0.9493070154  0.2440105052
H  -2.5871355531 -2.1482802159  0.1970856457
H  -2.0391439211 -1.6176201905 -1.2564861441
H  -0.4839322987  2.7297335522  0.9990399683
H  -1.6743351896  1.4492850225  1.7253470743
H   2.7646874863  0.2702736672  1.5152150235
H   1.7298046465  0.7161718148 -2.0358908175
H   2.4382135510 -1.4248271308  1.1087413153
H   1.2766054259 -0.4839555455  2.0634678797
H   2.8576664111  1.2739231806 -0.8111753203
H   2.9541439878 -0.3965921078 -1.3918876342
22
Image 74  Energy = -383.5257923574
C  -0.7562279421 -1.2449832606  0.3180009363
C   1.2973437195  0.0407757449 -0.0307346207
C  -1.1434188211  1.8790580180  0.8908131011
C   1.9857750082 -0.4401135717  1.2352816880
C   2.2699505350  0.4130370803 -1.1352621306
N   0.3188032850 -0.9459250397 -0.5164956394
N  -2.0341795882 -1.4330084019 -0.2597419361
O  -1.6211138275  1.6776905755 -0.3679874702
H  -2.1253517102  0.8490893513 -0.3634541831
H   0.0120260779 -0.6934625270 -1.4477065042
H  -0.5758158218 -1.6549529919  1.2984584641
H   0.7544682343  0.9493613802  0.2439500669
H  -2.5865820318 -2.1474166041  0.1973223534
H  -2.0379053124 -1.6179885334 -1.2564670685
H  -0.4850885417  2.7295189054  0.9989083713
H  -1.6744402943  1.4496932715  1.7257342790
H   2.7648120154  0.2701413004  1.5152849024
H   1.7299407386  0.7159151815 -2.0359437983
H   2.4382606030 -1.4248955920  1.1082387689
H   1.2766973195 -0.4843308055  2.0634497244
H   2.8580121789  1.2735028873 -0.8113640518
H   2.9539408167 -0.3970666742 -1.3918178785
22
Image 75  Energy = -383.5261153451
C  -0.7498009993 -1.2808192834  0.3171032881
C   1.2930411566  0.0377503906 -0.0299596656
C  -1.1803758189  1.9816508953  0.9059010797
C   1.9855039431 -0.4460544494  1.2323211551
C   2.2687582368  0.4052477541 -1.1343204721
N   0.3200953785 -0.9555205218 -0.5177181355
N  -2.0287054507 -1.4484873842 -0.2711999785
O  -1.6055459916  1.6878547297 -0.3568261787
H  -2.0851019072  0.8434502435 -0.3301398608
H   0.0052370261 -0.6976752408 -1.4445609097
H  -0.5619673223 -1.7408439796  1.2772479450
H   0.7522419930  0.9477580859  0.2386331819
H  -2.5857629635 -2.1600151186  0.1837559039
H  -2.0230222630 -1.6522587073 -1.2656402018
H  -0.5356251681  2.8412239046  0.9972470107
H  -1.6681495617  1.5003037808  1.7433252698
H   2.7639211457  0.2647473808  1.5134870809
H   1.7304007097  0.7096811496 -2.0352513994
H   2.4380494219 -1.4297462064  1.0947371273
H   1.2778232029 -0.4971339374  2.0608102811
H   2.8613931876  1.2630849898 -0.8114424879
H   2.9474986949 -0.4105588633 -1.3890421024
22
Image 76  Energy = -383.5261937362
C  -0.7497989822 -1.2798865690  0.3172412591
C   1.2931112085  0.0377123338 -0.0299809426
C  -1.1820766317  1.9796219325  0.9052504367
C   1.9854672084 -0.4461107530  1.2322892062
C   2.2686827054  0.4050335389 -1.1343189264
N   0.3197825361 -0.9551605705 -0.5172621974
N  -2.0283141522 -1.4478019885 -0.2712469067
O  -1.6055492594  1.6879467204 -0.3558537182
H  -2.0848037201  0.8436255407 -0.3299646429
H   0.0050979179 -0.6975347593 -1.4444483833
H  -0.5618225085 -1.7413064927  1.2762449489
H   0.7519158890  0.9480423808  0.2387971216
H  -2.5854878987 -2.1591309298  0.1842282434
H  -2.0217565975 -1.6524028884 -1.2655385140
H  -0.5365648541  2.8412802491  0.9970230961
H  -1.6674812624  1.5012883411  1.7430881872
H   2.7640003382  0.2645259161  1.5135662915
H   1.7305433829  0.7094266492 -2.0353658540
H   2.4381251346 -1.4297078123  1.0943666700
H   1.2779285138 -0.4975527177  2.0608971332
H   2.8617147125  1.2626334463 -0.8116199919
H   2.9471929696 -0.4109019549 -1.3889245861
22
Image 77  Energy = -383.5262471214
C  -0.7498525405 -1.2789521725  0.3174249909
C   1.2930979079  0.0378037310 -0.0299330934
C  -1.1828280413  1.9786123286  0.9048776649
C   1.9854526693 -0.4461776549  1.2322627717
C   2.2686239531  0.4048186776 -1.1343308590
N   0.3195423564 -0.9547636999 -0.5169939633
N  -2.0279929222 -1.4471516169 -0.2713073509
O  -1.6058056892  1.6878459177 -0.3554099035
H  -2.0845797122  0.8437046232 -0.3298669333
H   0.0049819728 -0.6974106581 -1.4442808672
H  -0.5616607429 -1.7418072033  1.2753535419
H   0.7516656296  0.9482432896  0.2389378134
H  -2.5851929025 -2.1582100999  0.1846626989
H  -2.0205187379 -1.6525561445 -1.2654355668
H  -0.5378080888  2.8409072091  0.9967776438
H  -1.6671339620  1.5019602222  1.7431978479
H   2.7640739423  0.2643093065  1.5136446034
H   1.7306778991  0.7091764734 -2.0354804102
H   2.4382002202 -1.4296746796  1.0940006285
H   1.2780321685 -0.4979655131  2.0609733615
H   2.8620303058  1.2621892886 -0.8117918950
H   2.9469009661 -0.4112620119 -1.3888147940
22
Image 78  Energy = -383.5262941455
C  -0.7499287598 -1.2780115032  0.3176198786
C   1.2930558082  0.0379490174 -0.0298634784
C  -1.1832707680  1.9779078309  0.9046391288
C   1.9854451986 -0.4462469365  1.2322396059
C   2.2685727483  0.4046121548 -1.1343431069
N   0.3193499718 -0.9543603167 -0.5167862610
N  -2.0277072172 -1.4465169863 -0.2713806316
O  -1.6061265473  1.6877476978 -0.3552034477
H  -2.0844412101  0.8436514645 -0.3298018501
H   0.0048692299 -0.6972801278 -1.4441196168
H  -0.5614854462 -1.7423372304  1.2745510527
H   0.7514578009  0.9484105934  0.2390688059
H  -2.5848990314 -2.1572778179  0.1850735788
H  -2.0193091450 -1.6527182517 -1.2653350171
H  -0.5390674183  2.8404977505  0.9965303862
H  -1.6669317141  1.5024894593  1.7434426817
H   2.7641449369  0.2640983616  1.5137234548
H   1.7308057499  0.7089303593 -2.0355947424
H   2.4382745598 -1.4296476868  1.0936358260
H   1.2781363840 -0.4983738207  2.0610417281
H   2.8623431659  1.2617532229 -0.8119611370
H   2.9466183526 -0.4116376216 -1.3887089090
22
Image 79  Energy = -383.5263378008
C  -0.7500122760 -1.2770687183  0.3178262400
C   1.2930074834  0.0381182320 -0.0297870254
C  -1.1835937601  1.9773057285  0.9044682509
C   1.9854411555 -0.4463158636  1.2322174964
C   2.2685272641  0.4044133617 -1.1343537474
N   0.3191874352 -0.9539590966 -0.5166063282
N  -2.0274420829 -1.4458894465 -0.2714653779
O  -1.6064777793  1.6876605084 -0.3551126238
H  -2.0843607588  0.8435092335 -0.3297594276
H   0.0047569543 -0.6971383524 -1.4439747748
H  -0.5613010660 -1.7428870579  1.2738155423
H   0.7512779153  0.9485647743  0.2391955171
H  -2.5846141631 -2.1563435960  0.1854669052
H  -2.0181274152 -1.6528891362 -1.2652394100
H  -0.5402736750  2.8401473281  0.9962886199
H  -1.6668160964  1.5029334824  1.7437504470
H   2.7642142190  0.2638929382  1.5138034200
H   1.7309280701  0.7086881436 -2.0357080412
H   2.4383475605 -1.4296257651  1.0932712594
H   1.2782411682 -0.4987781928  2.0611041068
H   2.8626551086  1.2613262041 -0.8121284951
H   2.9463413881 -0.4120250967 -1.3886046236
22
Image 80  Energy = -383.5267067175
C  -0.7450348039 -1.3033540951  0.3200349534
C   1.2868341755  0.0346584020 -0.0285471674
C  -1.2247407930  2.0816804601  0.9183724069
C   1.9848696410 -0.4533754483  1.2291369807
C   2.2656294065  0.3949465480 -1.1326999006
N   0.3194228742 -0.9636779805 -0.5177766515
N  -2.0160191018 -1.4662866538 -0.2860716846
O  -1.5901147107  1.6972760779 -0.3397318445
H  -2.0401074578  0.8368190759 -0.2934177853
H  -0.0027742510 -0.7005185701 -1.4410724918
H  -0.5440784010 -1.8402881935  1.2431722637
H   0.7447758149  0.9457883038  0.2349518221
H  -2.5836823030 -2.1627576542  0.1779155614
H  -1.9940556431 -1.6878313679 -1.2774856735
H  -0.6032694541  2.9607543339  0.9931104401
H  -1.6577724985  1.5635543584  1.7641711036
H   2.7637912618  0.2565371169  1.5126681881
H   1.7324753917  0.7002339847 -2.0358410934
H   2.4391557272 -1.4346168093  1.0771182390
H   1.2795291869 -0.5149245450  2.0586725409
H   2.8682422324  1.2468114098 -0.8135707100
H   2.9368303641 -0.4277892351 -1.3846409629
22
Image 81  Energy = -383.5268011338
C  -0.7447933554 -1.3032105147  0.3203701004
C   1.2870954483  0.0346688799 -0.0286066407
C  -1.2264660062  2.0791668158  0.9175462554
C   1.9847477417 -0.4534105375  1.2290761774
C   2.2656278894  0.3948201289 -1.1328131741
N   0.3191990191 -0.9631929599 -0.5172724207
N  -2.0155876747 -1.4657503785 -0.2858234602
O  -1.5899540792  1.6977663559 -0.3386937785
H  -2.0396461349  0.8373453847 -0.2929152691
H  -0.0028753579 -0.7003444051 -1.4408346456
H  -0.5440813097 -1.8400463933  1.2415661952
H   0.7445457604  0.9460104865  0.2352215939
H  -2.5836613866 -2.1619020771  0.1781300766
H  -1.9930764903 -1.6880369055 -1.2772217405
H  -0.6043204070  2.9603845401  0.9925637725
H  -1.6569552911  1.5646385041  1.7638794092
H   2.7637391671  0.2562747537  1.5127279985
H   1.7325058595  0.7000532635 -2.0360132539
H   2.4392026231 -1.4344976038  1.0769062290
H   1.2796761984 -0.5153751356  2.0588161788
H   2.8684754372  1.2464714301 -0.8136477313
H   2.9365090094 -0.4281941141 -1.3844933373
22
Image 82  Energy = -383.5268573227
C  -0.7446439998 -1.3028879467  0.3204270966
C   1.2872217418  0.0348021427 -0.0285918389
C  -1.2272116542  2.0778941017  0.9170689235
C   1.9846671133 -0.4534610749  1.2290329822
C   2.2656332438  0.3946848690 -1.1329262242
N   0.3190273074 -0.9627038247 -0.5169124111
N  -2.0152072233 -1.4652189008 -0.2856583190
O  -1.5900923218  1.6979062002 -0.3382793937
H  -2.0392512863  0.8377770387 -0.2925284647
H  -0.0029664817 -0.7001825099 -1.4405575173
H  -0.5440017403 -1.8400049557  1.2403409683
H   0.7443971728  0.9461607030  0.2354644098
H  -2.5836397682 -2.1610479174  0.1783510286
H  -1.9921123377 -1.6882315331 -1.2769206983
H  -0.6056635561  2.9595858165  0.9920247496
H  -1.6564615912  1.5653407065  1.7639691115
H   2.7636957154  0.2560293931  1.5127946293
H   1.7325389158  0.6998735753 -2.0361774732
H   2.4392538879 -1.4343965476  1.0766914218
H   1.2798114793 -0.5158144622  2.0589442042
H   2.8687101965  1.2461372571 -0.8137297391
H   2.9362018469 -0.4286026124 -1.3843589106
22
Image 83  Energy = -383.5269021126
C  -0.7445388304 -1.3024821969  0.3204021835
C   1.2872872586  0.0349832288 -0.0285432482
C  -1.2276385096  2.0770074060  0.9167557450
C   1.9846057522 -0.4535165107  1.2290022716
C   2.2656337784  0.3945504614 -1.1330263277
N   0.3189050948 -0.9622191251 -0.5166449316
N  -2.0148834879 -1.4646936534 -0.2855572490
O  -1.5903082968  1.6979993857 -0.3381415682
H  -2.0389581869  0.8380361792 -0.2922007593
H  -0.0030545603 -0.7000146527 -1.4402917818
H  -0.5438750036 -1.8400730552  1.2393358708
H   0.7442915326  0.9462890879  0.2356944456
H  -2.5836130537 -2.1601928278  0.1785757165
H  -1.9911699166 -1.6884227790 -1.2766195896
H  -0.6069959063  2.9587938012  0.9915045318
H  -1.6561193791  1.5658642694  1.7642099220
H   2.7636625147  0.2558004489  1.5128683372
H   1.7325749141  0.6996949922 -2.0363347181
H   2.4393089710 -1.4343129582  1.0764712820
H   1.2799396784 -0.5162449494  2.0590596671
H   2.8689475731  1.2458081299 -0.8138181294
H   2.9359047234 -0.4290151632 -1.3842331362
22
Image 84  Energy = -383.5269406905
C  -0.7444551968 -1.3020348346  0.3203670467
C   1.2873254960  0.0351831687 -0.0284790713
C  -1.2279389402  2.0762628953  0.9165250051
C   1.9845561557 -0.4535738829  1.2289800322
C   2.2656292155  0.3944185968 -1.1331115875
N   0.3188177651 -0.9617465241 -0.5164368067
N  -2.0146054182 -1.4641697431 -0.2855008815
O  -1.5905624333  1.6980777380 -0.3381355687
H  -2.0387408260  0.8381675933 -0.2919193318
H  -0.0031418578 -0.6998334742 -1.4400553386
H  -0.5437187208 -1.8402073526  1.2384730061
H   0.7442119010  0.9464153222  0.2359177605
H  -2.5835832287 -2.1593385245  0.1788029999
H  -1.9902513827 -1.6886154433 -1.2763367052
H  -0.6082486351  2.9581084609  0.9910074433
H  -1.6558701702  1.5662788901  1.7645218207
H   2.7636387628  0.2555862338  1.5129486297
H   1.7326137286  0.6995175433 -2.0364848278
H   2.4393667473 -1.4342439914  1.0762454913
H   1.2800623526 -0.5166677851  2.0591651995
H   2.8691878347  1.2454839213 -0.8139129072
H   2.9356135096 -0.4294292888 -1.3841128729
22
Image 85  Energy = -383.5267136611
C  -0.7389025481 -1.3360526783  0.3167083277
C   1.2835704768  0.0352988087 -0.0271511061
C  -1.2427978709  2.1297051394  0.9212424230
C   1.9830568929 -0.4560469173  1.2280141282
C   2.2636141547  0.3918444917 -1.1326588160
N   0.3197579017 -0.9659048497 -0.5179014514
N  -2.0130393837 -1.4764063468 -0.2908758059
O  -1.5801330760  1.7050387023 -0.3321119828
H  -2.0163347428  0.8379766775 -0.2709495514
H  -0.0059629610 -0.7016516818 -1.4388735499
H  -0.5372292136 -1.8791623561  1.2245968893
H   0.7413739699  0.9470083033  0.2371372099
H  -2.5885153678 -2.1665661448  0.1726943067
H  -1.9848507680 -1.7051630350 -1.2810099038
H  -0.6337674961  3.0171710066  0.9877797397
H  -1.6460249647  1.5907360086  1.7711069296
H   2.7623077620  0.2522598014  1.5124602352
H   1.7323513457  0.6968689370 -2.0372593391
H   2.4393912332 -1.4351645730  1.0712946677
H   1.2808871418 -0.5235830358  2.0597029617
H   2.8702889522  1.2406418488 -0.8135982412
H   2.9308651839 -0.4352086272 -1.3818793053
22
Image 86  Energy = -383.5268502651
C  -0.7388117706 -1.3340524317  0.3146229851
C   1.2836300014  0.0351147139 -0.0271630080
C  -1.2449039696  2.1265176960  0.9206975498
C   1.9830196601 -0.4560840609  1.2280356502
C   2.2635088138  0.3917095755 -1.1326199210
N   0.3193279602 -0.9658061879 -0.5171044428
N  -2.0122396590 -1.4759463092 -0.2905483074
O  -1.5799450836  1.7055212290 -0.3309987975
H  -2.0158334480  0.8386732275 -0.2705500297
H  -0.0061545079 -0.7014365620 -1.4387489965
H  -0.5367450641 -1.8801017890  1.2249843386
H   0.7412162364  0.9471212132  0.2373190414
H  -2.5885639257 -2.1657785435  0.1728890771
H  -1.9841294084 -1.7053660766 -1.2807489935
H  -0.6346694011  3.0168354681  0.9871765913
H  -1.6449352031  1.5921949820  1.7705798945
H   2.7623177251  0.2521446612  1.5125895820
H   1.7323973382  0.6967094717 -2.0373397312
H   2.4394395987 -1.4351587007  1.0710325013
H   1.2809638091 -0.5239852580  2.0598060747
H   2.8705152000  1.2403705108 -0.8137195471
H   2.9305017209 -0.4355573498 -1.3817227451
22
Image 87  Energy = -383.5269103618
C  -0.7387176605 -1.3327752123  0.3141784031
C   1.2836380460  0.0350816002 -0.0270686431
C  -1.2457850377  2.1250273807  0.9203093811
C   1.9830077876 -0.4561441199  1.2280669339
C   2.2634147247  0.3915515377 -1.1326055695
N   0.3191808629 -0.9654766491 -0.5170413566
N  -2.0117539122 -1.4755207175 -0.2906037421
O  -1.5800474640  1.7056309402 -0.3305276744
H  -2.0154292455  0.8392181088 -0.2702741309
H  -0.0062365870 -0.7012716303 -1.4385192390
H  -0.5364159115 -1.8805715916  1.2246372106
H   0.7411093799  0.9471641482  0.2374815863
H  -2.5885091001 -2.1649375977  0.1731040087
H  -1.9834590656 -1.7055463329 -1.2804666106
H  -0.6359875074  3.0158836453  0.9865918202
H  -1.6442703728  1.5930931997  1.7706406893
H   2.7623219070  0.2520307065  1.5127142209
H   1.7324404408  0.6965499367 -2.0374134518
H   2.4394882567 -1.4351495675  1.0707781752
H   1.2810395444 -0.5243813319  2.0598969195
H   2.8707269582  1.2400901854 -0.8138341314
H   2.9301505794 -0.4359071591 -1.3815760350
22
Image 88  Energy = -383.5269560016
C  -0.7386425180 -1.3317193742  0.3141718010
C   1.2836348334  0.0351164648 -0.0269769761
C  -1.2462839945  2.1240564520  0.9200261007
C   1.9830024283 -0.4562196705  1.2281016523
C   2.2633371950  0.3914049008 -1.1325876740
N   0.3191414025 -0.9651274769 -0.5170491419
N  -2.0113734490 -1.4751016596 -0.2906848849
O  -1.5802180155  1.7057009818 -0.3303542118
H  -2.0151422576  0.8395518941 -0.2700523878
H  -0.0063177817 -0.7010803426 -1.4383656826
H  -0.5361240996 -1.8809098800  1.2241020258
H   0.7410264737  0.9471869170  0.2376398181
H  -2.5884188241 -2.1640727558  0.1733178042
H  -1.9828029234 -1.7057352166 -1.2802518910
H  -0.6373173132  3.0149099318  0.9860285743
H  -1.6437924353  1.5937447203  1.7709249103
H   2.7623230485  0.2519184107  1.5128367420
H   1.7324794128  0.6963902427 -2.0374815650
H   2.4395391389 -1.4351423101  1.0705279088
H   1.2811154775 -0.5247726719  2.0599814440
H   2.8709311247  1.2398030597 -0.8139497549
H   2.9298097005 -0.4362631387 -1.3814358438
22
Image 89  Energy = -383.5269950175
C  -0.7385854229 -1.3307537938  0.3143029823
C   1.2836357877  0.0351872517 -0.0268945264
C  -1.2466405771  2.1232722841  0.9198095347
C   1.9830007345 -0.4563003014  1.2281347948
C   2.2632733065  0.3912690514 -1.1325681671
N   0.3191362885 -0.9647914314 -0.5170467237
N  -2.0110335296 -1.4746759660 -0.2907583739
O  -1.5804235771  1.7057586661 -0.3303311898
H  -2.0149371434  0.8397374851 -0.2698712496
H  -0.0064036002 -0.7008648125 -1.4382674759
H  -0.5358410569 -1.8812064118  1.2235242180
H   0.7409575170  0.9472070763  0.2377973887
H  -2.5883210353 -2.1632052898  0.1735351858
H  -1.9821537274 -1.7059310661 -1.2800850624
H  -0.6385656150  3.0140521130  0.9854890822
H  -1.6434222479  1.5942545723  1.7713079963
H   2.7623216953  0.2518066105  1.5129585442
H   1.7325156421  0.6962306426 -2.0375435134
H   2.4395926396 -1.4351389879  1.0702799752
H   1.2811909086 -0.5251598660  2.0600614604
H   2.8711331813  1.2395149680 -0.8140661578
H   2.9294764549 -0.4366233151 -1.3812999540
22
Image 90  Energy = -383.5267965864
C  -0.7354714725 -1.3497472129  0.3143239698
C   1.2814521784  0.0344657636 -0.0263879312
C  -1.2592090479  2.1641856727  0.9245777382
C   1.9823156425 -0.4585619019  1.2271143127
C   2.2622633289  0.3887877854 -1.1323232996
N   0.3199719400 -0.9684771841 -0.5180087283
N  -2.0083817110 -1.4842609639 -0.2952392499
O  -1.5731911734  1.7104312137 -0.3257385396
H  -1.9983253390  0.8385173503 -0.2550408170
H  -0.0086504672 -0.7022387958 -1.4372489228
H  -0.5305099858 -1.9127612171  1.2119615527
H   0.7392474659  0.9464735171  0.2371820269
H  -2.5905042567 -2.1680506233  0.1694333030
H  -1.9769220285 -1.7184217957 -1.2841676957
H  -0.6590103548  3.0586577076  0.9836795868
H  -1.6390512514  1.6143105382  1.7779034275
H   2.7615270659  0.2492503090  1.5124217502
H   1.7324663097  0.6939458754 -2.0378267846
H   2.4397203833 -1.4364297657  1.0660092188
H   1.2816513392 -0.5304277028  2.0596448636
H   2.8722191294  1.2354812484 -0.8139145961
H   2.9262989213 -0.4414903723 -1.3798862073
22
Image 91  Energy = -383.5269233072
C  -0.7353268369 -1.3479976322  0.3129533880
C   1.2815456489  0.0342350859 -0.0263996155
C  -1.2612409211  2.1609176185  0.9237657502
C   1.9823036160 -0.4586193531  1.2271600749
C   2.2621568321  0.3886421827 -1.1322600022
N   0.3196319483 -0.9683714800 -0.5174077028
N  -2.0077053158 -1.4838525679 -0.2950366610
O  -1.5729667092  1.7110095213 -0.3244039630
H  -1.9978372423  0.8393011161 -0.2546757855
H  -0.0088221603 -0.7019984312 -1.4371777894
H  -0.5300616760 -1.9133966547  1.2119867876
H   0.7390743823  0.9465682576  0.2373642717
H  -2.5904970475 -2.1672609418  0.1696340309
H  -1.9763253399 -1.7186089761 -1.2839551549
H  -0.6599200864  3.0581503879  0.9830410160
H  -1.6379817688  1.6157851002  1.7774506095
H   2.7615392327  0.2491710813  1.5125688450
H   1.7325084011  0.6937982275 -2.0378669539
H   2.4397739956 -1.4364421254  1.0657692463
H   1.2817076760 -0.5308148453  2.0597378201
H   2.8724176362  1.2352216868 -0.8140406327
H   2.9259323520 -0.4417978117 -1.3797386010
22
Image 92  Energy = -383.5269842537
C  -0.7352258252 -1.3467836494  0.3127121326
C   1.2815756476  0.0341631421 -0.0263182568
C  -1.2621071333  2.1593696250  0.9232860975
C   1.9823131715 -0.4586960725  1.2272112294
C   2.2620658466  0.3884853699 -1.1322221691
N   0.3195120711 -0.9680837635 -0.5173637970
N  -2.0072506566 -1.4834574940 -0.2950942169
O  -1.5730465700  1.7111502078 -0.3238390225
H  -1.9974390165  0.8399314902 -0.2544297640
H  -0.0089098558 -0.7017995080 -1.4370150975
H  -0.5297176444 -1.9137064984  1.2115370538
H   0.7389602389  0.9465847757  0.2375261752
H  -2.5904168578 -2.1664351661  0.1698519594
H  -1.9757599296 -1.7187816444 -1.2837341648
H  -0.6612252539  3.0570504070  0.9824197448
H  -1.6372916327  1.6167170110  1.7775353549
H   2.7615429152  0.2490886084  1.5127104469
H   1.7325460402  0.6936499631 -2.0379016855
H   2.4398301070 -1.4364525002  1.0655385275
H   1.2817643783 -0.5311964276  2.0598197926
H   2.8726038566  1.2349540948 -0.8141592831
H   2.9255827209 -0.4421125244 -1.3796020797
22
Image 93  Energy = -383.5270304192
C  -0.7351562167 -1.3457418099  0.3127717362
C   1.2815879264  0.0341638285 -0.0262326060
C  -1.2626087702  2.1583575882  0.9229744613
C   1.9823267336 -0.4587838996  1.2272625313
C   2.2619905826  0.3883414218 -1.1321853606
N   0.3194791769 -0.9677767697 -0.5173810386
N  -2.0068786198 -1.4830640287 -0.2951699676
O  -1.5731962546  1.7112355192 -0.3236275047
H  -1.9971598555  0.8403348796 -0.2542334503
H  -0.0089950412 -0.7015814159 -1.4369035882
H  -0.5293988061 -1.9139260044  1.2109734699
H   0.7388739203  0.9465761629  0.2376827006
H  -2.5903116662 -2.1655935470  0.1700711791
H  -1.9752010965 -1.7189601672 -1.2835617981
H  -0.6625336433  3.0559448251  0.9818194418
H  -1.6367753088  1.6174006996  1.7778329628
H   2.7615416842  0.2490041254  1.5128492235
H   1.7325785029  0.6935015315 -2.0379326547
H   2.4398896592 -1.4364646933  1.0653129969
H   1.2818226194 -0.5315739233  2.0598956816
H   2.8727846933  1.2346818158 -0.8142766622
H   2.9252463966 -0.4424366929 -1.3794727783
22
Image 94  Energy = -383.5270694264
C  -0.7351071768 -1.3447756414  0.3129242361
C   1.2816003484  0.0342026241 -0.0261515625
C  -1.2629745666  2.1575437321  0.9227509266
C   1.9823414845 -0.4588747145  1.2273103414
C   2.2619280228  0.3882085084 -1.1321496035
N   0.3194758311 -0.9674774028 -0.5173941124
N  -2.0065435137 -1.4826643267 -0.2952417393
O  -1.5733800825  1.7113034145 -0.3235913146
H  -1.9969654215  0.8405770293 -0.2540752935
H  -0.0090823612 -0.7013441823 -1.4368315173
H  -0.5290864148 -1.9141176868  1.2103918157
H   0.7388031899  0.9465624592  0.2378381862
H  -2.5902021694 -2.1647515624  0.1702948151
H  -1.9746445681 -1.7191430948 -1.2834236257
H  -0.6637552134  3.0549689698  0.9812433069
H  -1.6363634572  1.6179357840  1.7782304696
H   2.7615366273  0.2489172962  1.5129865573
H   1.7326070272  0.6933533655 -2.0379596750
H   2.4399524376 -1.4364797805  1.0650907985
H   1.2818818148 -0.5319478857  2.0599670869
H   2.8729649162  1.2344098611 -0.8143928937
H   2.9249198623 -0.4427673192 -1.3793482262
22
Image 95  Energy = -383.5271761661
C  -0.7315927387 -1.3513140943  0.3137490515
C   1.2800768579  0.0313784421 -0.0257148519
C  -1.2779146010  2.1868266801  0.9248218699
C   1.9816740765 -0.4620710785  1.2267875799
C   2.2602822744  0.3851798469 -1.1313591800
N   0.3202153239 -0.9704470215 -0.5185658960
N  -1.9973670970 -1.4961891394 -0.3006783865
O  -1.5636884942  1.7176600639 -0.3156588043
H  -1.9772677965  0.8443955439 -0.2370666594
H  -0.0118274412 -0.7010597215 -1.4359409409
H  -0.5200629711 -1.9456569394  1.1934134645
H   0.7327422443  0.9406451855  0.2385313964
H  -2.5926437222 -2.1647268331  0.1679012673
H  -1.9697084718 -1.7316719612 -1.2881443139
H  -0.6931422147  3.0934980678  0.9739991986
H  -1.6265687885  1.6463344137  1.7876770997
H   2.7597047233  0.2467673412  1.5132245865
H   1.7316519484  0.6907523000 -2.0374730025
H   2.4403098676 -1.4383593310  1.0604488576
H   1.2818621795 -0.5387183276  2.0595717342
H   2.8737056191  1.2297325905 -0.8142252865
H   2.9194658668 -0.4493166216 -1.3768296075
22
Image 96  Energy = -383.5272044708
C  -0.7316734909 -1.3506786220  0.3135797806
C   1.2799846385  0.0315531293 -0.0256014524
C  -1.2776226351  2.1870467606  0.9250569428
C   1.9816870935 -0.4621592133  1.2268064956
C   2.2602180637  0.3850685915 -1.1313244465
N   0.3202845667 -0.9702763591 -0.5186612280
N  -1.9975560828 -1.4954467163 -0.3005787005
O  -1.5641248896  1.7174733736 -0.3163081503
H  -1.9773463445  0.8441251719 -0.2371116581
H  -0.0118972473 -0.7007847064 -1.4358565161
H  -0.5196665087 -1.9458196638  1.1931710613
H   0.7328373451  0.9408049068  0.2386930352
H  -2.5924741036 -2.1640540188  0.1682293159
H  -1.9689773953 -1.7319295578 -1.2882345933
H  -0.6940782114  3.0927912523  0.9735166094
H  -1.6265229621  1.6463012787  1.7883709938
H   2.7596961389  0.2466465123  1.5133629175
H   1.7316854116  0.6905995174 -2.0374816631
H   2.4404298091 -1.4384063865  1.0602973645
H   1.2819109070 -0.5390987722  2.0596382035
H   2.8739046650  1.2294675445 -0.8143302425
H   2.9192078786 -0.4495846167 -1.3767648907
22
Image 97  Energy = -383.5272269140
C  -0.7317178362 -1.3501274823  0.3135591450
C   1.2799382110  0.0316943911 -0.0255055259
C  -1.2776470732  2.1867667889  0.9251004780
C   1.9816931215 -0.4622510976  1.2268279820
C   2.2601644807  0.3849642927 -1.1312850350
N   0.3203275112 -0.9701008843 -0.5187372515
N  -1.9976903399 -1.4947226173 -0.3006349221
O  -1.5644897872  1.7174054368 -0.3166566551
H  -1.9774323502  0.8438458774 -0.2371553924
H  -0.0119664382 -0.7004930325 -1.4358065755
H  -0.5193046847 -1.9459183088  1.1928461152
H   0.7329159820  0.9409773518  0.2388570391
H  -2.5923240248 -2.1633968969  0.1685593503
H  -1.9682842041 -1.7321610101 -1.2882048656
H  -0.6948103209  3.0924038372  0.9730566275
H  -1.6264291096  1.6463433335  1.7889303604
H   2.7596873518  0.2465279200  1.5135018498
H   1.7317136807  0.6904512152 -2.0374920114
H   2.4405440936 -1.4384455890  1.0601427650
H   1.2819647027 -0.5394756853  2.0596980950
H   2.8741042608  1.2292069125 -0.8144351176
H   2.9189494189 -0.4498553460 -1.3766972751
22
Image 98  Energy = -383.5272478194
C  -0.7317485705 -1.3496121134  0.3135816923
C   1.2799157194  0.0318194958 -0.0254192898
C  -1.2777522758  2.1863583740  0.9250801870
C   1.9816986223 -0.4623451075  1.2268500646
C   2.2601218064  0.3848630904 -1.1312469362
N   0.3203485961 -0.9699196646 -0.5187914012
N  -1.9977867663 -1.4940250060 -0.3007155503
O  -1.5648600390  1.7173196804 -0.3168766480
H  -1.9775100917  0.8435901930 -0.2372162979
H  -0.0120353222 -0.7001905344 -1.4357745710
H  -0.5189657888 -1.9459912783  1.1924936197
H   0.7329888253  0.9411503567  0.2390205483
H  -2.5921770646 -2.1627299028  0.1688697778
H  -1.9676178236 -1.7323860150 -1.2881351961
H  -0.6954721882  3.0921277904  0.9726140377
H  -1.6263281623  1.6463976170  1.7894235542
H   2.7596769882  0.2464101917  1.5136411668
H   1.7317383044  0.6903066278 -2.0375017368
H   2.4406542623 -1.4384795054  1.0599858870
H   1.2820206419 -0.5398489436  2.0597533042
H   2.8743053641  1.2289519083 -0.8145391429
H   2.9186916099 -0.4501278484 -1.3766278931
22
Image 99  Energy = -383.5272677436
C  -0.7317725440 -1.3491173687  0.3136193729
C   1.2799070101  0.0319359497 -0.0253380247
C  -1.2778733878  2.1859234633  0.9250387932
C   1.9817055641 -0.4624399787  1.2268718275
C   2.2600883403  0.3847635707 -1.1312119889
N   0.3203529633 -0.9697299243 -0.5188325878
N  -1.9978514686 -1.4933511273 -0.3007946436
O  -1.5652420956  1.7172095292 -0.3170295135
H  -1.9775879794  0.8433398514 -0.2372930257
H  -0.0121028165 -0.6998809807 -1.4357503687
H  -0.5186446962 -1.9460517774  1.1921327752
H   0.7330606188  0.9413192181  0.2391823234
H  -2.5920331023 -2.1620519092  0.1691605135
H  -1.9669740138 -1.7326088995 -1.2880459536
H  -0.6961035291  3.0919011104  0.9721850026
H  -1.6262303758  1.6464484096  1.7898718175
H   2.7596650188  0.2462930149  1.5137809038
H   1.7317602339  0.6901653346 -2.0375099872
H   2.4407614350 -1.4385100210  1.0598271130
H   1.2820774745 -0.5402186140  2.0598045495
H   2.8745083753  1.2287026904 -0.8146420906
H   2.9184356228 -0.4504021356 -1.3765576328
22
Image 100  Energy = -383.5258617590
C  -0.7183884165 -1.4046367145  0.3100158907
C   1.2704948086  0.0276106872 -0.0221418070
C  -1.3469273647  2.3426793526  0.9415601091
C   1.9792030584 -0.4741596369  1.2228184470
C   2.2543764889  0.3703516898 -1.1289461591
N   0.3213409829 -0.9816562674 -0.5205261712
N  -1.9783881984 -1.5256904853 -0.3221361817
O  -1.5357949567  1.7383281407 -0.2903900578
H  -1.9000897321  0.8416061277 -0.1705120275
H  -0.0245548023 -0.7022391431 -1.4297041734
H  -0.4879304884 -2.0955478418  1.1351804637
H   0.7211431565  0.9370006097  0.2383403832
H  -2.5964748531 -2.1680983373  0.1555210929
H  -1.9302799377 -1.7920554042 -1.3043369310
H  -0.8076279059  3.2788095640  0.9558794054
H  -1.5982149560  1.7493887144  1.8235940802
H   2.7564991489  0.2336805483  1.5135265827
H   1.7323866677  0.6767701007 -2.0385080558
H   2.4423338671 -1.4452734632  1.0351545072
H   1.2849216235 -0.5701263967  2.0585551984
H   2.8830802402  1.2052428691 -0.8163568635
H   2.8987982174 -0.4783454565 -1.3681176377
22
Image 101  Energy = -383.5264343287
C  -0.7175802919 -1.4061937317  0.3115366083
C   1.2708840140  0.0272145571 -0.0221892243
C  -1.3499207575  2.3351944662  0.9386156194
C   1.9792132690 -0.4743332653  1.2228967889
C   2.2544465390  0.3702670468 -1.1289122696
N   0.3210338380 -0.9815782724 -0.5201030356
N  -1.9783528748 -1.5256563294 -0.3220039458
O  -1.5351880263  1.7409126383 -0.2855065757
H  -1.8994192726  0.8437220877 -0.1699726525
H  -0.0246760213 -0.7018235939 -1.4296431320
H  -0.4881953865 -2.0929142530  1.1324980991
H   0.7212379782  0.9370566081  0.2385061655
H  -2.5961835827 -2.1672834471  0.1554261095
H  -1.9301210052 -1.7920791111 -1.3037893717
H  -0.8083687539  3.2775346418  0.9548599728
H  -1.5967665076  1.7523371792  1.8217467193
H   2.7564460303  0.2335882145  1.5137084399
H   1.7323540880  0.6766947868 -2.0384486812
H   2.4424014699 -1.4451835140  1.0351954493
H   1.2849963092 -0.5704748368  2.0585331690
H   2.8831771901  1.2050413734 -0.8164357400
H   2.8984884041 -0.4784039899 -1.3680484155
22
Image 102  Energy = -383.5266505548
C  -0.7172106205 -1.4068498870  0.3117072307
C   1.2711100419  0.0269689570 -0.0221675950
C  -1.3510506970  2.3318169020  0.9371632764
C   1.9792577988 -0.4744727096  1.2229684070
C   2.2544854509  0.3701789873 -1.1288982659
N   0.3207861972 -0.9814840251 -0.5197174007
N  -1.9780271645 -1.5254250877 -0.3216754977
O  -1.5351520217  1.7418601226 -0.2829557744
H  -1.8987852801  0.8457112639 -0.1696329191
H  -0.0248089072 -0.7014704350 -1.4294420008
H  -0.4881925246 -2.0911180890  1.1308217788
H   0.7214172671  0.9370250967  0.2386583474
H  -2.5960752583 -2.1666307996  0.1554322819
H  -1.9299287480 -1.7921375032 -1.3033323651
H  -0.8099112723  3.2749234724  0.9538952811
H  -1.5957726210  1.7542413883  1.8208890383
H   2.7563851294  0.2334897527  1.5138908270
H   1.7323236895  0.6766180361 -2.0383843008
H   2.4424962307 -1.4451424602  1.0352328591
H   1.2850493165 -0.5708170290  2.0585242793
H   2.8832844546  1.2048567288 -0.8165036031
H   2.8982261885 -0.4785034276 -1.3680037881
22
Image 103  Energy = -383.5267732277
C  -0.7170054394 -1.4070871368  0.3114231698
C   1.2712603621  0.0267998980 -0.0221020477
C  -1.3516040007  2.3298529881  0.9364659324
C   1.9793107981 -0.4745971814  1.2230372589
C   2.2544997658  0.3700879444 -1.1288861445
N   0.3206309397 -0.9813380300 -0.5194864174
N  -1.9777094861 -1.5251414956 -0.3213921026
O  -1.5352201471  1.7424337088 -0.2816544611
H  -1.8983458562  0.8472118614 -0.1693262725
H  -0.0249309179 -0.7011490049 -1.4291777140
H  -0.4880572204 -2.0897560557  1.1296704069
H   0.7216308466  0.9369616405  0.2388075184
H  -2.5960248130 -2.1660370415  0.1554953597
H  -1.9297302920 -1.7921963371 -1.3028990385
H  -0.8115012748  3.2722663283  0.9529598138
H  -1.5950083930  1.7556289668  1.8205325987
H   2.7563266981  0.2333939456  1.5140754115
H   1.7322916831  0.6765419969 -2.0383211234
H   2.4426086914 -1.4451325347  1.0352666366
H   1.2850914301 -0.5711547538  2.0585215251
H   2.8833968705  1.2046807641 -0.8165644693
H   2.8979964038 -0.4786312173 -1.3679757437
22
Image 104  Energy = -383.5268556886
C  -0.7168617820 -1.4071121554  0.3110087306
C   1.2713782066  0.0266763469 -0.0220177166
C  -1.3519665790  2.3284471831  0.9361052498
C   1.9793640915 -0.4747176373  1.2231052215
C   2.2545008134  0.3699965870 -1.1288688479
N   0.3205569382 -0.9811583485 -0.5193753970
N  -1.9774630200 -1.5248390166 -0.3211834464
O  -1.5353128345  1.7428911225 -0.2810187614
H  -1.8980634327  0.8483226595 -0.1690419765
H  -0.0250455217 -0.7008323650 -1.4289149801
H  -0.4878518168 -2.0886406564  1.1288193031
H   0.7218556831  0.9368914633  0.2389588950
H  -2.5959942447 -2.1654699292  0.1555959383
H  -1.9295364774 -1.7922545514 -1.3024969025
H  -0.8129493775  3.2698874299  0.9520603354
H  -1.5943937958  1.7566822376  1.8204930585
H   2.7562725397  0.2333026996  1.5142618278
H   1.7322566216  0.6764672232 -2.0382602158
H   2.4427331446 -1.4451430854  1.0352971908
H   1.2851271855 -0.5714888626  2.0585227829
H   2.8835117205  1.2045090141 -0.8166212711
H   2.8977885862 -0.4787781055 -1.3679589204
22
Image 105  Energy = -383.5267022665
C  -0.7202869452 -1.3938938868  0.3105406210
C   1.2716708817  0.0282514086 -0.0223161353
C  -1.3348119979  2.3119936567  0.9371744496
C   1.9792994813 -0.4725527358  1.2237527413
C   2.2546560690  0.3726695712 -1.1290462428
N   0.3210061537 -0.9790509154 -0.5204714943
N  -1.9797934378 -1.5217087681 -0.3189779768
O  -1.5400747043  1.7354794996 -0.2933492286
H  -1.9119258193  0.8435081200 -0.1803969418
H  -0.0226427933 -0.7007755194 -1.4307757447
H  -0.4916036245 -2.0693203017  1.1409269037
H   0.7210304755  0.9364829942  0.2400762786
H  -2.5965274492 -2.1643135890  0.1595607101
H  -1.9350772636 -1.7820059410 -1.3019493895
H  -0.7933006032  3.2459602953  0.9558942276
H  -1.5996339508  1.7350518847  1.8187850514
H   2.7565521203  0.2354376827  1.5141113248
H   1.7320206589  0.6786556410 -2.0384024113
H   2.4424247539 -1.4439810078  1.0392393808
H   1.2844388891 -0.5663122914  2.0592133481
H   2.8818825872  1.2083998961 -0.8162339256
H   2.9006031729 -0.4743364135 -1.3688856166
22
Image 106  Energy = -383.5269253969
C  -0.7197452746 -1.3948325253  0.3115080649
C   1.2719285469  0.0280312486 -0.0223073329
C  -1.3367600586  2.3074486200  0.9353696496
C   1.9793212553 -0.4727070535  1.2238204762
C   2.2547160495  0.3726015267 -1.1290063528
N   0.3208497997 -0.9789553019 -0.5202687742
N  -1.9799709780 -1.5213954886 -0.3188259130
O  -1.5398049239  1.7369600998 -0.2903377375
H  -1.9115386008  0.8447141651 -0.1801104962
H  -0.0227450265 -0.7003614552 -1.4307370927
H  -0.4916432512 -2.0675914766  1.1392126137
H   0.7212351651  0.9365817838  0.2402072025
H  -2.5962309296 -2.1635644807  0.1594610590
H  -1.9348705511 -1.7821648549 -1.3015733537
H  -0.7939991585  3.2449774751  0.9550479769
H  -1.5986626585  1.7367976162  1.8177698975
H   2.7565024315  0.2353601631  1.5142864085
H   1.7319847356  0.6785803639 -2.0383372465
H   2.4425061002 -1.4439529122  1.0392321618
H   1.2845016410 -0.5666553399  2.0591921344
H   2.8820028192  1.2082248555 -0.8163057228
H   2.9003295215 -0.4744577500 -1.3688276928
22
Image 107  Energy = -383.5270154717
C  -0.7195001812 -1.3951910348  0.3115764113
C   1.2720967293  0.0278969272 -0.0222638577
C  -1.3375372701  2.3053634903  0.9345649772
C   1.9793655636 -0.4728386453  1.2238799985
C   2.2547545989  0.3725280936 -1.1289794610
N   0.3207144095 -0.9788496329 -0.5200723897
N  -1.9798770396 -1.5209313015 -0.3186147430
O  -1.5399211748  1.7374356537 -0.2888398156
H  -1.9111837505  0.8458293478 -0.1799495229
H  -0.0228560034 -0.6999848851 -1.4306119761
H  -0.4915144457 -2.0664003617  1.1381603787
H   0.7214827812  0.9366298324  0.2403325699
H  -2.5960956041 -2.1629600401  0.1594609984
H  -1.9346515438 -1.7823307828 -1.3012140002
H  -0.7951570541  3.2432317804  0.9542414446
H  -1.5979848020  1.7379183898  1.8173564074
H   2.7564474768  0.2352771502  1.5144618769
H   1.7319509996  0.6785049456 -2.0382681431
H   2.4426046684 -1.4439542175  1.0392225251
H   1.2845487838 -0.5669939356  2.0591819873
H   2.8821318525  1.2080622655 -0.8163701665
H   2.9000876596 -0.4746037602 -1.3687855678
22
Image 108  Energy = -383.5270712051
C  -0.7193575883 -1.3952885353  0.3113560725
C   1.2722223840  0.0278067410 -0.0221964790
C  -1.3379589122  2.3040893549  0.9341919888
C   1.9794158039 -0.4729603326  1.2239355915
C   2.2547780434  0.3724507453 -1.1289553273
N   0.3206302700 -0.9787072270 -0.5199693899
N  -1.9797606702 -1.5204408753 -0.3184468944
O  -1.5401050236  1.7377126101 -0.2880877975
H  -1.9109601610  0.8466298409 -0.1798108390
H  -0.0229592689 -0.6996278034 -1.4304461059
H  -0.4913105069 -2.0654760281  1.1374369292
H   0.7217452564  0.9366579954  0.2404574285
H  -2.5960091964 -2.1623988850  0.1595061723
H  -1.9344328604 -1.7824895417 -1.3008594732
H  -0.7963205832  3.2414970120  0.9534631221
H  -1.5974575062  1.7387234138  1.8172525857
H   2.7563939356  0.2351943960  1.5146387393
H   1.7319168699  0.6784306589 -2.0381992261
H   2.4427147665 -1.4439741501  1.0392105350
H   1.2845879651 -0.5673290114  2.0591768620
H   2.8822653717  1.2079056714 -0.8164300401
H   2.8998682647 -0.4747667715 -1.3687545240
22
Image 109  Energy = -383.5271117543
C  -0.7192498707 -1.3952547648  0.3110572392
C   1.2723298375  0.0277435582 -0.0221195822
C  -1.3382618772  2.3031271537  0.9339980178
C   1.9794663689 -0.4730794851  1.2239893809
C   2.2547941150  0.3723719714 -1.1289293513
N   0.3205933724 -0.9785394753 -0.5199389797
N  -1.9796750560 -1.5199509277 -0.3183278870
O  -1.5403084120  1.7379275637 -0.2877223993
H  -1.9108379584  0.8471897468 -0.1796886063
H  -0.0230570999 -0.6992734842 -1.4302804730
H  -0.4910709306 -2.0647002653  1.1368964299
H   0.7220098718  0.9366806086  0.2405845553
H  -2.5959407599 -2.1618532305  0.1595786796
H  -1.9342199604 -1.7826427720 -1.3005228807
H  -0.7973824792  3.2399556920  0.9527164000
H  -1.5970286148  1.7393229351  1.8173417755
H   2.7563431582  0.2351133669  1.5148167466
H   1.7318813613  0.6783578298 -2.0381314470
H   2.4428329168 -1.4440062219  1.0391964443
H   1.2846224900 -0.5676609960  2.0591746173
H   2.8824012513  1.2077517312 -0.8164873619
H   2.8996649299 -0.4749412552 -1.3687313906
22
Image 110  Energy = -383.5272334152
C  -0.7207399558 -1.3859787144  0.3102211653
C   1.2725893618  0.0288232775 -0.0218270189
C  -1.3288145448  2.2885036883  0.9332342116
C   1.9792827633 -0.4723011708  1.2247582708
C   2.2544972679  0.3739463855 -1.1288205053
N   0.3210026206 -0.9763340498 -0.5211100566
N  -1.9803826604 -1.5171283797 -0.3169011726
O  -1.5438663099  1.7334420282 -0.2942252405
H  -1.9188507634  0.8450541740 -0.1858231263
H  -0.0217275855 -0.6970371977 -1.4314362638
H  -0.4915444894 -2.0506797255  1.1412911378
H   0.7218531065  0.9366082757  0.2427909998
H  -2.5971389910 -2.1573102669  0.1635116524
H  -1.9362714393 -1.7768260256 -1.2995347013
H  -0.7897019466  3.2217129142  0.9511218176
H  -1.5972532973  1.7275517270  1.8173414583
H   2.7560678884  0.2358619658  1.5157513531
H   1.7314940523  0.6793157286 -2.0382889116
H   2.4433108773 -1.4432113648  1.0416668574
H   1.2843652726 -0.5664391154  2.0600501385
H   2.8821392549  1.2092856149 -0.8165813306
H   2.8995961702 -0.4732204728 -1.3687209273
22
Image 111  Energy = -383.5272768558
C  -0.7204980066 -1.3862964424  0.3105535344
C   1.2727649342  0.0287740680 -0.0217877597
C  -1.3296611188  2.2865888235  0.9325767017
C   1.9793401042 -0.4724406776  1.2248048672
C   2.2545733752  0.3738706666 -1.1287834645
N   0.3209324810 -0.9761704797 -0.5210996779
N  -1.9805419668 -1.5165485994 -0.3168621311
O  -1.5440091525  1.7339101343 -0.2930887407
H  -1.9188431079  0.8452551132 -0.1858258790
H  -0.0218105086 -0.6966181768 -1.4314093168
H  -0.4914004092 -2.0498325623  1.1406422124
H   0.7221151662  0.9367080022  0.2428847615
H  -2.5969209269 -2.1567108637  0.1634675249
H  -1.9361139676 -1.7770717719 -1.2992561768
H  -0.7901650884  3.2212983608  0.9505353029
H  -1.5968347436  1.7281237323  1.8170927399
H   2.7560213221  0.2358082875  1.5159257696
H   1.7314553390  0.6792547741 -2.0381842230
H   2.4434141706 -1.4432628415  1.0416063762
H   1.2843982286 -0.5667532913  2.0600204481
H   2.8822857502  1.2091534102 -0.8166445082
H   2.8994047768 -0.4734003701 -1.3686985537
22
Image 112  Energy = -383.5273005562
C  -0.7203664249 -1.3863719990  0.3105172805
C   1.2729066616  0.0287460139 -0.0217383969
C  -1.3300289706  2.2856441595  0.9323133588
C   1.9794024148 -0.4725697581  1.2248453874
C   2.2546403251  0.3737962965 -1.1287515744
N   0.3208721020 -0.9760029363 -0.5210734214
N  -1.9805798644 -1.5159246972 -0.3167980330
O  -1.5443257873  1.7339530658 -0.2925484860
H  -1.9188376523  0.8454499102 -0.1858814163
H  -0.0218999731 -0.6962109474 -1.4313547189
H  -0.4911970383 -2.0492012635  1.1402561077
H   0.7223875785  0.9367932153  0.2429794150
H  -2.5967781107 -2.1561688042  0.1634717286
H  -1.9359514274 -1.7773134805 -1.2989871202
H  -0.7908141254  3.2205730038  0.9499744121
H  -1.5965326779  1.7284571076  1.8170737402
H   2.7559734301  0.2357492898  1.5161002984
H   1.7314185463  0.6791944577 -2.0380804640
H   2.4435248618 -1.4433229297  1.0415455226
H   1.2844257597 -0.5670652291  2.0599949219
H   2.8824376704  1.2090246348 -0.8167052808
H   2.8992293543 -0.4735898141 -1.3686834535
22
Image 113  Energy = -383.5273194334
C  -0.7202698414 -1.3863406482  0.3103712283
C   1.2730312121  0.0287302908 -0.0216804173
C  -1.3302567587  2.2849991696  0.9321931985
C   1.9794648755 -0.4726941325  1.2248825472
C   2.2547009786  0.3737213122 -1.1287216230
N   0.3208335748 -0.9758185352 -0.5210804019
N  -1.9805990001 -1.5153068544 -0.3167504709
O  -1.5446699411  1.7339240892 -0.2922761135
H  -1.9188829504  0.8455281648 -0.1859433469
H  -0.0219863794 -0.6958107350 -1.4312839563
H  -0.4909730530 -2.0486726665  1.1399921277
H   0.7226616857  0.9368724042  0.2430758015
H  -2.5966630768 -2.1556422510  0.1635011472
H  -1.9357890872 -1.7775458594 -1.2987228531
H  -0.7914661361  3.2198505465  0.9494321165
H  -1.5962887686  1.7286729352  1.8171672925
H   2.7559265019  0.2356873553  1.5162750650
H   1.7313826425  0.6791352945 -2.0379790447
H   2.4436406675 -1.4433876533  1.0414844312
H   1.2844505682 -0.5673753010  2.0599711389
H   2.8825932936  1.2088972139 -0.8167643328
H   2.8990656432 -0.4737848429 -1.3686737259
22
Image 114  Energy = -383.5273360850
C  -0.7201833944 -1.3862537499  0.3101985703
C   1.2731477803  0.0287233888 -0.0216191397
C  -1.3304375954  2.2844645557  0.9321271861
C   1.9795259253 -0.4728169853  1.2249177533
C   2.2547588543  0.3736460840 -1.1286918134
N   0.3208149842 -0.9756223608 -0.5211143206
N  -1.9806215365 -1.5147049743 -0.3167207696
O  -1.5450220490  1.7338730339 -0.2921390174
H  -1.9189672480  0.8455182438 -0.1860084789
H  -0.0220702390 -0.6954112755 -1.4312123328
H  -0.4907432174 -2.0482008442  1.1397932112
H   0.7229335556  0.9369498545  0.2431746531
H  -2.5965623848 -2.1551196997  0.1635477971
H  -1.9356290981 -1.7777700582 -1.2984687945
H  -0.7920800967  3.2192010628  0.9489082850
H  -1.5960820774  1.7288139167  1.8173264876
H   2.7558809112  0.2356232687  1.5164498531
H   1.7313472380  0.6790773995 -2.0378802290
H   2.4437601927 -1.4434547820  1.0414231492
H   1.2844738320 -0.5676836710  2.0599482567
H   2.8827515482  1.2087698519 -0.8168224099
H   2.8989107634 -0.4739829622 -1.3686680873
22
Image 115  Energy = -383.5275309851
C  -0.7180350942 -1.3857616816  0.3075507577
C   1.2742220744  0.0294466729 -0.0202464497
C  -1.3362206169  2.2816803126  0.9310373732
C   1.9798298983 -0.4751125168  1.2256909856
C   2.2547640426  0.3726414953 -1.1281565127
N   0.3213300727 -0.9725064611 -0.5229592319
N  -1.9801455452 -1.5080318473 -0.3172037609
O  -1.5495837714  1.7321009383 -0.2912114321
H  -1.9180742558  0.8425472017 -0.1840532885
H  -0.0230646281 -0.6877857985 -1.4309877713
H  -0.4848497554 -2.0474622309  1.1345278272
H   0.7274041520  0.9393707705  0.2463239475
H  -2.5980847863 -2.1445534136  0.1658179872
H  -1.9317498503 -1.7826923711 -1.2956992623
H  -0.8044745328  3.2183457150  0.9383498076
H  -1.5902655449  1.7313451838  1.8219152863
H   2.7547838855  0.2336803942  1.5198627151
H   1.7307768817  0.6777207908 -2.0373018675
H   2.4461140050 -1.4442160537  1.0402523322
H   1.2850883923 -0.5746140584  2.0605276670
H   2.8859530841  1.2058219289 -0.8180051445
H   2.8941885113 -0.4783256722 -1.3675621437
22
Image 116  Energy = -383.5275434136
C  -0.7179878702 -1.3854562487  0.3074692480
C   1.2743509523  0.0294800560 -0.0201987244
C  -1.3360962888  2.2818373843  0.9311740295
C   1.9799150946 -0.4752409949  1.2257060141
C   2.2548896784  0.3725479972 -1.1281325434
N   0.3213212098 -0.9721914855 -0.5230313028
N  -1.9800821982 -1.5075952523 -0.3172627452
O  -1.5501105025  1.7316374039 -0.2914727892
H  -1.9183671851  0.8420919690 -0.1842673210
H  -0.0231436418 -0.6873577086 -1.4309591487
H  -0.4846928739 -2.0472517739  1.1346324645
H   0.7275559201  0.9393870214  0.2464146631
H  -2.5980031932 -2.1440214660  0.1659355561
H  -1.9317325545 -1.7828705400 -1.2955792406
H  -0.8048092392  3.2182350565  0.9381208792
H  -1.5902425281  1.7310961666  1.8221079299
H   2.7547505340  0.2336271919  1.5200435937
H   1.7307556202  0.6776937100 -2.0371511832
H   2.4462554517 -1.4443252808  1.0401498720
H   1.2850852620 -0.5748629493  2.0604595856
H   2.8861365478  1.2057080045 -0.8180715201
H   2.8941584223 -0.4785289622 -1.3676174941
