22
Image 0  Energy = -383.5275434136
C  -0.7179878702 -1.3854562487  0.3074692480
C   1.2743509523  0.0294800560 -0.0201987244
C  -1.3360962888  2.2818373843  0.9311740295
C   1.9799150946 -0.4752409949  1.2257060141
C   2.2548896784  0.3725479972 -1.1281325434
N   0.3213212098 -0.9721914855 -0.5230313028
N  -1.9800821982 -1.5075952523 -0.3172627452
O  -1.5501105025  1.7316374039 -0.2914727892
H  -1.9183671851  0.8420919690 -0.1842673210
H  -0.0231436418 -0.6873577086 -1.4309591487
H  -0.4846928739 -2.0472517739  1.1346324645
H   0.7275559201  0.9393870214  0.2464146631
H  -2.5980031932 -2.1440214660  0.1659355561
H  -1.9317325545 -1.7828705400 -1.2955792406
H  -0.8048092392  3.2182350565  0.9381208792
H  -1.5902425281  1.7310961666  1.8221079299
H   2.7547505340  0.2336271919  1.5200435937
H   1.7307556202  0.6776937100 -2.0371511832
H   2.4462554517 -1.4443252808  1.0401498720
H   1.2850852620 -0.5748629493  2.0604595856
H   2.8861365478  1.2057080045 -0.8180715201
H   2.8941584223 -0.4785289622 -1.3676174941
