22
Image 0  Energy = -383.6469145092
C  -0.9141083822 -0.5095367693  0.4608093569
C   1.4054110565  0.1773666885 -0.0206401070
C  -1.3137907355  0.9392507811  0.7709916166
C   2.0730224225 -0.3975063008  1.2209406662
C   2.3683841094  0.3495860868 -1.1842443927
N   0.2568021097 -0.6481223607 -0.4079160079
N  -2.0739933783 -1.1363985215 -0.1854892525
O  -1.8246999899  1.5660354630 -0.3863215724
H  -2.4985376106  0.9521214213 -0.7142059851
H  -0.0183856462 -0.3888249495 -1.3497726797
H  -0.7000309627 -1.0150689999  1.4070649883
H   1.0757648489  1.1917428455  0.2212814022
H  -2.4361777287 -1.9065260825  0.3577844547
H  -1.8203077579 -1.5094152477 -1.0907933596
H  -0.4667405538  1.5328489347  1.1078565066
H  -2.0467851813  0.9355749138  1.5852626431
H   2.8923933840  0.2450434049  1.5457879208
H   1.8257822939  0.6585512702 -2.0807691852
H   2.4635558480 -1.3977271474  1.0257330241
H   1.3668752490 -0.4687317086  2.0503590800
H   3.0719560053  1.1483223280 -0.9445397922
H   2.9335176095 -0.5549460488 -1.4107143238
