22
Image 0  Energy = -383.5281735303
C  -0.7781260000 -1.0675610000  0.3210590000
C   1.3025530000  0.0521200000 -0.0282990000
C  -0.9719930000  1.4562490000  0.8236570000
C   1.9812290000 -0.4184330000  1.2501750000
C   2.2640330000  0.4351680000 -1.1331070000
N   0.2911640000 -0.8768210000 -0.5003990000
N  -2.0191630000 -1.3720060000 -0.2331120000
O  -1.6647340000  1.6302230000 -0.4018370000
H  -2.2586320000  0.8701390000 -0.4758990000
H   0.0278490000 -0.6783120000 -1.4584950000
H  -0.6097590000 -1.3678560000  1.3411780000
H   0.6812640000  0.9183000000  0.2869410000
H  -2.5732630000 -2.0573610000  0.2574120000
H  -2.0524280000 -1.5045420000 -1.2338230000
H  -0.3689930000  2.3513920000  0.9917470000
H  -1.6396090000  1.2942150000  1.6746530000
H   2.7644490000  0.2914620000  1.5228460000
H   1.7251140000  0.7306950000 -2.0377940000
H   2.4355930000 -1.4060980000  1.1342150000
H   1.2730050000 -0.4472240000  2.0805790000
H   2.8503450000  1.2986970000 -0.8143220000
H   2.9600090000 -0.3688060000 -1.3889100000
22
Image 1  Energy = -383.5292433540
C  -0.7788470306 -1.0578435216  0.3220295952
C   1.3046338245  0.0514130692 -0.0285298765
C  -0.9795905331  1.4493897026  0.8249225429
C   1.9817324820 -0.4189914575  1.2489183050
C   2.2649762242  0.4341480464 -1.1335430252
N   0.2921717029 -0.8786231979 -0.5008733240
N  -2.0170230065 -1.3710667491 -0.2321390745
O  -1.6647874689  1.6299760171 -0.4014251039
H  -2.2583518674  0.8707545700 -0.4762128645
H   0.0275502075 -0.6779499027 -1.4580425109
H  -0.6096662240 -1.3683009854  1.3409795773
H   0.6825430416  0.9183669093  0.2859222315
H  -2.5728423664 -2.0566897024  0.2575499148
H  -2.0517562357 -1.5044585627 -1.2334716280
H  -0.3685339620  2.3499816220  0.9915746509
H  -1.6403187624  1.2955970075  1.6742955299
H   2.7643138002  0.2912053079  1.5227623632
H   1.7251996143  0.7305582977 -2.0375147935
H   2.4354758062 -1.4059710520  1.1342002216
H   1.2729090844 -0.4474107968  2.0803151799
H   2.8503562249  1.2983490070 -0.8143574703
H   2.9597624441 -0.3687936294 -1.3888954395
22
Image 2  Energy = -383.5301187595
C  -0.7795234637 -1.0483756302  0.3237964656
C   1.3060558680  0.0509723121 -0.0289069214
C  -0.9843202897  1.4441669625  0.8253227120
C   1.9821214606 -0.4194013403  1.2481690052
C   2.2657710936  0.4335052969 -1.1339216353
N   0.2933703871 -0.8800864395 -0.5011869996
N  -2.0154189688 -1.3702293696 -0.2315772905
O  -1.6652305759  1.6297572745 -0.4010577524
H  -2.2584275800  0.8711612110 -0.4768220354
H   0.0272826589 -0.6775534362 -1.4576793076
H  -0.6096085541 -1.3685212546  1.3404189723
H   0.6840838574  0.9181855553  0.2848008363
H  -2.5721645291 -2.0557904130  0.2577140827
H  -2.0509831310 -1.5042619272 -1.2328623989
H  -0.3689792791  2.3468133159  0.9912860347
H  -1.6422427684  1.2967037392  1.6749821598
H   2.7642104518  0.2909327509  1.5226653996
H   1.7253055725  0.7303859121 -2.0372330706
H   2.4354757191 -1.4060526662  1.1341491673
H   1.2729585424 -0.4475988227  2.0798282309
H   2.8504019709  1.2979601440 -0.8144249698
H   2.9597685564 -0.3690331733 -1.3889956832
22
Image 3  Energy = -383.5309524066
C  -0.7802511224 -1.0391379952  0.3257466877
C   1.3071615909  0.0506419635 -0.0293715752
C  -0.9878543136  1.4394916179  0.8253927336
C   1.9824678395 -0.4197337661  1.2476488386
C   2.2664857896  0.4330373169 -1.1342584952
N   0.2945669230 -0.8812927044 -0.5013263160
N  -2.0140495388 -1.3692949170 -0.2310762556
O  -1.6658672569  1.6296270087 -0.4007132911
H  -2.2587605852  0.8713961410 -0.4776188237
H   0.0270514838 -0.6771407959 -1.4573275068
H  -0.6095582820 -1.3685959172  1.3397845936
H   0.6857864541  0.9179140069  0.2836166086
H  -2.5713393652 -2.0547747066  0.2579293310
H  -2.0501180881 -1.5040054150 -1.2322087236
H  -0.3697281989  2.3428212697  0.9909648532
H  -1.6446661989  1.2976716595  1.6760227272
H   2.7641514409  0.2906668263  1.5225732677
H   1.7254194993  0.7301992265 -2.0369785542
H   2.4355370336 -1.4062410093  1.1340768193
H   1.2730582284 -0.4477923722  2.0792553811
H   2.8505035267  1.2975825454 -0.8145064379
H   2.9599101392 -0.3693999825 -1.3891608593
22
Image 4  Energy = -383.5317732265
C  -0.7810230871 -1.0301268197  0.3277447504
C   1.3081074439  0.0503634376 -0.0298730483
C  -0.9908747377  1.4349742531  0.8253488394
C   1.9828026078 -0.4200237983  1.2472345594
C   2.2671604713  0.4326511167 -1.1345728974
N   0.2956867563 -0.8822919739 -0.5013454174
N  -2.0128337331 -1.3682060063 -0.2305812183
O  -1.6666461999  1.6295491043 -0.4003761115
H  -2.2592714173  0.8715263561 -0.4785534835
H   0.0268625049 -0.6767223371 -1.4569478314
H  -0.6095151563 -1.3685428248  1.3391443327
H   0.6876065950  0.9176254505  0.2823888522
H  -2.5704108765 -2.0536863267  0.2582045978
H  -2.0491695379 -1.5037035609 -1.2315439709
H  -0.3705501707  2.3383615575  0.9906412960
H  -1.6472947090  1.2985483464  1.6771347628
H   2.7641382197  0.2904148942  1.5224924042
H   1.7255388013  0.7300067666 -2.0367588715
H   2.4356327650 -1.4064854282  1.1339906061
H   1.2731703921 -0.4479926609  2.0786535007
H   2.8506626148  1.2972311179 -0.8145950541
H   2.9601274512 -0.3698306642 -1.3893655956
22
Image 5  Energy = -383.5325887675
C  -0.7818246012 -1.0213374406  0.3297556544
C   1.3089659202  0.0501153823 -0.0303827033
C  -0.9936772261  1.4304810273  0.8252596391
C   1.9831395523 -0.4202890884  1.2468726517
C   2.2678170783  0.4323061265 -1.1348769031
N   0.2967096371 -0.8831216533 -0.5012776415
N  -2.0117503635 -1.3669495080 -0.2300810165
O  -1.6675403710  1.6294891508 -0.4000269522
H  -2.2599158638  0.8715926612 -0.4796009080
H   0.0267144692 -0.6763011430 -1.4565317607
H  -0.6094821872 -1.3683686476  1.3385180490
H   0.6895260750  0.9173568629  0.2811278758
H  -2.5693986924 -2.0525420750  0.2585371652
H  -2.0481441208 -1.5033635834 -1.2308723568
H  -0.3713501460  2.3335839504  0.9903274704
H  -1.6500094401  1.2993453196  1.6782121018
H   2.7641678266  0.2901777779  1.5224244100
H   1.7256641223  0.7298115803 -2.0365736397
H   2.4357492879 -1.4067598556  1.1338941657
H   1.2732815605 -0.4482000127  2.0780457641
H   2.8508748112  1.2969064621 -0.8146893678
H   2.9603896670 -0.3702932932 -1.3895966921
22
Image 6  Energy = -383.5334021926
C  -0.7826457635 -1.0127635276  0.3317683519
C   1.3097728585  0.0498906099 -0.0308858938
C  -0.9963971958  1.4259742037  0.8251419126
C   1.9834845693 -0.4205385228  1.2465400668
C   2.2684669926  0.4319846804 -1.1351768916
N   0.2976365964 -0.8838114196 -0.5011422055
N  -2.0107931837 -1.3655252029 -0.2295724627
O  -1.6685302080  1.6294242020 -0.3996515634
H  -2.2606700552  0.8716167818 -0.4807464153
H   0.0266031620 -0.6758774238 -1.4560819934
H  -0.6094620145 -1.3680780891  1.3379136737
H   0.6915374270  0.9171291881  0.2798401244
H  -2.5683146338 -2.0513503321  0.2589209174
H  -2.0470474988 -1.5029908704 -1.2301924531
H  -0.3720877110  2.3285577147  0.9900279812
H  -1.6527619148  1.3000609698  1.6792189434
H   2.7642361774  0.2899539595  1.5223691605
H   1.7257969391  0.7296145507 -2.0364199910
H   2.4358793899 -1.4070503172  1.1337892685
H   1.2733883251 -0.4484145021  2.0774412852
H   2.8511345724  1.2966047416 -0.8147899221
H   2.9606801623 -0.3707713936 -1.3898468889
22
Image 7  Energy = -383.5342154994
C  -0.7834806444 -1.0043970387  0.3337773304
C   1.3105476418  0.0496870178 -0.0313753722
C  -0.9990991263  1.4214492901  0.8249979720
C   1.9838401153 -0.4207763724  1.2462268407
C   2.2691157869  0.4316788114 -1.1354760349
N   0.2984752162 -0.8843849360 -0.5009510406
N  -2.0099585207 -1.3639369773 -0.2290535628
O  -1.6696013198  1.6293404458 -0.3992432682
H  -2.2615202773  0.8716101763 -0.4819798953
H   0.0265236675 -0.6754505620 -1.4556040115
H  -0.6094566855 -1.3676754042  1.3373355800
H   0.6936368327  0.9169555642  0.2785303517
H  -2.5671675701 -2.0501164151  0.2593492237
H  -2.0458846975 -1.5025899271 -1.2295020144
H  -0.3727459070  2.3233193787  0.9897441658
H  -1.6555319920  1.3006900013  1.6801467139
H   2.7643391649  0.2897411620  1.5223260152
H   1.7259387725  0.7294157718 -2.0362944754
H   2.4360191321 -1.4073490436  1.1336767777
H   1.2734911198 -0.4486360649  2.0768434619
H   2.8514367610  1.2963213370 -0.8148978203
H   2.9609895237 -0.3712562138 -1.3901119336
22
Image 8  Energy = -383.5350304489
C  -0.7843250819 -0.9962278329  0.3357784721
C   1.3113022922  0.0495038822 -0.0318479235
C  -1.0018137419  1.4169095270  0.8248278714
C   1.9842070662 -0.4210048272  1.2459284971
C   2.2697661299  0.4313843854 -1.1357757034
N   0.2992338071 -0.8848606438 -0.5007119768
N  -2.0092421490 -1.3621902076 -0.2285230046
O  -1.6707438140  1.6292301251 -0.3988019251
H  -2.2624575679  0.8715794176 -0.4832933637
H   0.0264712469 -0.6750198565 -1.4551031390
H  -0.6094678793 -1.3671644295  1.3367865738
H   0.6958208429  0.9168449155  0.2772026160
H  -2.5659651457 -2.0488443945  0.2598160616
H  -2.0446603217 -1.5021644155 -1.2287986240
H  -0.3733184959  2.3178915744  0.9894759874
H  -1.6583112313  1.3012272706  1.6809969726
H   2.7644732138  0.2895372004  1.5222943040
H   1.7260908029  0.7292151706 -2.0361939608
H   2.4361662285 -1.4076514239  1.1335571557
H   1.2735916170 -0.4488645417  2.0762534475
H   2.8517770048  1.2960520676 -0.8150141440
H   2.9613121697 -0.3717429632 -1.3903891866
22
Image 9  Energy = -383.5358488726
C  -0.7851760309 -0.9882437795  0.3377681708
C   1.3120451192  0.0493405335 -0.0323023807
C  -1.0045543231  1.4123564292  0.8246321223
C   1.9845854428 -0.4212249789  1.2456427210
C   2.2704192221  0.4310987048 -1.1360766665
N   0.2999196451 -0.8852524861 -0.5004305355
N  -2.0086387062 -1.3602911241 -0.2279794744
O  -1.6719509734  1.6290897693 -0.3983317095
H  -2.2634756476  0.8715283831 -0.4846801046
H   0.0264416481 -0.6745847847 -1.4545835681
H  -0.6094970497 -1.3665484156  1.3362683688
H   0.6980853430  0.9168034392  0.2758606532
H  -2.5647139877 -2.0475372725  0.2603161163
H  -2.0433785632 -1.5017171558 -1.2280800564
H  -0.3738044988  2.3122905655  0.9892229504
H  -1.6610963098  1.3016690740  1.6817749035
H   2.7646353097  0.2893401413  1.5222734867
H   1.7262539605  0.7290126142 -2.0361155745
H   2.4363193685 -1.4079546240  1.1334306804
H   1.2736917318 -0.4490996503  2.0756715820
H   2.8521517060  1.2957935089 -0.8151397794
H   2.9616445871 -0.3722288913 -1.3906769002
22
Image 10  Energy = -383.5366726759
C  -0.7860311243 -0.9804309200  0.3397439449
C   1.3127822091  0.0491961953 -0.0327387878
C  -1.0073245920  1.4077874464  0.8244117126
C   1.9849750380 -0.4214374884  1.2453683412
C   2.2710757397  0.4308197714 -1.1363793767
N   0.3005388966 -0.8855707224 -0.5001105601
N  -2.0081419727 -1.3582464254 -0.2274221190
O  -1.6732184069  1.6289183041 -0.3978389076
H  -2.2645695108  0.8714598606 -0.4861342480
H   0.0264310434 -0.6741449412 -1.4540486984
H  -0.6095455226 -1.3658299228  1.3357816840
H   0.7004253883  0.9168352427  0.2745079448
H  -2.5634199137 -2.0461972906  0.2608448682
H  -2.0420432957 -1.5012501771 -1.2273441288
H  -0.3742059517  2.3065288792  0.9889843903
H  -1.6638862112  1.3020133673  1.6824866126
H   2.7648228938  0.2891483497  1.5222631170
H   1.7264288825  0.7288079997 -2.0360568067
H   2.4364777598 -1.4082568052  1.1332975645
H   1.2737932774 -0.4493410152  2.0750978234
H   2.8525577745  1.2955427756 -0.8152754376
H   2.9619845922 -0.3727124798 -1.3909739274
22
Image 11  Energy = -383.5375037908
C  -0.7868885699 -0.9727736999  0.3417043484
C   1.3135180918  0.0490701408 -0.0331576951
C  -1.0101232512  1.4031959925  0.8241679553
C   1.9853755140 -0.4216428160  1.2451042789
C   2.2717360751  0.4305457942 -1.1366840089
N   0.3010967990 -0.8858227644 -0.4997552456
N  -2.0077454688 -1.3560631148 -0.2268502684
O  -1.6745430450  1.6287161675 -0.3973304212
H  -2.2657350735  0.8713759608 -0.4876506548
H   0.0264361379 -0.6737000856 -1.4535008307
H  -0.6096144727 -1.3650109454  1.3353265881
H   0.7028355794  0.9169426994  0.2731476781
H  -2.5620879045 -2.0448259731  0.2613984137
H  -2.0406580774 -1.5007648791 -1.2265888823
H  -0.3745266109  2.3006165739  0.9887596348
H  -1.6666807102  1.3022595552  1.6831377892
H   2.7650338921  0.2889605159  1.5222629100
H   1.7266158980  0.7286013088 -2.0360156349
H   2.4366409666 -1.4085567697  1.1331580329
H   1.2738977235 -0.4495881949  2.0745321920
H   2.8529926125  1.2952975337 -0.8154216394
H   2.9623308863 -0.3731929954 -1.3912795319
22
Image 12  Energy = -383.5383443027
C  -0.7877472992 -0.9652554406  0.3436491324
C   1.3142559965  0.0489616812 -0.0335600202
C  -1.0129462983  1.3985728952  0.8239016668
C   1.9857864512 -0.4218414005  1.2448498775
C   2.2724004391  0.4302752670 -1.1369908599
N   0.3015982152 -0.8860139123 -0.4993671732
N  -2.0074428547 -1.3537484147 -0.2262634274
O  -1.6759223285  1.6284845299 -0.3968125654
H  -2.2669689371  0.8712783797 -0.4892248321
H   0.0264540101 -0.6732500180 -1.4529417207
H  -0.6097049455 -1.3640929716  1.3349025935
H   0.7053103866  0.9171268129  0.2717827316
H  -2.5607220670 -2.0434241620  0.2619733489
H  -2.0392261419 -1.5002621345 -1.2258125547
H  -0.3747713848  2.2945614950  0.9885480035
H  -1.6694799194  1.3024080699  1.6837335343
H   2.7652665845  0.2887755795  1.5222726465
H   1.7268152269  0.7283925100 -2.0359901942
H   2.4368087397 -1.4088536787  1.1330122925
H   1.2740063747 -0.4498406981  2.0739745372
H   2.8534539851  1.2950558347 -0.8155787651
H   2.9626827601 -0.3736702189 -1.3915932435
22
Image 13  Energy = -383.5391963758
C  -0.7886067787 -0.9578585642  0.3455790004
C   1.3149981363  0.0488703941 -0.0339467033
C  -1.0157887491  1.3939073551  0.8236133952
C   1.9862075518 -0.4220335101  1.2446044011
C   2.2730692775  0.4300068518 -1.1373001272
N   0.3020475416 -0.8861481029 -0.4989485357
N  -2.0072278509 -1.3513091256 -0.2256616760
O  -1.6773539611  1.6282246910 -0.3962906755
H  -2.2682681005  0.8711687063 -0.4908528365
H   0.0264821186 -0.6727945416 -1.4523726190
H  -0.6098178202 -1.3630771493  1.3345089197
H   0.7078445013  0.9173874379  0.2704156309
H  -2.5593261334 -2.0419926779  0.2625669813
H  -2.0377504418 -1.4997424390 -1.2250135083
H  -0.3749458624  2.2883696606  0.9883487780
H  -1.6722837433  1.3024600208  1.6842779190
H   2.7655194684  0.2885926596  1.5222921495
H   1.7270268865  0.7281816118 -2.0359789864
H   2.4369809580 -1.4091470294  1.1328605678
H   1.2741202426 -0.4500980442  2.0734248342
H   2.8539399283  1.2948160096 -0.8157471117
H   2.9630398237 -0.3741442085 -1.3919147876
22
Image 14  Energy = -383.5400620426
C  -0.7894671268 -0.9505650791  0.3474953428
C   1.3157460574  0.0487960831 -0.0343188376
C  -1.0186453808  1.3891881038  0.8233030881
C   1.9866383748 -0.4222193915  1.2443672707
C   2.2737427373  0.4297393769 -1.1376120290
N   0.3024489880 -0.8862283421 -0.4985012512
N  -2.0070948084 -1.3487519974 -0.2250448681
O  -1.6788355196  1.6279378117 -0.3957688098
H  -2.2696299789  0.8710483947 -0.4925312510
H   0.0265182258 -0.6723334271 -1.4517944744
H  -0.6099538307 -1.3619643449  1.3341446577
H   0.7104330165  0.9177236230  0.2690485426
H  -2.5579030191 -2.0405318060  0.2631768558
H  -2.0362336398 -1.4992060433 -1.2241905142
H  -0.3750560361  2.2820453745  0.9881611925
H  -1.6750918946  1.3024168501  1.6847742480
H   2.7657913328  0.2884110567  1.5223213049
H   1.7272508521  0.7279686136 -2.0359806343
H   2.4371576282 -1.4094365317  1.1327030587
H   1.2742402225 -0.4503597370  2.0728829878
H   2.8544488027  1.2945767242 -0.8159268695
H   2.9634019896 -0.3746153081 -1.3922439997
22
Image 15  Energy = -383.5409435068
C  -0.7903287763 -0.9433568906  0.3494003922
C   1.3165005809  0.0487387577 -0.0346774569
C  -1.0215113491  1.3844039039  0.8229704424
C   1.9870787529 -0.4223992343  1.2441378562
C   2.2744211838  0.4294719094 -1.1379267554
N   0.3028064221 -0.8862569855 -0.4980270779
N  -2.0070385886 -1.3460833740 -0.2244133434
O  -1.6803644838  1.6276247980 -0.3952499316
H  -2.2710522862  0.8709188275 -0.4942570954
H   0.0265604315 -0.6718664106 -1.4512078598
H  -0.6101136255 -1.3607551699  1.3338086355
H   0.7130715649  0.9181337605  0.2676832797
H  -2.5564552227 -2.0390417826  0.2638009590
H  -2.0346781323 -1.4986529748 -1.2233423361
H  -0.3751080309  2.2755915466  0.9879844349
H  -1.6779036657  1.3022800998  1.6852248837
H   2.7660810408  0.2882301327  1.5223599960
H   1.7274870068  0.7277535044 -2.0359939723
H   2.4373387371 -1.4097219573  1.1325399708
H   1.2743669994 -0.4506253107  2.0723489816
H   2.8549791692  1.2943367981 -0.8161181971
H   2.9637692669 -0.3750839480 -1.3925807960
22
Image 16  Energy = -383.5418428712
C  -0.7911926287 -0.9362161820  0.3512964948
C   1.3172623097  0.0486985731 -0.0350236239
C  -1.0243823479  1.3795441533  0.8226146644
C   1.9875283144 -0.4225732571  1.2439155492
C   2.2751046805  0.4292036765 -1.1382444141
N   0.3031233777 -0.8862359820 -0.4975273944
N  -2.0070544005 -1.3433089669 -0.2237672815
O  -1.6819381358  1.6272861197 -0.3947358982
H  -2.2725329533  0.8707814010 -0.4960277683
H   0.0266070781 -0.6713931584 -1.4506132321
H  -0.6102977325 -1.3594500740  1.3334997385
H   0.7157563525  0.9186158697  0.2663213423
H  -2.5549848857 -2.0375228512  0.2644376508
H  -2.0330860654 -1.4980831680 -1.2224681474
H  -0.3751079867  2.2690098206  0.9878176149
H  -1.6807181130  1.3020512095  1.6856316137
H   2.7663877413  0.2880494741  1.5224081723
H   1.7277352060  0.7275362811 -2.0360179713
H   2.4375242722 -1.4100031586  1.1323714918
H   1.2745012204 -0.4508943456  2.0718227409
H   2.8555298515  1.2940953061 -0.8163211885
H   2.9641418418 -0.3755507414 -1.3929251436
22
Image 17  Energy = -383.5427621772
C  -0.7920598218 -0.9291257093  0.3531863899
C   1.3180314284  0.0486757609 -0.0353583255
C  -1.0272547225  1.3745992072  0.8222348193
C   1.9879868285 -0.4227415418  1.2436998298
C   2.2757935996  0.4289340116 -1.1385651203
N   0.3034030402 -0.8861669882 -0.4970034577
N  -2.0071381647 -1.3404341455 -0.2231070917
O  -1.6835535486  1.6269219191 -0.3942277396
H  -2.2740702368  0.8706373688 -0.4978410384
H   0.0266567727 -0.6709132898 -1.4500107757
H  -0.6105065980 -1.3580493049  1.3332167584
H   0.7184841530  0.9191677234  0.2649639391
H  -2.5534936917 -2.0359751263  0.2650855114
H  -2.0314593447 -1.4974964434 -1.2215671424
H  -0.3750618778  2.2623008395  0.9876598127
H  -1.6835339759  1.3017313835  1.6859956073
H   2.7667106383  0.2878686720  1.5224657605
H   1.7279952229  0.7273169523 -2.0360518142
H   2.4377142509 -1.4102800716  1.1321977732
H   1.2746434093 -0.4511664509  2.0713042155
H   2.8560998406  1.2938514599 -0.8165359210
H   2.9645197939 -0.3760162270 -1.3932769801
22
Image 18  Energy = -383.5437033701
C  -0.7929317711 -0.9220691792  0.3550727421
C   1.3188079793  0.0486706465 -0.0356823707
C  -1.0301254883  1.3695605220  0.8218298324
C   1.9884539941 -0.4229041740  1.2434901455
C   2.2764881869  0.4286625499 -1.1388890404
N   0.3036481934 -0.8860514862 -0.4964560839
N  -2.0072861313 -1.3374636737 -0.2224331488
O  -1.6852077448  1.6265318518 -0.3937258565
H  -2.2756624736  0.8704880741 -0.4996949284
H   0.0267082814 -0.6704263424 -1.4494007128
H  -0.6107406291 -1.3565529448  1.3329584973
H   0.7212523268  0.9197869709  0.2636120150
H  -2.5519830310 -2.0343987471  0.2657433745
H  -2.0297996615 -1.4968925695 -1.2206386585
H  -0.3749754717  2.2554644499  0.9875100434
H  -1.6863497699  1.3013215217  1.6863176149
H   2.7670490882  0.2876874442  1.5225327048
H   1.7282668702  0.7270954817 -2.0360947011
H   2.4379086633 -1.4105526551  1.1320189485
H   1.2747940461 -0.4514412777  2.0707933099
H   2.8566882723  1.2936045687 -0.8167624526
H   2.9649032661 -0.3764810301 -1.3936362655
22
Image 19  Energy = -383.5446683641
C  -0.7938099004 -0.9150315680  0.3569582372
C   1.3195920457  0.0486835524 -0.0359967218
C  -1.0329922109  1.3644210100  0.8213986486
C   1.9889296812 -0.4230611374  1.2432859684
C   2.2771885236  0.4283888953 -1.1392161950
N   0.3038612183 -0.8858907068 -0.4958859093
N  -2.0074952368 -1.3344019317 -0.2217458341
O  -1.6868975967  1.6261153781 -0.3932302210
H  -2.2773083103  0.8703346539 -0.5015877384
H   0.0267605802 -0.6699318200 -1.4487830464
H  -0.6110002035 -1.3549608859  1.3327237052
H   0.7240586742  0.9204712767  0.2622663181
H  -2.5504539661 -2.0327938110  0.2664102640
H  -2.0281084790 -1.4962712638 -1.2196821745
H  -0.3748542372  2.2484998795  0.9873673101
H  -1.6891638355  1.3008221300  1.6865980399
H   2.7674024451  0.2875055089  1.5226089495
H   1.7285499587  0.7268718504 -2.0361459611
H   2.4381074750 -1.4108208992  1.1318351094
H   1.2749535260 -0.4517185040  2.0702900144
H   2.8572944862  1.2933541420 -0.8170008163
H   2.9652923603 -0.3769457452 -1.3940029375
22
Image 20  Energy = -383.5456588461
C  -0.7946958416 -0.9079993576  0.3588453028
C   1.3203834953  0.0487147365 -0.0363019728
C  -1.0358531456  1.3591748629  0.8209402128
C   1.9894136265 -0.4232124718  1.2430868037
C   2.2778949461  0.4281128040 -1.1395467804
N   0.3040440274 -0.8856856783 -0.4952935691
N  -2.0077625947 -1.3312526646 -0.2210455713
O  -1.6886198927  1.6256716038 -0.3927404349
H  -2.2790064922  0.8701782361 -0.5035179417
H   0.0268128373 -0.6694292323 -1.4481575289
H  -0.6112856813 -1.3532728588  1.3325111692
H   0.7269014269  0.9212183854  0.2609274353
H  -2.5489074201 -2.0311605553  0.2670854382
H  -2.0263871065 -1.4956322360 -1.2186972419
H  -0.3747032322  2.2414061226  0.9872306086
H  -1.6919743536  1.3002333296  1.6868370096
H   2.7677702567  0.2873227106  1.5226944616
H   1.7288442460  0.7266460391 -2.0362050156
H   2.4383106221 -1.4110847529  1.1316463291
H   1.2751222507 -0.4519978463  2.0697942137
H   2.8579179115  1.2930997590 -0.8172510203
H   2.9656871117 -0.3774109327 -1.3943768983
22
Image 21  Energy = -383.5466764324
C  -0.7955910634 -0.9009607382  0.3607361124
C   1.3211821625  0.0487644942 -0.0365987910
C  -1.0387069117  1.3538178736  0.8204536299
C   1.9899057251 -0.4233581673  1.2428921912
C   2.2786075209  0.4278340901 -1.1398808448
N   0.3041981316 -0.8854372475 -0.4946791704
N  -2.0080859399 -1.3280194044 -0.2203326856
O  -1.6903715195  1.6251993484 -0.3922560552
H  -2.2807558586  0.8700199351 -0.5054841813
H   0.0268642925 -0.6689180038 -1.4475240239
H  -0.6115974215 -1.3514884442  1.3323196756
H   0.7297792302  0.9220260854  0.2595957960
H  -2.5473439569 -2.0294990637  0.2677681967
H  -2.0246366855 -1.4949751864 -1.2176835144
H  -0.3745271666  2.2341819540  0.9870989569
H  -1.6947794124  1.2995548126  1.6870345186
H   2.7681520831  0.2871388937  1.5227891939
H   1.7291495408  0.7264180229 -2.0362713531
H   2.4385180168 -1.4113441682  1.1314526562
H   1.2753005319 -0.4522790513  2.0693058326
H   2.8585581372  1.2928411152 -0.8175130754
H   2.9660875633 -0.3778771458 -1.3947580542
22
Image 22  Energy = -383.5477224855
C  -0.7964970997 -0.8939055920  0.3626323394
C   1.3219881412  0.0488330538 -0.0368877198
C  -1.0415524579  1.3483471493  0.8199380851
C   1.9904057359 -0.4234981610  1.2427017499
C   2.2793263768  0.4275526466 -1.1402183651
N   0.3043245514 -0.8851461169 -0.4940427722
N  -2.0084633488 -1.3247053079 -0.2196077122
O  -1.6921492029  1.6246974271 -0.3917765044
H  -2.2825554846  0.8698606161 -0.5074852354
H   0.0269143180 -0.6683975641 -1.4468822337
H  -0.6119357398 -1.3496071429  1.3321482030
H   0.7326909457  0.9228923977  0.2582717380
H  -2.5457640381 -2.0278095231  0.2684580074
H  -2.0228582142 -1.4942997881 -1.2166405514
H  -0.3743303508  2.2268262141  0.9869713906
H  -1.6975771122  1.2987859178  1.6871904999
H   2.7685475883  0.2869539796  1.5228931082
H   1.7294656100  0.7261877892 -2.0363445890
H   2.4387295859 -1.4115991604  1.1312540919
H   1.2754887020 -0.4525618870  2.0688247475
H   2.8592148153  1.2925779568 -0.8177869854
H   2.9664936801 -0.3783449017 -1.3951462807
22
Image 23  Energy = -383.5487982890
C  -0.7974154620 -0.8868257211  0.3645354539
C   1.3228012148  0.0489205975 -0.0371691634
C  -1.0443889692  1.3427611477  0.8193930510
C   1.9909136866 -0.4236323952  1.2425150512
C   2.2800516396  0.4272684281 -1.1405594562
N   0.3044240569 -0.8848127131 -0.4933843537
N  -2.0088930774 -1.3213131137 -0.2188710425
O  -1.6939499420  1.6241643494 -0.3913013689
H  -2.2844043508  0.8697012805 -0.5095199408
H   0.0269623753 -0.6678673429 -1.4462317573
H  -0.6123009986 -1.3476282948  1.3319956320
H   0.7356356841  0.9238154766  0.2569555503
H  -2.5441680205 -2.0260921954  0.2691544799
H  -2.0210525826 -1.4936057558 -1.2155681076
H  -0.3741167490  2.2193378642  0.9868469941
H  -1.7003654850  1.2979256626  1.6873047905
H   2.7689563971  0.2867678440  1.5230061557
H   1.7297922561  0.7259553006 -2.0364242981
H   2.4389452104 -1.4118496722  1.1310506480
H   1.2756869978 -0.4528461331  2.0683508971
H   2.8598876823  1.2923100831 -0.8180727467
H   2.9669054383 -0.3788146943 -1.3955414577
22
Image 24  Energy = -383.5499048331
C  -0.7983474980 -0.8797145331  0.3664464120
C   1.3236213570  0.0490273173 -0.0374433793
C  -1.0472157723  1.3370593641  0.8188180757
C   1.9914294544 -0.4237608437  1.2423317372
C   2.2807834387  0.4269813280 -1.1409042161
N   0.3044970216 -0.8844372984 -0.4927036219
N  -2.0093739035 -1.3178455383 -0.2181231469
O  -1.6957705713  1.6235988287 -0.3908302369
H  -2.2863017349  0.8695425832 -0.5115872609
H   0.0270079824 -0.6673267330 -1.4455722199
H  -0.6126935155 -1.3455512084  1.3318610552
H   0.7386127340  0.9247935943  0.2556474482
H  -2.5425560743 -2.0243472593  0.2698572623
H  -2.0192205628 -1.4928927826 -1.2144659096
H  -0.3738899061  2.2117162020  0.9867249225
H  -1.7031426251  1.2969727846  1.6873772535
H   2.7693782465  0.2865804712  1.5231282828
H   1.7301292784  0.7257205383 -2.0365101438
H   2.4391647533 -1.4120956668  1.1308422987
H   1.2758956647 -0.4531315945  2.0678841644
H   2.8605765410  1.2920373676 -0.8183703485
H   2.9673226945 -0.3792869205 -1.3959434169
22
Image 25  Energy = -383.5510430595
C  -0.7992946421 -0.8725670347  0.3683658777
C   1.3244485548  0.0491532473 -0.0377107046
C  -1.0500323728  1.3312420314  0.8182129719
C   1.9919528716 -0.4238834547  1.2421515483
C   2.2815218342  0.4266912912 -1.1412525894
N   0.3045435573 -0.8840198596 -0.4920003432
N  -2.0099045233 -1.3143048941 -0.2173645877
O  -1.6976082768  1.6229993544 -0.3903629652
H  -2.2882467067  0.8693853705 -0.5136861299
H   0.0270507194 -0.6667751555 -1.4449031086
H  -0.6131136086 -1.3433751143  1.3317436271
H   0.7416214403  0.9258252780  0.2543476532
H  -2.5409283892 -2.0225750620  0.2705661654
H  -2.0173628860 -1.4921606004 -1.2133337335
H  -0.3736529738  2.2039609425  0.9866044108
H  -1.7059066329  1.2959258426  1.6874077238
H   2.7698129617  0.2863918517  1.5232594582
H   1.7304764591  0.7254835077 -2.0366018638
H   2.4393881303 -1.4123371393  1.1306290085
H   1.2761149359 -0.4534180771  2.0674244028
H   2.8612812108  1.2917596781 -0.8186798031
H   2.9677453388 -0.3797620021 -1.3963520074
22
Image 26  Energy = -383.5522136868
C  -0.8002580514 -0.8653794284  0.3702940975
C   1.3252828549  0.0492984848 -0.0379712087
C  -1.0528382016  1.3253100081  0.8175776523
C   1.9924839851 -0.4240001265  1.2419741565
C   2.2822668427  0.4263982333 -1.1416045643
N   0.3045635296 -0.8835602369 -0.4912740809
N  -2.0104841479 -1.3106936175 -0.2165958709
O  -1.6994602604  1.6223646516 -0.3898995804
H  -2.2902385014  0.8692302706 -0.5158155578
H   0.0270901504 -0.6662120086 -1.4442239987
H  -0.6135615684 -1.3410992793  1.3316426806
H   0.7446612415  0.9269091324  0.2530563629
H  -2.5392850293 -2.0207758371  0.2712809859
H  -2.0154801908 -1.4914089353 -1.2121713921
H  -0.3734088097  2.1960721383  0.9864847628
H  -1.7086556969  1.2947832400  1.6873961135
H   2.7702602751  0.2862019365  1.5233996077
H   1.7308335592  0.7252442051 -2.0366992635
H   2.4396151914 -1.4125740440  1.1304107307
H   1.2763449578 -0.4537054041  2.0669715480
H   2.8620016066  1.2914769526 -0.8190010852
H   2.9681732663 -0.3802403342 -1.3967670851
22
Image 27  Energy = -383.5534174159
C  -0.8012390049 -0.8581490772  0.3722312072
C   1.3261242953  0.0494631354 -0.0382248256
C  -1.0556326767  1.3192644426  0.8169120583
C   1.9930226816 -0.4241108464  1.2417992922
C   2.2830184354  0.4261021049 -1.1419603726
N   0.3045566024 -0.8830580579 -0.4905243976
N  -2.0111119708 -1.3070139483 -0.2158175630
O  -1.7013239313  1.6216934433 -0.3894402542
H  -2.2922762808  0.8690779441 -0.5179745540
H   0.0271258926 -0.6656366855 -1.4435344469
H  -0.6140376603 -1.3387229334  1.3315576330
H   0.7477316349  0.9280438932  0.2517737696
H  -2.5376260383 -2.0189498812  0.2720016169
H  -2.0135730933 -1.4906375431 -1.2109787632
H  -0.3731599479  2.1880502630  0.9863653723
H  -1.7113880676  1.2935432866  1.6873423416
H   2.7707200483  0.2860107556  1.5235486774
H   1.7312004669  0.7250025918 -2.0368019911
H   2.4398457987 -1.4128063332  1.1301874305
H   1.2765858977 -0.4539934058  2.0665254495
H   2.8627376100  1.2911891044 -0.8193341885
H   2.9686063118 -0.3807222503 -1.3971884796
22
Image 28  Energy = -383.5546547220
C  -0.8022386912 -0.8508740211  0.3741771277
C   1.3269728592  0.0496471377 -0.0384716968
C  -1.0584152005  1.3131065215  0.8162161939
C   1.9935689397 -0.4242154980  1.2416268474
C   2.2837766712  0.4258028173 -1.1423199178
N   0.3045224282 -0.8825127264 -0.4897508354
N  -2.0117873888 -1.3032681572 -0.2150301875
O  -1.7031967495  1.6209846538 -0.3889853173
H  -2.2943592674  0.8689289384 -0.5201621550
H   0.0271575541 -0.6650485852 -1.4428339648
H  -0.6145421319 -1.3362453222  1.3314880054
H   0.7508320731  0.9292284958  0.2505001126
H  -2.5359514188 -2.0170974533  0.2727279861
H  -2.0116421753 -1.4898461960 -1.2097558124
H  -0.3729086626  2.1798961241  0.9862457020
H  -1.7141020690  1.2922042785  1.6872464006
H   2.7711921145  0.2858182841  1.5237065877
H   1.7315769231  0.7247586770 -2.0369099186
H   2.4400798532 -1.4130340147  1.1299590396
H   1.2768378776 -0.4542819103  2.0660859840
H   2.8634891331  1.2908960444 -0.8196791158
H   2.9690443311 -0.3812080851 -1.3976160526
22
Image 29  Energy = -383.5559261529
C  -0.8032583069 -0.8435528631  0.3761316993
C   1.3278286553  0.0498505479 -0.0387117215
C  -1.0611851406  1.3068372607  0.8154901077
C   1.9941227555 -0.4243140652  1.2414565439
C   2.2845414625  0.4255002728 -1.1426831854
N   0.3044604921 -0.8819235089 -0.4889529017
N  -2.0125097701 -1.2994583841 -0.2142344904
O  -1.7050764025  1.6202373574 -0.3885352884
H  -2.2964866442  0.8687837874 -0.5223773998
H   0.0271847380 -0.6644470920 -1.4421221484
H  -0.6150751999 -1.3336657377  1.3314334628
H   0.7539620870  0.9304618858  0.2492355995
H  -2.5342612670 -2.0152189487  0.2734601410
H  -2.0096879946 -1.4890346616 -1.2085024155
H  -0.3726569245  2.1716108885  0.9861253148
H  -1.7167960711  1.2907644978  1.6871082313
H   2.7716763477  0.2856245464  1.5238732825
H   1.7319627385  0.7245124556 -2.0370228716
H   2.4403171945 -1.4132570107  1.1297255212
H   1.2771009723 -0.4545707554  2.0656530600
H   2.8642560981  1.2905976924 -0.8200358682
H   2.9694871826 -0.3816981609 -1.3980496613
22
Image 30  Energy = -383.5572322583
C  -0.8042990644 -0.8361844117  0.3780947110
C   1.3286916827  0.0500733902 -0.0389448284
C  -1.0639417202  1.3004575115  0.8147337027
C   1.9946840389 -0.4244064749  1.2412883376
C   2.2853128524  0.4251943347 -1.1430503206
N   0.3043702598 -0.8812895466 -0.4881301293
N  -2.0132786180 -1.2955868117 -0.2134310795
O  -1.7069607403  1.6194506677 -0.3880907735
H  -2.2986575206  0.8686430858 -0.5246193263
H   0.0272070636 -0.6638315781 -1.4413985796
H  -0.6156370446 -1.3309835399  1.3313938261
H   0.7571211946  0.9317431416  0.2479804824
H  -2.5325556391 -2.0133147082  0.2741981266
H  -2.0077111039 -1.4882027501 -1.2072186188
H  -0.3724065688  2.1631958460  0.9860038231
H  -1.7194685438  1.2892222406  1.6869278766
H   2.7721726679  0.2854295627  1.5240486791
H   1.7323577214  0.7242639132 -2.0371406426
H   2.4405577266 -1.4134753226  1.1294868053
H   1.2773752537 -0.4548597772  2.0652265375
H   2.8650384230  1.2902939606 -0.8204044446
H   2.9699346828 -0.3821927304 -1.3984891518
22
Image 31  Energy = -383.5585734544
C  -0.8053621265 -0.8287676758  0.3800660375
C   1.3295620174  0.0503156327 -0.0391709035
C  -1.0666841976  1.2939677718  0.8139468836
C   1.9952528343 -0.4244926047  1.2411220398
C   2.2860906908  0.4248848842 -1.1434213134
N   0.3042512723 -0.8806098068 -0.4872819995
N  -2.0140935755 -1.2916556925 -0.2126206110
O  -1.7088476930  1.6186239061 -0.3876524494
H  -2.3008710457  0.8685073487 -0.5268870004
H   0.0272241026 -0.6632014025 -1.4406628965
H  -0.6162278635 -1.3281980719  1.3313688762
H   0.7603089230  0.9330714388  0.2467350187
H  -2.5308345989 -2.0113850560  0.2749420237
H  -2.0057120086 -1.4873502529 -1.2059044257
H  -0.3721592031  2.1546524823  0.9858809019
H  -1.7221179619  1.2875758299  1.6867052925
H   2.7726809468  0.2852333122  1.5242326912
H   1.7327616851  0.7240130390 -2.0372630935
H   2.4408013231 -1.4136889275  1.1292428490
H   1.2776607096 -0.4551488216  2.0648063552
H   2.8658360522  1.2899847722 -0.8207848457
H   2.9703867213 -0.3826921029 -1.3989344174
22
Image 32  Energy = -383.5599503195
C  -0.8064487084 -0.8213016627  0.3820456242
C   1.3304397087  0.0505773156 -0.0393899210
C  -1.0694116761  1.2873682901  0.8131293967
C   1.9958290787 -0.4245724617  1.2409576225
C   2.2868750604  0.4245717842 -1.1437961272
N   0.3041029596 -0.8798831923 -0.4864080126
N  -2.0149542858 -1.2876672845 -0.2118036333
O  -1.7107354292  1.6177563899 -0.3872210733
H  -2.3031262459  0.8683772202 -0.5291794821
H   0.0272354554 -0.6625559056 -1.4399147705
H  -0.6168478138 -1.3253087693  1.3313585473
H   0.7635248294  0.9344459996  0.2454994806
H  -2.5290981880 -2.0094302928  0.2756918986
H  -2.0036912407 -1.4864770190 -1.2045599872
H  -0.3719163333  2.1459823208  0.9857562825
H  -1.7247428706  1.2858236192  1.6864404788
H   2.7732011541  0.2850358391  1.5244252497
H   1.7331743951  0.7237598318 -2.0373901062
H   2.4410478414 -1.4138977518  1.1289936051
H   1.2779573743 -0.4554377331  2.0643923589
H   2.8666488492  1.2896699590 -0.8211771033
H   2.9708430894 -0.3831964942 -1.3993853145
22
Image 33  Energy = -383.5613633354
C  -0.8075600581 -0.8137853778  0.3840334379
C   1.3313249236  0.0508583897 -0.0396017163
C  -1.0721234023  1.2806590139  0.8122809539
C   1.9964127151 -0.4246459340  1.2407949756
C   2.2876657734  0.4242549130 -1.1441748303
N   0.3039248635 -0.8791085094 -0.4855077683
N  -2.0158604443 -1.2836238842 -0.2109808118
O  -1.7126219836  1.6168477432 -0.3867973715
H  -2.3054223143  0.8682531333 -0.5314958872
H   0.0272407031 -0.6618944299 -1.4391538283
H  -0.6174970615 -1.3223151037  1.3313628193
H   0.7667684769  0.9358661609  0.2442741670
H  -2.5273465060 -2.0074507576  0.2764478685
H  -2.0016493125 -1.4855828767 -1.2031853564
H  -0.3716792671  2.1371869812  0.9856297281
H  -1.7273418159  1.2839640018  1.6861333896
H   2.7737332178  0.2848371420  1.5246262640
H   1.7335956713  0.7235042740 -2.0375215588
H   2.4412971561 -1.4141017592  1.1287390254
H   1.2782652154 -0.4557263622  2.0639844657
H   2.8674767691  1.2893494473 -0.8215812095
H   2.9713036850 -0.3837062016 -1.3998417448
22
Image 34  Energy = -383.5628130191
C  -0.8086973490 -0.8062180070  0.3860295735
C   1.3322175417  0.0511590144 -0.0398063145
C  -1.0748183711  1.2738400269  0.8114012691
C   1.9970037788 -0.4247129907  1.2406340608
C   2.2884627042  0.4239341024 -1.1445574201
N   0.3037164704 -0.8782845471 -0.4845808105
N  -2.0168116110 -1.2795276058 -0.2101528427
O  -1.7145057383  1.6158974694 -0.3863821840
H  -2.3077582583  0.8681357494 -0.5338353236
H   0.0272394425 -0.6612162823 -1.4383797656
H  -0.6181757944 -1.3192165851  1.3313816663
H   0.7700395461  0.9373312281  0.2430593586
H  -2.5255797849 -2.0054469787  0.2772101672
H  -1.9995867445 -1.4846676987 -1.2017806743
H  -0.3714493115  2.1282679442  0.9855010315
H  -1.7299133826  1.2819953789  1.6857839448
H   2.7742771441  0.2846372475  1.5248356669
H   1.7340253298  0.7232463327 -2.0376572819
H   2.4415491542 -1.4143009142  1.1284790765
H   1.2785841300 -0.4560145583  2.0635826005
H   2.8683197524  1.2890231364 -0.8219971876
H   2.9717683577 -0.3842214569 -1.4003036000
22
Image 35  Energy = -383.5642998635
C  -0.8098617472 -0.7985989911  0.3880339780
C   1.3331175777  0.0514791055 -0.0400035174
C  -1.0774958876  1.2669114242  0.8104901104
C   1.9976021571 -0.4247734601  1.2404749330
C   2.2892659592  0.4236093091 -1.1449438919
N   0.3034774021 -0.8774100065 -0.4836266273
N  -2.0178075630 -1.2753808892 -0.2093203316
O  -1.7163849538  1.6149052753 -0.3859762938
H  -2.3101331549  0.8680256133 -0.5361969125
H   0.0272312191 -0.6605207531 -1.4375923230
H  -0.6188842004 -1.3160127872  1.3314151270
H   0.7733376436  0.9388406759  0.2418553866
H  -2.5237981360 -2.0034192820  0.2779788989
H  -1.9975040634 -1.4837313493 -1.2003460195
H  -0.3712275784  2.1192268342  0.9853700163
H  -1.7324560909  1.2799162148  1.6853919799
H   2.7748328518  0.2844361220  1.5250533546
H   1.7344631238  0.7229859966 -2.0377972350
H   2.4418037098 -1.4144951974  1.1282137037
H   1.2789141382 -0.4563021668  2.0631865425
H   2.8691776491  1.2886908084 -0.8224250821
H   2.9722369483 -0.3847424922 -1.4007707878
22
Image 36  Energy = -383.5658241051
C  -0.8110543662 -0.7909284633  0.3900466776
C   1.3340251147  0.0518187960 -0.0401933639
C  -1.0801550383  1.2598740123  0.8095471354
C   1.9982079176 -0.4248273807  1.2403175615
C   2.2900753056  0.4232803737 -1.1453343115
N   0.3032072114 -0.8764835550 -0.4826447908
N  -2.0188480923 -1.2711862775 -0.2084837230
O  -1.7182580604  1.6138707795 -0.3855804558
H  -2.3125460061  0.8679233845 -0.5385798012
H   0.0272156116 -0.6598071259 -1.4367912027
H  -0.6196225194 -1.3127033220  1.3314631689
H   0.7766624153  0.9403939759  0.2406625960
H  -2.5220016443 -2.0013679530  0.2787541342
H  -1.9954017995 -1.4827737283 -1.1988815753
H  -0.3710151648  2.1100652212  0.9852365412
H  -1.7349685799  1.2777249716  1.6849574059
H   2.7754003233  0.2842337716  1.5252792487
H   1.7349088984  0.7227232256 -2.0379412517
H   2.4420606450 -1.4146844682  1.1279428889
H   1.2792551043 -0.4565890443  2.0627962393
H   2.8700503981  1.2883523660 -0.8228649006
H   2.9727093287 -0.3852695549 -1.4012432124
22
Image 37  Energy = -383.5673859936
C  -0.8122761817 -0.7832074215  0.3920672013
C   1.3349401801  0.0521780982 -0.0403757736
C  -1.0827951447  1.2527293204  0.8085722670
C   1.9988208789 -0.4248745913  1.2401618538
C   2.2908907239  0.4229471651 -1.1457285861
N   0.3029053872 -0.8755038259 -0.4816347660
N  -2.0199326113 -1.2669460976 -0.2076436813
O  -1.7201234696  1.6127937216 -0.3851954600
H  -2.3149957928  0.8678297078 -0.5409831115
H   0.0271921892 -0.6590746899 -1.4359761045
H  -0.6203909837 -1.3092879460  1.3315258504
H   0.7800135140  0.9419906594  0.2394813403
H  -2.5201906672 -1.9992936264  0.2795361235
H  -1.9932805538 -1.4817947571 -1.1973874323
H  -0.3708130123  2.1007848786  0.9851004768
H  -1.7374494686  1.2754201778  1.6844800956
H   2.7759796173  0.2840302234  1.5255132899
H   1.7353624154  0.7224580032 -2.0380893011
H   2.4423198905 -1.4148687645  1.1276665934
H   1.2796068917 -0.4568750405  2.0624115970
H   2.8709378965  1.2880076407 -0.8233166930
H   2.9731853029 -0.3858028305 -1.4017207708
22
Image 38  Energy = -383.5689853888
C  -0.8135279593 -0.7754382369  0.3940949713
C   1.3358626278  0.0525571188 -0.0405505518
C  -1.0854155270  1.2454802407  0.8075656898
C   1.9994410011 -0.4249150693  1.2400077824
C   2.2917119950  0.4226095660 -1.1461268961
N   0.3025715966 -0.8744693995 -0.4805961910
N  -2.0210608682 -1.2626631472 -0.2068005972
O  -1.7219796303  1.6116739147 -0.3848221070
H  -2.3174814786  0.8677452168 -0.5434059702
H   0.0271605317 -0.6583227405 -1.4351467185
H  -0.6211898619 -1.3057665174  1.3316032527
H   0.7833905890  0.9436302412  0.2383119955
H  -2.5183654163 -1.9971966958  0.2803249620
H  -1.9911409440 -1.4807943881 -1.1958638725
H  -0.3706220139  2.0913877454  0.9849617282
H  -1.7398974035  1.2730004245  1.6839599154
H   2.7765707123  0.2838254667  1.5257553911
H   1.7358235385  0.7221902741 -2.0382412143
H   2.4425812891 -1.4150479870  1.1273847978
H   1.2799693680 -0.4571600036  2.0620324901
H   2.8718401014  1.2876565338 -0.8237804704
H   2.9736647541 -0.3863425513 -1.4022033776
22
Image 39  Energy = -383.5706218264
C  -0.8148102159 -0.7676250142  0.3961287440
C   1.3367924517  0.0529558600 -0.0407176972
C  -1.0880157014  1.2381312032  0.8065278602
C   2.0000682157 -0.4249487370  1.2398554901
C   2.2925390366  0.4222675425 -1.1465290912
N   0.3022052921 -0.8733788652 -0.4795285015
N  -2.0222321897 -1.2583402710 -0.2059550984
O  -1.7238249990  1.6105111906 -0.3844611489
H  -2.3200019108  0.8676706062 -0.5458474340
H   0.0271202071 -0.6575505748 -1.4343028346
H  -0.6220194423 -1.3021390732  1.3316954680
H   0.7867931169  0.9453123756  0.2371550066
H  -2.5165263001 -1.9950777894  0.2811208494
H  -1.9889836843 -1.4797725600 -1.1943109996
H  -0.3704428940  2.0818761973  0.9848202104
H  -1.7423111185  1.2704644145  1.6833967843
H   2.7771735551  0.2836194340  1.5260054429
H   1.7362920211  0.7219200272 -2.0383969928
H   2.4428447222 -1.4152220677  1.1270974687
H   1.2803424189 -0.4574437661  2.0616587298
H   2.8727568778  1.2872988346 -0.8242562949
H   2.9741475432 -0.3868889618 -1.4026909515
22
Image 40  Energy = -383.5722942813
C  -0.8161231556 -0.7597739109  0.3981667688
C   1.3377294496  0.0533743463 -0.0408770258
C  -1.0905951725  1.2306886720  0.8054595366
C   2.0007024407 -0.4249755610  1.2397048290
C   2.2933717241  0.4219208809 -1.1469352241
N   0.3018060944 -0.8722307291 -0.4784313433
N  -2.0234460310 -1.2539808213 -0.2051076607
O  -1.7256579992  1.6093055613 -0.3841133829
H  -2.3225559130  0.8676065024 -0.5483065134
H   0.0270708105 -0.6567575410 -1.4334441658
H  -0.6228799891 -1.2984059256  1.3318027276
H   0.7902205069  0.9470366153  0.2360108415
H  -2.5146736800 -1.9929374017  0.2819238636
H  -1.9868095897 -1.4787292562 -1.1927290757
H  -0.3702763034  2.0722530963  0.9846759028
H  -1.7446895075  1.2678110125  1.6827908225
H   2.7777881834  0.2834121375  1.5262633810
H   1.7367676890  0.7216472285 -2.0385565378
H   2.4431100610 -1.4153909421  1.1268045940
H   1.2807257899 -0.4577261739  2.0612902512
H   2.8736881374  1.2869344069 -0.8247442013
H   2.9746334575 -0.3874421909 -1.4031833781
22
Image 41  Energy = -383.5740012519
C  -0.8174666877 -0.7518935864  0.4002066730
C   1.3386733431  0.0538125694 -0.0410283294
C  -1.0931537363  1.2231611819  0.8043619807
C   2.0013434723 -0.4249954959  1.2395558991
C   2.2942099581  0.4215695666 -1.1473452496
N   0.3013736848 -0.8710234855 -0.4773044474
N  -2.0247015762 -1.2495883766 -0.2042587766
O  -1.7274771720  1.6080570975 -0.3837797037
H  -2.3251420831  0.8675536341 -0.5507820774
H   0.0270119442 -0.6559430365 -1.4325704949
H  -0.6237717716 -1.2945676821  1.3319253242
H   0.7936719963  0.9488025130  0.2348800306
H  -2.5128081193 -1.9907762199  0.2827341612
H  -1.9846195935 -1.4776644957 -1.1911184884
H  -0.3701225976  2.0625221761  0.9845288412
H  -1.7470315700  1.2650392847  1.6821422296
H   2.7784145702  0.2832035282  1.5265290957
H   1.7372503289  0.7213718549 -2.0387198374
H   2.4433771902 -1.4155545450  1.1265061567
H   1.2811193396 -0.4580070624  2.0609268262
H   2.8746337434  1.2865630412 -0.8252442420
H   2.9751223393 -0.3880024558 -1.4036805610
22
Image 42  Energy = -383.5757406079
C  -0.8188401628 -0.7439951607  0.4022452737
C   1.3396238599  0.0542704836 -0.0411713292
C  -1.0956911861  1.2155597498  0.8032368523
C   2.0019911190 -0.4250085175  1.2394086824
C   2.2950534125  0.4212134731 -1.1477591856
N   0.3009076897 -0.8697556685 -0.4761477470
N  -2.0259977687 -1.2451669828 -0.2034092040
O  -1.7292809048  1.6067662327 -0.3834609760
H  -2.3277590074  0.8675125530 -0.5532728921
H   0.0269432592 -0.6551065300 -1.4316816059
H  -0.6246949894 -1.2906254035  1.3320637923
H   0.7971465548  0.9506095883  0.2337631760
H  -2.5109303690 -1.9885950739  0.2835519292
H  -1.9824148189 -1.4765783085 -1.1894796216
H  -0.3699820641  2.0526879480  0.9843791115
H  -1.7493365550  1.2621486222  1.6814514725
H   2.7790526700  0.2829935565  1.5268024783
H   1.7377397885  0.7210938784 -2.0388868222
H   2.4436459978 -1.4157128086  1.1262021405
H   1.2815228337 -0.4582862623  2.0605683218
H   2.8755935974  1.2861845981 -0.8257564412
H   2.9756140477 -0.3885699609 -1.4041823962
22
Image 43  Energy = -383.5775094757
C  -0.8202427069 -0.7360923680  0.4042786384
C   1.3405804932  0.0547480504 -0.0413057482
C  -1.0982075077  1.2078976798  0.8020862951
C   2.0026452329 -0.4250146259  1.2392631804
C   2.2959018675  0.4208524434 -1.1481770065
N   0.3004080856 -0.8684258753 -0.4749613911
N  -2.0273333770 -1.2407212279 -0.2025595532
O  -1.7310677053  1.6054335614 -0.3831581973
H  -2.3304049914  0.8674838785 -0.5557775198
H   0.0268643890 -0.6542475572 -1.4307773916
H  -0.6256497647 -1.2865806714  1.3322188751
H   0.8006429241  0.9524572494  0.2326609278
H  -2.5090413051 -1.9863948241  0.2843772991
H  -1.9801965538 -1.4754707957 -1.1878131089
H  -0.3698546970  2.0427560652  0.9842268937
H  -1.7516039680  1.2591387956  1.6807192825
H   2.7797024002  0.2827821481  1.5270833956
H   1.7382358907  0.7208132730 -2.0390574574
H   2.4439163837 -1.4158656764  1.1258925511
H   1.2819359860 -0.4585636058  2.0602146119
H   2.8765675729  1.2857989098 -0.8262808258
H   2.9761083573 -0.3891448234 -1.4046887411
22
Image 44  Energy = -383.5793043756
C  -0.8216729245 -0.7282013026  0.4063023239
C   1.3415426162  0.0552452217 -0.0414312330
C  -1.1007027791  1.2001904803  0.8009127859
C   2.0033054298 -0.4250138377  1.2391195300
C   2.2967551047  0.4204864113 -1.1485986072
N   0.2998749972 -0.8670328593 -0.4737459254
N  -2.0287069940 -1.2362562444 -0.2017106103
O  -1.7328361256  1.6040600036 -0.3828724286
H  -2.3330781259  0.8674681864 -0.5582943124
H   0.0267750246 -0.6533657477 -1.4298578595
H  -0.6266360952 -1.2824357048  1.3323915904
H   0.8041595539  0.9543447920  0.2315740429
H  -2.5071420314 -1.9841764933  0.2852104422
H  -1.9779662937 -1.4743421178 -1.1861198119
H  -0.3697402607  2.0327333653  0.9840724640
H  -1.7538336476  1.2560100628  1.6799467233
H   2.7803637099  0.2825692525  1.5273717065
H   1.7387384447  0.7205300408 -2.0392317564
H   2.4441882952 -1.4160131298  1.1255773592
H   1.2823585530 -0.4588389050  2.0598654960
H   2.8775554711  1.2854057340 -0.8268174495
H   2.9766050833 -0.3897271987 -1.4051994605
22
Image 45  Energy = -383.5811212417
C  -0.8231291115 -0.7203399538  0.4083112339
C   1.3425095888  0.0557619189 -0.0415472994
C  -1.1031771402  1.1924553671  0.7997190878
C   2.0039714868 -0.4250062650  1.2389776998
C   2.2976126576  0.4201151648 -1.1490239579
N   0.2993087984 -0.8655756078 -0.4725021435
N  -2.0301167981 -1.2317776496 -0.2008634086
O  -1.7345847269  1.6026469682 -0.3826048470
H  -2.3357763091  0.8674659178 -0.5608213950
H   0.0266748540 -0.6524607928 -1.4289232269
H  -0.6276537840 -1.2781934816  1.3325833136
H   0.8076945618  0.9562714447  0.2305033270
H  -2.5052339567 -1.9819413417  0.2860515773
H  -1.9757257745 -1.4731924952 -1.1844007131
H  -0.3696382871  2.0226279128  0.9839162028
H  -1.7560257889  1.2527632599  1.6791352475
H   2.7810364543  0.2823547810  1.5276672366
H   1.7392473135  0.7202441648 -2.0394096924
H   2.4444616073 -1.4161550475  1.1252565845
H   1.2827901943 -0.4591119910  2.0595208523
H   2.8785571529  1.2850049442 -0.8273662868
H   2.9771040124 -0.3903172065 -1.4057143833
22
Image 46  Energy = -383.5829554949
C  -0.8246092708 -0.7125274044  0.4103000465
C   1.3434805161  0.0562981181 -0.0416534651
C  -1.1056308378  1.1847105207  0.7985081588
C   2.0046429397 -0.4249919980  1.2388377845
C   2.2984741478  0.4197386933 -1.1494528442
N   0.2987102534 -0.8640534595 -0.4712315326
N  -2.0315608504 -1.2272916322 -0.2000188526
O  -1.7363121247  1.6011963462 -0.3823567402
H  -2.3384972144  0.8674773980 -0.5633566592
H   0.0265636373 -0.6515325084 -1.4279737308
H  -0.6287024556 -1.2738577508  1.3327957085
H   0.8112458780  0.9582362469  0.2294496654
H  -2.5033187130 -1.9796907469  0.2869008867
H  -1.9734769250 -1.4720222964 -1.1826572811
H  -0.3695479997  2.0124490647  0.9837586084
H  -1.7581809911  1.2493999154  1.6782867211
H   2.7817205311  0.2821386858  1.5279698133
H   1.7397623126  0.7199556614 -2.0395913354
H   2.4447362680 -1.4162914097  1.1249302198
H   1.2832305972 -0.4593826872  2.0591805392
H   2.8795723477  1.2845962604 -0.8279273613
H   2.9776049584 -0.3909150049 -1.4062333406
22
Image 47  Energy = -383.5848024252
C  -0.8261113303 -0.7047827755  0.4122634219
C   1.3444544716  0.0568537469 -0.0417491604
C  -1.1080641218  1.1769743543  0.7972828673
C   2.0053195304 -0.4249710595  1.2386997894
C   2.2993391121  0.4193567420 -1.1498852711
N   0.2980805356 -0.8624661967 -0.4699359107
N  -2.0330368778 -1.2228049578 -0.1991781136
O  -1.7380170277  1.5997104333 -0.3821293875
H  -2.3412382725  0.8675028690 -0.5658977633
H   0.0264411300 -0.6505807669 -1.4270099086
H  -0.6297815174 -1.2694331196  1.3330306815
H   0.8148111340  0.9602382232  0.2284140250
H  -2.5013982011 -1.9774262550  0.2877585541
H  -1.9712218889 -1.4708319558 -1.1808910819
H  -0.3694684300  2.0022072265  0.9836003200
H  -1.7603001935  1.2459222873  1.6774033154
H   2.7824156355  0.2819208035  1.5282791871
H   1.7402833202  0.7196645136 -2.0397766464
H   2.4450122170 -1.4164222166  1.1245982575
H   1.2836793398 -0.4596508131  2.0588445323
H   2.8806008411  1.2841795302 -0.8285006170
H   2.9781075986 -0.3915206007 -1.4067560816
22
Image 48  Energy = -383.5866571019
C  -0.8276331925 -0.6971240950  0.4141962620
C   1.3454303375  0.0574288490 -0.0418339283
C  -1.1104771783  1.1692643086  0.7960458024
C   2.0060006859 -0.4249436830  1.2385639395
C   2.3002070291  0.4189692724 -1.1503209741
N   0.2974212030 -0.8608141116 -0.4686174787
N  -2.0345423024 -1.2183247174 -0.1983423929
O  -1.7396983939  1.5981918872 -0.3819241704
H  -2.3439966090  0.8675425838 -0.5684421373
H   0.0263071245 -0.6496054945 -1.4260325372
H  -0.6308901479 -1.2649250196  1.3332903820
H   0.8183879459  0.9622761906  0.2273973920
H  -2.4994746614 -1.9751496989  0.2886247886
H  -1.9689629926 -1.4696220729 -1.1791040469
H  -0.3693983328  1.9919138135  0.9834421214
H  -1.7623847335  1.2423333903  1.6764875929
H   2.7831215956  0.2817010951  1.5285951266
H   1.7408101791  0.7193707316 -2.0399656825
H   2.4452893635 -1.4165474054  1.1242606947
H   1.2841361284 -0.4599162114  2.0585126591
H   2.8816423006  1.2837544784 -0.8290860365
H   2.9786116561 -0.3921340782 -1.4072823653
22
Image 49  Energy = -383.5885148643
C  -0.8291730117 -0.6895673190  0.4160939996
C   1.3464070783  0.0580233946 -0.0419072199
C  -1.1128701339  1.1615960407  0.7947993535
C   2.0066859421 -0.4249099990  1.2384302369
C   2.3010771009  0.4185761144 -1.1507598039
N   0.2967341723 -0.8590981071 -0.4672788738
N  -2.0360742646 -1.2138584194 -0.1975127788
O  -1.7413552134  1.5966440410 -0.3817424602
H  -2.3467693321  0.8675964948 -0.5709871078
H   0.0261614402 -0.6486066882 -1.4250425963
H  -0.6320273248 -1.2603396082  1.3335770359
H   0.8219738172  0.9643489928  0.2264007990
H  -2.4975505257 -1.9728630400  0.2894997229
H  -1.9667027113 -1.4683934336 -1.1772984608
H  -0.3693362344  1.9815810131  0.9832849452
H  -1.7644361915  1.2386369892  1.6755422615
H   2.7838381227  0.2814794548  1.5289173705
H   1.7413427828  0.7190743103 -2.0401584418
H   2.4455676496 -1.4166669734  1.1239175108
H   1.2846005238 -0.4601787143  2.0581849419
H   2.8826964674  1.2833209782 -0.8296835085
H   2.9791168513 -0.3927555102 -1.4078119149
22
Image 50  Energy = -383.5903711658
C  -0.8307291128 -0.6821261252  0.4179527158
C   1.3473835547  0.0586372261 -0.0419686741
C  -1.1152428547  1.1539835170  0.7935453953
C   2.0073748352 -0.4248701494  1.2382987719
C   2.3019488205  0.4181772405 -1.1512015116
N   0.2960216445 -0.8573195318 -0.4659229037
N  -2.0376296104 -1.2094137005 -0.1966904287
O  -1.7429867941  1.5950702638 -0.3815854547
H  -2.3495532862  0.8676646850 -0.5735298957
H   0.0260039650 -0.6475843991 -1.4240411611
H  -0.6331918563 -1.2556835900  1.3338927406
H   0.8255662485  0.9664554356  0.2254252971
H  -2.4956285588 -1.9705685925  0.2903835689
H  -1.9644436159 -1.4671469780 -1.1754768752
H  -0.3692805928  1.9712214036  0.9831298721
H  -1.7664564241  1.2348375023  1.6745701825
H   2.7845648722  0.2812557694  1.5292456303
H   1.7418809654  0.7187752482 -2.0403549674
H   2.4458469810 -1.4167809118  1.1235686839
H   1.2850721170 -0.4604381761  2.0578613792
H   2.8837629322  1.2828787486 -0.8302929601
H   2.9796227755 -0.3933848769 -1.4083443945
22
Image 51  Energy = -383.5922215873
C  -0.8323001078 -0.6748122618  0.4197689344
C   1.3483585778  0.0592702997 -0.0420179756
C  -1.1175950270  1.1464394703  0.7922858258
C   2.0080669361 -0.4248242833  1.2381697041
C   2.3028214927  0.4177726237 -1.1516458187
N   0.2952859587 -0.8554804055 -0.4645524277
N  -2.0392048431 -1.2049984511 -0.1958764092
O  -1.7445925367  1.5934743021 -0.3814541905
H  -2.3523453305  0.8677470453 -0.5760677202
H   0.0258346128 -0.6465387005 -1.4230296295
H  -0.6343824332 -1.2509641119  1.3342394401
H   0.8291628684  0.9685941842  0.2244718829
H  -2.4937115992 -1.9682687477  0.2912763923
H  -1.9621883748 -1.4658838195 -1.1736419493
H  -0.3692298851  1.9608477414  0.9829780865
H  -1.7684474099  1.2309399310  1.6735741429
H   2.7853014349  0.2810299078  1.5295795974
H   1.7424245719  0.7184735484 -2.0405553013
H   2.4461272432 -1.4168892027  1.1232141785
H   1.2855505132 -0.4606944552  2.0575419734
H   2.8848413035  1.2824275969 -0.8309142673
H   2.9801290407 -0.3940222009 -1.4088794575
22
Image 52  Energy = -383.5940616539
C  -0.8338845231 -0.6676367706  0.4215395968
C   1.3493309714  0.0599224156 -0.0420550088
C  -1.1199264640  1.1389764351  0.7910225765
C   2.0087615431 -0.4247725933  1.2380431270
C   2.3036944064  0.4173622145 -1.1520924175
N   0.2945295295 -0.8535831176 -0.4631704165
N  -2.0407963455 -1.2006205724 -0.1950717258
O  -1.7461719877  1.5918599410 -0.3813494071
H  -2.3551422373  0.8678434869 -0.5785978114
H   0.0256534229 -0.6454697327 -1.4220093364
H  -0.6355976500 -1.2461885715  1.3346187402
H   0.8327612947  0.9707638736  0.2235415374
H  -2.4918026521 -1.9659661607  0.2921782731
H  -1.9599396678 -1.4646052498 -1.1717966180
H  -0.3691825485  1.9504730063  0.9828308882
H  -1.7704111620  1.2269497339  1.6725567863
H   2.7860475514  0.2808018573  1.5299190126
H   1.7429734397  0.7181692062 -2.0407594698
H   2.4464083859 -1.4169918998  1.1228539539
H   1.2860353269 -0.4609474099  2.0572267186
H   2.8859311834  1.2819673624 -0.8315472742
H   2.9806351890 -0.3946674417 -1.4094167134
22
Image 53  Energy = -383.5958868173
C  -0.8354808149 -0.6606109490  0.4232614284
C   1.3502997239  0.0605933906 -0.0420797210
C  -1.1222370895  1.1316078994  0.7897579492
C   2.0094581923 -0.4247152300  1.2379190237
C   2.3045667573  0.4169461610 -1.1525409981
N   0.2937547934 -0.8516306294 -0.4617797032
N  -2.0424003439 -1.1962880248 -0.1942773662
O  -1.7477249131  1.5902309296 -0.3812715883
H  -2.3579405862  0.8679540203 -0.5811173547
H   0.0254604570 -0.6443776537 -1.4209818377
H  -0.6368359807 -1.2413647187  1.3350321350
H   0.8363591700  0.9729629988  0.2226351645
H  -2.4899047737 -1.9636636317  0.2930891806
H  -1.9577002041 -1.4633127204 -1.1699438508
H  -0.3691371315  1.9401102526  0.9826896417
H  -1.7723497733  1.2228728372  1.6715206367
H   2.7868028181  0.2805715349  1.5302635779
H   1.7435274613  0.7178621986 -2.0409674329
H   2.4466902754 -1.4170889691  1.1224879641
H   1.2865260898 -0.4611969243  2.0569157558
H   2.8870321086  1.2814978383 -0.8321918367
H   2.9811407720 -0.3953206002 -1.4099557566
22
Image 54  Energy = -383.5976923655
C  -0.8370870005 -0.6537472418  0.4249312990
C   1.3512635088  0.0612829515 -0.0420921335
C  -1.1245270895  1.1243489701  0.7884945633
C   2.0101565098 -0.4246522901  1.2377975546
C   2.3054379318  0.4165243816 -1.1529912523
N   0.2929641253 -0.8496263058 -0.4603833220
N  -2.0440128957 -1.1920086330 -0.1934943322
O  -1.7492508756  1.5885913595 -0.3812207999
H  -2.3607370987  0.8680783999 -0.5836235882
H   0.0252559189 -0.6432626994 -1.4199486230
H  -0.6380958458 -1.2365005089  1.3354807589
H   0.8399540852  0.9751899233  0.2217535977
H  -2.4880210911 -1.9613642188  0.2940090257
H  -1.9554727245 -1.4620079064 -1.1680867946
H  -0.3690922947  1.9297727248  0.9825557294
H  -1.7742654245  1.2187155851  1.6704681860
H   2.7875667619  0.2803388199  1.5306129915
H   1.7440864210  0.7175525423 -2.0411792684
H   2.4469727688 -1.4171803943  1.1221161625
H   1.2870224066 -0.4614428743  2.0566091135
H   2.8881436879  1.2810189788 -0.8328477294
H   2.9816452225 -0.3959815596 -1.4104961274
22
Image 55  Energy = -383.5994732729
C  -0.8387006597 -0.6470590470  0.4265457044
C   1.3522210342  0.0619907154 -0.0420923480
C  -1.1267970314  1.1172159435  0.7872354906
C   2.0108560296 -0.4245839285  1.2376787146
C   2.3063072518  0.4160970869 -1.1534428089
N   0.2921600045 -0.8475739857 -0.4589841874
N  -2.0456300930 -1.1877901971 -0.1927235756
O  -1.7507496609  1.5869454307 -0.3811969814
H  -2.3635283177  0.8682164647 -0.5861136842
H   0.0250400479 -0.6421251325 -1.4189113281
H  -0.6393755144 -1.2316043454  1.3359657457
H   0.8435435160  0.9774428939  0.2208976032
H  -2.4861547250 -1.9590710835  0.2949375729
H  -1.9532599652 -1.4606926765 -1.1662287088
H  -0.3690466169  1.9194740871  0.9824305943
H  -1.7761604322  1.2144848320  1.6694019377
H   2.7883389914  0.2801036739  1.5309669788
H   1.7446501272  0.7172402420 -2.0413949986
H   2.4472557325 -1.4172661465  1.1217385101
H   1.2875238224 -0.4616851452  2.0563069127
H   2.8892654248  1.2805306345 -0.8335147538
H   2.9821480426 -0.3966503095 -1.4110373785
22
Image 56  Energy = -383.6012246566
C  -0.8403190165 -0.6405602301  0.4281012243
C   1.3531710505  0.0627162578 -0.0420804099
C  -1.1290478143  1.1102257217  0.7859838541
C   2.0115561446 -0.4245102013  1.2375624802
C   2.3071740781  0.4156644002 -1.1538953622
N   0.2913449420 -0.8454779990 -0.4575855417
N  -2.0472478909 -1.1836402559 -0.1919661527
O  -1.7522211960  1.5852974647 -0.3811998751
H  -2.3663106283  0.8683681356 -0.5885847410
H   0.0248131873 -0.6409653109 -1.4178714609
H  -0.6406731539 -1.2266850251  1.3364880697
H   0.8471248674  0.9797199897  0.2200678572
H  -2.4843088878 -1.9567876734  0.2958745250
H  -1.9510646854 -1.4593691122 -1.1643729132
H  -0.3689986091  1.9092284286  0.9823157217
H  -1.7780373227  1.2101879295  1.6683245742
H   2.7891191132  0.2798660775  1.5313252646
H   1.7452184197  0.7169252949 -2.0416146065
H   2.4475390596 -1.4173462543  1.1213549469
H   1.2880299259 -0.4619236232  2.0560092523
H   2.8903968219  1.2800327087 -0.8341926872
H   2.9826486053 -0.3973267191 -1.4115790084
22
Image 57  Energy = -383.6029417032
C  -0.8419389238 -0.6342642748  0.4295947918
C   1.3541122200  0.0634591061 -0.0420564580
C  -1.1312806252  1.1033948483  0.7847427532
C   2.0122562464 -0.4244312413  1.2374489423
C   2.3080376702  0.4152263746 -1.1543486105
N   0.2905215304 -0.8433431022 -0.4561906909
N  -2.0488622941 -1.1795662435 -0.1912230802
O  -1.7536654439  1.5836521729 -0.3812290406
H  -2.3690804661  0.8685332135 -0.5910338714
H   0.0245757547 -0.6397836391 -1.4168305900
H  -0.6419867966 -1.2217517493  1.3370485928
H   0.8506954692  0.9820191528  0.2192649376
H  -2.4824867239 -1.9545174596  0.2968193919
H  -1.9488896483 -1.4580395071 -1.1625228583
H  -0.3689466948  1.8990502324  0.9822126200
H  -1.7798987994  1.2058327303  1.6672388857
H   2.7899067052  0.2796260151  1.5316875643
H   1.7457911239  0.7166077211 -2.0418381010
H   2.4478226105 -1.4174206913  1.1209654232
H   1.2885403747 -0.4621581976  2.0557161639
H   2.8915374307  1.2795252269 -0.8348812494
H   2.9831462917 -0.3980106825 -1.4121205054
22
Image 58  Energy = -383.6046199736
C  -0.8435570445 -0.6281833964  0.4310235517
C   1.3550431560  0.0642185711 -0.0420207903
C  -1.1334967452  1.0967386528  0.7835150435
C   2.0129559783 -0.4243472267  1.2373381035
C   2.3088972325  0.4147832890 -1.1548021282
N   0.2896925640 -0.8411744191 -0.4548028386
N  -2.0504692873 -1.1755752454 -0.1904954453
O  -1.7550826250  1.5820143883 -0.3812840020
H  -2.3718341397  0.8687116165 -0.5934581513
H   0.0243281734 -0.6385805502 -1.4157903992
H  -0.6433143233 -1.2168141648  1.3376481928
H   0.8542525594  0.9843382652  0.2184893301
H  -2.4806914113 -1.9522640892  0.2977715950
H  -1.9467376061 -1.4567063375 -1.1606820029
H  -0.3688892354  1.8889542384  0.9821228164
H  -1.7817477629  1.2014275559  1.6661478910
H   2.7907012728  0.2793834542  1.5320535722
H   1.7463680683  0.7162875314 -2.0420654555
H   2.4481061849 -1.4174893452  1.1205698905
H   1.2890547210 -0.4623887623  2.0554277860
H   2.8926867493  1.2790081653 -0.8355801789
H   2.9836405328 -0.3987021845 -1.4126613695
22
Image 59  Energy = -383.6062554212
C  -0.8451699033 -0.6223282724  0.4323854405
C   1.3559627152  0.0649939378 -0.0419735891
C  -1.1356975057  1.0902709295  0.7823034739
C   2.0136547337 -0.4242581425  1.2372298293
C   2.3097522048  0.4143352796 -1.1552554186
N   0.2888608026 -0.8389774187 -0.4534253567
N  -2.0520649198 -1.1716739762 -0.1897841787
O  -1.7564730369  1.5803891644 -0.3813641304
H  -2.3745681216  0.8689031693 -0.5958547784
H   0.0240709209 -0.6373565564 -1.4147525239
H  -0.6446535675 -1.2118820644  1.3382874398
H   0.8577933514  0.9866750976  0.2177414295
H  -2.4789260556 -1.9500312128  0.2987303856
H  -1.9446112686 -1.4553722919 -1.1588539411
H  -0.3688246301  1.8789551802  0.9820478162
H  -1.7835871451  1.1969810634  1.6650545519
H   2.7915023627  0.2791384119  1.5324229944
H   1.7469489982  0.7159647876 -2.0422967598
H   2.4483896603 -1.4175522766  1.1201682912
H   1.2895725489 -0.4626152307  2.0551442829
H   2.8938442366  1.2784815244 -0.8362891898
H   2.9841306293 -0.3994010927 -1.4132010571
22
Image 60  Energy = -383.6078444743
C  -0.8467739789 -0.6167077197  0.4336789550
C   1.3568696904  0.0657844625 -0.0419151343
C  -1.1378840953  1.0840035644  0.7811103086
C   2.0143519276 -0.4241642049  1.2371240493
C   2.3106018662  0.4138825659 -1.1557080988
N   0.2880290423 -0.8367577089 -0.4520615107
N  -2.0536453556 -1.1678687097 -0.1890902043
O  -1.7578372409  1.5787814607 -0.3814687021
H  -2.3772788196  0.8691078513 -0.5982209997
H   0.0238045340 -0.6361122247 -1.4137185352
H  -0.6460022486 -1.2069653439  1.3389667235
H   0.8613151326  0.9890272727  0.2170214893
H  -2.4771936611 -1.9478224656  0.2996949001
H  -1.9425132806 -1.4540401842 -1.1570422328
H  -0.3687513560  1.8690675901  0.9819890749
H  -1.7854200233  1.1925021827  1.6639620017
H   2.7923095377  0.2788909380  1.5327955248
H   1.7475337351  0.7156395014 -2.0425319672
H   2.4486728510 -1.4176093848  1.1197605865
H   1.2900934688 -0.4628375138  2.0548657657
H   2.8950094036  1.2779453526 -0.8370079776
H   2.9846158801 -0.4001072703 -1.4137390059
22
Image 61  Energy = -383.6093840774
C  -0.8483658255 -0.6113285049  0.4349031612
C   1.3577630448  0.0665891788 -0.0418457823
C  -1.1400576003  1.0779465288  0.7799377389
C   2.0150470246 -0.4240654656  1.2370207351
C   2.3114455536  0.4134254858 -1.1561597236
N   0.2872001069 -0.8345209678 -0.4507143524
N  -2.0552068328 -1.1641652242 -0.1884143566
O  -1.7591758837  1.5771962048 -0.3815969073
H  -2.3799628482  0.8693256120 -0.6005542438
H   0.0235295351 -0.6348481521 -1.4126900795
H  -0.6473580462 -1.2020738836  1.3396862309
H   0.8648151706  0.9913924502  0.2163296869
H  -2.4754971002 -1.9456414076  0.3006641115
H  -1.9404462232 -1.4527129462 -1.1552503326
H  -0.3686681055  1.8593055526  0.9819479810
H  -1.7872493221  1.1879999701  1.6628731964
H   2.7931222732  0.2786410405  1.5331708319
H   1.7481220816  0.7153117129 -2.0427710458
H   2.4489555866 -1.4176606577  1.1193467228
H   1.2906171251 -0.4630555328  2.0545923377
H   2.8961816802  1.2773996759 -0.8377362336
H   2.9850956145 -0.4008206610 -1.4142746653
22
Image 62  Energy = -383.6108717673
C  -0.8499420908 -0.6061955037  0.4360579368
C   1.3586418140  0.0674072298 -0.0417660287
C  -1.1422188438  1.0721078710  0.7787876426
C   2.0157394919 -0.4239621059  1.2369198285
C   2.3122826789  0.4129641817 -1.1566097802
N   0.2863767739 -0.8322728757 -0.4493867091
N  -2.0567457110 -1.1605685845 -0.1877574116
O  -1.7604897883  1.5756381104 -0.3817478341
H  -2.3826169389  0.8695564726 -0.6028521078
H   0.0232464752 -0.6335649749 -1.4116687852
H  -0.6487186359 -1.1972172929  1.3404457774
H   0.8682908751  0.9937681214  0.2156660669
H  -2.4738391605 -1.9434916219  0.3016369989
H  -1.9384125437 -1.4513935872 -1.1534817018
H  -0.3685738065  1.8496825065  0.9819258134
H  -1.7890779119  1.1834834919  1.6617910200
H   2.7939400548  0.2783887663  1.5335485663
H   1.7487137517  0.7149814739 -2.0430140131
H   2.4492376544 -1.4177060089  1.1189266740
H   1.2911431727 -0.4632692293  2.0543241002
H   2.8973606187  1.2768446654 -0.8384735976
H   2.9855690797 -0.4015410989 -1.4148074442
22
Image 63  Energy = -383.6123055835
C  -0.8514995500 -0.6013114884  0.4371434942
C   1.3595051622  0.0682376068 -0.0416762302
C  -1.1443684716  1.0664936355  0.7776617460
C   2.0164288685 -0.4238541603  1.2368211788
C   2.3131125550  0.4124990309 -1.1570579063
N   0.2855616418 -0.8300189915 -0.4480812813
N  -2.0582585152 -1.1570832949 -0.1871200316
O  -1.7617797429  1.5741117111 -0.3819203871
H  -2.3852381009  0.8698003796 -0.6051124266
H   0.0229559344 -0.6322633948 -1.4106561228
H  -0.6500816897 -1.1924049094  1.3412450027
H   0.8717397225  0.9961518087  0.2150305700
H  -2.4722224147 -1.9413765241  0.3026124002
H  -1.9364145706 -1.4500851513 -1.1517395941
H  -0.3684676390  1.8402111264  0.9819237387
H  -1.7909084689  1.1789617480  1.6607181259
H   2.7947623254  0.2781341425  1.5339283651
H   1.7493085843  0.7146487962 -2.0432607448
H   2.4495188817 -1.4177454511  1.1185004019
H   1.2916712096 -0.4634785485  2.0540612138
H   2.8985456967  1.2762804296 -0.8392197187
H   2.9860355902 -0.4022684970 -1.4153367834
22
Image 64  Energy = -383.6136842272
C  -0.8530351956 -0.5966773297  0.4381608872
C   1.3603525711  0.0690793125 -0.0415769490
C  -1.1465067060  1.0611080234  0.7765613715
C   2.0171145278 -0.4237418137  1.2367247391
C   2.3139346289  0.4120303456 -1.1575036026
N   0.2847571972 -0.8277646511 -0.4468004670
N  -2.0597421640 -1.1537133502 -0.1865026388
O  -1.7630466455  1.5726211248 -0.3821133479
H  -2.3878235022  0.8700573720 -0.6073332376
H   0.0226585009 -0.6309441482 -1.4096535126
H  -0.6514449290 -1.1876455586  1.3420830989
H   0.8751593123  0.9985409852  0.2144230311
H  -2.4706491660 -1.9392992401  0.3035890218
H  -1.9344544516 -1.4487906989 -1.1500271872
H  -0.3683491872  1.8309030835  0.9819427901
H  -1.7927434858  1.1744435237  1.6596570213
H   2.7955885864  0.2778772661  1.5343098718
H   1.7499063294  0.7143137303 -2.0435111987
H   2.4497990539 -1.4177789167  1.1180678825
H   1.2922009605 -0.4636834574  2.0538037590
H   2.8997363936  1.2757071035 -0.8399742409
H   2.9864943804 -0.4030027037 -1.4158620809
22
Image 65  Energy = -383.6150068265
C  -0.8545463250 -0.5922918156  0.4391114752
C   1.3611834142  0.0699313685 -0.0414686590
C  -1.1486337555  1.0559530714  0.7754878806
C   2.0177960931 -0.4236252097  1.2366303336
C   2.3147484129  0.4115584824 -1.1579463732
N   0.2839658267 -0.8255149839 -0.4455463575
N  -2.0611936244 -1.1504618144 -0.1859057432
O  -1.7642914040  1.5711701204 -0.3823254828
H  -2.3903705388  0.8703274871 -0.6095127900
H   0.0223547534 -0.6296079954 -1.4086623172
H  -0.6528061095 -1.1829475475  1.3429590722
H   0.8785474109  1.0009330754  0.2138431688
H  -2.4691216142 -1.9372629580  0.3045656784
H  -1.9325341771 -1.4475132454 -1.1483474048
H  -0.3682182352  1.8217691168  0.9819838718
H  -1.7945851116  1.1699373543  1.6586098629
H   2.7964182763  0.2776181952  1.5346927107
H   1.7505067133  0.7139763218 -2.0437653408
H   2.4500779549 -1.4178063526  1.1176291166
H   1.2927320637 -0.4638839248  2.0535518709
H   2.9009322254  1.2751248594 -0.8407367847
H   2.9869447604 -0.4037436051 -1.4163827777
22
Image 66  Energy = -383.6162730617
C  -0.8560304551 -0.5881517961  0.4399972525
C   1.3619973345  0.0707926603 -0.0413519831
C  -1.1507491874  1.0510290186  0.7744423184
C   2.0184731470 -0.4235043726  1.2365379655
C   2.3155533819  0.4110837983 -1.1583858808
N   0.2831895813 -0.8232747464 -0.4443206910
N  -2.0626102848 -1.1473313191 -0.1853295969
O  -1.7655148181  1.5697621614 -0.3825553777
H  -2.3928769775  0.8706106463 -0.6116496312
H   0.0220452971 -0.6282557328 -1.4076837747
H  -0.6541630892 -1.1783185008  1.3438715202
H   0.8819018486  1.0033256256  0.2132906434
H  -2.4676416259 -1.9352704839  0.3055410411
H  -1.9306555248 -1.4462557454 -1.1467029955
H  -0.3680750920  1.8128187073  0.9820477089
H  -1.7964352543  1.1654513956  1.6575785694
H   2.7972508018  0.2773569555  1.5350764780
H   1.7511095151  0.7136366014 -2.0440230277
H   2.4503554081 -1.4178277922  1.1171840917
H   1.2932642268 -0.4640799398  2.0533056272
H   2.9021327393  1.2745339362 -0.8415069475
H   2.9873860374 -0.4044910789 -1.4168983000
22
Image 67  Energy = -383.6174831233
C  -0.8574854632 -0.5842522379  0.4408207318
C   1.3627940777  0.0716622112 -0.0412273789
C  -1.1528524714  1.0463340710  0.7734254588
C   2.0191451737 -0.4233795315  1.2364474116
C   2.3163492358  0.4106065983 -1.1588217479
N   0.2824303793 -0.8210483236 -0.4431250527
N  -2.0639897848 -1.1443236964 -0.1847744900
O  -1.7667176921  1.5684002061 -0.3828015388
H  -2.3953407788  0.8709068273 -0.6137425176
H   0.0217307469 -0.6268882026 -1.4067189238
H  -0.6555138320 -1.1737653318  1.3448187656
H   0.8852206729  1.0057160880  0.2127649954
H  -2.4662108636 -1.9333245161  0.3065138416
H  -1.9288200824 -1.4450210384 -1.1450963797
H  -0.3679202797  1.8040602239  0.9821349083
H  -1.7982954891  1.1609933868  1.6565647422
H   2.7980856757  0.2770936945  1.5354608211
H   1.7517144746  0.7132946149 -2.0442841682
H   2.4506311902 -1.4178431745  1.1167328381
H   1.2937971900 -0.4642714990  2.0530651178
H   2.9033374545  1.2739345522 -0.8422843369
H   2.9878174751 -0.4052449239 -1.4174080869
22
Image 68  Energy = -383.6186376400
C  -0.8589096258 -0.5805864175  0.4415847122
C   1.3635736848  0.0725389659 -0.0410955349
C  -1.1549427507  1.0418647430  0.7724379692
C   2.0198117741 -0.4232507444  1.2363585927
C   2.3171355561  0.4101272606 -1.1592536042
N   0.2816898016 -0.8188397240 -0.4419605361
N  -2.0653301525 -1.1414402726 -0.1842403155
O  -1.7679008795  1.5670866474 -0.3830624771
H  -2.3977600822  0.8712160902 -0.6157904140
H   0.0214116995 -0.6255062387 -1.4057687572
H  -0.6568563990 -1.1692941969  1.3457988490
H   0.8885020285  1.0081020529  0.2122657183
H  -2.4648306232 -1.9314273205  0.3074827157
H  -1.9270291829 -1.4438118716 -1.1435298710
H  -0.3677546888  1.7955007585  0.9822459296
H  -1.8001670277  1.1565705666  1.6555696397
H   2.7989223466  0.2768284859  1.5358453565
H   1.7523213425  0.7129503984 -2.0445486326
H   2.4509051220 -1.4178525335  1.1162753724
H   1.2943306958 -0.4644586142  2.0528304285
H   2.9045459403  1.2733269729 -0.8430685331
H   2.9882384307 -0.4060050113 -1.4179115978
22
Image 69  Energy = -383.6197375558
C  -0.8603015718 -0.5771461405  0.4422924586
C   1.3643360128  0.0734219217 -0.0409570672
C  -1.1570188599  1.0376160144  0.7714803064
C   2.0204726108 -0.4231181815  1.2362714433
C   2.3179120022  0.4096462152 -1.1596810853
N   0.2809693342 -0.8166524827 -0.4408279707
N  -2.0666296082 -1.1386815929 -0.1837271880
O  -1.7690649915  1.5658235550 -0.3833365465
H  -2.4001334327  0.8715383226 -0.6177925697
H   0.0210887448 -0.6241106919 -1.4048341181
H  -0.6581889987 -1.1649103959  1.3468094903
H   0.8917442944  1.0104811171  0.2117921938
H  -2.4635020047 -1.9295810853  0.3084464189
H  -1.9252839698 -1.4426307866 -1.1420052817
H  -0.3675795800  1.7871460956  0.9823810418
H  -1.8020507586  1.1521896294  1.6545942086
H   2.7997603026  0.2765614531  1.5362297081
H   1.7529298520  0.7126040021 -2.0448163029
H   2.4511770111 -1.4178558878  1.1158117321
H   1.2948645031 -0.4646413018  2.0526016043
H   2.9057577777  1.2727114651 -0.8438591277
H   2.9886483390 -0.4067712478 -1.4184083374
22
Image 70  Energy = -383.6207841631
C  -0.8616602147 -0.5739219930  0.4429473895
C   1.3650812151  0.0743101292 -0.0408125526
C  -1.1590795421  1.0335815562  0.7705528299
C   2.0211275973 -0.4229819957  1.2361858020
C   2.3186783429  0.4091637443 -1.1601039749
N   0.2802700691 -0.8144897088 -0.4397279298
N  -2.0678868023 -1.1360475931 -0.1832349170
O  -1.7702105252  1.5646125348 -0.3836220685
H  -2.4024596656  0.8718733797 -0.6197484747
H   0.0207624825 -0.6227024280 -1.4039156603
H  -0.6595099693 -1.1606184485  1.3478482410
H   0.8949459703  1.0128509808  0.2113437545
H  -2.4622258079 -1.9277876886  0.3094037238
H  -1.9235853125 -1.4414801932 -1.1405243076
H  -0.3673964688  1.7790007697  0.9825403868
H  -1.8039471765  1.1478566861  1.6536390322
H   2.8005989486  0.2762926611  1.5366134948
H   1.7535397570  0.7122554663 -2.0450870485
H   2.4514466099 -1.4178531897  1.1153419936
H   1.2953983411 -0.4648196030  2.0523787628
H   2.9069725915  1.2720883643 -0.8446556706
H   2.9890465686 -0.4075434369 -1.4188977958
22
Image 71  Energy = -383.6217790105
C  -0.8629848026 -0.5709036639  0.4435531729
C   1.3658095575  0.0752026369 -0.0406626186
C  -1.1611234322  1.0297539373  0.7696556579
C   2.0217761702 -0.4228422892  1.2361016491
C   2.3194344745  0.4086803157 -1.1605220441
N   0.2795928502 -0.8123540707 -0.4386605949
N  -2.0691006912 -1.1335377286 -0.1827632414
O  -1.7713380110  1.5634545630 -0.3839173214
H  -2.4047377246  0.8722212334 -0.6216577741
H   0.0204334946 -0.6212822963 -1.4030139641
H  -0.6608178143 -1.1564220221  1.3489124024
H   0.8981057482  1.0152094411  0.2109197011
H  -2.4610024944 -1.9260486241  0.3103533877
H  -1.9219338711 -1.4403622849 -1.1390882561
H  -0.3672070967  1.7710681040  0.9827239885
H  -1.8058564613  1.1435772649  1.6527044000
H   2.8014378872  0.2760222868  1.5369963802
H   1.7541508135  0.7119048386 -2.0453606974
H   2.4517138107 -1.4178445621  1.1148661996
H   1.2959320916 -0.4649935488  2.0521618652
H   2.9081899299  1.2714579032 -0.8454577691
H   2.9894325807 -0.4083214411 -1.4193795122
22
Image 72  Energy = -383.6227238307
C  -0.8642748886 -0.5680802466  0.4441135005
C   1.3665213114  0.0760985051 -0.0405078710
C  -1.1631490372  1.0261249968  0.7687888728
C   2.0224182829 -0.4226991527  1.2360188420
C   2.3201802361  0.4081962254 -1.1609350226
N   0.2789383129 -0.8102477406 -0.4376260151
N  -2.0702705114 -1.1311508115 -0.1823119397
O  -1.7724477790  1.5623502828 -0.3842205914
H  -2.4069669036  0.8725817249 -0.6235203605
H   0.0201023612 -0.6198511711 -1.4021293308
H  -0.6621111598 -1.1523239853  1.3499991228
H   0.9012224635  1.0175544534  0.2105192767
H  -2.4598323109 -1.9243652344  0.3112943097
H  -1.9203300657 -1.4392790165 -1.1376980834
H  -0.3670134402  1.7633502115  0.9829317218
H  -1.8077784863  1.1393562758  1.6517903572
H   2.8022765659  0.2757504015  1.5373779961
H   1.7547627555  0.7115521801 -2.0456371226
H   2.4519784257 -1.4178300510  1.1143844462
H   1.2964655276 -0.4651631873  2.0519509590
H   2.9094094615  1.2708204436 -0.8462649958
H   2.9898058870 -0.4091051122 -1.4198530601
22
Image 73  Energy = -383.6236204834
C  -0.8655303614 -0.5654405385  0.4446321450
C   1.3672168853  0.0769968784 -0.0403488227
C  -1.1651548375  1.0226859641  0.7679523957
C   2.0230537581 -0.4225528217  1.2359371568
C   2.3209155229  0.4077118326 -1.1613427587
N   0.2783068500 -0.8081724798 -0.4366239429
N  -2.0713957190 -1.1288850757 -0.1818804888
O  -1.7735401194  1.5612998872 -0.3845301436
H  -2.4091466855  0.8729547141 -0.6253362954
H   0.0197696260 -0.6184098975 -1.4012620132
H  -0.6633888020 -1.1483264326  1.3511053965
H   0.9042951346  1.0198840492  0.2101416826
H  -2.4587152254 -1.9227385526  0.3122254222
H  -1.9187740889 -1.4382321963 -1.1363546086
H  -0.3668176112  1.7558481278  0.9831633585
H  -1.8097128560  1.1351980351  1.6508966756
H   2.8031145905  0.2754771947  1.5377580439
H   1.7553753402  0.7111975434 -2.0459161873
H   2.4522402721 -1.4178096715  1.1138968420
H   1.2969984402 -0.4653285739  2.0517461099
H   2.9106308506  1.2701763162 -0.8470769178
H   2.9901660455 -0.4098943096 -1.4203180383
22
Image 74  Energy = -383.6244710077
C  -0.8667511722 -0.5629731378  0.4451127283
C   1.3678966527  0.0778969599 -0.0401861180
C  -1.1671393972  1.0194277595  0.7671461342
C   2.0236824243 -0.4224033912  1.2358566682
C   2.3216402571  0.4072274632 -1.1617451681
N   0.2776986667 -0.8061296417 -0.4356538255
N  -2.0724762342 -1.1267385579 -0.1814685285
O  -1.7746152099  1.5603031663 -0.3848442733
H  -2.4112767606  0.8733400350 -0.6271058048
H   0.0194358115 -0.6169592914 -1.4004121679
H  -0.6646496648 -1.1444307718  1.3522282182
H   0.9073229525  1.0221963940  0.2097861087
H  -2.4576509148 -1.9211692496  0.3131456892
H  -1.9172659248 -1.4372233119 -1.1350581457
H  -0.3666218411  1.7485618637  0.9834185650
H  -1.8116589020  1.1311062791  1.6500229169
H   2.8039515025  0.2752027792  1.5381361870
H   1.7559883517  0.7108409845 -2.0461976964
H   2.4524992160 -1.4177835446  1.1134034911
H   1.2975307447 -0.4654897720  2.0515472349
H   2.9118537780  1.2695258809 -0.8478931139
H   2.9905126731 -0.4106889006 -1.4207740871
22
Image 75  Energy = -383.6252774037
C  -0.8679376319 -0.5606668676  0.4455587052
C   1.3685611618  0.0787979912 -0.0400202286
C  -1.1691013337  1.0163411696  0.7663698233
C   2.0243041217 -0.4222509717  1.2357771760
C   2.3223544427  0.4067434775 -1.1621421298
N   0.2771137188 -0.8041202068 -0.4347150767
N  -2.0735120539 -1.1247086446 -0.1810754687
O  -1.7756731422  1.5593596092 -0.3851613041
H  -2.4133570412  0.8737374654 -0.6288292743
H   0.0191014317 -0.6155001796 -1.3995797162
H  -0.6658927839 -1.1406377925  1.3533645705
H   0.9103052385  1.0244898063  0.2094517282
H  -2.4566388537 -1.9196578224  0.3140541883
H  -1.9158053545 -1.4362537043 -1.1338088940
H  -0.3664283583  1.7414905502  0.9836969280
H  -1.8136158166  1.1270841838  1.6491685360
H   2.8047869381  0.2749273235  1.5385121397
H   1.7566015716  0.7104825572 -2.0464814852
H   2.4527551522 -1.4177518035  1.1129045139
H   1.2980622742 -0.4656468435  2.0513543446
H   2.9130779118  1.2688694448 -0.8487131844
H   2.9908454171 -0.4114887469 -1.4212208785
22
Image 76  Energy = -383.6260417281
C  -0.8690901559 -0.5585108012  0.4459734845
C   1.3692109753  0.0796991923 -0.0398517229
C  -1.1710394150  1.0134170192  0.7656232605
C   2.0249187996 -0.4220957631  1.2356986185
C   2.3230581144  0.4062600902 -1.1625335298
N   0.2765518317 -0.8021448311 -0.4338069133
N  -2.0745034110 -1.1227924829 -0.1807008498
O  -1.7767138799  1.5584684738 -0.3854796384
H  -2.4153876853  0.8741466999 -0.6305072534
H   0.0187669655 -0.6140333487 -1.3987645508
H  -0.6671173556 -1.1369476580  1.3545113891
H   0.9132414190  1.0267628332  0.2091377343
H  -2.4556783131 -1.9182045256  0.3149501034
H  -1.9143919942 -1.4353244339 -1.1326066735
H  -0.3662394283  1.7346324873  0.9839979696
H  -1.8155825424  1.1231343837  1.6483327891
H   2.8056205218  0.2746509790  1.5388856213
H   1.7572147318  0.7101223440 -2.0467674438
H   2.4530079335 -1.4177145098  1.1124000494
H   1.2985929231 -0.4657998581  2.0511673847
H   2.9143030017  1.2682073926 -0.8495367084
H   2.9911639739 -0.4122936891 -1.4216581081
22
Image 77  Energy = -383.6267660683
C  -0.8702092274 -0.5564943893  0.4463601512
C   1.3698464370  0.0805999956 -0.0396809422
C  -1.1729524813  1.0106463132  0.7649060815
C   2.0255264628 -0.4219378757  1.2356208816
C   2.3237514643  0.4057776756 -1.1629194363
N   0.2760127198 -0.8002038370 -0.4329284115
N  -2.0754509572 -1.1209871029 -0.1803439979
O  -1.7777374782  1.5576285813 -0.3857977699
H  -2.4173688569  0.8745675576 -0.6321403424
H   0.0184328495 -0.6125595601 -1.3979664556
H  -0.6683226662 -1.1333600707  1.3556657497
H   0.9161311590  1.0290139960  0.2088432724
H  -2.4547682944 -1.9168092025  0.3158325784
H  -1.9130252563 -1.4344363685 -1.1314511395
H  -0.3660572736  1.7279852781  0.9843211562
H  -1.8175579400  1.1192590129  1.6475148852
H   2.8064518948  0.2743738853  1.5392563716
H   1.7578276480  0.7097603982 -2.0470553519
H   2.4532574625 -1.4176718073  1.1118902479
H   1.2991225686 -0.4659488859  2.0509863145
H   2.9155286975  1.2675399876 -0.8503633149
H   2.9914680778 -0.4131035862 -1.4220855165
22
Image 78  Energy = -383.6274524528
C  -0.8712954885 -0.5546075941  0.4467216210
C   1.3704681825  0.0814997577 -0.0395083323
C  -1.1748396456  1.0080202156  0.7642178915
C   2.0261270769 -0.4217774592  1.2355438602
C   2.3244345103  0.4052964201 -1.1632997194
N   0.2754959572 -0.7982973455 -0.4320786209
N  -2.0763553280 -1.1192890914 -0.1800042969
O  -1.7787438485  1.5568386475 -0.3861142525
H  -2.4193009390  0.8749997466 -0.6337292603
H   0.0180994911 -0.6110795574 -1.3971851518
H  -0.6695081227 -1.1298742751  1.3568247821
H   0.9189741597  1.0312421301  0.2085675464
H  -2.4539077045 -1.9154716460  0.3167009395
H  -1.9117044303 -1.4335901849 -1.1303417534
H  -0.3658839765  1.7215459746  0.9846659019
H  -1.8195407979  1.1154597700  1.6467139946
H   2.8072807523  0.2740962029  1.5396241459
H   1.7584400744  0.7093968107 -2.0473451373
H   2.4535036483 -1.4176238261  1.1113752670
H   1.2996511104 -0.4660940039  2.0508110749
H   2.9167547854  1.2668676249 -0.8511925963
H   2.9917575445 -0.4139183210 -1.4225028919
22
Image 79  Energy = -383.6281029361
C  -0.8723496644 -0.5528409994  0.4470604962
C   1.3710767380  0.0823979482 -0.0393343217
C  -1.1767000332  1.0055303007  0.7635582309
C   2.0267207177 -0.4216146424  1.2354675556
C   2.3251072600  0.4048165997 -1.1636744468
N   0.2750009738 -0.7964251878 -0.4312565419
N  -2.0772173735 -1.1176949534 -0.1796811275
O  -1.7797329070  1.5560972647 -0.3864277831
H  -2.4211844531  0.8754429387 -0.6352748251
H   0.0177672829 -0.6095940551 -1.3964202132
H  -0.6706732119 -1.1264891686  1.3579857942
H   0.9217702704  1.0334461325  0.2083097495
H  -2.4530952655 -1.9141913732  0.3175545598
H  -1.9104286690 -1.4327863333 -1.1292777322
H  -0.3657215897  1.7153110564  0.9850315929
H  -1.8215298417  1.1117379121  1.6459292740
H   2.8081067607  0.2738180577  1.5399887058
H   1.7590518590  0.7090316322 -2.0476365578
H   2.4537464017 -1.4175707047  1.1108552679
H   1.3001784814 -0.4662352832  2.0506415557
H   2.9179810274  1.2661906328 -0.8520241784
H   2.9920322479 -0.4147377781 -1.4229100433
22
Image 80  Energy = -383.6287194021
C  -0.8733725690 -0.5511856776  0.4473791714
C   1.3716725998  0.0832940245 -0.0391591986
C  -1.1785330105  1.0031684304  0.7629266943
C   2.0273073067 -0.4214495452  1.2353918428
C   2.3257699618  0.4043383946 -1.1640435600
N   0.2745272056 -0.7945870682 -0.4304611519
N  -2.0780379749 -1.1162009462 -0.1793739098
O  -1.7807045602  1.5554028504 -0.3867372024
H  -2.4230200349  0.8758967954 -0.6367779235
H   0.0174365780 -0.6081037375 -1.3956712227
H  -0.6718175145 -1.1232033279  1.3591462199
H   0.9245194248  1.0356251011  0.2080691212
H  -2.4523296390 -1.9129678299  0.3183929447
H  -1.9091970187 -1.4320250971 -1.1282581531
H  -0.3655719797  1.7092766356  0.9854176092
H  -1.8235237484  1.1080943318  1.6451598615
H   2.8089297106  0.2735396347  1.5403498524
H   1.7596627505  0.7086649738 -2.0479295589
H   2.4539856961 -1.4175126449  1.1103304181
H   1.3007046031 -0.4663728016  2.0504776724
H   2.9192071673  1.2655093106 -0.8528577062
H   2.9922920566 -0.4155618073 -1.4233068101
22
Image 81  Energy = -383.6293038001
C  -0.8743650722 -0.5496333396  0.4476798540
C   1.3722562089  0.0841875495 -0.0389832553
C  -1.1803380956  1.0009268969  0.7623227179
C   2.0278870215 -0.4212822965  1.2353166911
C   2.3264227943  0.4038620607 -1.1644071289
N   0.2740740412 -0.7927825070 -0.4296913312
N  -2.0788182823 -1.1148034423 -0.1790819529
O  -1.7816587190  1.5547537257 -0.3870414216
H  -2.4248083701  0.8763609814 -0.6382394712
H   0.0171076806 -0.6066092399 -1.3949377816
H  -0.6729406858 -1.1200150981  1.3603036479
H   0.9272216682  1.0377782050  0.2078448966
H  -2.4516092835 -1.9118001114  0.3192155690
H  -1.9080084170 -1.4313065877 -1.1272819663
H  -0.3654368552  1.7034384817  0.9858233028
H  -1.8255212080  1.1045295496  1.6444049081
H   2.8097492929  0.2732610329  1.5407073806
H   1.7602725842  0.7082969020 -2.0482239450
H   2.4542214600 -1.4174497802  1.1098008961
H   1.3012294113 -0.4665066237  2.0503193030
H   2.9204329437  1.2648239390 -0.8536928408
H   2.9925368940 -0.4163902976 -1.4236930618
22
Image 82  Energy = -383.6298579001
C  -0.8753279816 -0.5481763278  0.4479643845
C   1.3728281850  0.0850781506 -0.0388067344
C  -1.1821149146  0.9987984316  0.7617458132
C   2.0284598159 -0.4211130941  1.2352419922
C   2.3270657909  0.4033877078 -1.1647652281
N   0.2736406918 -0.7910109310 -0.4289461017
N  -2.0795594516 -1.1134987023 -0.1788047330
O  -1.7825952716  1.5541481640 -0.3873395107
H  -2.4265503006  0.8768350981 -0.6396604774
H   0.0167808865 -0.6051111974 -1.3942193175
H  -0.6740424587 -1.1169225842  1.3614558573
H   0.9298771215  1.0399047803  0.2076363565
H  -2.4509326268 -1.9106872557  0.3200220251
H  -1.9068617521 -1.4306307287 -1.1263478923
H  -0.3653177812  1.6977920778  0.9862480378
H  -1.8275209362  1.1010438029  1.6436636369
H   2.8105653537  0.2729824568  1.5410611327
H   1.7608811993  0.7079274979 -2.0485195525
H   2.4544536503 -1.4173822570  1.1092668870
H   1.3017528634 -0.4666368328  2.0501663516
H   2.9216581814  1.2641348634 -0.8545292203
H   2.9927667469 -0.4172231195 -1.4240686966
22
Image 83  Energy = -383.6303834676
C  -0.8762622162 -0.5468074938  0.4482345943
C   1.3733889037  0.0859654345 -0.0386298756
C  -1.1838633467  0.9967760797  0.7611953730
C   2.0290258555 -0.4209420162  1.2351677077
C   2.3276991581  0.4029155298 -1.1651178645
N   0.2732265360 -0.7892716583 -0.4282243971
N  -2.0802627149 -1.1122828225 -0.1785415577
O  -1.7835141791  1.5535843505 -0.3876306581
H  -2.4282466127  0.8773188169 -0.6410419063
H   0.0164564424 -0.6036101828 -1.3935153973
H  -0.6751226257 -1.1139237604  1.3626007872
H   0.9324859942  1.0420042929  0.2074427968
H  -2.4502980663 -1.9096282475  0.3208120266
H  -1.9057558031 -1.4299973822 -1.1254548124
H  -0.3652161149  1.6923327678  0.9866911558
H  -1.8295216485  1.0976370233  1.6429352644
H   2.8113776565  0.2727040166  1.5414109311
H   1.7614884218  0.7075568379 -2.0488162673
H   2.4546822422 -1.4173102799  1.1087285838
H   1.3022748909 -0.4667635125  2.0500186961
H   2.9228826540  1.2634423424 -0.8553665305
H   2.9929815857 -0.4180601360 -1.4244336391
22
Image 84  Energy = -383.6308821716
C  -0.8771686775 -0.5455202743  0.4484919020
C   1.3739388121  0.0868490353 -0.0384528788
C  -1.1855832814  0.9948533640  0.7606707520
C   2.0295851963 -0.4207691813  1.2350937515
C   2.3283230138  0.4024455962 -1.1654650859
N   0.2728308389 -0.7875639198 -0.4275251923
N  -2.0809293861 -1.1111521142 -0.1782918028
O  -1.7844153060  1.5530605556 -0.3879141217
H  -2.4298982866  0.8778116721 -0.6423848185
H   0.0161345665 -0.6021067488 -1.3928255074
H  -0.6761810364 -1.1110164852  1.3637365959
H   0.9350485296  1.0440763336  0.2072635731
H  -2.4497038937 -1.9086218315  0.3215852615
H  -1.9046893136 -1.4294062216 -1.1246013539
H  -0.3651330692  1.6870557120  0.9871520136
H  -1.8315221792  1.0943089298  1.6422191450
H   2.8121860653  0.2724258657  1.5417566446
H   1.7620940711  0.7071850195 -2.0491139706
H   2.4549072405 -1.4172340368  1.1081861701
H   1.3027954337 -0.4668867323  2.0498762198
H   2.9241062012  1.2627466852 -0.8562044424
H   2.9931814738 -0.4189012261 -1.4247878436
22
Image 85  Energy = -383.6313556068
C  -0.8780482171 -0.5443086616  0.4487376800
C   1.3744783169  0.0877287319 -0.0382759305
C  -1.1872748304  0.9930242534  0.7601713584
C   2.0301378941 -0.4205947977  1.2350201411
C   2.3289375105  0.4019781299 -1.1658069593
N   0.2724527927 -0.7858869456 -0.4268475398
N  -2.0815607443 -1.1101027966 -0.1780549982
O  -1.7852986380  1.5525749418 -0.3881893289
H  -2.4315062435  0.8783133010 -0.6436902471
H   0.0158154754 -0.6006014181 -1.3921491243
H  -0.6772175979 -1.1081985157  1.3648615756
H   0.9375650848  1.0461205610  0.2070980368
H  -2.4491484204 -1.9076667788  0.3223415634
H  -1.9036610070 -1.4288567982 -1.1237860676
H  -0.3650697062  1.6819559540  0.9876299739
H  -1.8335213104  1.0910589942  1.6415145873
H   2.8129904422  0.2721481558  1.5420981441
H   1.7626980353  0.7068121130 -2.0494124809
H   2.4551286264 -1.4171536660  1.1076398386
H   1.3033144983 -0.4670065650  2.0497387577
H   2.9253285781  1.2620481029 -0.8570426796
H   2.9933664731 -0.4197462989 -1.4251312889
22
Image 86  Energy = -383.6318052408
C  -0.8789017938 -0.5431670410  0.4489731148
C   1.3750078220  0.0886042514 -0.0380991174
C  -1.1889380719  0.9912830279  0.7596964921
C   2.0306841548 -0.4204189122  1.2349467462
C   2.3295429056  0.4015131535 -1.1661435165
N   0.2720916963 -0.7842399199 -0.4261905004
N  -2.0821580708 -1.1091312156 -0.1778306435
O  -1.7861641878  1.5521256863 -0.3884557922
H  -2.4330714689  0.8788233131 -0.6449592577
H   0.0154993217 -0.5990946740 -1.3914858032
H  -0.6782322662 -1.1054675610  1.3659742290
H   0.9400360286  1.0481367484  0.2069455938
H  -2.4486299286 -1.9067617331  0.3230807893
H  -1.9026695886 -1.4283485715 -1.1230074885
H  -0.3650268950  1.6770285004  0.9881244233
H  -1.8355180090  1.0878865307  1.6408210702
H   2.8137905999  0.2718709811  1.5424352936
H   1.7633001253  0.7064382224 -2.0497117273
H   2.4553463966 -1.4170693601  1.1070897811
H   1.3038319960 -0.4671230914  2.0496062345
H   2.9265496044  1.2613468557 -0.8578809454
H   2.9935366422 -0.4205951933 -1.4254639641
22
Image 87  Energy = -383.6322325543
C  -0.8797303009 -0.5420903172  0.4491992401
C   1.3755276682  0.0894753751 -0.0379225882
C  -1.1905732738  0.9896243243  0.7592455720
C   2.0312238630 -0.4202416694  1.2348736527
C   2.3301393174  0.4010507676 -1.1664748559
N   0.2717468545 -0.7826219394 -0.4255532363
N  -2.0827227513 -1.1082336985 -0.1776180607
O  -1.7870119504  1.5517111308 -0.3887131685
H  -2.4345950043  0.8793412508 -0.6461929115
H   0.0151862739 -0.5975869858 -1.3908350175
H  -0.6792250346 -1.1028213115  1.3670732350
H   0.9424618059  1.0501247405  0.2068056575
H  -2.4481466955 -1.9059052891  0.3238028523
H  -1.9017136888 -1.4278809713 -1.1222643028
H  -0.3650053707  1.6722683351  0.9886347306
H  -1.8375111967  1.0847906517  1.6401380054
H   2.8145864917  0.2715945124  1.5427680073
H   1.7639002247  0.7060634218 -2.0500115519
H   2.4555606044 -1.4169813443  1.1065361809
H   1.3043480022 -0.4672363738  2.0494784029
H   2.9277690934  1.2606431726 -0.8587189594
H   2.9936920805 -0.4214477843 -1.4257858723
22
Image 88  Energy = -383.6326388616
C  -0.8805345283 -0.5410738330  0.4494170002
C   1.3760382772  0.0903419063 -0.0377464561
C  -1.1921807747  0.9880431768  0.7588178515
C   2.0317574504 -0.4200631475  1.2348006908
C   2.3307268145  0.4005910684 -1.1668010606
N   0.2714174927 -0.7810321957 -0.4249348337
N  -2.0832561631 -1.1074067220 -0.1774167919
O  -1.7878419851  1.5513295157 -0.3889611583
H  -2.4360778611  0.8798667260 -0.6473922597
H   0.0148764285 -0.5960787693 -1.3901963691
H  -0.6801959376 -1.1002573805  1.3681573556
H   0.9448428659  1.0520845184  0.2066776927
H  -2.4476970212 -1.9050960181  0.3245077417
H  -1.9007919644 -1.4274533056 -1.1215550714
H  -0.3650056738  1.6676704501  0.9891603141
H  -1.8394999520  1.0817703621  1.6394649723
H   2.8153779019  0.2713187879  1.5430961617
H   1.7644982423  0.7056877836 -2.0503117815
H   2.4557712136 -1.4168897298  1.1059792426
H   1.3048623622 -0.4673465012  2.0493552761
H   2.9289868823  1.2599372783 -0.8595564611
H   2.9938329422 -0.4223039712 -1.4260970437
22
Image 89  Energy = -383.6330254463
C  -0.8813153790 -0.5401132596  0.4496271286
C   1.3765398225  0.0912037016 -0.0375708442
C  -1.1937609516  0.9865349480  0.7584126955
C   2.0322848916 -0.4198835119  1.2347279499
C   2.3313056391  0.4001341668 -1.1671220713
N   0.2711029516 -0.7794698127 -0.4243344949
N  -2.0837595238 -1.1066468392 -0.1772264372
O  -1.7886543016  1.5509792086 -0.3891995296
H  -2.4375211514  0.8803992723 -0.6485583881
H   0.0145698978 -0.5945704248 -1.3895694182
H  -0.6811450428 -1.0977734512  1.3692255959
H   0.9471797459  1.0540160501  0.2065611747
H  -2.4472792182 -1.9043324537  0.3251954771
H  -1.8999031005 -1.4270647962 -1.1208782504
H  -0.3650282602  1.6632298524  0.9897005841
H  -1.8414833638  1.0788245360  1.6388015208
H   2.8161647797  0.2710439466  1.5434196864
H   1.7650939976  0.7053114136 -2.0506123773
H   2.4559782609 -1.4167946920  1.1054191582
H   1.3053751569 -0.4674535344  2.0492366088
H   2.9302027729  1.2592293246 -0.8603932220
H   2.9939593887 -0.4231636444 -1.4263975342
22
Image 90  Energy = -383.6333934780
C  -0.8820737182 -0.5392046707  0.4498303382
C   1.3770327861  0.0920605863 -0.0373957383
C  -1.1953142247  0.9850952967  0.7580294590
C   2.0328061844 -0.4197028443  1.2346552995
C   2.3318759175  0.3996799833 -1.1674380701
N   0.2708025127 -0.7779339715 -0.4237515182
N  -2.0842341718 -1.1059507118 -0.1770464528
O  -1.7894490838  1.5506585552 -0.3894282248
H  -2.4389258697  0.8809385300 -0.6496923237
H   0.0142667623 -0.5930623329 -1.3889537293
H  -0.6820724508 -1.0953671896  1.3702770482
H   0.9494729596  1.0559194779  0.2064556299
H  -2.4468916192 -1.9036130816  0.3258661114
H  -1.8990457406 -1.4267146559 -1.1202324750
H  -0.3650734343  1.6589416097  0.9902549741
H  -1.8434606126  1.0759519332  1.6381472781
H   2.8169471033  0.2707701355  1.5437385161
H   1.7656874214  0.7049343760 -2.0509131794
H   2.4561818078 -1.4166964469  1.1048561111
H   1.3058863425 -0.4675575493  2.0491223045
H   2.9314166363  1.2585195801 -0.8612289690
H   2.9940715050 -0.4240266096 -1.4266873777
22
Image 91  Energy = -383.6337441440
C  -0.8828103002 -0.5383444383  0.4500272577
C   1.3775172647  0.0929124544 -0.0372212414
C  -1.1968411275  0.9837202066  0.7576673830
C   2.0333216168 -0.4195212208  1.2345827912
C   2.3324379229  0.3992286458 -1.1677490496
N   0.2705155726 -0.7764237836 -0.4231851771
N  -2.0846814159 -1.1053152000 -0.1768764558
O  -1.7902263767  1.5503660284 -0.3896471071
H  -2.4402931144  0.8814840421 -0.6507951044
H   0.0139670826 -0.5915548342 -1.3883489249
H  -0.6829783004 -1.0930362940  1.3713109665
H   0.9517231032  1.0577948740  0.2063605799
H  -2.4465325859 -1.9029363560  0.3265197355
H  -1.8982185619 -1.4264020021 -1.1196162841
H  -0.3651413854  1.6548008578  0.9908229251
H  -1.8454309454  1.0731512332  1.6375019092
H   2.8177247223  0.2704973912  1.5440525605
H   1.7662783646  0.7045567746 -2.0512141185
H   2.4563818645 -1.4165951386  1.1042902847
H   1.3063958868 -0.4676586152  2.0490122326
H   2.9326282463  1.2578081443 -0.8620635022
H   2.9941694804 -0.4248927701 -1.4269666483
22
Image 92  Energy = -383.6340784781
C  -0.8835259045 -0.5375292101  0.4502183641
C   1.3779936332  0.0937591828 -0.0370474287
C  -1.1983421567  0.9824058894  0.7573259130
C   2.0338311943 -0.4193388255  1.2345103301
C   2.3329915018  0.3987801547 -1.1680551464
N   0.2702414432 -0.7749384427 -0.4226348811
N  -2.0851024568 -1.1047371143 -0.1767159834
O  -1.7909863575  1.5501001609 -0.3898562646
H  -2.4416239595  0.8820353899 -0.6518677684
H   0.0136709298 -0.5900482683 -1.3877545576
H  -0.6838627422 -1.0907784906  1.3723267158
H   0.9539307477  1.0596424647  0.2062755771
H  -2.4462005547 -1.9023008120  0.3271565133
H  -1.8974202507 -1.4261259712 -1.1190283623
H  -0.3652322016  1.6508027892  0.9914039081
H  -1.8473936556  1.0704210510  1.6368651185
H   2.8184976544  0.2702258621  1.5443617907
H   1.7668668076  0.7041786423 -2.0515149710
H   2.4565784669 -1.4164909018  1.1037218754
H   1.3069037899 -0.4677568045  2.0489062676
H   2.9338375464  1.2570952747 -0.8628965702
H   2.9942535394 -0.4257620209 -1.4272354286
22
Image 93  Energy = -383.6343974880
C  -0.8842213306 -0.5367559159  0.4504041774
C   1.3784620642  0.0946006552 -0.0368743352
C  -1.1998178363  0.9811488222  0.7570042621
C   2.0343351190 -0.4191556950  1.2344379622
C   2.3335370097  0.3983345829 -1.1683563041
N   0.2699795030 -0.7734771734 -0.4220999207
N  -2.0854985123 -1.1042134983 -0.1765646003
O  -1.7917291940  1.5498594595 -0.3900556846
H  -2.4429194301  0.8825921933 -0.6529113066
H   0.0133783163 -0.5885429166 -1.3871703795
H  -0.6847259529 -1.0885915433  1.3733237443
H   0.9560965013  1.0614625194  0.2062002280
H  -2.4458939539 -1.9017048972  0.3277765968
H  -1.8966495106 -1.4258856540 -1.1184673925
H  -0.3653458657  1.6469427253  0.9919973966
H  -1.8493481485  1.0677599395  1.6362366663
H   2.8192657903  0.2699555803  1.5446661328
H   1.7674525962  0.7038000978 -2.0518157388
H   2.4567716550 -1.4163838968  1.1031510601
H   1.3074100441 -0.4678521841  2.0488042656
H   2.9350442886  1.2563810278 -0.8637280008
H   2.9943238616 -0.4266342300 -1.4274938183
22
Image 94  Energy = -383.6347020805
C  -0.8848972457 -0.5360217623  0.4505850401
C   1.3789227369  0.0954368454 -0.0367019518
C  -1.2012688295  0.9799457326  0.7567018267
C   2.0348333493 -0.4189719273  1.2343656175
C   2.3340745732  0.3978919043 -1.1686526873
N   0.2697292256 -0.7720391742 -0.4215796707
N  -2.0858707251 -1.1037414686 -0.1764221056
O  -1.7924550614  1.5496426027 -0.3902455053
H  -2.4441805669  0.8831540320 -0.6539266942
H   0.0130892574 -0.5870390496 -1.3865960713
H  -0.6855681322 -1.0864732706  1.3743016522
H   0.9582210251  1.0632552246  0.2061341090
H  -2.4456113227 -1.9011471800  0.3283802380
H  -1.8959051026 -1.4256800500 -1.1179319242
H  -0.3654822847  1.6432160494  0.9926028824
H  -1.8512938272  1.0651664196  1.6356163106
H   2.8200291486  0.2696866770  1.5449655668
H   1.7680356763  0.7034211972 -2.0521162558
H   2.4569615063 -1.4162743294  1.1025780092
H   1.3079146576 -0.4679448180  2.0487061076
H   2.9362483463  1.2556655815 -0.8645575848
H   2.9943806089 -0.4275092391 -1.4277418984
22
Image 95  Energy = -383.6349932062
C  -0.8855544004 -0.5353241446  0.4507613286
C   1.3793759108  0.0962677091 -0.0365303379
C  -1.2026956384  0.9787935624  0.7564179059
C   2.0353261086 -0.4187876326  1.2342933198
C   2.3346043631  0.3974521064 -1.1689443037
N   0.2694899579 -0.7706237298 -0.4210736447
N  -2.0862202072 -1.1033181834 -0.1762879857
O  -1.7931641726  1.5494482479 -0.3904258441
H  -2.4454084177  0.8837205178 -0.6549149166
H   0.0128037687 -0.5855369348 -1.3860313060
H  -0.6863895009 -1.0844215262  1.3752601059
H   0.9603049562  1.0650209219  0.2060768566
H  -2.4453512261 -1.9006262018  0.3289676834
H  -1.8951857543 -1.4255082599 -1.1174208637
H  -0.3656412749  1.6396182765  0.9932198773
H  -1.8532302231  1.0626389589  1.6350038842
H   2.8207876305  0.2694191770  1.5452600274
H   1.7686159411  0.7030420296 -2.0524164556
H   2.4571480294 -1.4161622799  1.1020029109
H   1.3084176257 -0.4680347780  2.0486116653
H   2.9374495678  1.2549490631 -0.8653851352
H   2.9944239701 -0.4283869036 -1.4279797610
22
Image 96  Energy = -383.6352716187
C  -0.8861934699 -0.5346606462  0.4509333539
C   1.3798217623  0.0970931701 -0.0363595123
C  -1.2040988791  0.9776894758  0.7561519435
C   2.0358135930 -0.4186028706  1.2342209357
C   2.3351263658  0.3970152490 -1.1692311824
N   0.2692611940 -0.7692301006 -0.4205812762
N  -2.0865480781 -1.1029411295 -0.1761619416
O  -1.7938568107  1.5492751028 -0.3905969164
H  -2.4466039459  0.8842913102 -0.6558768948
H   0.0125218277 -0.5840367950 -1.3854758542
H  -0.6871902898 -1.0824342257  1.3761988458
H   0.9623489415  1.0667599351  0.2060280996
H  -2.4451122360 -1.9001404234  0.3295391347
H  -1.8944902785 -1.4253692846 -1.1169328980
H  -0.3658226179  1.6361450002  0.9938479045
H  -1.8551568349  1.0601760107  1.6343991551
H   2.8215412312  0.2691531579  1.5455494981
H   1.7691933378  0.7026626542 -2.0527162108
H   2.4573312700 -1.4160478959  1.1014259376
H   1.3089188540 -0.4681221403  2.0485209056
H   2.9386478403  1.2542316094 -0.8662104674
H   2.9944542381 -0.4292671676 -1.4282075499
22
Image 97  Energy = -383.6355380977
C  -0.8868150692 -0.5340290703  0.4511014455
C   1.3802604926  0.0979131623 -0.0361895055
C  -1.2054791641  0.9766307899  0.7559032254
C   2.0362956620 -0.4184177181  1.2341485553
C   2.3356407035  0.3965812779 -1.1695134775
N   0.2690424120 -0.7678575496 -0.4201021873
N  -2.0868554214 -1.1026077917 -0.1760435972
O  -1.7945331924  1.5491219801 -0.3907588894
H  -2.4477681554  0.8848660295 -0.6568135542
H   0.0122434539 -0.5825388670 -1.3849293504
H  -0.6879707619 -1.0805093210  1.3771176956
H   0.9643536496  1.0684726357  0.2059875082
H  -2.4448930143 -1.8996883984  0.3300948611
H  -1.8938174807 -1.4252621605 -1.1164669006
H  -0.3660259929  1.6327919722  0.9944864936
H  -1.8570732847  1.0577759997  1.6338020053
H   2.8222899691  0.2688887006  1.5458339646
H   1.7697678257  0.7022831355 -2.0530154003
H   2.4575113259 -1.4159313625  1.1008472411
H   1.3094184481 -0.4682069524  2.0484336219
H   2.9398430364  1.2535133665 -0.8670333928
H   2.9944715735 -0.4301498630 -1.4284253531
22
Image 98  Energy = -383.6357933835
C  -0.8874198943 -0.5334273574  0.4512657680
C   1.3806922782  0.0987276518 -0.0360203590
C  -1.2068370872  0.9756150132  0.7556711831
C   2.0367725203 -0.4182322634  1.2340761953
C   2.3361476194  0.3961501683 -1.1697911646
N   0.2688330684 -0.7665054582 -0.4196358242
N  -2.0871430943 -1.1023156225 -0.1759327436
O  -1.7951935477  1.5489877967 -0.3909119751
H  -2.4489020503  0.8854442683 -0.6577257998
H   0.0119685941 -0.5810433300 -1.3843916607
H  -0.6887311674 -1.0786448534  1.3780165810
H   0.9663197403  1.0701594238  0.2059547680
H  -2.4446923186 -1.8992688437  0.3306352402
H  -1.8931662333 -1.4251858999 -1.1160216968
H  -0.3662510747  1.6295550118  0.9951351967
H  -1.8589791941  1.0554373632  1.6332122525
H   2.8230338017  0.2686258563  1.5461133887
H   1.7703392882  0.7019035589 -2.0533139826
H   2.4576882137 -1.4158127785  1.1002669824
H   1.3099163832 -0.4682892864  2.0483497071
H   2.9410350000  1.2527944129 -0.8678537610
H   2.9944761708 -0.4310348369 -1.4286332878
22
Image 99  Energy = -383.6360381510
C  -0.8880085168 -0.5328536111  0.4514265420
C   1.3811172200  0.0995366726 -0.0358520738
C  -1.2081732497  0.9746398272  0.7554551716
C   2.0372442761 -0.4180465804  1.2340037868
C   2.3366471999  0.3957219535 -1.1700642443
N   0.2686327193 -0.7651731410 -0.4191818037
N  -2.0874121429 -1.1020624717 -0.1758290408
O  -1.7958381729  1.5488714324 -0.3910564356
H  -2.4500065495  0.8860257133 -0.6586144918
H   0.0116972292 -0.5795503772 -1.3838625119
H  -0.6894717753 -1.0768388963  1.3788954808
H   0.9682479114  1.0718206414  0.2059295407
H  -2.4445088777 -1.8988802783  0.3311605081
H  -1.8925354244 -1.4251395178 -1.1155961882
H  -0.3664974377  1.6264301114  0.9957935843
H  -1.8608742725  1.0531585117  1.6326298157
H   2.8237727085  0.2683646634  1.5463877589
H   1.7709076781  0.7015239967 -2.0536118888
H   2.4578619997 -1.4156922820  1.0996853310
H   1.3104126374 -0.4683692027  2.0482690934
H   2.9422235795  1.2520748139 -0.8686714297
H   2.9944682759 -0.4319219848 -1.4288314962
22
Image 100  Energy = -383.6362730527
C  -0.8885814788 -0.5323061154  0.4515840296
C   1.3815354582  0.1003402100 -0.0356845990
C  -1.2094882000  0.9737030844  0.7552546377
C   2.0377109651 -0.4178607174  1.2339312803
C   2.3371394365  0.3952966532 -1.1703329029
N   0.2684408710 -0.7638599806 -0.4187397624
N  -2.0876634448 -1.1018460225 -0.1757322021
O  -1.7964673296  1.5487718759 -0.3911924881
H  -2.4510826183  0.8866099988 -0.6594804993
H   0.0114293352 -0.5780601811 -1.3833416623
H  -0.6901928971 -1.0750895400  1.3797543376
H   0.9701388681  1.0734566852  0.2059115304
H  -2.4443415646 -1.8985214629  0.3316710659
H  -1.8919239551 -1.4251220608 -1.1151894077
H  -0.3667646975  1.6234133108  0.9964612233
H  -1.8627582151  1.0509378710  1.6320545184
H   2.8245067016  0.2681051693  1.5466570637
H   1.7714730021  0.7011444835 -2.0539089356
H   2.4580327552 -1.4155700000  1.0991024361
H   1.3109071978 -0.4684467591  2.0481916851
H   2.9434086898  1.2513546963 -0.8694862368
H   2.9944481357 -0.4328112046 -1.4290201029
22
Image 101  Energy = -383.6364986452
C  -0.8891393681 -0.5317832294  0.4517383053
C   1.3819471462  0.1011381793 -0.0355180302
C  -1.2107826349  0.9728027450  0.7550690681
C   2.0381727805 -0.4176747625  1.2338587063
C   2.3376246634  0.3948741236 -1.1705970423
N   0.2682571208 -0.7625653577 -0.4183092569
N  -2.0878978841 -1.1016643071 -0.1756419804
O  -1.7970813546  1.5486880889 -0.3913204512
H  -2.4521310891  0.8871968580 -0.6603246058
H   0.0111648462 -0.5765728889 -1.3828289689
H  -0.6908948054 -1.0733949922  1.3805932736
H   0.9719932433  1.0750680259  0.2059004734
H  -2.4441892132 -1.8981910026  0.3321671851
H  -1.8913308045 -1.4251325435 -1.1148002806
H  -0.3670523410  1.6205008481  0.9971377031
H  -1.8646307680  1.0487738715  1.6314862538
H   2.8252357206  0.2678473908  1.5469212771
H   1.7720351016  0.7007651308 -2.0542051765
H   2.4582004898 -1.4154459995  1.0985184515
H   1.3114000755 -0.4685220201  2.0481173733
H   2.9445901855  1.2506341356 -0.8702980448
H   2.9944159055 -0.4337022989 -1.4291992235
22
Image 102  Energy = -383.6367154978
C  -0.8896827278 -0.5312834612  0.4518896185
C   1.3823523630  0.1019306113 -0.0353523461
C  -1.2120570518  0.9719368592  0.7548977965
C   2.0386296765 -0.4174888042  1.2337860206
C   2.3381028724  0.3944544473 -1.1708568354
N   0.2680810605 -0.7612886959 -0.4178899339
N  -2.0881162489 -1.1015152224 -0.1755580964
O  -1.7976804645  1.5486192651 -0.3914405510
H  -2.4531529502  0.8877858767 -0.6611476623
H   0.0109037203 -0.5750886330 -1.3823242453
H  -0.6915778144 -1.0717534776  1.3814123499
H   0.9738117506  1.0766550486  0.2058960797
H  -2.4440507968 -1.8978877171  0.3326492684
H  -1.8907549472 -1.4251700336 -1.1144279261
H  -0.3673598848  1.6176890395  0.9978226422
H  -1.8664917588  1.0466649593  1.6309249654
H   2.8259598469  0.2675914173  1.5471804267
H   1.7725940043  0.7003859637 -2.0545004389
H   2.4583652902 -1.4153204288  1.0979335143
H   1.3118912661 -0.4685950415  2.0480460823
H   2.9457679641  1.2499132089 -0.8711067181
H   2.9943718457 -0.4345951867 -1.4293690013
22
Image 103  Energy = -383.6369240924
C  -0.8902120322 -0.5308053734  0.4520379855
C   1.3827512863  0.1027175418 -0.0351875202
C  -1.2133120146  0.9711037174  0.7547403508
C   2.0390817722 -0.4173028424  1.2337132608
C   2.3385740605  0.3940375588 -1.1711123387
N   0.2679122277 -0.7600294776 -0.4174814900
N  -2.0883193339 -1.1013969613 -0.1754803238
O  -1.7982650235  1.5485644150 -0.3915530738
H  -2.4541489733  0.8883768303 -0.6619504045
H   0.0106459080 -0.5736075501 -1.3818273061
H  -0.6922422208 -1.0701633022  1.3822117628
H   0.9755950831  1.0782181785  0.2058980844
H  -2.4439252752 -1.8976103279  0.3331176361
H  -1.8901954232 -1.4252335761 -1.1140713937
H  -0.3676868542  1.6149742884  0.9985156367
H  -1.8683410108  1.0446096058  1.6303705384
H   2.8266790114  0.2673372340  1.5474344776
H   1.7731496782  0.7000070386 -2.0547946421
H   2.4585271980 -1.4151933951  1.0973477681
H   1.3123807981 -0.4686658840  2.0479776836
H   2.9469419511  1.2491920347 -0.8719121034
H   2.9943162024 -0.4354897577 -1.4295295787
22
Image 104  Energy = -383.6371249549
C  -0.8907278012 -0.5303477038  0.4521835989
C   1.3831440382  0.1034989654 -0.0350236369
C  -1.2145480409  0.9703016281  0.7545961598
C   2.0395291728 -0.4171169981  1.2336403785
C   2.3390383692  0.3936234734 -1.1713635404
N   0.2677502604 -0.7587871176 -0.4170836121
N  -2.0885078747 -1.1013077157 -0.1754084172
O  -1.7988353674  1.5485227283 -0.3916583132
H  -2.4551199656  0.8889694402 -0.6627335694
H   0.0103913473 -0.5721297601 -1.3813379618
H  -0.6928883404 -1.0686227966  1.3829916446
H   0.9773439065  1.0797578544  0.2059062399
H  -2.4438116950 -1.8973576589  0.3335726498
H  -1.8896512972 -1.4253222478 -1.1137298212
H  -0.3680327324  1.6123531464  0.9992163086
H  -1.8701783814  1.0426062753  1.6298228849
H   2.8273932532  0.2670848926  1.5476834485
H   1.7737020786  0.6996284253 -2.0550877245
H   2.4586862598 -1.4150649706  1.0967613531
H   1.3128686307 -0.4687346038  2.0479121380
H   2.9481119981  1.2484706348 -0.8727141069
H   2.9942491965 -0.4363858959 -1.4296810910
22
Image 105  Energy = -383.6373185407
C  -0.8912305044 -0.5299092184  0.4523265625
C   1.3835306995  0.1042748536 -0.0348606228
C  -1.2157657851  0.9695290018  0.7544647466
C   2.0399719731 -0.4169312810  1.2335673371
C   2.3394960490  0.3932121440 -1.1716105019
N   0.2675947848 -0.7575611447 -0.4166960020
N  -2.0886825481 -1.1012457626 -0.1753421802
O  -1.7993916845  1.5484934938 -0.3917564891
H  -2.4560668313  0.8895633334 -0.6634979163
H   0.0101399737 -0.5706553669 -1.3808560914
H  -0.6935164888 -1.0671303467  1.3837522076
H   0.9790588929  1.0812745452  0.2059203139
H  -2.4437091445 -1.8971285739  0.3340146846
H  -1.8891216687 -1.4254351348 -1.1134023772
H  -0.3683969488  1.6098222934  0.9999243012
H  -1.8720037187  1.0406534797  1.6292818839
H   2.8281025494  0.2668343989  1.5479273270
H   1.7742511468  0.6992501857 -2.0553796422
H   2.4588425204 -1.4149352537  1.0961743984
H   1.3133547611 -0.4688012619  2.0478493658
H   2.9492779766  1.2477490466 -0.8735126209
H   2.9941710106 -0.4372834348 -1.4298236747
22
Image 106  Energy = -383.6375052136
C  -0.8917205627 -0.5294887658  0.4524669739
C   1.3839113676  0.1050452289 -0.0346985377
C  -1.2169656181  0.9687843861  0.7543456214
C   2.0404100777 -0.4167457752  1.2334942178
C   2.3399470783  0.3928034983 -1.1718533329
N   0.2674454497 -0.7563510245 -0.4163183109
N  -2.0888440643 -1.1012095111 -0.1752813874
O  -1.7999344613  1.5484758478 -0.3918479662
H  -2.4569902214  0.8901583684 -0.6642440984
H   0.0098917230 -0.5691844584 -1.3803815662
H  -0.6941269803 -1.0656844056  1.3844936990
H   0.9807407285  1.0827686532  0.2059400667
H  -2.4436167594 -1.8969219560  0.3344441014
H  -1.8886056648 -1.4255713564 -1.1130883180
H  -0.3687789880  1.6073784837  1.0006392647
H  -1.8738169583  1.0387497341  1.6287474726
H   2.8288069677  0.2665858075  1.5481661433
H   1.7747968786  0.6988723637 -2.0556703054
H   2.4589960594 -1.4148043567  1.0955870240
H   1.3138392589 -0.4688658995  2.0477892124
H   2.9504398391  1.2470273841 -0.8743075061
H   2.9940818647 -0.4381822493 -1.4299574585
22
Image 107  Energy = -383.6376854378
C  -0.8921984448 -0.5290853403  0.4526049429
C   1.3842861130  0.1058101579 -0.0345374090
C  -1.2181481548  0.9680663845  0.7542382949
C   2.0408437559 -0.4165604908  1.2334209261
C   2.3403917126  0.3923975095 -1.1720919696
N   0.2673019805 -0.7551562737 -0.4159503712
N  -2.0889930756 -1.1011974607 -0.1752258481
O  -1.8004638605  1.5484692074 -0.3919329293
H  -2.4578909917  0.8907541772 -0.6649728252
H   0.0096465323 -0.5677171373 -1.3799141824
H  -0.6947201382 -1.0642834467  1.3852163573
H   0.9823900971  1.0842405852  0.2059652713
H  -2.4435336984 -1.8967367024  0.3348612406
H  -1.8881024566 -1.4257300257 -1.1127868377
H  -0.3691782840  1.6050186252  1.0013608450
H  -1.8756179999  1.0368935933  1.6282195348
H   2.8295064491  0.2663390932  1.5483998747
H   1.7753391921  0.6984950408 -2.0559597202
H   2.4591469060 -1.4146723551  1.0949993509
H   1.3143220131 -0.4689285843  2.0477317291
H   2.9515974227  1.2463056476 -0.8750986836
H   2.9939819446 -0.4390822077 -1.4300825826
22
Image 108  Energy = -383.6378595726
C  -0.8926644958 -0.5286979118  0.4527405176
C   1.3846550594  0.1065696033 -0.0343771558
C  -1.2193139178  0.9673737164  0.7541422894
C   2.0412729765 -0.4163755045  1.2333474255
C   2.3408298620  0.3919942118 -1.1723265580
N   0.2671639936 -0.7539764781 -0.4155918457
N  -2.0891301638 -1.1012081150 -0.1751753793
O  -1.8009802222  1.5484728535 -0.3920116637
H  -2.4587698470  0.8913505459 -0.6656847359
H   0.0094043195 -0.5662534666 -1.3794538776
H  -0.6952962738 -1.0629260307  1.3859204858
H   0.9840076513  1.0856908158  0.2059957092
H  -2.4434592109 -1.8965718142  0.3352664914
H  -1.8876112486 -1.4259103001 -1.1124972724
H  -0.3695942604  1.6027397023  1.0020887175
H  -1.8774067992  1.0350836346  1.6276980109
H   2.8302010367  0.2660942966  1.5486285529
H   1.7758781153  0.6981182363 -2.0562477518
H   2.4592951023 -1.4145393133  1.0944115137
H   1.3148030822 -0.4689893633  2.0476767780
H   2.9527507068  1.2455839371 -0.8758860339
H   2.9938715490 -0.4399832585 -1.4301992103
22
Image 109  Energy = -383.6380279028
C  -0.8931191384 -0.5283255814  0.4528737341
C   1.3850183003  0.1073236216 -0.0342178513
C  -1.2204633298  0.9667051974  0.7540572140
C   2.0416977934 -0.4161908261  1.2332738111
C   2.3412615782  0.3915935180 -1.1725571311
N   0.2670312034 -0.7528112033 -0.4152424963
N  -2.0892559029 -1.1012401216 -0.1751297362
O  -1.8014839116  1.5484861211 -0.3920844456
H  -2.4596274528  0.8919472796 -0.6663804524
H   0.0091650180 -0.5647935139 -1.3790005113
H  -0.6958557164 -1.0616107353  1.3866063543
H   0.9855940565  1.0871197614  0.2060311746
H  -2.4433925620 -1.8964262802  0.3356602112
H  -1.8871312540 -1.4261113465 -1.1122189705
H  -0.3700264025  1.6005387836  1.0028225592
H  -1.8791833100  1.0333184788  1.6271827893
H   2.8308907178  0.2658514043  1.5488521723
H   1.7764136302  0.6977420107 -2.0565343585
H   2.4594407212 -1.4144053415  1.0938236052
H   1.3152824759 -0.4690482771  2.0476242733
H   2.9538996133  1.2448623228 -0.8766694549
H   2.9937508883 -0.4408852755 -1.4303074834
22
Image 110  Energy = -383.6381908183
C  -0.8935627828 -0.5279675042  0.4530047601
C   1.3853759325  0.1080721930 -0.0340594456
C  -1.2215968168  0.9660596351  0.7539825808
C   2.0421181783 -0.4160065745  1.2331999916
C   2.3416870631  0.3911954486 -1.1727837461
N   0.2669033361 -0.7516599868 -0.4149021222
N  -2.0893708030 -1.1012921455 -0.1750888191
O  -1.8019752228  1.5485084572 -0.3921515398
H  -2.4604645125  0.8925441290 -0.6670605815
H   0.0089285532 -0.5633373535 -1.3785539473
H  -0.6963987863 -1.0603361778  1.3872742401
H   0.9871499542  1.0885278513  0.2060714679
H  -2.4433330683 -1.8962991639  0.3360427759
H  -1.8866617621 -1.4263323479 -1.1119512596
H  -0.3704741493  1.5984130813  1.0035620602
H  -1.8809475357  1.0315967486  1.6266738167
H   2.8315755839  0.2656104946  1.5490707797
H   1.7769457052  0.6973664102 -2.0568194923
H   2.4595837853 -1.4142704794  1.0932357486
H   1.3157602041 -0.4691053842  2.0475741468
H   2.9550440164  1.2441407928 -0.8774488762
H   2.9936201447 -0.4417881261 -1.4304075319
22
Image 111  Energy = -383.6383485424
C  -0.8939956946 -0.5276228609  0.4531336443
C   1.3857280007  0.1088153783 -0.0339020248
C  -1.2227148376  0.9654359844  0.7539180100
C   2.0425343269 -0.4158227305  1.2331260239
C   2.3421064766  0.3907999008 -1.1730064503
N   0.2667800602 -0.7505224479 -0.4145705133
N  -2.0894754122 -1.1013629694 -0.1750524442
O  -1.8024544198  1.5485393406 -0.3922131838
H  -2.4612817165  0.8931408437 -0.6677257168
H   0.0086948678 -0.5618850417 -1.3781140464
H  -0.6969258188 -1.0591010279  1.3879244558
H   0.9886759769  1.0899155293  0.2061164058
H  -2.4432800775 -1.8961895416  0.3364145395
H  -1.8862020547 -1.4265725185 -1.1116935522
H  -0.3709369678  1.5963598561  1.0043068995
H  -1.8826994673  1.0299171177  1.6261710041
H   2.8322555618  0.2653715005  1.5492843492
H   1.7774743133  0.6969914798 -2.0571031048
H   2.4597243535 -1.4141348138  1.0926480376
H   1.3162362263 -0.4691607304  2.0475263739
H   2.9561838329  1.2434194006 -0.8782242059
H   2.9934794866 -0.4426916510 -1.4304994931
22
Image 112  Energy = -383.6385014563
C  -0.8944183457 -0.5272908595  0.4532603406
C   1.3860746606  0.1095531607 -0.0337455440
C  -1.2238178721  0.9648331811  0.7538630762
C   2.0429461808 -0.4156393100  1.2330518383
C   2.3425197039  0.3904068951 -1.1732253276
N   0.2666612108 -0.7493981972 -0.4142473943
N  -2.0895702057 -1.1014514632 -0.1750203844
O  -1.8029218826  1.5485781411 -0.3922696294
H  -2.4620796101  0.8937373048 -0.6683763845
H   0.0084638560 -0.5604366168 -1.3776807603
H  -0.6974371000 -1.0579040402  1.3885573840
H   0.9901727631  1.0912832114  0.2061658023
H  -2.4432329658 -1.8960964780  0.3367758181
H  -1.8857514559 -1.4268310877 -1.1114452748
H  -0.3714142769  1.5943765406  1.0050568008
H  -1.8844391145  1.0282783001  1.6256742638
H   2.8329307030  0.2651344545  1.5494929246
H   1.7779994734  0.6966172596 -2.0573851180
H   2.4598624720 -1.4139984265  1.0920605787
H   1.3167105731 -0.4692143661  2.0474808783
H   2.9573190335  1.2426982188 -0.8789953487
H   2.9933292150 -0.4435958248 -1.4305835314
22
Image 113  Energy = -383.6386497616
C  -0.8948310395 -0.5269708752  0.4533850221
C   1.3864159177  0.1102856191 -0.0335900314
C  -1.2249063291  0.9642502764  0.7538174162
C   2.0433539278 -0.4154564079  1.2329774337
C   2.3429270024  0.3900163480 -1.1734403431
N   0.2665464998 -0.7482868522 -0.4139325721
N  -2.0896555631 -1.1015564462 -0.1749925782
O  -1.8033778206  1.5486244880 -0.3923210865
H  -2.4628589112  0.8943332143 -0.6690131660
H   0.0082354507 -0.5589921220 -1.3772539819
H  -0.6979329704 -1.0567439276  1.3891732800
H   0.9916409522  1.0926312760  0.2062194626
H  -2.4431911741 -1.8960191777  0.3371269927
H  -1.8853093494 -1.4271073029 -1.1112058328
H  -0.3719055509  1.5924606003  1.0058114741
H  -1.8861664766  1.0266790135  1.6251834778
H   2.8336009905  0.2648993431  1.5496965088
H   1.7785211218  0.6962438105 -2.0576655589
H   2.4599981562 -1.4138613279  1.0914734753
H   1.3171832037 -0.4692663334  2.0474376278
H   2.9584495154  1.2419772590 -0.8797622401
H   2.9931694624 -0.4445004768 -1.4306597718
22
Image 114  Energy = -383.6387936992
C  -0.8952340224 -0.5266622080  0.4535077158
C   1.3867518254  0.1110128060 -0.0334354100
C  -1.2259805945  0.9636864147  0.7537806202
C   2.0437573712 -0.4152739814  1.2329028772
C   2.3433284923  0.3896282695 -1.1736515994
N   0.2664356770 -0.7471880662 -0.4136259452
N  -2.0897320449 -1.1016770121 -0.1749688057
O  -1.8038226037  1.5486777921 -0.3923677869
H  -2.4636201267  0.8949284734 -0.6696365518
H   0.0080095913 -0.5575516112 -1.3768335225
H  -0.6984137419 -1.0556194953  1.3897725026
H   0.9930811837  1.0939601219  0.2062772080
H  -2.4431541253 -1.8959567228  0.3374683496
H  -1.8848751000 -1.4274004410 -1.1109747573
H  -0.3724102665  1.5906095976  1.0065706488
H  -1.8878816160  1.0251180365  1.6246986010
H   2.8342665145  0.2646662055  1.5498951349
H   1.7790392635  0.6958711760 -2.0579443694
H   2.4601315173 -1.4137236936  1.0908868038
H   1.3176541929 -0.4693166750  2.0473964829
H   2.9595751804  1.2412565227 -0.8805248223
H   2.9930004473 -0.4454055113 -1.4307283655
22
Image 115  Energy = -383.6389335187
C  -0.8956276356 -0.5263642275  0.4536284139
C   1.3870825714  0.1117347044 -0.0332817758
C  -1.2270410613  0.9631406890  0.7537523963
C   2.0441567608 -0.4150921208  1.2328280702
C   2.3437241113  0.3892426070 -1.1738591312
N   0.2663284969 -0.7461014802 -0.4133271943
N  -2.0898000029 -1.1018120333 -0.1749489460
O  -1.8042565224  1.5487376489 -0.3924099650
H  -2.4643638340  0.8955228916 -0.6702470443
H   0.0077861816 -0.5561150986 -1.3764193654
H  -0.6988797191 -1.0545295977  1.3903554085
H   0.9944940314  1.0952701802  0.2063388788
H  -2.4431213613 -1.8959084377  0.3378002843
H  -1.8844481183 -1.4277098136 -1.1107515719
H  -0.3729279049  1.5888212018  1.0073340472
H  -1.8895845376  1.0235941537  1.6242194858
H   2.8349272366  0.2644350121  1.5500888166
H   1.7795539005  0.6954993866 -2.0582214996
H   2.4602625355 -1.4135854814  1.0903006660
H   1.3181234578 -0.4693654401  2.0473574874
H   2.9606960322  1.2405361100 -0.8812829997
H   2.9928223958 -0.4463108571 -1.4307894531
22
Image 116  Energy = -383.6390694174
C  -0.8960122041 -0.5260763784  0.4537472460
C   1.3874080790  0.1124513353 -0.0331291434
C  -1.2280881406  0.9626122777  0.7537323161
C   2.0445521337 -0.4149108637  1.2327530785
C   2.3441140203  0.3888593219 -1.1740630297
N   0.2662248024 -0.7450267408 -0.4130362217
N  -2.0898597622 -1.1019606164 -0.1749328933
O  -1.8046798046  1.5488037060 -0.3924478131
H  -2.4650906260  0.8961162493 -0.6708451315
H   0.0075651624 -0.5546826219 -1.3760113568
H  -0.6993312202 -1.0534730917  1.3909222970
H   0.9958801141  1.0965618366  0.2064043142
H  -2.4430923931 -1.8958735342  0.3381231095
H  -1.8840278641 -1.4280347181 -1.1105357655
H  -0.3734579293  1.5870931691  1.0081014251
H  -1.8912753121  1.0221062006  1.6237460917
H   2.8355831688  0.2642057550  1.5502775758
H   1.7800650326  0.6951284790 -2.0584968828
H   2.4603912492 -1.4134467460  1.0897151484
H   1.3185910384 -0.4694126645  2.0473205340
H   2.9618119835  1.2398160159 -0.8820367236
H   2.9926354863 -0.4472163733 -1.4308431660
22
Image 117  Energy = -383.6392016230
C  -0.8963879871 -0.5257980576  0.4538641638
C   1.3877285256  0.1131627756 -0.0329775072
C  -1.2291220943  0.9621004396  0.7537200963
C   2.0449435288 -0.4147302742  1.2326778711
C   2.3444982194  0.3884784315 -1.1742632828
N   0.2661243813 -0.7439635608 -0.4127528145
N  -2.0899117705 -1.1021218197 -0.1749204320
O  -1.8050927740  1.5488755174 -0.3924815456
H  -2.4658009976  0.8967084256 -0.6714312718
H   0.0073464306 -0.5532542009 -1.3756094469
H  -0.6997685321 -1.0524489036  1.3914735747
H   0.9972400180  1.0978354802  0.2064733494
H  -2.4430667870 -1.8958513201  0.3384371708
H  -1.8836137714 -1.4283745382 -1.1103270273
H  -0.3739998906  1.5854232907  1.0088725075
H  -1.8929540183  1.0206530402  1.6232783367
H   2.8362343495  0.2639784469  1.5504614394
H   1.7805726594  0.6947584931 -2.0587705028
H   2.4605176853 -1.4133075174  1.0891303412
H   1.3190569195 -0.4694583961  2.0472855906
H   2.9629229677  1.2390962632 -0.8827859336
H   2.9924399536 -0.4481220188 -1.4308896675
22
Image 118  Energy = -383.6393303152
C  -0.8967551976 -0.5255287767  0.4539793296
C   1.3880439833  0.1138690132 -0.0328267849
C  -1.2301433828  0.9616044536  0.7537154001
C   2.0453308818 -0.4145502644  1.2326023998
C   2.3448769460  0.3880998043 -1.1744600088
N   0.2660269939 -0.7429116222 -0.4124768338
N  -2.0899563922 -1.1022949338 -0.1749115211
O  -1.8054957438  1.5489526728 -0.3925113693
H  -2.4664954155  0.8972993104 -0.6720058891
H   0.0071299326 -0.5518298586 -1.3752135136
H  -0.7001919781 -1.0514559625  1.3920095080
H   0.9985743071  1.0990914989  0.2065458457
H  -2.4430440990 -1.8958410329  0.3387427386
H  -1.8832053495 -1.4287285857 -1.1101248148
H  -0.3745532476  1.5838094963  1.0096470715
H  -1.8946206786  1.0192335515  1.6228160913
H   2.8368808173  0.2637530857  1.5506404409
H   1.7810767509  0.6943894871 -2.0590423741
H   2.4606419322 -1.4131679395  1.0885463054
H   1.3195210964 -0.4695026745  2.0472526245
H   2.9640289318  1.2383768960 -0.8835305657
H   2.9922359259 -0.4490276214 -1.4309290716
22
Image 119  Energy = -383.6394556560
C  -0.8971141739 -0.5252680929  0.4540926512
C   1.3883544808  0.1145701572 -0.0326770727
C  -1.2311522546  0.9611236387  0.7537179236
C   2.0457143695 -0.4143708917  1.2325267295
C   2.3452500878  0.3877234746 -1.1746532412
N   0.2659324814 -0.7418706115 -0.4122080925
N  -2.0899938688 -1.1024791049 -0.1749060628
O  -1.8058889548  1.5490348636 -0.3925374510
H  -2.4671743939  0.8978887265 -0.6725694199
H   0.0069155844 -0.5504096118 -1.3748234602
H  -0.7006018433 -1.0504932486  1.3925304977
H   0.9998835812  1.1003302250  0.2066216323
H  -2.4430239575 -1.8958420540  0.3390401307
H  -1.8828021412 -1.4290962520 -1.1099287014
H  -0.3751175567  1.5822497569  1.0104248711
H  -1.8962753963  1.0178466769  1.6223592912
H   2.8375225211  0.2635296227  1.5508145776
H   1.7815773560  0.6940214588 -2.0593123806
H   2.4607640010 -1.4130280205  1.0879631199
H   1.3199835648 -0.4695455308  2.0472215755
H   2.9651298694  1.2376579673 -0.8842705657
H   2.9920236575 -0.4499331516 -1.4309615435
22
Image 120  Energy = -383.6395778382
C  -0.8974651724 -0.5250155199  0.4542042310
C   1.3886601220  0.1152661661 -0.0325282948
C  -1.2321491127  0.9606573245  0.7537273486
C   2.0460938782 -0.4141922518  1.2324507691
C   2.3456178810  0.3873494036 -1.1748429886
N   0.2658406924 -0.7408402657 -0.4119464160
N  -2.0900245196 -1.1026735229 -0.1749038172
O  -1.8062725943  1.5491218178 -0.3925599437
H  -2.4678384823  0.8984764751 -0.6731223065
H   0.0067033034 -0.5489934638 -1.3744392228
H  -0.7009984241 -1.0495597794  1.3930368467
H   1.0011683755  1.1015520769  0.2067005879
H  -2.4430060124 -1.8958537612  0.3393296636
H  -1.8824036491 -1.4294769759 -1.1097384458
H  -0.3756923057  1.5807421451  1.0112056891
H  -1.8979182251  1.0164913517  1.6219078354
H   2.8381595862  0.2633081228  1.5509839145
H   1.7820744248  0.6936544762 -2.0595805926
H   2.4608839218 -1.4128877763  1.0873808666
H   1.3204443353 -0.4695870087  2.0471923909
H   2.9662256867  1.2369394483 -0.8850058958
H   2.9918033046 -0.4508384840 -1.4309872113
22
Image 121  Energy = -383.6396970107
C  -0.8978083170 -0.5247706256  0.4543141084
C   1.3889609613  0.1159571013 -0.0323805296
C  -1.2331342726  0.9602049509  0.7537434135
C   2.0464695369 -0.4140142948  1.2323746075
C   2.3459804069  0.3869775116 -1.1750293819
N   0.2657514228 -0.7398203037 -0.4116917101
N  -2.0900487306 -1.1028776214 -0.1749047654
O  -1.8066470803  1.5492130531 -0.3925790532
H  -2.4684879717  0.8990625805 -0.6736648793
H   0.0064930368 -0.5475814402 -1.3740606452
H  -0.7013820131 -1.0486545831  1.3935288741
H   1.0024292443  1.1027573911  0.2067825686
H  -2.4429899018 -1.8958754907  0.3396115929
H  -1.8820094523 -1.4298701453 -1.1095535994
H  -0.3762770510  1.5792847673  1.0119893091
H  -1.8995492531  1.0151665898  1.6214616207
H   2.8387919604  0.2630885278  1.5511484568
H   1.7825679742  0.6932885590 -2.0598469362
H   2.4610017332 -1.4127472857  1.0867995990
H   1.3209034032 -0.4696271450  2.0471650438
H   2.9673163604  1.2362214081 -0.8857364917
H   2.9915750167 -0.4517435066 -1.4310061945
22
Image 122  Energy = -383.6398132875
C  -0.8981439686 -0.5245330032  0.4544223151
C   1.3892570596  0.1166430195 -0.0322337248
C  -1.2341079575  0.9597658742  0.7537658521
C   2.0468413842 -0.4138370773  1.2322982157
C   2.3463376281  0.3866078577 -1.1752124115
N   0.2656645377 -0.7388104603 -0.4114438082
N  -2.0900666617 -1.1030905838 -0.1749087668
O  -1.8070125819  1.5493084245 -0.3925949531
H  -2.4691234053  0.8996468156 -0.6741975523
H   0.0062846937 -0.5461735376 -1.3736877014
H  -0.7017528888 -1.0477767547  1.3940069609
H   1.0036667466  1.1039465143  0.2068674217
H  -2.4429753441 -1.8959067425  0.3398862515
H  -1.8816191327 -1.4302752368 -1.1093738957
H  -0.3768713556  1.5778758254  1.0127755041
H  -1.9011685757  1.0138713819  1.6210205668
H   2.8394196907  0.2628708421  1.5513082421
H   1.7830580374  0.6929237376 -2.0601113782
H   2.4611174638 -1.4126065704  1.0862193898
H   1.3213607599 -0.4696659689  2.0471394698
H   2.9684018382  1.2355038308 -0.8864623326
H   2.9913390446 -0.4526481898 -1.4310186571
22
Image 123  Energy = -383.6399268219
C  -0.8984722751 -0.5243022588  0.4545288865
C   1.3895484576  0.1173239611 -0.0320879522
C  -1.2350704640  0.9593395808  0.7537943275
C   2.0472094713 -0.4136606293  1.2322215527
C   2.3466896774  0.3862403496 -1.1753921156
N   0.2655798932 -0.7378104501 -0.4112025013
N  -2.0900786627 -1.1033118922 -0.1749157486
O  -1.8073693381  1.5494076167 -0.3926077387
H  -2.4697451801  0.9002290830 -0.6747206814
H   0.0060782078 -0.5447697556 -1.3733202860
H  -0.7021113267 -1.0469253986  1.3944714163
H   1.0048814021  1.1051197739  0.2069550327
H  -2.4429620266 -1.8959469100  0.3401538757
H  -1.8812323021 -1.4306916999 -1.1091989688
H  -0.3774748067  1.5765135799  1.0135640739
H  -1.9027762743  1.0126047824  1.6205845807
H   2.8400427850  0.2626550534  1.5514632998
H   1.7835445805  0.6925600524 -2.0603739361
H   2.4612311308 -1.4124656528  1.0856403115
H   1.3218163963 -0.4697035257  2.0471156714
H   2.9694821104  1.2347867714 -0.8871833618
H   2.9910955567 -0.4535524329 -1.4310247315
22
Image 124  Energy = -383.6400377672
C  -0.8987934397 -0.5240780429  0.4546338201
C   1.3898352982  0.1179999046 -0.0319431984
C  -1.2360221403  0.9589255119  0.7538286607
C   2.0475738003 -0.4134849294  1.2321446460
C   2.3470366079  0.3858749677 -1.1755685865
N   0.2654973460 -0.7368200445 -0.4109676851
N  -2.0900850021 -1.1035409270 -0.1749255296
O  -1.8077175956  1.5495103613 -0.3926175954
H  -2.4703536965  0.9008092841 -0.6752346145
H   0.0058735016 -0.5433700993 -1.3729583055
H  -0.7024576023 -1.0460996347  1.3949225715
H   1.0060737131  1.1062775516  0.2070452800
H  -2.4429496685 -1.8959954460  0.3404147284
H  -1.8808485677 -1.4311190417 -1.1090285945
H  -0.3780869358  1.5751963819  1.0143548193
H  -1.9043724429  1.0113658711  1.6201535720
H   2.8406612635  0.2624411487  1.5516136618
H   1.7840276617  0.6921975157 -2.0606345330
H   2.4613427780 -1.4123246020  1.0850624136
H   1.3222703270 -0.4697398394  2.0470935717
H   2.9705571165  1.2340702294 -0.8878995575
H   2.9908446905 -0.4544561217 -1.4310245381
22
Image 125  Energy = -383.6401462198
C  -0.8991076833 -0.5238600509  0.4547371946
C   1.3901175231  0.1186709976 -0.0317993981
C  -1.2369632110  0.9585231751  0.7538686064
C   2.0479343554 -0.4133100072  1.2320675429
C   2.3473785513  0.3855116262 -1.1757418651
N   0.2654167441 -0.7358390321 -0.4107392216
N  -2.0900858129 -1.1037771126 -0.1749381096
O  -1.8080576281  1.5496164262 -0.3926246907
H  -2.4709493216  0.9013873288 -0.6757396706
H   0.0056705058 -0.5419745684 -1.3726016911
H  -0.7027919961 -1.0452986135  1.3953607085
H   1.0072442269  1.1074201153  0.2071380260
H  -2.4429380256 -1.8960518601  0.3406690786
H  -1.8804676062 -1.4315567358 -1.1088623891
H  -0.3787073705  1.5739225903  1.0151475462
H  -1.9059571628  1.0101537510  1.6197274356
H   2.8412751689  0.2622291242  1.5517593543
H   1.7845072363  0.6918361773 -2.0608932171
H   2.4614524465 -1.4121834659  1.0844857589
H   1.3227225798 -0.4697749462  2.0470730940
H   2.9716268596  1.2333542566 -0.8886108705
H   2.9905866336 -0.4553591766 -1.4310182165
22
Image 126  Energy = -383.6402522848
C  -0.8994152324 -0.5236479301  0.4548389889
C   1.3903952954  0.1193371667 -0.0316565957
C  -1.2378939720  0.9581321102  0.7539138817
C   2.0482913253 -0.4131358731  1.2319901361
C   2.3477155446  0.3851503693 -1.1759119679
N   0.2653379879 -0.7348671471 -0.4105170433
N  -2.0900813742 -1.1040198654 -0.1749533959
O  -1.8083896529  1.5497255545 -0.3926291253
H  -2.4715324279  0.9019631266 -0.6762361761
H   0.0054691599 -0.5405831695 -1.3722503054
H  -0.7031147531 -1.0445215577  1.3957862297
H   1.0083934042  1.1085478564  0.2072331710
H  -2.4429268871 -1.8961157218  0.3409172164
H  -1.8800890637 -1.4320043216 -1.1087001400
H  -0.3793356783  1.5726906690  1.0159420791
H  -1.9075305466  1.0089675535  1.6193061002
H   2.8418844725  0.2620189386  1.5519004066
H   1.7849833312  0.6914760525 -2.0611499549
H   2.4615601379 -1.4120422360  1.0839103979
H   1.3231730696 -0.4698088717  2.0470542933
H   2.9726912942  1.2326388405 -0.8893172816
H   2.9903215792 -0.4562615448 -1.4310059085
22
Image 127  Energy = -383.6403561331
C  -0.8997162234 -0.5234414131  0.4549392668
C   1.3906686622  0.1199984934 -0.0315147820
C  -1.2388146089  0.9577518777  0.7539642561
C   2.0486445594 -0.4129625724  1.2319124990
C   2.3480476164  0.3847911499 -1.1760790191
N   0.2652609581 -0.7339041808 -0.4103009455
N  -2.0900718952 -1.1042687660 -0.1749712110
O  -1.8087138580  1.5498375864 -0.3926310108
H  -2.4721034085  0.9025365536 -0.6767244507
H   0.0052693844 -0.5391958856 -1.3719041207
H  -0.7034261542 -1.0437676462  1.3961993688
H   1.0095217473  1.1096610464  0.2073305832
H  -2.4429160201 -1.8961864987  0.3411593292
H  -1.8797126251 -1.4324613447 -1.1085416096
H  -0.3799715200  1.5714991043  1.0167382243
H  -1.9090927166  1.0078064495  1.6188894934
H   2.8424892826  0.2618106336  1.5520368740
H   1.7854559960  0.6911171598 -2.0614046896
H   2.4616659030 -1.4119009776  1.0833363824
H   1.3236218605 -0.4698416501  2.0470370611
H   2.9737503988  1.2319240186 -0.8900187586
H   2.9900496739 -0.4571631382 -1.4309877332
22
Image 128  Energy = -383.6404577515
C  -0.9000108819 -0.5232401638  0.4550380250
C   1.3909376905  0.1206550611 -0.0313739954
C  -1.2397253741  0.9573819979  0.7540195182
C   2.0489941494 -0.4127901172  1.2318346198
C   2.3483748810  0.3844339704 -1.1762429686
N   0.2651855179 -0.7329499286 -0.4100908219
N  -2.0900575639 -1.1045232709 -0.1749915370
O  -1.8090305203  1.5499522629 -0.3926305075
H  -2.4726625656  0.9031075697 -0.6772047694
H   0.0050711231 -0.5378127124 -1.3715630303
H  -0.7037264309 -1.0430361534  1.3966004961
H   1.0106297464  1.1107599865  0.2074301671
H  -2.4429052477 -1.8962638072  0.3413956984
H  -1.8793379861 -1.4329273627 -1.1083865591
H  -0.3806144841  1.5703464883  1.0175358217
H  -1.9106437603  1.0066696134  1.6184775142
H   2.8430895928  0.2616041772  1.5521687811
H   1.7859251949  0.6907595438 -2.0616574851
H   2.4617697600 -1.4117597102  1.0827637634
H   1.3240689264 -0.4698733107  2.0470213944
H   2.9748041348  1.2312097764 -0.8907152821
H   2.9897711112 -0.4580639098 -1.4309638356
22
Image 129  Energy = -383.6405573373
C  -0.9002993565 -0.5230439599  0.4551353210
C   1.3912023623  0.1213068601 -0.0312341936
C  -1.2406265643  0.9570220939  0.7540794782
C   2.0493402399 -0.4126184885  1.2317564626
C   2.3486975291  0.3840787017 -1.1764039318
N   0.2651115769 -0.7320041692 -0.4098865513
N  -2.0900385983 -1.1047830055 -0.1750142473
O  -1.8093398503  1.5500693821 -0.3926277167
H  -2.4732102202  0.9036761038 -0.6776774128
H   0.0048743075 -0.5364336424 -1.3712269625
H  -0.7040158589 -1.0423263225  1.3969898803
H   1.0117178532  1.1118450018  0.2075318099
H  -2.4428943590 -1.8963471627  0.3416265133
H  -1.8789648576 -1.4334019447 -1.1082347523
H  -0.3812641938  1.5692314331  1.0183347077
H  -1.9121837486  1.0055562561  1.6180700370
H   2.8436853812  0.2613995238  1.5522961568
H   1.7863909332  0.6904032329 -2.0619083188
H   2.4618717194 -1.4116184579  1.0821925911
H   1.3245142391 -0.4699038829  2.0470072794
H   2.9758524899  1.2304961538 -0.8914068246
H   2.9894859899 -0.4589637071 -1.4309343175
22
Image 130  Energy = -383.6406549428
C  -0.9005818191 -0.5228525171  0.4552311641
C   1.3914628683  0.1219539775 -0.0310953865
C  -1.2415183236  0.9566717927  0.7541439376
C   2.0496826672 -0.4124477063  1.2316781016
C   2.3490154948  0.3837253869 -1.1765619351
N   0.2650390119 -0.7310667260 -0.4096880040
N  -2.0900152027 -1.1050475487 -0.1750393055
O  -1.8096420526  1.5501887824 -0.3926227494
H  -2.4737466819  0.9042420789 -0.6781426422
H   0.0046788619 -0.5350586663 -1.3708958480
H  -0.7042946590 -1.0416374539  1.3973678393
H   1.0127865486  1.1129163517  0.2076354037
H  -2.4428831915 -1.8964361788  0.3418519969
H  -1.8785929809 -1.4338846830 -1.1080859555
H  -0.3819203694  1.5681525677  1.0191346902
H  -1.9137128083  1.0044656174  1.6176669935
H   2.8442767320  0.2611967006  1.5524190439
H   1.7868532453  0.6900482429 -2.0621571660
H   2.4619718350 -1.4114772794  1.0816229021
H   1.3249578619 -0.4699333884  2.0469946144
H   2.9768954589  1.2297831813 -0.8920933638
H   2.9891945185 -0.4598625321 -1.4308993238
22
Image 131  Energy = -383.6407505945
C  -0.9008584058 -0.5226655799  0.4553256186
C   1.3917191675  0.1225964048 -0.0309575932
C  -1.2424008716  0.9563307001  0.7542126865
C   2.0500216211 -0.4122778265  1.2315994637
C   2.3493288242  0.3833740107 -1.1767170314
N   0.2649677612 -0.7301373858 -0.4094951124
N  -2.0899875332 -1.1053165195 -0.1750666635
O  -1.8099373249  1.5503103008 -0.3926157150
H  -2.4742722890  0.9048054120 -0.6786007364
H   0.0044847511 -0.5336877763 -1.3705695470
H  -0.7045630830 -1.0409688515  1.3977346381
H   1.0138362633  1.1139743589  0.2077408507
H  -2.4428716004 -1.8965304750  0.3420723611
H  -1.8782221153 -1.4343751791 -1.1079399464
H  -0.3825826287  1.5671086328  1.0199356431
H  -1.9152310530  1.0033969662  1.6172683146
H   2.8448636403  0.2609956739  1.5525374785
H   1.7873121679  0.6896945859 -2.0624039965
H   2.4620700928 -1.4113361434  1.0810547510
H   1.3253997297 -0.4699618574  2.0469834238
H   2.9779330317  1.2290708582 -0.8927748909
H   2.9888968692 -0.4607603096 -1.4308589883
22
Image 132  Energy = -383.6408444457
C  -0.9011293060 -0.5224829937  0.4554186659
C   1.3919713310  0.1232341626 -0.0308208088
C  -1.2432745050  0.9559984820  0.7542855423
C   2.0503570615 -0.4121087774  1.2315206010
C   2.3496376889  0.3830245011 -1.1768692609
N   0.2648977253 -0.7292159591 -0.4093077149
N  -2.0899557084 -1.1055894646 -0.1750961594
O  -1.8102257957  1.5504338114 -0.3926066559
H  -2.4747873747  0.9053659967 -0.6790519586
H   0.0042918932 -0.5323209585 -1.3702480200
H  -0.7048213720 -1.0403198331  1.3980905559
H   1.0148674301  1.1150193075  0.2078480675
H  -2.4428594587 -1.8966297115  0.3422878285
H  -1.8778519984 -1.4348730802 -1.1077966027
H  -0.3832506149  1.5660984041  1.0207374093
H  -1.9167385642  1.0023495824  1.6168738754
H   2.8454461277  0.2607964224  1.5526514953
H   1.7877676779  0.6893423011 -2.0626488472
H   2.4621665455 -1.4111951400  1.0804881626
H   1.3258398728 -0.4699893134  2.0469736483
H   2.9789651931  1.2283592003 -0.8934513910
H   2.9885931659 -0.4616569400 -1.4308134237
22
Image 133  Energy = -383.6409365708
C  -0.9013947017 -0.5223044658  0.4555103131
C   1.3922194499  0.1238673724 -0.0306849993
C  -1.2441393731  0.9556747750  0.7543623155
C   2.0506890329 -0.4119406151  1.2314414281
C   2.3499419940  0.3826768668 -1.1770187115
N   0.2648288120 -0.7283022912 -0.4091257107
N  -2.0899198513 -1.1058659808 -0.1751277844
O  -1.8105077802  1.5505590625 -0.3925957378
H  -2.4752921096  0.9059238786 -0.6794965010
H   0.0041002370 -0.5309581951 -1.3699311927
H  -0.7050697385 -1.0396897926  1.3984359297
H   1.0158805087  1.1160514150  0.2079569319
H  -2.4428466516 -1.8967335869  0.3424986309
H  -1.8774824169 -1.4353780256 -1.1076557342
H  -0.3839240216  1.5651206779  1.0215398418
H  -1.9182354666  1.0013227740  1.6164836194
H   2.8460242300  0.2605989457  1.5527611421
H   1.7882198480  0.6889913852 -2.0628916516
H   2.4622611928 -1.4110542598  1.0799231958
H   1.3262782700 -0.4700157888  2.0469652836
H   2.9799919547  1.2276482562 -0.8941228350
H   2.9882835953 -0.4625524094 -1.4307627645
22
Image 134  Energy = -383.6410270093
C  -0.9016546511 -0.5221298467  0.4556006732
C   1.3924636195  0.1244960185 -0.0305502398
C  -1.2449956225  0.9553592998  0.7544428176
C   2.0510176492 -0.4117733619  1.2313620453
C   2.3502419592  0.3823310596 -1.1771653888
N   0.2647609090 -0.7273961965 -0.4089489958
N  -2.0898802581 -1.1061459618 -0.1751614452
O  -1.8107833951  1.5506859982 -0.3925830091
H  -2.4757868413  0.9064789334 -0.6799346259
H   0.0039097136 -0.5295994757 -1.3696189948
H  -0.7053084226 -1.0390780756  1.3987709693
H   1.0168758796  1.1170710124  0.2080673752
H  -2.4428330114 -1.8968416205  0.3427048684
H  -1.8771131500 -1.4358896380 -1.1075171216
H  -0.3846025822  1.5641743010  1.0223428028
H  -1.9197218635  1.0003158797  1.6160974629
H   2.8465979496  0.2604032130  1.5528664370
H   1.7886686626  0.6886418754 -2.0631324457
H   2.4623540525 -1.4109135168  1.0793598749
H   1.3267148979 -0.4700413010  2.0469582988
H   2.9810132709  1.2269380021 -0.8947892354
H   2.9879682500 -0.4634465997 -1.4307071140
22
Image 135  Energy = -383.6411158094
C  -0.9019093595 -0.5219589303  0.4556896307
C   1.3927038592  0.1251201522 -0.0304164813
C  -1.2458434835  0.9550517114  0.7545269789
C   2.0513427245 -0.4116069980  1.2312823887
C   2.3505376395  0.3819870531 -1.1773093414
N   0.2646939696 -0.7264975137 -0.4087774328
N  -2.0898369448 -1.1064288852 -0.1751970694
O  -1.8110528367  1.5508144716 -0.3925685953
H  -2.4762718266  0.9070311201 -0.6803665540
H   0.0037202745 -0.5282447825 -1.3693113530
H  -0.7055376351 -1.0384841070  1.3990960154
H   1.0178539697  1.1180783355  0.2081793077
H  -2.4428184826 -1.8969536183  0.3429067943
H  -1.8767440027 -1.4364076176 -1.1073806465
H  -0.3852859700  1.5632581783  1.0231461488
H  -1.9211978466  0.9993282506  1.6157153033
H   2.8471673928  0.2602092580  1.5529674637
H   1.7891141239  0.6882938009 -2.0633712475
H   2.4624451880 -1.4107729983  1.0787982304
H   1.3271498045 -0.4700658698  2.0469526455
H   2.9820291495  1.2262284628 -0.8954505758
H   2.9876473080 -0.4643394748 -1.4306466021
22
Image 136  Energy = -383.6412030849
C  -0.9021589430 -0.5217914966  0.4557773174
C   1.3929401698  0.1257398288 -0.0302837394
C  -1.2466831001  0.9547516986  0.7546145047
C   2.0516645422 -0.4114415350  1.2312025562
C   2.3508290924  0.3816448039 -1.1774506093
N   0.2646279111 -0.7256060604 -0.4086109655
N  -2.0897900869 -1.1067145316 -0.1752346588
O  -1.8113162827  1.5509443426 -0.3925525289
H  -2.4767473091  0.9075803973 -0.6807924900
H   0.0035318645 -0.5268941055 -1.3690081565
H  -0.7057575939 -1.0379072877  1.3994112784
H   1.0188151903  1.1190736172  0.2082926341
H  -2.4428029650 -1.8970692676  0.3431045930
H  -1.8763747908 -1.4369316248 -1.1072461295
H  -0.3859738878  1.5623712575  1.0239497758
H  -1.9226635458  0.9983592656  1.6153370845
H   2.8477324705  0.2600169849  1.5530642086
H   1.7895562501  0.6879471713 -2.0636080577
H   2.4625345591 -1.4106326419  1.0782383038
H   1.3275829641 -0.4700895208  2.0469482728
H   2.9830396064  1.2255196623 -0.8961068431
H   2.9873209000 -0.4652309585 -1.4305813425
22
Image 137  Energy = -383.6412888534
C  -0.9024035586 -0.5216274165  0.4558637094
C   1.3931727102  0.1263550740 -0.0301519974
C  -1.2475146946  0.9544590280  0.7547053098
C   2.0519829977 -0.4112769793  1.2311224012
C   2.3511162874  0.3813043429 -1.1775892762
N   0.2645626646 -0.7247216992 -0.4084495355
N  -2.0897397924 -1.1070026096 -0.1752740534
O  -1.8115738878  1.5510754977 -0.3925348890
H  -2.4772135348  0.9081267154 -0.6812126353
H   0.0033444439 -0.5255474327 -1.3687092918
H  -0.7059685090 -1.0373470660  1.3997170371
H   1.0197599351  1.1200571165  0.2084072709
H  -2.4427863627 -1.8971882418  0.3432983903
H  -1.8760053304 -1.4374613755 -1.1071134530
H  -0.3866660835  1.5615124994  1.0247535386
H  -1.9241190370  0.9974083234  1.6149626977
H   2.8482932819  0.2598264427  1.5531567483
H   1.7899951163  0.6876019886 -2.0638428107
H   2.4626222082 -1.4104925165  1.0776801230
H   1.3280143457 -0.4701122810  2.0469452260
H   2.9840446314  1.2248116146 -0.8967580417
H   2.9869891838 -0.4661210260 -1.4305114594
22
Image 138  Energy = -383.6413731937
C  -0.9026432819 -0.5214665477  0.4559488401
C   1.3934014387  0.1269659060 -0.0300212571
C  -1.2483384007  0.9541734119  0.7547992625
C   2.0522981518 -0.4111133601  1.2310420683
C   2.3513994318  0.3809656026 -1.1777253272
N   0.2644981550 -0.7238442793 -0.4082929585
N  -2.0896862028 -1.1072929035 -0.1753152559
O  -1.8118258707  1.5512078139 -0.3925158028
H  -2.4776706974  0.9086700707 -0.6816271683
H   0.0031579421 -0.5242047346 -1.3684147623
H  -0.7061705874 -1.0368028718  1.4000135392
H   1.0206885557  1.1210291102  0.2085231562
H  -2.4427685793 -1.8973102393  0.3434883481
H  -1.8756354738 -1.4379965620 -1.1069824431
H  -0.3873622831  1.5606809172  1.0255573131
H  -1.9255644511  0.9964748362  1.6145920954
H   2.8488498378  0.2596375829  1.5532451115
H   1.7904306681  0.6872583012 -2.0640756197
H   2.4627081636 -1.4103526255  1.0771237125
H   1.3284439802 -0.4701341500  2.0469433933
H   2.9850442281  1.2241043177 -0.8974041704
H   2.9866522900 -0.4670095965 -1.4304370668
22
Image 139  Energy = -383.6414561365
C  -0.9028782594 -0.5213087151  0.4560327332
C   1.3936265239  0.1275723841 -0.0298915071
C  -1.2491544610  0.9538945943  0.7548961729
C   2.0526099465 -0.4109506520  1.2309614815
C   2.3516784599  0.3806285853 -1.1778589040
N   0.2644343549 -0.7229736591 -0.4081411460
N  -2.0896294434 -1.1075851313 -0.1753581453
O  -1.8120722843  1.5513412398 -0.3924952434
H  -2.4781191083  0.9092103472 -0.6820363113
H   0.0029723061 -0.5228659950 -1.3681244849
H  -0.7063640281 -1.0362741873  1.4003010107
H   1.0216014491  1.1219897984  0.2086401998
H  -2.4427495735 -1.8974350335  0.3436746338
H  -1.8752650480 -1.4385369235 -1.1068530233
H  -0.3880622033  1.5598755824  1.0263610063
H  -1.9269998688  0.9955582551  1.6142251711
H   2.8494021939  0.2594504259  1.5533293492
H   1.7908629996  0.6869160911 -2.0643063688
H   2.4627924357 -1.4102130120  1.0765691044
H   1.3288718714 -0.4701551680  2.0469427707
H   2.9860383995  1.2233978047 -0.8980452167
H   2.9863103540 -0.4678966306 -1.4303582747
22
Image 140  Energy = -383.6415377519
C  -0.9031085905 -0.5211537419  0.4561153991
C   1.3938479342  0.1281745669 -0.0297627597
C  -1.2499629408  0.9536223432  0.7549959677
C   2.0529184995 -0.4107888658  1.2308806644
C   2.3519535691  0.3802932822 -1.1779899125
N   0.2643711741 -0.7221097033 -0.4079940566
N  -2.0895696132 -1.1078790666 -0.1754027715
O  -1.8123134230  1.5514755883 -0.3924733710
H  -2.4785588704  0.9097476175 -0.6824401951
H   0.0027874976 -0.5215312022 -1.3678383473
H  -0.7065490272 -1.0357605133  1.4005797293
H   1.0224989765  1.1229394168  0.2087583345
H  -2.4427292970 -1.8975623965  0.3438574279
H  -1.8748939206 -1.4390821642 -1.1067250145
H  -0.3887656439  1.5590955425  1.0271644822
H  -1.9284254000  0.9946580252  1.6138618529
H   2.8499503498  0.2592649245  1.5534094949
H   1.7912920658  0.6865754102 -2.0645351742
H   2.4628750482 -1.4100736822  1.0760163256
H   1.3292979916 -0.4701753440  2.0469433502
H   2.9870271193  1.2226920451 -0.8986812084
H   2.9859635179 -0.4687820816 -1.4302752096
22
Image 141  Energy = -383.6416180706
C  -0.9033344546 -0.5210015374  0.4561968567
C   1.3940657506  0.1287725205 -0.0296350181
C  -1.2507640328  0.9533564169  0.7550984599
C   2.0532238639 -0.4106280264  1.2307996145
C   2.3522246864  0.3799596083 -1.1781185129
N   0.2643085575 -0.7212522740 -0.4078515997
N  -2.0895067563 -1.1081744195 -0.1754490148
O  -1.8125493296  1.5516108427 -0.3924501748
H  -2.4789902927  0.9102817617 -0.6828390380
H   0.0026034747 -0.5202003380 -1.3675562831
H  -0.7067257768 -1.0352613489  1.4008499127
H   1.0233815089  1.1238781680  0.2088774760
H  -2.4427077085 -1.8976921160  0.3440368829
H  -1.8745219492 -1.4396320503 -1.1065983448
H  -0.3894723269  1.5583399487  1.0279676532
H  -1.9298411551  0.9937736222  1.6135020765
H   2.8504943231  0.2590810721  1.5534855938
H   1.7917179416  0.6862362453 -2.0647619461
H   2.4629559855 -1.4099346333  1.0754654092
H   1.3297223498 -0.4701947037  2.0469450904
H   2.9880104571  1.2219871240 -0.8993121201
H   2.9856119009 -0.4696658826 -1.4301879654
22
Image 142  Energy = -383.6416971364
C  -0.9035559051 -0.5208519637  0.4562771603
C   1.3942800121  0.1293661833 -0.0295082614
C  -1.2515578559  0.9530965580  0.7552035122
C   2.0535259945 -0.4104680969  1.2307183175
C   2.3524919647  0.3796276083 -1.1782447583
N   0.2642464577 -0.7204012200 -0.4077136086
N  -2.0894410003 -1.1084710628 -0.1754968859
O  -1.8127802206  1.5517468885 -0.3924257539
H  -2.4794135062  0.9108128092 -0.6832329708
H   0.0024201779 -0.5188733760 -1.3672782420
H  -0.7068944689 -1.0347762100  1.4011117638
H   1.0242493729  1.1248063235  0.2089975713
H  -2.4426847363 -1.8978239177  0.3442131110
H  -1.8741490287 -1.4401863160 -1.1064728376
H  -0.3901820362  1.5576079458  1.0287704015
H  -1.9312472473  0.9929045386  1.6131457852
H   2.8510341582  0.2588988448  1.5535576849
H   1.7921406396  0.6858986161 -2.0649867101
H   2.4630353030 -1.4097959128  1.0749163622
H   1.3301449280 -0.4702132585  2.0469479937
H   2.9889883838  1.2212830077 -0.8999379744
H   2.9852556317 -0.4705479895 -1.4300966543
22
Image 143  Energy = -383.6417750150
C  -0.9037730439 -0.5207048592  0.4563562757
C   1.3944908145  0.1299556713 -0.0293825334
C  -1.2523445674  0.9528425943  0.7553110745
C   2.0538249895 -0.4103091195  1.2306367695
C   2.3527554375  0.3792971717 -1.1783686142
N   0.2641848731 -0.7195564227 -0.4075799479
N  -2.0893725375 -1.1087688429 -0.1755462136
O  -1.8130061956  1.5518836556 -0.3924001450
H  -2.4798287435  0.9113407019 -0.6836221671
H   0.0022375475 -0.5175502826 -1.3670042230
H  -0.7070552830 -1.0343046464  1.4013655374
H   1.0251029125  1.1257240550  0.2091185379
H  -2.4426603494 -1.8979575646  0.3443862283
H  -1.8737750030 -1.4407447524 -1.1063484883
H  -0.3908945624  1.5568987094  1.0295726295
H  -1.9326437533  0.9920502864  1.6127928680
H   2.8515698675  0.2587182326  1.5536258190
H   1.7925601724  0.6855625496 -2.0652094940
H   2.4631129865 -1.4096575150  1.0743692241
H   1.3305657335 -0.4702310238  2.0469520140
H   2.9899609128  1.2205797290 -0.9005587713
H   2.9848948087 -0.4714283278 -1.4300013736
22
Image 144  Energy = -383.6418517414
C  -0.9039859828 -0.5205601105  0.4564342687
C   1.3946981719  0.1305410303 -0.0292577747
C  -1.2531242496  0.9525943203  0.7554209580
C   2.0541208101 -0.4101511011  1.2305550371
C   2.3530150904  0.3789683971 -1.1784901276
N   0.2641236996 -0.7187177656 -0.4074507656
N  -2.0893013820 -1.1090675311 -0.1755970648
O  -1.8132274769  1.5520210003 -0.3923734214
H  -2.4802361386  0.9118654751 -0.6840067636
H   0.0020555860 -0.5162310775 -1.3667339702
H  -0.7072083987 -1.0338462117  1.4016114514
H   1.0259424762  1.1266315685  0.2092403181
H  -2.4426345200 -1.8980928829  0.3445563893
H  -1.8733997934 -1.4413071144 -1.1062251236
H  -0.3916096882  1.5562114425  1.0303742620
H  -1.9340308091  0.9912104007  1.6124433006
H   2.8521015020  0.2585392250  1.5536900309
H   1.7929765691  0.6852280500 -2.0654303041
H   2.4631890536 -1.4095194431  1.0738240082
H   1.3309847890 -0.4702480187  2.0469570874
H   2.9909280685  1.2198772768 -0.9011745271
H   2.9845296404 -0.4723069302 -1.4299022630
22
Image 145  Energy = -383.6419272981
C  -0.9041948103 -0.5204176580  0.4565111481
C   1.3949022008  0.1311222847 -0.0291340253
C  -1.2538971518  0.9523514998  0.7555331100
C   2.0544135271 -0.4099939866  1.2304730408
C   2.3532710679  0.3786411882 -1.1786093466
N   0.2640628883 -0.7178851359 -0.4073257952
N  -2.0892276428 -1.1093669373 -0.1756493274
O  -1.8134440542  1.5521589795 -0.3923455776
H  -2.4806359826  0.9123869976 -0.6843869481
H   0.0018742242 -0.5149157136 -1.3664675511
H  -0.7073539899 -1.0334004508  1.4018496924
H   1.0267683752  1.1275290846  0.2093628488
H  -2.4426072252 -1.8982296800  0.3447237130
H  -1.8730232847 -1.4418732090 -1.1061027018
H  -0.3923271796  1.5555454208  1.0311751940
H  -1.9354084667  0.9903844194  1.6120969615
H   2.8526290733  0.2583617991  1.5537503699
H   1.7933898541  0.6848951307 -2.0656491400
H   2.4632635347 -1.4093817609  1.0732807294
H   1.3314020436 -0.4702642612  2.0469632631
H   2.9918898449  1.2191756704 -0.9017852502
H   2.9841601716 -0.4731836828 -1.4297994022
22
Image 146  Energy = -383.6420018077
C  -0.9043996462 -0.5202773464  0.4565868899
C   1.3951028596  0.1316994287 -0.0290112824
C  -1.2546632803  0.9521139929  0.7556473912
C   2.0547030991 -0.4098378133  1.2303908835
C   2.3535235320  0.3783155573 -1.1787262948
N   0.2640024215 -0.7170583930 -0.4072049823
N  -2.0891513984 -1.1096669538 -0.1757030099
O  -1.8136561837  1.5522974255 -0.3923167191
H  -2.4810283495  0.9129053500 -0.6847628228
H   0.0016934244 -0.5136041775 -1.3662048492
H  -0.7074922164 -1.0329669828  1.4020805110
H   1.0275809055  1.1284168287  0.2094860842
H  -2.4425784425 -1.8983677590  0.3448883213
H  -1.8726453894 -1.4424428061 -1.1059810882
H  -0.3930468766  1.5548998803  1.0319753421
H  -1.9367768568  0.9895718968  1.6117538241
H   2.8531526280  0.2581859438  1.5538068804
H   1.7938000179  0.6845638163 -2.0658660508
H   2.4633364497 -1.4092444731  1.0727394058
H   1.3318175588 -0.4702797550  2.0469704304
H   2.9928462349  1.2184748948 -0.9023909599
H   2.9837865269 -0.4740585562 -1.4296929002
22
Image 147  Energy = -383.6420752266
C  -0.9046005681 -0.5201391045  0.4566615424
C   1.3953002571  0.1322725632 -0.0288895505
C  -1.2554228887  0.9518815796  0.7557636786
C   2.0549896654 -0.4096825822  1.2303084792
C   2.3537723379  0.3779914164 -1.1788410722
N   0.2639422557 -0.7162374232 -0.4070882443
N  -2.0890727136 -1.1099673553 -0.1757580150
O  -1.8138639489  1.5524362847 -0.3922868526
H  -2.4814134176  0.9134204971 -0.6851345185
H   0.0015131457 -0.5122964476 -1.3659458270
H  -0.7076232574 -1.0325453872  1.4023040791
H   1.0283804000  1.1292949384  0.2096099446
H  -2.4425481639 -1.8985069655  0.3450503348
H  -1.8722660122 -1.4430157345 -1.1058602459
H  -0.3937685439  1.5542741479  1.0327746257
H  -1.9381360546  0.9887724051  1.6114137967
H   2.8536721838  0.2580116395  1.5538596082
H   1.7942071390  0.6842340993 -2.0660809816
H   2.4634077860 -1.4091075684  1.0722000644
H   1.3322312567 -0.4702945320  2.0469786574
H   2.9937973223  1.2177750323 -0.9029916443
H   2.9834088367 -0.4749315047 -1.4295828552
22
Image 148  Energy = -383.6421476554
C  -0.9047976576 -0.5200028189  0.4567350986
C   1.3954944116  0.1328417287 -0.0287687635
C  -1.2561760543  0.9516541122  0.7558819274
C   2.0552732021 -0.4095283130  1.2302258600
C   2.3540176049  0.3776688141 -1.1789537218
N   0.2638823708 -0.7154221557 -0.4069755184
N  -2.0889916939 -1.1102680687 -0.1758143316
O  -1.8140674514  1.5525755445 -0.3922560210
H  -2.4817913862  0.9139323957 -0.6855021855
H   0.0013333464 -0.5109925014 -1.3656904059
H  -0.7077472752 -1.0321352808  1.4025206109
H   1.0291671691  1.1301635985  0.2097343670
H  -2.4425163809 -1.8986471194  0.3452098547
H  -1.8718850764 -1.4435917922 -1.1057400661
H  -0.3944920169  1.5536675371  1.0335729586
H  -1.9394861571  0.9879855418  1.6110768102
H   2.8541877592  0.2578388628  1.5539085940
H   1.7946112397  0.6839059861 -2.0662939361
H   2.4634775643 -1.4089710507  1.0716627164
H   1.3326431808 -0.4703085833  2.0469878565
H   2.9947431019  1.2170760695 -0.9035873299
H   2.9830272167 -0.4758025078 -1.4294693706
22
Image 149  Energy = -383.6422190678
C  -0.9049910266 -0.5198684107  0.4568076345
C   1.3956854295  0.1334068803 -0.0286489875
C  -1.2569228271  0.9514313954  0.7560020015
C   2.0555536585 -0.4093749804  1.2301430725
C   2.3542594921  0.3773477277 -1.1790642271
N   0.2638226945 -0.7146124512 -0.4068667329
N  -2.0889083500 -1.1105688973 -0.1758719718
O  -1.8142669036  1.5527150740 -0.3922243149
H  -2.4821623393  0.9144411055 -0.6858659188
H   0.0011540018 -0.5096923234 -1.3654385110
H  -0.7078644302 -1.0317362674  1.4027302710
H   1.0299414666  1.1310230641  0.2098593386
H  -2.4424831043 -1.8987881005  0.3453670109
H  -1.8715025217 -1.4441707937 -1.1056204482
H  -0.3952171308  1.5530793780  1.0343702658
H  -1.9408272877  0.9872109001  1.6107428358
H   2.8546994229  0.2576676203  1.5539538913
H   1.7950123044  0.6835795137 -2.0665049889
H   2.4635458014 -1.4088349543  1.0711273708
H   1.3330533523 -0.4703219395  2.0469979986
H   2.9956835475  1.2163779694 -0.9041780447
H   2.9826417675 -0.4766715117 -1.4293525415
22
Image 150  Energy = -383.6422895471
C  -0.9051807777 -0.5197357878  0.4568791574
C   1.3958733177  0.1339681499 -0.0285301545
C  -1.2576633181  0.9512132800  0.7561238058
C   2.0558311938 -0.4092225686  1.2300600727
C   2.3544979068  0.3770281258 -1.1791726651
N   0.2637632247 -0.7138082272 -0.4067618536
N  -2.0888228052 -1.1108698006 -0.1759308224
O  -1.8144622790  1.5528549486 -0.3921916961
H  -2.4825265558  0.9149464948 -0.6862258934
H   0.0009750781 -0.5083958957 -1.3651900621
H  -0.7079748710 -1.0313479894  1.4029332620
H   1.0307036182  1.1318734411  0.2099847668
H  -2.4424482892 -1.8989296767  0.3455218535
H  -1.8711182747 -1.4447525827 -1.1055013539
H  -0.3959437226  1.5525090484  1.0351664686
H  -1.9421595526  0.9864481071  1.6104118191
H   2.8552071421  0.2574978631  1.5539955263
H   1.7954103941  0.6832546717 -2.0667141078
H   2.4636124993 -1.4086992901  1.0705940447
H   1.3334617198 -0.4703346063  2.0470090961
H   2.9966187346  1.2156807927 -0.9047637839
H   2.9822526338 -0.4775385002 -1.4292324759
22
Image 151  Energy = -383.6423590713
C  -0.9053669905 -0.5196048782  0.4569496115
C   1.3960581079  0.1345255429 -0.0284123194
C  -1.2583976576  0.9509996301  0.7562473024
C   2.0561058472 -0.4090710906  1.2299768475
C   2.3547329973  0.3767100415 -1.1792790746
N   0.2637039336 -0.7130093625 -0.4066606836
N  -2.0887351268 -1.1111706180 -0.1759908094
O  -1.8146538104  1.5529949995 -0.3921582572
H  -2.4828840657  0.9154486650 -0.6865821730
H   0.0007965207 -0.5071031843 -1.3649450536
H  -0.7080787484 -1.0309701099  1.4031297725
H   1.0314538884  1.1327149232  0.2101106148
H  -2.4424119610 -1.8990717355  0.3456744999
H  -1.8707322522 -1.4453370046 -1.1053827498
H  -0.3966716329  1.5519559412  1.0359614964
H  -1.9434829966  0.9856967802  1.6100836520
H   2.8557109597  0.2573295831  1.5540335504
H   1.7958055323  0.6829314707 -2.0669212891
H   2.4636776678 -1.4085640651  1.0700627565
H   1.3338682650 -0.4703466020  2.0470211554
H   2.9975486370  1.2149845074 -0.9053445859
H   2.9818599008 -0.4784034365 -1.4291092608
22
Image 152  Energy = -383.6424276800
C  -0.9055496892 -0.5194756486  0.4570190566
C   1.3962399366  0.1350790613 -0.0282954563
C  -1.2591260375  0.9507903254  0.7563723810
C   2.0563774745 -0.4089205609  1.2298934349
C   2.3549647995  0.3763933388 -1.1793834609
N   0.2636447640 -0.7122157771 -0.4065632613
N  -2.0886453492 -1.1114711641 -0.1760519818
O  -1.8148415680  1.5531351920 -0.3921239848
H  -2.4832350228  0.9159475906 -0.6869348705
H   0.0006183215 -0.5058141860 -1.3647033383
H  -0.7081762162 -1.0306022592  1.4033199513
H   1.0321925331  1.1335477293  0.2102368443
H  -2.4423741673 -1.8992142299  0.3458251011
H  -1.8703444091 -1.4459238989 -1.1052645627
H  -0.3974006805  1.5514194797  1.0367552850
H  -1.9447977192  0.9849565759  1.6097582757
H   2.8562109618  0.2571627990  1.5540680254
H   1.7961977223  0.6826099320 -2.0671265960
H   2.4637413397 -1.4084293075  1.0695335156
H   1.3342730563 -0.4703579298  2.0470340781
H   2.9984733184  1.2142891807 -0.9059204475
H   2.9814636472 -0.4792662460 -1.4289829863
22
Image 153  Energy = -383.6424954387
C  -0.9057289849 -0.5193479406  0.4570875261
C   1.3964187032  0.1356288329 -0.0281795845
C  -1.2598485103  0.9505851356  0.7564989051
C   2.0566462675 -0.4087709799  1.2298098581
C   2.3551934233  0.3760781190 -1.1794858466
N   0.2635857284 -0.7114273828 -0.4064694281
N  -2.0885535820 -1.1117715028 -0.1761142496
O  -1.8150256249  1.5532755527 -0.3920889284
H  -2.4835796161  0.9164432223 -0.6872841182
H   0.0004404288 -0.5045288583 -1.3644649413
H  -0.7082674103 -1.0302441367  1.4035040039
H   1.0329198613  1.1343719239  0.2103633829
H  -2.4423348442 -1.8993568757  0.3459736444
H  -1.8699547060 -1.4465131069 -1.1051466923
H  -0.3981306982  1.5508991144  1.0375477797
H  -1.9461038412  0.9842271421  1.6094356882
H   2.8567071248  0.2569974564  1.5540989797
H   1.7965869887  0.6822900655 -2.0673300313
H   2.4638035039 -1.4082950018  1.0690063372
H   1.3346760455 -0.4703686042  2.0470478821
H   2.9993927533  1.2135947516 -0.9064914151
H   2.9810640044 -0.4801269314 -1.4288537493
22
Image 154  Energy = -383.6425623038
C  -0.9059049481 -0.5192217409  0.4571550611
C   1.3965946471  0.1361747918 -0.0280646762
C  -1.2605651176  0.9503840282  0.7566268429
C   2.0569121112 -0.4086223339  1.2297261070
C   2.3554187657  0.3757643056 -1.1795863844
N   0.2635267469 -0.7106440846 -0.4063792086
N  -2.0884598579 -1.1120714338 -0.1761776563
O  -1.8152061131  1.5534159799 -0.3920531096
H  -2.4839179435  0.9169355932 -0.6876300026
H   0.0002628318 -0.5032472045 -1.3642297227
H  -0.7083524770 -1.0298954019  1.4036820653
H   1.0336360831  1.1351877821  0.2104902094
H  -2.4422940550 -1.8994996630  0.3461202901
H  -1.8695630906 -1.4471044930 -1.1050290957
H  -0.3988615996  1.5503942683  1.0383388991
H  -1.9474014403  0.9835081428  1.6091158071
H   2.8571995096  0.2568335628  1.5541264661
H   1.7969734193  0.6819718490 -2.0675315212
H   2.4638641859 -1.4081611780  1.0684812233
H   1.3350772707 -0.4703786338  2.0470625179
H   3.0003070243  1.2129013094 -0.9070574793
H   2.9806610617 -0.4809854506 -1.4287216297
22
Image 155  Energy = -383.6426283453
C  -0.9060776774 -0.5190969806  0.4572215881
C   1.3967676913  0.1367170253 -0.0279507320
C  -1.2612760508  0.9501868030  0.7567561805
C   2.0571751108 -0.4084746183  1.2296421855
C   2.3556410405  0.3754519115 -1.1796849952
N   0.2634678306 -0.7098657926 -0.4062924669
N  -2.0883642262 -1.1123708860 -0.1762421369
O  -1.8153830954  1.5535564888 -0.3920165679
H  -2.4842501754  0.9174246591 -0.6879726429
H   0.0000854822 -0.5019691930 -1.3639976701
H  -0.7084315432 -1.0295557517  1.4038543349
H   1.0343414796  1.1359953930  0.2106172672
H  -2.4422517954 -1.8996424364  0.3462650970
H  -1.8691695228 -1.4476979152 -1.1049117021
H  -0.3995931937  1.5499044465  1.0391286017
H  -1.9486905723  0.9827992608  1.6087985456
H   2.8576881414  0.2566710943  1.5541505302
H   1.7973569832  0.6816553171 -2.0677311568
H   2.4639233922 -1.4080278407  1.0679581856
H   1.3354767002 -0.4703880270  2.0470779765
H   3.0012161025  1.2122087942 -0.9076186922
H   2.9802549119 -0.4818417579 -1.4285867262
22
Image 156  Energy = -383.6426935851
C  -0.9062472162 -0.5189735692  0.4572871919
C   1.3969379000  0.1372555506 -0.0278377728
C  -1.2619813651  0.9499933246  0.7568867662
C   2.0574353965 -0.4083277795  1.2295580421
C   2.3558601355  0.3751408963 -1.1797817430
N   0.2634089937 -0.7090924085 -0.4062092165
N  -2.0882667790 -1.1126697895 -0.1763076106
O  -1.8155567082  1.5536970114 -0.3919793346
H  -2.4845763866  0.9179104599 -0.6883121103
H  -0.0000916228 -0.5006948100 -1.3637686776
H  -0.7085047605 -1.0292248888  1.4040209607
H   1.0350362909  1.1367949203  0.2107445227
H  -2.4422080790 -1.8997850706  0.3464081365
H  -1.8687739509 -1.4482932627 -1.1047945152
H  -0.4003253575  1.5494291420  1.0399168250
H  -1.9499713736  0.9821001939  1.6084839114
H   2.8581729879  0.2565099943  1.5541711992
H   1.7977377347  0.6813404727 -2.0679289328
H   2.4639811241 -1.4078950013  1.0674372328
H   1.3358742841 -0.4703968032  2.0470943147
H   3.0021200716  1.2115172922 -0.9081750494
H   2.9798456943 -0.4826958800 -1.4284491376
22
Image 157  Energy = -383.6427580188
C  -0.9064136617 -0.5188514736  0.4573518179
C   1.3971053480  0.1377904408 -0.0277257655
C  -1.2626811351  0.9498035285  0.7570185536
C   2.0576927458 -0.4081819064  1.2294737486
C   2.3560762392  0.3748312196 -1.1798766482
N   0.2633501443 -0.7083238830 -0.4061292993
N  -2.0881674509 -1.1129679465 -0.1763741245
O  -1.8157270661  1.5538374681 -0.3919414238
H  -2.4848966707  0.9183930227 -0.6886484828
H  -0.0002685327 -0.4994240260 -1.3635427320
H  -0.7085722510 -1.0289025349  1.4041820967
H   1.0357207641  1.1375865151  0.2108719255
H  -2.4421629735 -1.8999275666  0.3465495487
H  -1.8683763592 -1.4488904106 -1.1046774577
H  -0.4010579927  1.5489678436  1.0407035038
H  -1.9512439140  0.9814106354  1.6081718226
H   2.8586541998  0.2563503340  1.5541885545
H   1.7981156754  0.6810273221 -2.0681248743
H   2.4640374163 -1.4077626857  1.0669183723
H   1.3362701203 -0.4704049554  2.0471113851
H   3.0030189231  1.2108267619 -0.9087265875
H   2.9794334448 -0.4835477076 -1.4283089300
22
Image 158  Energy = -383.6428217033
C  -0.9065770078 -0.5187306469  0.4574155777
C   1.3972700076  0.1383216844 -0.0276147007
C  -1.2633754910  0.9496172456  0.7571514675
C   2.0579474864 -0.4080369353  1.2293892637
C   2.3562894163  0.3745229096 -1.1799697459
N   0.2632913086 -0.7075601133 -0.4060526620
N  -2.0880664700 -1.1132655132 -0.1764415962
O  -1.8158941821  1.5539779421 -0.3919028439
H  -2.4852112344  0.9188722657 -0.6889818904
H  -0.0004452758 -0.4981568216 -1.3633197946
H  -0.7086341439 -1.0285883886  1.4043378632
H   1.0363951301  1.1383703430  0.2109994481
H  -2.4421164250 -1.9000696507  0.3466893001
H  -1.8679767015 -1.4494892178 -1.1045604595
H  -0.4017909333  1.5485201160  1.0414886060
H  -1.9525082686  0.9807302984  1.6078622261
H   2.8591316649  0.2561920002  1.5542025977
H   1.7984908238  0.6807158811 -2.0683190194
H   2.4640922338 -1.4076308528  1.0664016217
H   1.3366641153 -0.4704125067  2.0471292754
H   3.0039126799  1.2101372089 -0.9092733351
H   2.9790182803 -0.4843972523 -1.4281661958
22
Image 159  Energy = -383.6428846432
C  -0.9067374525 -0.5186110186  0.4574784373
C   1.3974319852  0.1388493836 -0.0275045899
C  -1.2640644582  0.9494343928  0.7572854779
C   2.0581994214 -0.4078929284  1.2293046134
C   2.3564996502  0.3742159704 -1.1800610809
N   0.2632324711 -0.7068010167 -0.4059792591
N  -2.0879637254 -1.1135622414 -0.1765100470
O  -1.8160582678  1.5541182699 -0.3918636727
H  -2.4855200841  0.9193483000 -0.6893123792
H  -0.0006218685 -0.4968931740 -1.3630997930
H  -0.7086905656 -1.0282821989  1.4044884370
H   1.0370596230  1.1391464889  0.2111270363
H  -2.4420685174 -1.9002113644  0.3468275343
H  -1.8675749755 -1.4500895976 -1.1044434824
H  -0.4025240811  1.5480854893  1.0422720840
H  -1.9537645211  0.9800588945  1.6075550699
H   2.8596055338  0.2560350606  1.5542134165
H   1.7988632369  0.6804061397 -2.0685113288
H   2.4641456071 -1.4074995317  1.0658869869
H   1.3370563365 -0.4704194582  2.0471478837
H   3.0048013588  1.2094486353 -0.9098153155
H   2.9786003057 -0.4852444983 -1.4280210255
22
Image 160  Energy = -383.6429468032
C  -0.9068949434 -0.5184925276  0.4575404089
C   1.3975913274  0.1393734872 -0.0273954275
C  -1.2647482282  0.9492548606  0.7574205046
C   2.0584486871 -0.4077498212  1.2292198290
C   2.3567069892  0.3739103547 -1.1801507090
N   0.2631735824 -0.7060465353 -0.4059090800
N  -2.0878593757 -1.1138581794 -0.1765793676
O  -1.8162192854  1.5542585135 -0.3918238585
H  -2.4858233976  0.9198210470 -0.6896400498
H  -0.0007983141 -0.4956330761 -1.3628826108
H  -0.7087416381 -1.0279836992  1.4046339443
H   1.0377144461  1.1399151793  0.2112546736
H  -2.4420192453 -1.9003525343  0.3469642684
H  -1.8671711325 -1.4506914426 -1.1043265232
H  -0.4032573132  1.5476635394  1.0430538739
H  -1.9550127407  0.9793961619  1.6072502977
H   2.8600757403  0.2558794222  1.5542210176
H   1.7992329348  0.6800981131 -2.0687018472
H   2.4641975461 -1.4073687239  1.0653744674
H   1.3374467625 -0.4704258156  2.0471672230
H   3.0056850178  1.2087610883 -0.9103525428
H   2.9781795942 -0.4860894151 -1.4278734886
22
Image 161  Energy = -383.6430082754
C  -0.9070495673 -0.5183751534  0.4576015021
C   1.3977480709  0.1398940753 -0.0272872215
C  -1.2654267718  0.9490785496  0.7575565000
C   2.0586951967 -0.4076076147  1.2291349296
C   2.3569114641  0.3736060844 -1.1802386606
N   0.2631146411 -0.7052965638 -0.4058419943
N  -2.0877534386 -1.1141532117 -0.1766495607
O  -1.8163773486  1.5543986680 -0.3917834552
H  -2.4861212947  0.9202905045 -0.6899649880
H  -0.0009746634 -0.4943765026 -1.3626682421
H  -0.7087874734 -1.0276926354  1.4047745327
H   1.0383598292  1.1406764978  0.2113823200
H  -2.4419686445 -1.9004931081  0.3470995841
H  -1.8667651594 -1.4512946607 -1.1042095454
H  -0.4039905584  1.5472538162  1.0438339380
H  -1.9562530219  0.9787418417  1.6069478734
H   2.8605423902  0.2557251271  1.5542254687
H   1.7995999661  0.6797917951 -2.0688905587
H   2.4642480817 -1.4072384839  1.0648640586
H   1.3378354040 -0.4704315897  2.0471872595
H   3.0065636621  1.2080745436 -0.9108850550
H   2.9777562498 -0.4869319824 -1.4277236815
22
Image 162  Energy = -383.6430690511
C  -0.9072013757 -0.5182588275  0.4576617431
C   1.3979022030  0.1404111698 -0.0271799258
C  -1.2661001655  0.9489053751  0.7576933966
C   2.0589391261 -0.4074663350  1.2290498240
C   2.3571131863  0.3733031040 -1.1803250171
N   0.2630556538 -0.7045510525 -0.4057779550
N  -2.0876459593 -1.1144473150 -0.1767206619
O  -1.8165325523  1.5545386591 -0.3917424738
H  -2.4864138477  0.9207567160 -0.6902872633
H  -0.0011509335 -0.4931234287 -1.3624566493
H  -0.7088281904 -1.0274087708  1.4049103461
H   1.0389959734  1.1414305931  0.2115099414
H  -2.4419167478 -1.9006330052  0.3472335516
H  -1.8663570525 -1.4518991387 -1.1040924720
H  -0.4047237102  1.5468559219  1.0446122169
H  -1.9574854731  0.9780956834  1.6066477823
H   2.8610054752  0.2555721418  1.5542268091
H   1.7999643417  0.6794871915 -2.0690774644
H   2.4642971899 -1.4071087718  1.0643557819
H   1.3382222023 -0.4704367890  2.0472080272
H   3.0074373357  1.2073890288 -0.9114128706
H   2.9773303338 -0.4877721530 -1.4275716636
22
Image 163  Energy = -383.6431291390
C  -0.9073505079 -0.5181435254  0.4577211073
C   1.3980538778  0.1409248669 -0.0270735746
C  -1.2667685652  0.9487352063  0.7578310750
C   2.0591803361 -0.4073259614  1.2289646049
C   2.3573121555  0.3730013697 -1.1804097061
N   0.2629965696 -0.7038099450 -0.4057169607
N  -2.0875369518 -1.1147404047 -0.1767925733
O  -1.8166850329  1.5546784170 -0.3917009533
H  -2.4867010859  0.9212197377 -0.6906069112
H  -0.0013271273 -0.4918738489 -1.3622477210
H  -0.7088638933 -1.0271318810  1.4050415181
H   1.0396231190  1.1421775560  0.2116374941
H  -2.4418635859 -1.9007721547  0.3473662270
H  -1.8659467853 -1.4525047998 -1.1039752999
H  -0.4054566006  1.5464695015  1.0453887068
H  -1.9587101744  0.9774574467  1.6063499911
H   2.8614650333  0.2554204526  1.5542250866
H   1.8003260763  0.6791843226 -2.0692626329
H   2.4643448964 -1.4069796143  1.0638496371
H   1.3386072574 -0.4704414158  2.0472294266
H   3.0083060785  1.2067045685 -0.9119360213
H   2.9769019222 -0.4886098977 -1.4274175160
22
Image 164  Energy = -383.6431885654
C  -0.9074968960 -0.5180292106  0.4577796904
C   1.3982030815  0.1414350767 -0.0269681796
C  -1.2674320176  0.9485679797  0.7579695946
C   2.0594189884 -0.4071864471  1.2288792397
C   2.3575083679  0.3727009974 -1.1804928126
N   0.2629373740 -0.7030731559 -0.4056588527
N  -2.0874264749 -1.1150324650 -0.1768653225
O  -1.8168347432  1.5548180299 -0.3916588593
H  -2.4869832472  0.9216794630 -0.6909240729
H  -0.0015032812 -0.4906277224 -1.3620414891
H  -0.7088947207 -1.0268617021  1.4051681148
H   1.0402414178  1.1429175927  0.2117649683
H  -2.4418091921 -1.9009104791  0.3474976667
H  -1.8655343573 -1.4531115529 -1.1038579875
H  -0.4061891904  1.5460941475  1.0461633446
H  -1.9599271631  0.9768268981  1.6060543988
H   2.8619210899  0.2552700345  1.5542203357
H   1.8006852224  0.6788831706 -2.0694460254
H   2.4643912120 -1.4068510410  1.0633456193
H   1.3389904710 -0.4704454850  2.0472515059
H   3.0091699086  1.2060211326 -0.9124545395
H   2.9764711621 -0.4894452639 -1.4272613336
22
Image 165  Energy = -383.6432473390
C  -0.9076406755 -0.5179157822  0.4578374113
C   1.3983498112  0.1419419623 -0.0268637320
C  -1.2680906180  0.9484035593  0.7581088732
C   2.0596550722 -0.4070478712  1.2287937237
C   2.3577019543  0.3724018765 -1.1805743263
N   0.2628781356 -0.7023406145 -0.4056036661
N  -2.0873146014 -1.1153234488 -0.1769388729
O  -1.8169818785  1.5549573919 -0.3916162690
H  -2.4872602826  0.9221360081 -0.6912387440
H  -0.0016794127 -0.4893850462 -1.3618378364
H  -0.7089207522 -1.0265980688  1.4052903643
H   1.0408511153  1.1436507302  0.2118923142
H  -2.4417535958 -1.9010479085  0.3476279206
H  -1.8651197545 -1.4537193148 -1.1037404950
H  -0.4069213795  1.5457295035  1.0469360934
H  -1.9611365189  0.9762038132  1.6057609746
H   2.8623736825  0.2551208761  1.5542126128
H   1.8010417835  0.6785837603 -2.0696277020
H   2.4644361356 -1.4067230015  1.0628437453
H   1.3393718761 -0.4704489934  2.0472742438
H   3.0100288403  1.2053387319 -0.9129684561
H   2.9760380739 -0.4902781660 -1.4271031735
22
Image 166  Energy = -383.6433054423
C  -0.9077818712 -0.5178032921  0.4578943450
C   1.3984942246  0.1424454504 -0.0267601742
C  -1.2687443694  0.9482418899  0.7582488386
C   2.0598884946 -0.4069101834  1.2287080617
C   2.3578929296  0.3721040223 -1.1806542850
N   0.2628187189 -0.7016122553 -0.4055512929
N  -2.0872013057 -1.1156132752 -0.1770132054
O  -1.8171264392  1.5550965527 -0.3915731828
H  -2.4875323816  0.9225893089 -0.6915510338
H  -0.0018555359 -0.4881457996 -1.3616367310
H  -0.7089421086 -1.0263407221  1.4054082970
H   1.0414523573  1.1443771826  0.2120195218
H  -2.4416968412 -1.9011844000  0.3477570586
H  -1.8647029751 -1.4543280204 -1.1036228203
H  -0.4076530718  1.5453752183  1.0477069271
H  -1.9623383564  0.9755879638  1.6054697247
H   2.8628228715  0.2549729887  1.5542019678
H   1.8013957874  0.6782860960 -2.0698076712
H   2.4644796914 -1.4065955513  1.0623440085
H   1.3397515121 -0.4704519451  2.0472975610
H   3.0108829157  1.2046573912 -0.9134777960
H   2.9756027634 -0.4911086232 -1.4269431161
22
Image 167  Energy = -383.6433629762
C  -0.9079205523 -0.5176916620  0.4579504946
C   1.3986362350  0.1429456576 -0.0266575337
C  -1.2693934049  0.9480828870  0.7583894728
C   2.0601194367 -0.4067733803  1.2286222648
C   2.3580813699  0.3718073545 -1.1807327789
N   0.2627591901 -0.7008880290 -0.4055016992
N  -2.0870866403 -1.1159019701 -0.1770883183
O  -1.8172684929  1.5552354830 -0.3915295901
H  -2.4877996154  0.9230393855 -0.6918610064
H  -0.0020316658 -0.4869099577 -1.3614381289
H  -0.7089588873 -1.0260894719  1.4055220626
H   1.0420453700  1.1450969900  0.2121465432
H  -2.4416389479 -1.9013198600  0.3478851023
H  -1.8642840253 -1.4549375759 -1.1035048839
H  -0.4083841812  1.5450309533  1.0484758083
H  -1.9635327186  0.9749791477  1.6051805707
H   2.8632686309  0.2548263168  1.5541884254
H   1.8017472798  0.6779901665 -2.0699859268
H   2.4645218681 -1.4064686701  1.0618464195
H   1.3401293296 -0.4704543578  2.0473215068
H   3.0117321814  1.2039771314 -0.9139825833
H   2.9751652518 -0.4919365424 -1.4267812183
22
Image 168  Energy = -383.6434198836
C  -0.9080567977 -0.5175808685  0.4580058463
C   1.3987759027  0.1434425804 -0.0265557902
C  -1.2700377821  0.9479264812  0.7585307084
C   2.0603479226 -0.4066374482  1.2285363621
C   2.3582673620  0.3715119293 -1.1808097551
N   0.2626995524 -0.7001678598 -0.4054548663
N  -2.0869706526 -1.1161894255 -0.1771641524
O  -1.8174081321  1.5553741184 -0.3914855088
H  -2.4880620309  0.9234862843 -0.6921687018
H  -0.0022078176 -0.4856775131 -1.3612419541
H  -0.7089711898 -1.0258441214  1.4056317764
H   1.0426303228  1.1458102932  0.2122733597
H  -2.4415799794 -1.9014542799  0.3480121318
H  -1.8638628860 -1.4555479309 -1.1033867121
H  -0.4091146326  1.5446963781  1.0492427023
H  -1.9647196994  0.9743771627  1.6048934952
H   2.8637109760  0.2546808402  1.5541720302
H   1.8020962393  0.6776960004 -2.0701625425
H   2.4645626707 -1.4063423669  1.0613509760
H   1.3405053533 -0.4704562238  2.0473460199
H   3.0125766484  1.2032979332 -0.9144828580
H   2.9747256624 -0.4927619671 -1.4266175634
22
Image 169  Energy = -383.6434761908
C  -0.9081906039 -0.5174709138  0.4580604380
C   1.3989133381  0.1439362191 -0.0264549908
C  -1.2706775745  0.9477726045  0.7586724811
C   2.0605738200 -0.4065024110  1.2284503673
C   2.3584508243  0.3712177465 -1.1808853215
N   0.2626397739 -0.6994517146 -0.4054106501
N  -2.0868533827 -1.1164756939 -0.1772407219
O  -1.8175453964  1.5555124767 -0.3914409393
H  -2.4883197303  0.9239299906 -0.6924741805
H  -0.0023840218 -0.4844484258 -1.3610482373
H  -0.7089791155 -1.0256044722  1.4057375391
H   1.0432073864  1.1465172342  0.2123999586
H  -2.4415199304 -1.9015875317  0.3481381533
H  -1.8634395734 -1.4561589986 -1.1032682301
H  -0.4098443609  1.5443711800  1.0500075800
H  -1.9658993680  0.9737818153  1.6046084677
H   2.8641500167  0.2545365914  1.5541528415
H   1.8024427569  0.6774035693 -2.0703374445
H   2.4646021255 -1.4062166565  1.0608576743
H   1.3408796045 -0.4704575572  2.0473710751
H   3.0134163631  1.2026198151 -0.9149786448
H   2.9742840613 -0.4935848706 -1.4264522117
22
Image 170  Energy = -383.6435318978
C  -0.9083220379 -0.5173616768  0.4581142316
C   1.3990485105  0.1444267120 -0.0263550499
C  -1.2713128711  0.9476211073  0.7588148355
C   2.0607973436 -0.4063682228  1.2283642382
C   2.3586317490  0.3709247955 -1.1809595087
N   0.2625798517 -0.6987395182 -0.4053691074
N  -2.0867348925 -1.1167607343 -0.1773179543
O  -1.8176803185  1.5556505902 -0.3913959068
H  -2.4885728522  0.9243704794 -0.6927775356
H  -0.0025602696 -0.4832227016 -1.3608568318
H  -0.7089827562 -1.0253703558  1.4058394866
H   1.0437767685  1.1472178346  0.2125262799
H  -2.4414588617 -1.9017195887  0.3482632150
H  -1.8630140738 -1.4567707352 -1.1031494634
H  -0.4105732555  1.5440550759  1.0507704249
H  -1.9670717625  0.9731929165  1.6043254147
H   2.8645856751  0.2543934896  1.5541308740
H   1.8027868664  0.6771128732 -2.0705106478
H   2.4646402176 -1.4060915290  1.0603665263
H   1.3412520438 -0.4704583608  2.0473966985
H   3.0142513851  1.2019428200 -0.9154699639
H   2.9738405519 -0.4944052736 -1.4262852506
22
Image 171  Energy = -383.6435870616
C  -0.9084511733 -0.5172532182  0.4581673081
C   1.3991815145  0.1449139682 -0.0262560706
C  -1.2719436448  0.9474720207  0.7589576683
C   2.0610183567 -0.4062349088  1.2282780084
C   2.3588103015  0.3706330395 -1.1810322768
N   0.2625197681 -0.6980311986 -0.4053301364
N  -2.0866151368 -1.1170444410 -0.1773958530
O  -1.8178130541  1.5557883519 -0.3913504370
H  -2.4888213766  0.9248078436 -0.6930787733
H  -0.0027365836 -0.4820003124 -1.3606677384
H  -0.7089822166 -1.0251415776  1.4059376814
H   1.0443385904  1.1479123042  0.2126523436
H  -2.4413968261 -1.9018504468  0.3483873922
H  -1.8625863977 -1.4573830898 -1.1030304028
H  -0.4113013040  1.5437477245  1.0515311963
H  -1.9682369894  0.9726102762  1.6040443302
H   2.8650180871  0.2542515796  1.5541062068
H   1.8031285491  0.6768239398 -2.0706822279
H   2.4646769945 -1.4059670218  1.0598775121
H   1.3416226828 -0.4704586308  2.0474228610
H   3.0150817044  1.2012669099 -0.9159568605
H   2.9733951666 -0.4952231158 -1.4261167274
22
Image 172  Energy = -383.6436416602
C  -0.9085780075 -0.5171454684  0.4582196486
C   1.3993123728  0.1453980402 -0.0261579917
C  -1.2725699976  0.9473252356  0.7591009508
C   2.0612370261 -0.4061024563  1.2281916851
C   2.3589866087  0.3703424824 -1.1811036103
N   0.2624595175 -0.6973267059 -0.4052936727
N  -2.0864942074 -1.1173268907 -0.1774744633
O  -1.8179436050  1.5559258007 -0.3913045218
H  -2.4890654387  0.9252420486 -0.6933779751
H  -0.0029129869 -0.4807812430 -1.3604809136
H  -0.7089775765 -1.0249179698  1.4060322282
H   1.0448930124  1.1486007349  0.2127781172
H  -2.4413338455 -1.9019800176  0.3485106943
H  -1.8621565667 -1.4579959716 -1.1029109423
H  -0.4120284118  1.5434488602  1.0522898775
H  -1.9693951173  0.9720337271  1.6037651865
H   2.8654471956  0.2541108035  1.5540788494
H   1.8034677998  0.6765367784 -2.0708522457
H   2.4647124197 -1.4058431024  1.0593906498
H   1.3419915202 -0.4704583793  2.0474495416
H   3.0159073354  1.2005920661 -0.9164393741
H   2.9729479668 -0.4960383766 -1.4259467144
22
Image 173  Energy = -383.6436956763
C  -0.9087026597 -0.5170384247  0.4582712669
C   1.3994410897  0.1458789934 -0.0260607709
C  -1.2731920677  0.9471806566  0.7592446272
C   2.0614533227 -0.4059708853  1.2281052338
C   2.3591605168  0.3700531012 -1.1811737145
N   0.2623991216 -0.6966259920 -0.4052597506
N  -2.0863721121 -1.1176080327 -0.1775536695
O  -1.8180720646  1.5560628982 -0.3912581926
H  -2.4893050527  0.9256731477 -0.6936751578
H  -0.0030894685 -0.4795654795 -1.3602962880
H  -0.7089689316 -1.0246993729  1.4061232623
H   1.0454402226  1.1492831910  0.2129035681
H  -2.4412699465 -1.9021082405  0.3486331535
H  -1.8617245702 -1.4586093552 -1.1027911367
H  -0.4127544674  1.5431582448  1.0530464537
H  -1.9705462085  0.9714630948  1.6034879501
H   2.8658730664  0.2539711606  1.5540488657
H   1.8038047460  0.6762513476 -2.0710205802
H   2.4647465114 -1.4057197668  1.0589059403
H   1.3423585538 -0.4704576044  2.0474767294
H   3.0167283750  1.1999183696 -0.9169175121
H   2.9724990371 -0.4968510549 -1.4257752736
22
Image 174  Energy = -383.6437492016
C  -0.9088250835 -0.5169320467  0.4583222030
C   1.3995677101  0.1463568676 -0.0259644245
C  -1.2738098882  0.9470382439  0.7593887594
C   2.0616672576 -0.4058401365  1.2280187230
C   2.3593321828  0.3697649083 -1.1812425053
N   0.2623385442 -0.6959290293 -0.4052282185
N  -2.0862488737 -1.1178877892 -0.1776335278
O  -1.8181984280  1.5561996910 -0.3912114424
H  -2.4895403660  0.9261010966 -0.6939704078
H  -0.0032660786 -0.4783529924 -1.3601138897
H  -0.7089563720 -1.0244856068  1.4062108355
H   1.0459803843  1.1499597702  0.2130286751
H  -2.4412051976 -1.9022351452  0.3487548545
H  -1.8612904244 -1.4592231960 -1.1026709783
H  -0.4134794556  1.5428755791  1.0538008804
H  -1.9716903003  0.9708982128  1.6032125416
H   2.8662957182  0.2538326308  1.5540162796
H   1.8041393423  0.6759676816 -2.0711873312
H   2.4647792953 -1.4055970664  1.0584233672
H   1.3427237916 -0.4704563125  2.0475043939
H   3.0175448160  1.1992457806 -0.9173913211
H   2.9720484396 -0.4976611437 -1.4256024626
22
Image 175  Energy = -383.6438021837
C  -0.9089453205 -0.5168262917  0.4583724455
C   1.3996922731  0.1468317199 -0.0258689802
C  -1.2744234291  0.9468979445  0.7595331972
C   2.0618788427 -0.4057102659  1.2279320931
C   2.3595016301  0.3694778660 -1.1813099584
N   0.2622777550 -0.6952357474 -0.4051990742
N  -2.0861245937 -1.1181662925 -0.1777140232
O  -1.8183227647  1.5563361435 -0.3911642562
H  -2.4897714313  0.9265259214 -0.6942637641
H  -0.0034427870 -0.4771437695 -1.3599336130
H  -0.7089399740 -1.0242765348  1.4062950748
H   1.0465136591  1.1506305344  0.2131534135
H  -2.4411395954 -1.9023605893  0.3488757656
H  -1.8608541458 -1.4598374197 -1.1025503880
H  -0.4142033318  1.5426006091  1.0545531479
H  -1.9728275230  0.9703389320  1.6029390051
H   2.8667152027  0.2536952221  1.5539811584
H   1.8044716112  0.6756857829 -2.0713525356
H   2.4648107494 -1.4054749581  1.0579429502
H   1.3430872453 -0.4704545119  2.0475325279
H   3.0183567087  1.1985743246 -0.9178608324
H   2.9715962328 -0.4984686209 -1.4254283501
22
Image 176  Energy = -383.6438546270
C  -0.9090635060 -0.5167212000  0.4584219186
C   1.3998148271  0.1473034979 -0.0257744110
C  -1.2750328228  0.9467597084  0.7596779466
C   2.0620880050 -0.4055812159  1.2278454295
C   2.3596688641  0.3691919965 -1.1813761863
N   0.2622168003 -0.6945460756 -0.4051723103
N  -2.0859991739 -1.1184433439 -0.1777951056
O  -1.8184451305  1.5564722303 -0.3911166539
H  -2.4899983029  0.9269476498 -0.6945552689
H  -0.0036196191 -0.4759378095 -1.3597553808
H  -0.7089198180 -1.0240720039  1.4063760743
H   1.0470401678  1.1512956518  0.2132777792
H  -2.4410732220 -1.9024846395  0.3489959795
H  -1.8604157418 -1.4604520033 -1.1024293814
H  -0.4149260177  1.5423330904  1.0553032355
H  -1.9739579150  0.9697850954  1.6026672924
H   2.8671315682  0.2535589248  1.5539435360
H   1.8048016137  0.6754056484 -2.0715161597
H   2.4648409223 -1.4053535114  1.0574646630
H   1.3434489423 -0.4704522007  2.0475610825
H   3.0191640738  1.1979039978 -0.9183260817
H   2.9711424992 -0.4992734901 -1.4252529940
22
Image 177  Energy = -383.6439065709
C  -0.9091796094 -0.5166166955  0.4584707631
C   1.3999354477  0.1477722948 -0.0256807678
C  -1.2756380841  0.9466233886  0.7598230154
C   2.0622949714 -0.4054530603  1.2277586326
C   2.3598338474  0.3689072809 -1.1814411724
N   0.2621556481 -0.6938599847 -0.4051477843
N  -2.0858727229 -1.1187190144 -0.1778767251
O  -1.8185656576  1.5566079610 -0.3910687164
H  -2.4902210113  0.9273663278 -0.6948449486
H  -0.0037966030 -0.4747350681 -1.3595792596
H  -0.7088959996 -1.0238718624  1.4064538795
H   1.0475600544  1.1519551876  0.2134017444
H  -2.4410061016 -1.9026072097  0.3491154985
H  -1.8599752160 -1.4610669176 -1.1023079923
H  -0.4156474459  1.5420727986  1.0560511330
H  -1.9750815271  0.9692365500  1.6023973433
H   2.8675448050  0.2534237028  1.5539034488
H   1.8051293869  0.6751272599 -2.0716781956
H   2.4648697694 -1.4052326357  1.0569885361
H   1.3438088028 -0.4704493885  2.0475901180
H   3.0199669659  1.1972348230 -0.9187870935
H   2.9706872940 -0.5000757415 -1.4250764543
22
Image 178  Energy = -383.6439580329
C  -0.9092936754 -0.5165127697  0.4585189284
C   1.4000541205  0.1482380818 -0.0255879330
C  -1.2762393317  0.9464890231  0.7599683309
C   2.0624996656 -0.4053256725  1.2276717599
C   2.3599967682  0.3686237094 -1.1815049525
N   0.2620943279 -0.6931774254 -0.4051255470
N  -2.0857452865 -1.1189933615 -0.1779589704
O  -1.8186842986  1.5567433032 -0.3910203482
H  -2.4904396541  0.9277819394 -0.6951328614
H  -0.0039737350 -0.4735355482 -1.3594051400
H  -0.7088685873 -1.0236759688  1.4065286143
H   1.0480734687  1.1526092351  0.2135252978
H  -2.4409382567 -1.9027282447  0.3492343493
H  -1.8595326014 -1.4616820777 -1.1021861017
H  -0.4163675829  1.5418194893  1.0567968097
H  -1.9761984298  0.9686931625  1.6021291468
H   2.8679549106  0.2532895105  1.5538609229
H   1.8054549184  0.6748506426 -2.0718387279
H   2.4648973326 -1.4051123993  1.0565145478
H   1.3441668890 -0.4704460731  2.0476195711
H   3.0207653934  1.1965667787 -0.9192439100
H   2.9702306596 -0.5008753376 -1.4248987837
22
Image 179  Energy = -383.6440089691
C  -0.9094058025 -0.5164094445  0.4585664281
C   1.4001708879  0.1487009364 -0.0254959623
C  -1.2768366353  0.9463565385  0.7601138895
C   2.0627020605 -0.4051991087  1.2275848403
C   2.3601576121  0.3683412599 -1.1815675234
N   0.2620328126 -0.6924983597 -0.4051055888
N  -2.0856167939 -1.1192662348 -0.1780417621
O  -1.8188010793  1.5568783011 -0.3909715691
H  -2.4906543382  0.9281944629 -0.6954190680
H  -0.0041510127 -0.4723392417 -1.3592329518
H  -0.7088376632 -1.0234841904  1.4066003372
H   1.0485805558  1.1532578871  0.2136484255
H  -2.4408697609 -1.9028477885  0.3493525933
H  -1.8590879052 -1.4622974868 -1.1020637653
H  -0.4170863515  1.5415729662  1.0575402619
H  -1.9773086765  0.9681547901  1.6018626649
H   2.8683619657  0.2531563733  1.5538160188
H   1.8057782270  0.6745757969 -2.0719977650
H   2.4649236219 -1.4049928066  1.0560426945
H   1.3445232106 -0.4704422532  2.0476494081
H   3.0215594050  1.1958998872 -0.9196965560
H   2.9697726761 -0.5016722883 -1.4247200469
22
Image 180  Energy = -383.6440594717
C  -0.9095159497 -0.5163066560  0.4586132831
C   1.4002857439  0.1491608342 -0.0254048548
C  -1.2774299035  0.9462258832  0.7602596812
C   2.0629021661 -0.4050734105  1.2274978219
C   2.3603163579  0.3680599483 -1.1816290272
N   0.2619711171 -0.6918227259 -0.4050877123
N  -2.0854873681 -1.1195377418 -0.1781250717
O  -1.8189161315  1.5570129094 -0.3909224546
H  -2.4908650721  0.9286039685 -0.6957035869
H  -0.0043284605 -0.4711461024 -1.3590627615
H  -0.7088032969 -1.0232963947  1.4066691421
H   1.0490814421  1.1539012327  0.2137711155
H  -2.4408006136 -1.9029657259  0.3494702065
H  -1.8586411391 -1.4629131024 -1.1019409672
H  -0.4178037619  1.5413329651  1.0582814568
H  -1.9784123682  0.9676212948  1.6015979083
H   2.8687660256  0.2530243034  1.5537687902
H   1.8060994041  0.6743026969 -2.0721552276
H   2.4649486285 -1.4048738310  1.0555729809
H   1.3448777547 -0.4704379365  2.0476796409
H   3.0223490442  1.1952341720 -0.9201450679
H   2.9693133961 -0.5024665860 -1.4245402920
22
Image 181  Energy = -383.6441094792
C  -0.9096241744 -0.5162043899  0.4586595298
C   1.4003987650  0.1496178750 -0.0253146262
C  -1.2780192576  0.9460969792  0.7604056185
C   2.0631001794 -0.4049484956  1.2274107815
C   2.3604731908  0.3677797225 -1.1816893446
N   0.2619091871 -0.6911504877 -0.4050720101
N  -2.0853570335 -1.1198078999 -0.1782089335
O  -1.8190294760  1.5571471171 -0.3908729610
H  -2.4910719168  0.9290104677 -0.6959864597
H  -0.0045060702 -0.4699561397 -1.3588944251
H  -0.7087655674 -1.0231124540  1.4067350863
H   1.0495762566  1.1545393427  0.2138933464
H  -2.4407308620 -1.9030820369  0.3495872353
H  -1.8581923261 -1.4635288715 -1.1018176663
H  -0.4185197312  1.5410993215  1.0590204006
H  -1.9795095497  0.9670925538  1.6013348414
H   2.8691670052  0.2528932012  1.5537192259
H   1.8064184001  0.6740313749 -2.0723112423
H   2.4649723527 -1.4047554797  1.0551054045
H   1.3452305049 -0.4704331255  2.0477102519
H   3.0231343051  1.1945695962 -0.9205894876
H   2.9688528334 -0.5032581753 -1.4243595625
22
Image 182  Energy = -383.6441590399
C  -0.9097305662 -0.5161026372  0.4587051132
C   1.4005099628  0.1500720485 -0.0252252407
C  -1.2786047864  0.9459698078  0.7605517710
C   2.0632960707 -0.4048244078  1.2273236402
C   2.3606279987  0.3675006153 -1.1817485739
N   0.2618470667 -0.6904816033 -0.4050584459
N  -2.0852257103 -1.1200765332 -0.1782932837
O  -1.8191411584  1.5572809279 -0.3908231334
H  -2.4912749257  0.9294139741 -0.6962677136
H  -0.0046838558 -0.4687693360 -1.3587279374
H  -0.7087245484 -1.0229322596  1.4067982806
H   1.0500651313  1.1551723058  0.2140151014
H  -2.4406605874 -1.9031967961  0.3497037543
H  -1.8577414737 -1.4641448001 -1.1016939137
H  -0.4192342347  1.5408718093  1.0597570649
H  -1.9806002559  0.9665684392  1.6010734116
H   2.8695649982  0.2527631081  1.5536674017
H   1.8067352717  0.6737618130 -2.0724657791
H   2.4649948017 -1.4046377547  1.0546399643
H   1.3455814378 -0.4704278250  2.0477412790
H   3.0239152760  1.1939062093 -0.9210298302
H   2.9683911025 -0.5040471084 -1.4241779274
22
Image 183  Energy = -383.6442081055
C  -0.9098350863 -0.5160013879  0.4587500724
C   1.4006193952  0.1505233894 -0.0251366833
C  -1.2791865507  0.9458442843  0.7606980363
C   2.0634897018 -0.4047011287  1.2272364373
C   2.3607808783  0.3672226396 -1.1818067096
N   0.2617847444 -0.6898160328 -0.4050468885
N  -2.0850935072 -1.1203438210 -0.1783781774
O  -1.8192511366  1.5574144082 -0.3907729142
H  -2.4914742349  0.9298144320 -0.6965474191
H  -0.0048618328 -0.4675856614 -1.3585633004
H  -0.7086803049 -1.0227556802  1.4068587812
H   1.0505482000  1.1558001872  0.2141363670
H  -2.4405897800 -1.9033098645  0.3498197182
H  -1.8572886245 -1.4647608159 -1.1015695952
H  -0.4199471923  1.5406502649  1.0604914479
H  -1.9816845742  0.9660488364  1.6008136252
H   2.8699600723  0.2526340235  1.5536133602
H   1.8070500517  0.6734940104 -2.0726188510
H   2.4650160016 -1.4045206715  1.0541766518
H   1.3459306189 -0.4704220347  2.0477726329
H   3.0246919433  1.1932439798 -0.9214661461
H   2.9679282322 -0.5048333603 -1.4239954411
22
Image 184  Energy = -383.6442567550
C  -0.9099378016 -0.5159006284  0.4587944613
C   1.4007270699  0.1509719234 -0.0250489633
C  -1.2797644831  0.9457204098  0.7608444365
C   2.0636811811 -0.4045786037  1.2271492356
C   2.3609317376  0.3669457482 -1.1818638213
N   0.2617222494 -0.6891536948 -0.4050373764
N  -2.0849604283 -1.1206096891 -0.1784636207
O  -1.8193595732  1.5575474574 -0.3907223657
H  -2.4916698097  0.9302119532 -0.6968255801
H  -0.0050399937 -0.4664051158 -1.3584004434
H  -0.7086329149 -1.0225825960  1.4069166447
H   1.0510255916  1.1564230588  0.2142571202
H  -2.4405185071 -1.9034212854  0.3499351968
H  -1.8568337875 -1.4653768988 -1.1014447266
H  -0.4206586344  1.5404344550  1.0612235279
H  -1.9827625604  0.9655336240  1.6005554442
H   2.8703521959  0.2525058988  1.5535571232
H   1.8073627794  0.6732279688 -2.0727704489
H   2.4650359620 -1.4044042619  1.0537154547
H   1.3462780459 -0.4704157501  2.0478042968
H   3.0254643934  1.1925829613 -0.9218984474
H   2.9674643036 -0.5056169381 -1.4238121438
22
Image 185  Energy = -383.6443049576
C  -0.9100387333 -0.5158003682  0.4588382167
C   1.4008330386  0.1514177049 -0.0249620708
C  -1.2803387783  0.9455981128  0.7609909371
C   2.0638705760 -0.4044568926  1.2270619567
C   2.3610807939  0.3666699233 -1.1819198379
N   0.2616595287 -0.6884946184 -0.4050298176
N  -2.0848264854 -1.1208741084 -0.1785495051
O  -1.8194664901  1.5576800505 -0.3906714758
H  -2.4918616807  0.9306065612 -0.6971022129
H  -0.0052183579 -0.4652276699 -1.3582393543
H  -0.7085824412 -1.0224128962  1.4069719511
H   1.0514974051  1.1570410170  0.2143773644
H  -2.4404467876 -1.9035310088  0.3500501971
H  -1.8563769740 -1.4659930543 -1.1013193700
H  -0.4213684715  1.5402242396  1.0619533069
H  -1.9838342558  0.9650227062  1.6002988423
H   2.8707414055  0.2523787294  1.5534987320
H   1.8076734203  0.6729637035 -2.0729206797
H   2.4650546681 -1.4042884758  1.0532563871
H   1.3466236828 -0.4704089797  2.0478363085
H   3.0262326253  1.1919231151 -0.9223267850
H   2.9669993275 -0.5063977938 -1.4236280875
22
Image 186  Energy = -383.6443527177
C  -0.9101379729 -0.5157005799  0.4588813722
C   1.4009373605  0.1518607086 -0.0248760343
C  -1.2809094712  0.9454773387  0.7611374964
C   2.0640578041 -0.4043360136  1.2269746202
C   2.3612279459  0.3663952380 -1.1819748283
N   0.2615966161 -0.6878387050 -0.4050242628
N  -2.0846917063 -1.1211370799 -0.1786358048
O  -1.8195718220  1.5578122868 -0.3906201892
H  -2.4920500168  0.9309981751 -0.6973774070
H  -0.0053969044 -0.4640533314 -1.3580799357
H  -0.7085289506 -1.0222464898  1.4070247740
H   1.0519637689  1.1576541475  0.2144970844
H  -2.4403746671 -1.9036390213  0.3501647376
H  -1.8559181939 -1.4666092529 -1.1011935003
H  -0.4220766483  1.5400194530  1.0626807815
H  -1.9848997092  0.9645159577  1.6000437775
H   2.8711277818  0.2522525382  1.5534382459
H   1.8079820618  0.6727011918 -2.0730694672
H   2.4650721263 -1.4041733117  1.0527994422
H   1.3469675678 -0.4704017259  2.0478686211
H   3.0269966625  1.1912644463 -0.9227511949
H   2.9665333829 -0.5071759719 -1.4234433249
22
Image 187  Energy = -383.6444000617
C  -0.9102354869 -0.5156012155  0.4589239402
C   1.4010399651  0.1523010086 -0.0247908164
C  -1.2814765103  0.9453580781  0.7612841030
C   2.0642430444 -0.4042158557  1.2268872804
C   2.3613732811  0.3661215773 -1.1820288624
N   0.2615334688 -0.6871859511 -0.4050205655
N  -2.0845560834 -1.1213986486 -0.1787226294
O  -1.8196757137  1.5579440656 -0.3905685717
H  -2.4922347737  0.9313869046 -0.6976511504
H  -0.0055756634 -0.4628820602 -1.3579222547
H  -0.7084725070 -1.0220832771  1.4070751866
H   1.0524248022  1.1582625008  0.2146162598
H  -2.4403021897 -1.9037453071  0.3502788487
H  -1.8554574996 -1.4672254419 -1.1010670368
H  -0.4227831877  1.5398198876  1.0634059232
H  -1.9859590014  0.9640132704  1.5997902617
H   2.8715112558  0.2521272413  1.5533756683
H   1.8082887092  0.6724404336 -2.0732168345
H   2.4650883579 -1.4040588269  1.0523446066
H   1.3473096709 -0.4703939866  2.0479012368
H   3.0277565901  1.1906070173 -0.9231716946
H   2.9660664880 -0.5079514166 -1.4232578956
22
Image 188  Energy = -383.6444469807
C  -0.9103313307 -0.5155023174  0.4589659232
C   1.4011409315  0.1527385777 -0.0247064178
C  -1.2820399630  0.9452402663  0.7614307165
C   2.0644261936 -0.4040964867  1.2267998829
C   2.3615169371  0.3658490262 -1.1820818920
N   0.2614701560 -0.6865363088 -0.4050187265
N  -2.0844196656 -1.1216587327 -0.1788098790
O  -1.8197781586  1.5580754645 -0.3905166191
H  -2.4924160474  0.9317727128 -0.6979234943
H  -0.0057546398 -0.4617138492 -1.3577662320
H  -0.7084131648 -1.0219231464  1.4071232381
H   1.0528805948  1.1588661915  0.2147348976
H  -2.4402294048 -1.9038498852  0.3503925707
H  -1.8549948835 -1.4678416392 -1.1009400664
H  -0.4234880268  1.5396254067  1.0641287388
H  -1.9870122158  0.9635145600  1.5995383032
H   2.8718919322  0.2520028731  1.5533110564
H   1.8085933610  0.6721814482 -2.0733628490
H   2.4651033723 -1.4039449876  1.0518918840
H   1.3476499993 -0.4703857693  2.0479341595
H   3.0285123468  1.1899507237 -0.9235883468
H   2.9655986928 -0.5087241299 -1.4230718446
22
Image 189  Energy = -383.6444934923
C  -0.9104255163 -0.5154038210  0.4590073918
C   1.4012403230  0.1531735120 -0.0246228536
C  -1.2825998544  0.9451238962  0.7615774099
C   2.0646073472 -0.4039778908  1.2267124543
C   2.3616587204  0.3655774907 -1.1821339445
N   0.2614066189 -0.6858897350 -0.4050188194
N  -2.0842825031 -1.1219174794 -0.1788975860
O  -1.8198792173  1.5582064462 -0.3904643658
H  -2.4925938631  0.9321556417 -0.6981944527
H  -0.0059338042 -0.4605487024 -1.3576117716
H  -0.7083510051 -1.0217659963  1.4071689789
H   1.0533312760  1.1594652381  0.2148529660
H  -2.4401563107 -1.9039526486  0.3505058664
H  -1.8545303893 -1.4684577969 -1.1008125053
H  -0.4241911890  1.5394358093  1.0648492018
H  -1.9880593588  0.9630197148  1.5992878297
H   2.8722697953  0.2518794047  1.5532444408
H   1.8088960631  0.6719242246 -2.0735075005
H   2.4651171598 -1.4038317981  1.0514412651
H   1.3479885523 -0.4703770702  2.0479673727
H   3.0292640895  1.1892957048 -0.9240011465
H   2.9651300824 -0.5094941461 -1.4228852284
22
Image 190  Energy = -383.6445395921
C  -0.9105180391 -0.5153057773  0.4590482544
C   1.4013381501  0.1536057640 -0.0245400836
C  -1.2831563296  0.9450088990  0.7617241137
C   2.0647864753 -0.4038600801  1.2266249985
C   2.3617987644  0.3653070348 -1.1821851160
N   0.2613428658 -0.6852461987 -0.4050206719
N  -2.0841445861 -1.1221747799 -0.1789857233
O  -1.8199788983  1.5583370208 -0.3904117786
H  -2.4927682937  0.9325356945 -0.6984640700
H  -0.0061131943 -0.4593865859 -1.3574589366
H  -0.7082860795 -1.0216117519  1.4072124991
H   1.0537769311  1.1600597572  0.2149704823
H  -2.4400829709 -1.9040536429  0.3506187891
H  -1.8540640262 -1.4690739037 -1.1006843623
H  -0.4248925731  1.5392509879  1.0655673266
H  -1.9891004935  0.9625286522  1.5990388294
H   2.8726448861  0.2517568275  1.5531758662
H   1.8091968662  0.6716687421 -2.0736507608
H   2.4651297198 -1.4037192312  1.0509927531
H   1.3483253661 -0.4703678889  2.0480008288
H   3.0300117929  1.1886419024 -0.9244101433
H   2.9646606828 -0.5102614433 -1.4226980914
22
Image 191  Energy = -383.6445852889
C  -0.9106090012 -0.5152081329  0.4590885961
C   1.4014344380  0.1540354169 -0.0244581268
C  -1.2837093655  0.9448952295  0.7618707975
C   2.0649635837 -0.4037429924  1.2265375084
C   2.3619372025  0.3650376696 -1.1822353150
N   0.2612789561 -0.6846056635 -0.4050242771
N  -2.0840059337 -1.1224306685 -0.1790743140
O  -1.8200772412  1.5584671836 -0.3903588702
H  -2.4929393736  0.9329128922 -0.6987323640
H  -0.0062928157 -0.4582274838 -1.3573076847
H  -0.7082184444 -1.0214603070  1.4072538184
H   1.0542176755  1.1606497646  0.2150874105
H  -2.4400094222 -1.9041528559  0.3507313692
H  -1.8535958262 -1.4696899418 -1.1005556312
H  -0.4255921710  1.5390707888  1.0662830998
H  -1.9901356970  0.9620412740  1.5987913057
H   2.8730172424  0.2516351336  1.5531053694
H   1.8094957475  0.6714150277 -2.0737927024
H   2.4651410940 -1.4036073649  1.0505463344
H   1.3486604206 -0.4703582279  2.0480345421
H   3.0307554286  1.1879892601 -0.9248153953
H   2.9641905197 -0.5110260041 -1.4225104670
22
Image 192  Energy = -383.6446306132
C  -0.9106983742 -0.5151109004  0.4591284002
C   1.4015292159  0.1544624812 -0.0243769496
C  -1.2842589511  0.9447828907  0.7620174367
C   2.0651387540 -0.4036266689  1.2264499928
C   2.3620739385  0.3647693079 -1.1822846240
N   0.2612148050 -0.6839680957 -0.4050296284
N  -2.0838665454 -1.1226851273 -0.1791633242
O  -1.8201743227  1.5585968853 -0.3903056331
H  -2.4931071155  0.9332872860 -0.6989993505
H  -0.0064726509 -0.4570713925 -1.3571579530
H  -0.7081481615 -1.0213115788  1.4072930030
H   1.0546536092  1.1612353630  0.2152037611
H  -2.4399357073 -1.9042502804  0.3508436176
H  -1.8531258046 -1.4703059021 -1.1004263247
H  -0.4262899984  1.5388950468  1.0669965150
H  -1.9911650154  0.9615575013  1.5985452233
H   2.8733868527  0.2515142918  1.5530329674
H   1.8097927355  0.6711630786 -2.0739333448
H   2.4651512446 -1.4034961223  1.0501020155
H   1.3489937205 -0.4703480983  2.0480685066
H   3.0314951183  1.1873378693 -0.9252168974
H   2.9637196691 -0.5117878384 -1.4223224040
22
Image 193  Energy = -383.6446755302
C  -0.9107862830 -0.5150140373  0.4591675997
C   1.4016224792  0.1548869686 -0.0242965581
C  -1.2848052218  0.9446717558  0.7621640644
C   2.0653119109 -0.4035111112  1.2263625059
C   2.3622090476  0.3645019949 -1.1823331046
N   0.2611504896 -0.6833334549 -0.4050366863
N  -2.0837264064 -1.1229381615 -0.1792527116
O  -1.8202701117  1.5587262080 -0.3902521041
H  -2.4932716325  0.9336588366 -0.6992650902
H  -0.0066527155 -0.4559182945 -1.3570097364
H  -0.7080752753 -1.0211655114  1.4073301673
H   1.0550848335  1.1618165918  0.2153195141
H  -2.4398618485 -1.9043458757  0.3509555352
H  -1.8526539886 -1.4709217711 -1.1002964245
H  -0.4269859578  1.5387236709  1.0677075816
H  -1.9921884918  0.9610772438  1.5983005842
H   2.8737537819  0.2513943065  1.5529587092
H   1.8100878772  0.6709128686 -2.0740726492
H   2.4651602000 -1.4033855248  1.0496597859
H   1.3493253106 -0.4703374896  2.0481026540
H   3.0322308754  1.1866877145 -0.9256146934
H   2.9632481435 -0.5125469308 -1.4221339375
22
Image 194  Energy = -383.6447200836
C  -0.9108726686 -0.5149175663  0.4592062967
C   1.4017142966  0.1553088929 -0.0242169930
C  -1.2853481651  0.9445619096  0.7623106144
C   2.0654831839 -0.4033963014  1.2262749674
C   2.3623425250  0.3642356953 -1.1823806797
N   0.2610859559 -0.6827016913 -0.4050454896
N  -2.0835856001 -1.1231897606 -0.1793424619
O  -1.8203646765  1.5588550635 -0.3901982361
H  -2.4934329173  0.9340276058 -0.6995295812
H  -0.0068329838 -0.4547681901 -1.3568629270
H  -0.7079998540 -1.0210219935  1.4073653062
H   1.0555114303  1.1623935463  0.2154346689
H  -2.4397878920 -1.9044396550  0.3510671494
H  -1.8521803892 -1.4715375549 -1.1001659762
H  -0.4276800908  1.5385564731  1.0684162852
H  -1.9932061734  0.9606004148  1.5980573441
H   2.8741180405  0.2512751547  1.5528826346
H   1.8103811760  0.6706644178 -2.0742106796
H   2.4651679617 -1.4032755740  1.0492196418
H   1.3496551217 -0.4703264063  2.0481370564
H   3.0329627346  1.1860387924 -0.9260088237
H   2.9627760005 -0.5133032755 -1.4219451103
22
Image 195  Energy = -383.6447642339
C  -0.9109575505 -0.5148215014  0.4592445077
C   1.4018046606  0.1557283216 -0.0241381746
C  -1.2858878514  0.9444532889  0.7624571166
C   2.0656525707 -0.4032822243  1.2261873828
C   2.3624744366  0.3639704595 -1.1824274248
N   0.2610212439 -0.6820727962 -0.4050559232
N  -2.0834441281 -1.1234400058 -0.1794326674
O  -1.8204580250  1.5589834986 -0.3901440536
H  -2.4935910349  0.9343935900 -0.6997928586
H  -0.0070134900 -0.4536210496 -1.3567176001
H  -0.7079219554 -1.0208809384  1.4073984538
H   1.0559335156  1.1629662424  0.2155492095
H  -2.4397138546 -1.9045315777  0.3511784682
H  -1.8517050542 -1.4721531956 -1.1000348651
H  -0.4283723577  1.5383933437  1.0691226185
H  -1.9942181128  0.9601269402  1.5978154937
H   2.8744796421  0.2511568230  1.5528047683
H   1.8106726651  0.6704177175 -2.0743474225
H   2.4651745334 -1.4031662734  1.0487815801
H   1.3499831746 -0.4703148509  2.0481716876
H   3.0336906963  1.1853910860 -0.9263993224
H   2.9623032920 -0.5140569012 -1.4217559687
22
Image 196  Energy = -383.6448080206
C  -0.9110409802 -0.5147258003  0.4592821596
C   1.4018936141  0.1561451928 -0.0240601436
C  -1.2864242667  0.9443458156  0.7626035272
C   2.0658199701 -0.4031688567  1.2260998646
C   2.3626047930  0.3637062333 -1.1824733929
N   0.2609563339 -0.6814467234 -0.4050679269
N  -2.0833019913 -1.1236888265 -0.1795232473
O  -1.8205501975  1.5591115320 -0.3900895710
H  -2.4937460290  0.9347568003 -0.7000549452
H  -0.0071942364 -0.4524768594 -1.3565737125
H  -0.7078416135 -1.0207422987  1.4074297203
H   1.0563511542  1.1635348025  0.2156631413
H  -2.4396397864 -1.9046216650  0.3512895207
H  -1.8512279922 -1.4727687199 -1.0999031729
H  -0.4290627380  1.5382341609  1.0698265829
H  -1.9952243843  0.9596567471  1.5975750445
H   2.8748386501  0.2510393144  1.5527251535
H   1.8109623865  0.6701727540 -2.0744828686
H   2.4651799463 -1.4030576628  1.0483455763
H   1.3503095324 -0.4703028156  2.0482064561
H   3.0344148286  1.1847446392 -0.9267862179
H   2.9618300230 -0.5148077668 -1.4215665415
22
Image 197  Energy = -383.6448514831
C  -0.9111229915 -0.5146304579  0.4593193569
C   1.4019811929  0.1565596335 -0.0239829341
C  -1.2869574592  0.9442394821  0.7627498373
C   2.0659855146 -0.4030562322  1.2260123430
C   2.3627335957  0.3634430289 -1.1825184834
N   0.2608912042 -0.6808234722 -0.4050815577
N  -2.0831591975 -1.1239362879 -0.1796142150
O  -1.8206412175  1.5592391440 -0.3900347785
H  -2.4938979440  0.9351172577 -0.7003158686
H  -0.0073751927 -0.4513356124 -1.3564311974
H  -0.7077589033 -1.0206059787  1.4074590934
H   1.0567644523  1.1640992507  0.2157764504
H  -2.4395657117 -1.9047098785  0.3514002999
H  -1.8507492353 -1.4733840961 -1.0997708435
H  -0.4297512145  1.5380788056  1.0705281808
H  -1.9962250219  0.9591897504  1.5973359601
H   2.8751950527  0.2509225917  1.5526438149
H   1.8112503194  0.6699295450 -2.0746170976
H   2.4651841853 -1.4029496960  1.0479116485
H   1.3506341506 -0.4702903094  2.0482414215
H   3.0351351630  1.1840994462 -0.9271695417
H   2.9613562738 -0.5155559180 -1.4213768834
22
Image 198  Energy = -383.6448945557
C  -0.9112036074 -0.5145354666  0.4593560319
C   1.4020673996  0.1569716566 -0.0239064675
C  -1.2874874469  0.9441342548  0.7628960545
C   2.0661492538 -0.4029442968  1.2259247882
C   2.3628609278  0.3631808809 -1.1825628011
N   0.2608258666 -0.6802029871 -0.4050967671
N  -2.0830157840 -1.1241823475 -0.1797055329
O  -1.8207311581  1.5593663030 -0.3899797128
H  -2.4940467844  0.9354750146 -0.7005756350
H  -0.0075563764 -0.4501973032 -1.3562900125
H  -0.7076738552 -1.0204719262  1.4074866499
H   1.0571735029  1.1646596297  0.2158891291
H  -2.4394916812 -1.9047962388  0.3515108427
H  -1.8502687906 -1.4739993340 -1.0996379271
H  -0.4304377694  1.5379271603  1.0712274078
H  -1.9972200804  0.9587258818  1.5970982328
H   2.8755488574  0.2508066435  1.5525607836
H   1.8115365100  0.6696880793 -2.0747500758
H   2.4651872562 -1.4028424044  1.0474797795
H   1.3509570103 -0.4702773334  2.0482765970
H   3.0358516911  1.1834554642 -0.9275493373
H   2.9608820734 -0.5163013338 -1.4211870210
22
Image 199  Energy = -383.6449372647
C  -0.9112828400 -0.5144408372  0.4593921934
C   1.4021522998  0.1573812092 -0.0238307720
C  -1.2880144092  0.9440301320  0.7630421550
C   2.0663111422 -0.4028330782  1.2258372650
C   2.3629868208  0.3629196931 -1.1826063804
N   0.2607603574 -0.6795852302 -0.4051134847
N  -2.0828717629 -1.1244270494 -0.1797972157
O  -1.8208199512  1.5594930456 -0.3899243047
H  -2.4941926576  0.9358300305 -0.7008342965
H  -0.0077377969 -0.4490619054 -1.3561501980
H  -0.7075865273 -1.0203400792  1.4075124522
H   1.0575783680  1.1652160255  0.2160011786
H  -2.4394177085 -1.9048807068  0.3516211352
H  -1.8497866931 -1.4746144088 -1.0995043619
H  -0.4311223440  1.5377791245  1.0719242730
H  -1.9982095695  0.9582650698  1.5968618146
H   2.8759001062  0.2506914629  1.5524760893
H   1.8118209860  0.6694483550 -2.0748818188
H   2.4651891569 -1.4027357539  1.0470499666
H   1.3512781616 -0.4702638873  2.0483119145
H   3.0365644729  1.1828127415 -0.9279256293
H   2.9604074028 -0.5170439557 -1.4209969673
22
Image 200  Energy = -383.6449796408
C  -0.9113607496 -0.5143465629  0.4594278834
C   1.4022358926  0.1577883915 -0.0237558373
C  -1.2885381907  0.9439270851  0.7631881350
C   2.0664712070 -0.4027225822  1.2257497274
C   2.3631111884  0.3626595129 -1.1826492021
N   0.2606946566 -0.6789701910 -0.4051317447
N  -2.0827271121 -1.1246703191 -0.1798892658
O  -1.8209076764  1.5596193716 -0.3898686003
H  -2.4943355621  0.9361823481 -0.7010918522
H  -0.0079194471 -0.4479294183 -1.3560116831
H  -0.7074969652 -1.0202103567  1.4075365367
H   1.0579791557  1.1657684758  0.2161125846
H  -2.4393438505 -1.9049633354  0.3517312347
H  -1.8493029717 -1.4752293399 -1.0993702040
H  -0.4318050244  1.5376345431  1.0726187449
H  -1.9991935787  0.9578072520  1.5966267305
H   2.8762488544  0.2505770620  1.5523897841
H   1.8121037543  0.6692103695 -2.0750123608
H   2.4651899036 -1.4026297727  1.0466222032
H   1.3515975722 -0.4702499738  2.0483474132
H   3.0372735816  1.1821713069 -0.9282984328
H   2.9599323769 -0.5177838692 -1.4208067876
22
Image 201  Energy = -383.6450216839
C  -0.9114373098 -0.5142526193  0.4594630871
C   1.4023181775  0.1581931823 -0.0236816955
C  -1.2890589292  0.9438250342  0.7633339830
C   2.0666295015 -0.4026128001  1.2256621849
C   2.3632341277  0.3624003749 -1.1826912223
N   0.2606287751 -0.6783578170 -0.4051514525
N  -2.0825818990 -1.1249123139 -0.1799816829
O  -1.8209944200  1.5597452335 -0.3898126311
H  -2.4944754849  0.9365320337 -0.7013483007
H  -0.0081013271 -0.4467998201 -1.3558744671
H  -0.7074052194 -1.0200826984  1.4075589304
H   1.0583759352  1.1663170397  0.2162233422
H  -2.4392701055 -1.9050440248  0.3518410897
H  -1.8488176525 -1.4758440786 -1.0992353629
H  -0.4324857024  1.5374933577  1.0733108551
H  -2.0001721478  0.9573523648  1.5963929479
H   2.8765950925  0.2504633986  1.5523018895
H   1.8123848388  0.6689741245 -2.0751417102
H   2.4651894926 -1.4025244305  1.0461964928
H   1.3519152603 -0.4702355909  2.0483830607
H   3.0379789942  1.1815311031 -0.9286678142
H   2.9594570173 -0.5185210576 -1.4206165174
22
Image 202  Energy = -383.6450633371
C  -0.9115125706 -0.5141590320  0.4594978325
C   1.4023992402  0.1585955869 -0.0236082859
C  -1.2895766531  0.9437239955  0.7634796915
C   2.0667859922 -0.4025037101  1.2255746442
C   2.3633557030  0.3621421519 -1.1827325439
N   0.2605626972 -0.6777481123 -0.4051726402
N  -2.0824360669 -1.1251528871 -0.1800744208
O  -1.8210801309  1.5598706930 -0.3897563679
H  -2.4946125384  0.9368790389 -0.7016036972
H  -0.0082834375 -0.4456731053 -1.3557385156
H  -0.7073113442 -1.0199570378  1.4075796599
H   1.0587687626  1.1668618151  0.2163334702
H  -2.4391965456 -1.9051228614  0.3519507699
H  -1.8483307486 -1.4764586567 -1.0990999169
H  -0.4331643948  1.5373554364  1.0740005980
H  -2.0011453192  0.9569003487  1.5961604613
H   2.8769388637  0.2503504701  1.5522124368
H   1.8126642422  0.6687396216 -2.0752699076
H   2.4651879469 -1.4024197490  1.0457728180
H   1.3522312232 -0.4702207379  2.0484188592
H   3.0386807830  1.1808921935 -0.9290337701
H   2.9589813121 -0.5192554663 -1.4204261699
22
Image 203  Energy = -383.6451047275
C  -0.9115865340 -0.5140657678  0.4595321138
C   1.4024790461  0.1589956787 -0.0235355953
C  -1.2900914008  0.9436239444  0.7636251860
C   2.0669406723 -0.4023952953  1.2254871460
C   2.3634759263  0.3618849846 -1.1827731868
N   0.2604964428 -0.6771410121 -0.4051952564
N  -2.0822897097 -1.1253921158 -0.1801675092
O  -1.8211648145  1.5599957203 -0.3896997641
H  -2.4947467556  0.9372233881 -0.7018580599
H  -0.0084657712 -0.4445492627 -1.3556037870
H  -0.7072153647 -1.0198333343  1.4075988066
H   1.0591577575  1.1674027740  0.2164429355
H  -2.4391231828 -1.9051998020  0.3520602713
H  -1.8478422849 -1.4770730609 -1.0989638504
H  -0.4338410819  1.5372207052  1.0746879770
H  -2.0021131364  0.9564511300  1.5959292594
H   2.8772801757  0.2502382564  1.5521214476
H   1.8129420181  0.6685068465 -2.0753969165
H   2.4651852669 -1.4023157306  1.0453511756
H   1.3525455005 -0.4702054174  2.0484547587
H   3.0393789229  1.1802545150 -0.9293963612
H   2.9585053245 -0.5199871483 -1.4202357852
22
Image 204  Energy = -383.6451457280
C  -0.9116592287 -0.5139728113  0.4595659171
C   1.4025576093  0.1593934935 -0.0234636689
C  -1.2906031668  0.9435248473  0.7637705786
C   2.0670936034 -0.4022875471  1.2253997154
C   2.3635947118  0.3616287850 -1.1828131478
N   0.2604300251 -0.6765365158 -0.4052193167
N  -2.0821428168 -1.1256300525 -0.1802609212
O  -1.8212485361  1.5601203326 -0.3896428938
H  -2.4948781621  0.9375651081 -0.7021114043
H  -0.0086483255 -0.4434282836 -1.3554702509
H  -0.7071173415 -1.0197115192  1.4076163961
H   1.0595429853  1.1679399898  0.2165517352
H  -2.4390500389 -1.9052748102  0.3521695830
H  -1.8473522857 -1.4776872737 -1.0988271367
H  -0.4345157667  1.5370890360  1.0753729759
H  -2.0030756618  0.9560046666  1.5956993304
H   2.8776190404  0.2501267392  1.5520289566
H   1.8132181918  0.6682757872 -2.0755227494
H   2.4651814697 -1.4022123988  1.0449315560
H   1.3528580884 -0.4701896226  2.0484907543
H   3.0400735214  1.1796181422 -0.9297555955
H   2.9580291011 -0.5207160973 -1.4200454074
22
Image 205  Energy = -383.6451864481
C  -0.9117306608 -0.5138801928  0.4595992930
C   1.4026349896  0.1597889782 -0.0233924506
C  -1.2911119865  0.9434266719  0.7639157621
C   2.0672448525 -0.4021804923  1.2253122422
C   2.3637122427  0.3613736029 -1.1828524148
N   0.2603633992 -0.6759345725 -0.4052446988
N  -2.0819953962 -1.1258666566 -0.1803546701
O  -1.8213313303  1.5602445152 -0.3895857335
H  -2.4950067787  0.9379042291 -0.7023637412
H  -0.0088311141 -0.4423101412 -1.3553379414
H  -0.7070173074 -1.0195915415  1.4076324558
H   1.0599244877  1.1684735545  0.2166598819
H  -2.4389771511 -1.9053479115  0.3522787276
H  -1.8468607830 -1.4783013088 -1.0986897856
H  -0.4351884146  1.5369603664  1.0760556164
H  -2.0040329352  0.9555608846  1.5954706587
H   2.8779554922  0.2500159177  1.5519349988
H   1.8134927527  0.6680464656 -2.0756474674
H   2.4651765359 -1.4021097033  1.0445139631
H   1.3531689363 -0.4701733606  2.0485268964
H   3.0407645287  1.1789830021 -0.9301115287
H   2.9575526580 -0.5214423113 -1.4198550575
22
Image 206  Energy = -383.6452268308
C  -0.9118008978 -0.5137878914  0.4596321942
C   1.4027111901  0.1601821963 -0.0233220207
C  -1.2916179372  0.9433294020  0.7640608098
C   2.0673944082 -0.4020741503  1.2252248414
C   2.3638284382  0.3611193434 -1.1828910292
N   0.2602966296 -0.6753351688 -0.4052714669
N  -2.0818474410 -1.1261019318 -0.1804487307
O  -1.8214132104  1.5603682664 -0.3895283083
H  -2.4951326314  0.9382407694 -0.7026150784
H  -0.0090141203 -0.4411948369 -1.3552067846
H  -0.7069153079 -1.0194733481  1.4076470337
H   1.0603023575  1.1690034900  0.2167673667
H  -2.4389045512 -1.9054190972  0.3523877156
H  -1.8463677959 -1.4789151505 -1.0985517777
H  -0.4358590464  1.5368345779  1.0767358831
H  -2.0049849808  0.9551197395  1.5952432223
H   2.8782895689  0.2499057941  1.5518396077
H   1.8137657368  0.6678188679 -2.0757710546
H   2.4651704617 -1.4020076443  1.0440983872
H   1.3534780937 -0.4701566356  2.0485631228
H   3.0414520414  1.1783491750 -0.9304641673
H   2.9570760121 -0.5221657714 -1.4196647594
22
Image 207  Energy = -383.6452668982
C  -0.9118699281 -0.5136959145  0.4596646671
C   1.4027862367  0.1605731384 -0.0232523119
C  -1.2921210081  0.9432330278  0.7642056734
C   2.0675421963 -0.4019684598  1.2251374582
C   2.3639433747  0.3608661046 -1.1829290055
N   0.2602296872 -0.6747382840 -0.4052995160
N  -2.0816989791 -1.1263358791 -0.1805431235
O  -1.8214942220  1.5604915733 -0.3894706214
H  -2.4952557508  0.9385747568 -0.7028654421
H  -0.0091973589 -0.4400823468 -1.3550768197
H  -0.7068113885 -1.0193568875  1.4076601609
H   1.0606766622  1.1695298702  0.2168741911
H  -2.4388322830 -1.9054883918  0.3524965720
H  -1.8458733456 -1.4795288018 -1.0984131199
H  -0.4365276375  1.5367115920  1.0774137992
H  -2.0059318418  0.9546811679  1.5950170123
H   2.8786213050  0.2497963538  1.5517428157
H   1.8140371567  0.6675929848 -2.0758935209
H   2.4651632883 -1.4019062666  1.0436848167
H   1.3537855723 -0.4701394454  2.0485994355
H   3.0421360643  1.1777166130 -0.9308135620
H   2.9565992182 -0.5228865091 -1.4194745517
22
Image 208  Energy = -383.6453066457
C  -0.9119377520 -0.5136042272  0.4596967166
C   1.4028601428  0.1609618989 -0.0231832916
C  -1.2926211886  0.9431375020  0.7643503005
C   2.0676883470 -0.4018633950  1.2250501070
C   2.3640570727  0.3606138310 -1.1829663316
N   0.2601625661 -0.6741438849 -0.4053288868
N  -2.0815500774 -1.1265685762 -0.1806378167
O  -1.8215743061  1.5606144958 -0.3894126156
H  -2.4953762353  0.9389061493 -0.7031148737
H  -0.0093808217 -0.4389726731 -1.3549479703
H  -0.7067055805 -1.0192421112  1.4076718818
H   1.0610474786  1.1700526944  0.2169803379
H  -2.4387603441 -1.9055557295  0.3526052709
H  -1.8453774554 -1.4801422651 -1.0982738276
H  -0.4371942008  1.5365913264  1.0780893480
H  -2.0068736045  0.9542451281  1.5947920539
H   2.8789506665  0.2496875498  1.5516446319
H   1.8143070322  0.6673688234 -2.0760149045
H   2.4651550176 -1.4018055692  1.0432732441
H   1.3540913476 -0.4701217839  2.0486358406
H   3.0428166167  1.1770853169 -0.9311597412
H   2.9561222970 -0.5236045052 -1.4192844665
22
Image 209  Energy = -383.6453461042
C  -0.9120044466 -0.5135128762  0.4597283307
C   1.4029329527  0.1613484481 -0.0231150085
C  -1.2931186703  0.9430427958  0.7644947402
C   2.0678328277 -0.4017590300  1.2249627898
C   2.3641694990  0.3603625194 -1.1830030915
N   0.2600952789 -0.6735519535 -0.4053595627
N  -2.0814006003 -1.1267999227 -0.1807328617
O  -1.8216535429  1.5607369769 -0.3893543353
H  -2.4954940402  0.9392350207 -0.7033633461
H  -0.0095645002 -0.4378658054 -1.3548202105
H  -0.7065979423 -1.0191289606  1.4076821913
H   1.0614148781  1.1705720375  0.2170858100
H  -2.4386888042 -1.9056211969  0.3527138732
H  -1.8448801680 -1.4807555242 -1.0981338393
H  -0.4378586584  1.5364737289  1.0787625490
H  -2.0078102563  0.9538115644  1.5945682792
H   2.8792777314  0.2495794195  1.5515451039
H   1.8145754205  0.6671463642 -2.0761351480
H   2.4651456213 -1.4017055023  1.0428636708
H   1.3543954389 -0.4701036645  2.0486723196
H   3.0434937371  1.1764553116 -0.9315027294
H   2.9556452634 -0.5243197561 -1.4190945173
22
Image 210  Energy = -383.6453852296
C  -0.9120699859 -0.5134218483  0.4597594959
C   1.4030046435  0.1617328160 -0.0230474495
C  -1.2936132925  0.9429489869  0.7646390217
C   2.0679756629 -0.4016553038  1.2248755185
C   2.3642806786  0.3601121600 -1.1830392351
N   0.2600278398 -0.6729624414 -0.4053915514
N  -2.0812506746 -1.1270300064 -0.1808282079
O  -1.8217319850  1.5608590123 -0.3892958023
H  -2.4956092149  0.9395613920 -0.7036108982
H  -0.0097483864 -0.4367617389 -1.3546934994
H  -0.7064884952 -1.0190174116  1.4076911940
H   1.0617789212  1.1710879427  0.2171906039
H  -2.4386176617 -1.9056847225  0.3528223560
H  -1.8443814860 -1.4813685864 -1.0979932068
H  -0.4385211088  1.5363586440  1.0794333866
H  -2.0087418671  0.9533804273  1.5943456973
H   2.8796024899  0.2494719149  1.5514442554
H   1.8148422979  0.6669256226 -2.0762543322
H   2.4651351425 -1.4016061105  1.0424560850
H   1.3546978504 -0.4700850732  2.0487088686
H   3.0441674794  1.1758266108 -0.9318425524
H   2.9551681717 -0.5250322920 -1.4189047407
22
Image 211  Energy = -383.6454241054
C  -0.9121343897 -0.5133310928  0.4597902747
C   1.4030753235  0.1621150049 -0.0229806163
C  -1.2941052017  0.9428559106  0.7647830536
C   2.0681168830 -0.4015522304  1.2247882612
C   2.3643907014  0.3598627821 -1.1830747704
N   0.2599602185 -0.6723753615 -0.4054247224
N  -2.0811003206 -1.1272588390 -0.1809238291
O  -1.8218095429  1.5609806735 -0.3892369525
H  -2.4957218523  0.9398852120 -0.7038575628
H  -0.0099324961 -0.4356604389 -1.3545679081
H  -0.7063772831 -1.0189073942  1.4076988545
H   1.0621396472  1.1716004758  0.2172947326
H  -2.4385469406 -1.9057463041  0.3529307049
H  -1.8438814371 -1.4819814695 -1.0978519274
H  -0.4391814547  1.5362460751  1.0801018811
H  -2.0096684886  0.9529516757  1.5941243169
H   2.8799249784  0.2493650428  1.5513421127
H   1.8151076867  0.6667065890 -2.0763724713
H   2.4651235664 -1.4015073695  1.0420504857
H   1.3549985640 -0.4700660230  2.0487455059
H   3.0448378291  1.1751991766 -0.9321792511
H   2.9546910291 -0.5257420994 -1.4187151652
22
Image 212  Energy = -383.6454626175
C  -0.9121976910 -0.5132406285  0.4598205893
C   1.4031448781  0.1624950475 -0.0229144846
C  -1.2945943762  0.9427636508  0.7649268833
C   2.0682566248 -0.4014497914  1.2247010210
C   2.3644995513  0.3596143696 -1.1831097260
N   0.2598924758 -0.6717906653 -0.4054591189
N  -2.0809495195 -1.1274863869 -0.1810197180
O  -1.8218863251  1.5611018851 -0.3891778343
H  -2.4958319298  0.9402065590 -0.7041033384
H  -0.0101168245 -0.4345619055 -1.3544433675
H  -0.7062643402 -1.0187989029  1.4077052724
H   1.0624971496  1.1721096476  0.2173981823
H  -2.4384766900 -1.9058059657  0.3530389675
H  -1.8433800294 -1.4825941623 -1.0977100207
H  -0.4398397414  1.5361358919  1.0807680330
H  -2.0105901470  0.9525252638  1.5939041133
H   2.8802451622  0.2492587574  1.5512386900
H   1.8153716010  0.6664892645 -2.0764895688
H   2.4651108772 -1.4014092561  1.0416468641
H   1.3552975631 -0.4700465140  2.0487822434
H   3.0455048565  1.1745730473 -0.9325128518
H   2.9542138937 -0.5264492106 -1.4185258244
22
Image 213  Energy = -383.6455008887
C  -0.9122599214 -0.5131504568  0.4598505317
C   1.4032134759  0.1628729659 -0.0228490763
C  -1.2950807968  0.9426721299  0.7650704535
C   2.0683946713 -0.4013479903  1.2246138957
C   2.3646072016  0.3593669212 -1.1831441208
N   0.2598245450 -0.6712083323 -0.4054947199
N  -2.0807982319 -1.1277127153 -0.1811159414
O  -1.8219623698  1.5612226612 -0.3891184714
H  -2.4959394526  0.9405254617 -0.7043482209
H  -0.0103013601 -0.4334661354 -1.3543198460
H  -0.7061497117 -1.0186918661  1.4077104144
H   1.0628514722  1.1726155232  0.2175009508
H  -2.4384069140 -1.9058636779  0.3531471150
H  -1.8428773320 -1.4832066493 -1.0975673937
H  -0.4404959587  1.5360280377  1.0814318472
H  -2.0115069188  0.9521011436  1.5936851161
H   2.8805631220  0.2491530810  1.5511340272
H   1.8156340959  0.6662736274 -2.0766055957
H   2.4650971192 -1.4013118113  1.0412452029
H   1.3555949544 -0.4700265304  2.0488189584
H   3.0461685661  1.1739481996 -0.9328433874
H   2.9537367636 -0.5271535913 -1.4183367329
22
Image 214  Energy = -383.6455388576
C  -0.9123210419 -0.5130605838  0.4598800736
C   1.4032809958  0.1632487739 -0.0227843302
C  -1.2955646638  0.9425813581  0.7652138420
C   2.0685311217 -0.4012468316  1.2245267839
C   2.3647138037  0.3591203990 -1.1831779577
N   0.2597564884 -0.6706283415 -0.4055315087
N  -2.0806465560 -1.1279378021 -0.1812124352
O  -1.8220376155  1.5613430276 -0.3890588025
H  -2.4960445032  0.9408418905 -0.7045922508
H  -0.0104861068 -0.4323731127 -1.3541973382
H  -0.7060334291 -1.0185862456  1.4077143291
H   1.0632026863  1.1731181294  0.2176030380
H  -2.4383376519 -1.9059194604  0.3532551772
H  -1.8423733244 -1.4838189488 -1.0974241217
H  -0.4411500700  1.5359224583  1.0820933277
H  -2.0124187578  0.9516792754  1.5934672155
H   2.8808789140  0.2490480295  1.5510281692
H   1.8158951386  0.6660596974 -2.0767206306
H   2.4650822914 -1.4012150383  1.0408455035
H   1.3558906629 -0.4700060820  2.0488557208
H   3.0468289832  1.1733246368 -0.9331708840
H   2.9532596535 -0.5278552340 -1.4181479137
22
Image 215  Energy = -383.6455765506
C  -0.9123811325 -0.5129710150  0.4599091878
C   1.4033475583  0.1636225054 -0.0227202931
C  -1.2960458355  0.9424912925  0.7653569692
C   2.0686660149 -0.4011462931  1.2244397641
C   2.3648191671  0.3588748186 -1.1832113187
N   0.2596882646 -0.6700506524 -0.4055694460
N  -2.0804944271 -1.1281616246 -0.1813092302
O  -1.8221121028  1.5614629959 -0.3889988551
H  -2.4961471153  0.9411558621 -0.7048354465
H  -0.0106710519 -0.4312828318 -1.3540758131
H  -0.7059155212 -1.0184820133  1.4077170577
H   1.0635508385  1.1736175105  0.2177044409
H  -2.4382689452 -1.9059733379  0.3533631815
H  -1.8418680434 -1.4844310519 -1.0972801772
H  -0.4418020884  1.5358190803  1.0827524755
H  -2.0133258004  0.9512596168  1.5932505002
H   2.8811924838  0.2489435386  1.5509211100
H   1.8161548163  0.6658474483 -2.0768345924
H   2.4650663853 -1.4011189072  1.0404477589
H   1.3561847336 -0.4699851715  2.0488924952
H   3.0474861888  1.1727024156 -0.9334953630
H   2.9527826319 -0.5285541919 -1.4179593986
22
Image 216  Energy = -383.6456139587
C  -0.9124401680 -0.5128817596  0.4599379150
C   1.4034130985  0.1639941930 -0.0226569166
C  -1.2965244343  0.9424019290  0.7654998644
C   2.0687993618 -0.4010463783  1.2243527609
C   2.3649235866  0.3586301999 -1.1832441126
N   0.2596199052 -0.6694752795 -0.4056084940
N  -2.0803418888 -1.1283842164 -0.1814063051
O  -1.8221859112  1.5615825175 -0.3889386700
H  -2.4962472445  0.9414674509 -0.7050777815
H  -0.0108562140 -0.4301952697 -1.3539553017
H  -0.7057960262 -1.0183791224  1.4077186208
H   1.0638960007  1.1741136965  0.2178051627
H  -2.4382007979 -1.9060252786  0.3534711087
H  -1.8413615186 -1.4850429742 -1.0971355688
H  -0.4424520011  1.5357178377  1.0834093044
H  -2.0142280387  0.9508421309  1.5930349242
H   2.8815039058  0.2488396341  1.5508129047
H   1.8164130659  0.6656369040 -2.0769476042
H   2.4650494196 -1.4010234412  1.0400519649
H   1.3564771312 -0.4699637977  2.0489293142
H   3.0481401146  1.1720814357 -0.9338168791
H   2.9523056727 -0.5292504176 -1.4177712037
22
Image 217  Energy = -383.6456510690
C  -0.9124982330 -0.5127927950  0.4599662923
C   1.4034777454  0.1643638264 -0.0225942590
C  -1.2970004123  0.9423132824  0.7656425194
C   2.0689312182 -0.4009470519  1.2242658132
C   2.3650268502  0.3583864974 -1.1832763898
N   0.2595513820 -0.6689021764 -0.4056486891
N  -2.0801889697 -1.1286056195 -0.1815035736
O  -1.8222589879  1.5617016461 -0.3888781978
H  -2.4963449958  0.9417766104 -0.7053193075
H  -0.0110415700 -0.4291104292 -1.3538357329
H  -0.7056749784 -1.0182775467  1.4077190325
H   1.0642382085  1.1746067582  0.2179052024
H  -2.4381332244 -1.9060752470  0.3535789444
H  -1.8408537481 -1.4856547304 -1.0969903466
H  -0.4430998447  1.5356186448  1.0840638104
H  -2.0151254964  0.9504267609  1.5928204565
H   2.8818131521  0.2487362724  1.5507035519
H   1.8166699523  0.6654280354 -2.0770596141
H   2.4650313995 -1.4009286387  1.0396581031
H   1.3567678534 -0.4699419598  2.0489661837
H   3.0487908901  1.1714617930 -0.9341354331
H   2.9518288301 -0.5299439385 -1.4175833580
22
Image 218  Energy = -383.6456879208
C  -0.9125552614 -0.5127041092  0.4599942327
C   1.4035414335  0.1647314362 -0.0225322911
C  -1.2974738709  0.9422253105  0.7657849153
C   2.0690615290 -0.4008483819  1.2241789168
C   2.3651289717  0.3581437471 -1.1833081074
N   0.2594827363 -0.6683313237 -0.4056900072
N  -2.0800356234 -1.1288258270 -0.1816012120
O  -1.8223313736  1.5618203385 -0.3888174486
H  -2.4964403619  0.9420833918 -0.7055600244
H  -0.0112271163 -0.4280283039 -1.3537170751
H  -0.7055524023 -1.0181772560  1.4077183596
H   1.0645775367  1.1750967210  0.2180045552
H  -2.4380662712 -1.9061232987  0.3536867362
H  -1.8403447967 -1.4862662736 -1.0968443789
H  -0.4437455670  1.5355214646  1.0847160081
H  -2.0160182517  0.9500134912  1.5926071327
H   2.8821202950  0.2486334815  1.5505931045
H   1.8169254785  0.6652208616 -2.0771706829
H   2.4650123179 -1.4008344723  1.0392661827
H   1.3570569414 -0.4699196577  2.0490030520
H   3.0494385124  1.1708434657 -0.9344510605
H   2.9513521652 -0.5306348114 -1.4173958983
22
Image 219  Energy = -383.6457245185
C  -0.9126113137 -0.5126156765  0.4600218101
C   1.4036042246  0.1650970076 -0.0224709752
C  -1.2979447200  0.9421379829  0.7659270372
C   2.0691902536 -0.4007502805  1.2240921238
C   2.3652301231  0.3579019145 -1.1833394016
N   0.2594139374 -0.6677626975 -0.4057323627
N  -2.0798818765 -1.1290448273 -0.1816991232
O  -1.8224030845  1.5619386262 -0.3887564287
H  -2.4965333830  0.9423877964 -0.7057999456
H  -0.0114128619 -0.4269488700 -1.3535993655
H  -0.7054283382 -1.0180782150  1.4077165908
H   1.0649140122  1.1755836275  0.2181032269
H  -2.4379999636 -1.9061694296  0.3537944812
H  -1.8398346645 -1.4868776388 -1.0966977399
H  -0.4443892253  1.5354262033  1.0853658826
H  -2.0169063477  0.9496022743  1.5923949402
H   2.8824253274  0.2485312268  1.5504815662
H   1.8171796650  0.6650153561 -2.0772807630
H   2.4649922072 -1.4007409875  1.0388761791
H   1.3573444317 -0.4698968868  2.0490398792
H   3.0500829926  1.1702264356 -0.9347637898
H   2.9508756243 -0.5313229472 -1.4172088118
22
Image 220  Energy = -383.6457608139
C  -0.9126663811 -0.5125275614  0.4600490310
C   1.4036660549  0.1654606325 -0.0224103442
C  -1.2984131475  0.9420513041  0.7660689459
C   2.0693175278 -0.4006528432  1.2240053743
C   2.3653302695  0.3576610346 -1.1833702381
N   0.2593450333 -0.6671963012 -0.4057757967
N  -2.0797277978 -1.1292626561 -0.1817972507
O  -1.8224741206  1.5620565122 -0.3886951510
H  -2.4966240940  0.9426898330 -0.7060390927
H  -0.0115987916 -0.4258721248 -1.3534825661
H  -0.7053028165 -1.0179803705  1.4077137478
H   1.0652477239  1.1760674891  0.2182012108
H  -2.4379343086 -1.9062136026  0.3539021743
H  -1.8393233509 -1.4874888348 -1.0965504763
H  -0.4450307450  1.5353328388  1.0860134664
H  -2.0177897757  0.9491930774  1.5921838358
H   2.8827282787  0.2484295143  1.5503689763
H   1.8174325412  0.6648115200 -2.0773898666
H   2.4649710298 -1.4006481118  1.0384881065
H   1.3576302748 -0.4698736573  2.0490767259
H   3.0507243509  1.1696107069 -0.9350736601
H   2.9503992653 -0.5320084044 -1.4170221429
22
Image 221  Energy = -383.6457968684
C  -0.9127205005 -0.5124397248  0.4600758764
C   1.4037270482  0.1658222697 -0.0223503450
C  -1.2988790637  0.9419652281  0.7662106184
C   2.0694433554 -0.4005559272  1.2239187018
C   2.3654294123  0.3574210910 -1.1834006283
N   0.2592759517 -0.6666320698 -0.4058203189
N  -2.0795733275 -1.1294792841 -0.1818956813
O  -1.8225445316  1.5621739942 -0.3886336288
H  -2.4967125052  0.9429895348 -0.7062774670
H  -0.0117849012 -0.4247980719 -1.3533666082
H  -0.7051758703 -1.0178837163  1.4077098670
H   1.0655786917  1.1765483727  0.2182985098
H  -2.4378693536 -1.9062558762  0.3540098483
H  -1.8388109022 -1.4880998525 -1.0964025193
H  -0.4456701754  1.5352413049  1.0866587590
H  -2.0186685746  0.9487858618  1.5919738075
H   2.8830291167  0.2483282920  1.5502553290
H   1.8176841242  0.6646093517 -2.0774980109
H   2.4649488214 -1.4005559160  1.0381019382
H   1.3579144858 -0.4698499675  2.0491135614
H   3.0513626132  1.1689962732 -0.9353806968
H   2.9499231056 -0.5326911725 -1.4168359030
22
Image 222  Energy = -383.6458326601
C  -0.9127736490 -0.5123521615  0.4601023211
C   1.4037871044  0.1661819355 -0.0222910426
C  -1.2993425538  0.9418797543  0.7663519835
C   2.0695677193 -0.4004596488  1.2238320871
C   2.3655275504  0.3571820246 -1.1834305296
N   0.2592067861 -0.6660699977 -0.4058658077
N  -2.0794185090 -1.1296947723 -0.1819943528
O  -1.8226143072  1.5622910483 -0.3885718217
H  -2.4967986318  0.9432869198 -0.7065150674
H  -0.0119711965 -0.4237266766 -1.3532515652
H  -0.7050475296 -1.0177882172  1.4077049884
H   1.0659069865  1.1770263045  0.2183951255
H  -2.4378050974 -1.9062961942  0.3541174626
H  -1.8382973385 -1.4887107034 -1.0962538794
H  -0.4463074846  1.5351515538  1.0873017667
H  -2.0195428180  0.9483806048  1.5917648878
H   2.8833279183  0.2482275933  1.5501406790
H   1.8179343917  0.6644088609 -2.0776052720
H   2.4649255713 -1.4004643470  1.0377176807
H   1.3581970703 -0.4698258153  2.0491503947
H   3.0519978663  1.1683831960 -0.9356849112
H   2.9494471702 -0.5333712661 -1.4166501182
22
Image 223  Energy = -383.6458681932
C  -0.9128258928 -0.5122648770  0.4601284662
C   1.4038463273  0.1665396687 -0.0222324214
C  -1.2998035710  0.9417948726  0.7664931123
C   2.0696906933 -0.4003639495  1.2237455127
C   2.3656247141  0.3569439302 -1.1834599606
N   0.2591375024 -0.6655100734 -0.4059123068
N  -2.0792633603 -1.1299091163 -0.1820932949
O  -1.8226834821  1.5624077020 -0.3885097675
H  -2.4968825190  0.9435819950 -0.7067519266
H  -0.0121576733 -0.4226579380 -1.3531373987
H  -0.7049178204 -1.0176938369  1.4076991027
H   1.0662326373  1.1775013345  0.2184910607
H  -2.4377415651 -1.9063345717  0.3542250505
H  -1.8377826735 -1.4893213841 -1.0961045641
H  -0.4469427112  1.5350635069  1.0879424899
H  -2.0204125079  0.9479772576  1.5915570261
H   2.8836246747  0.2481273859  1.5500250356
H   1.8181834006  0.6642100268 -2.0777115913
H   2.4649012953 -1.4003734300  1.0373353217
H   1.3584780028 -0.4698011986  2.0491872307
H   3.0526300583  1.1677713915 -0.9359863573
H   2.9489714903 -0.5340487008 -1.4164648103
22
Image 224  Energy = -383.6459034898
C  -0.9128772368 -0.5121778874  0.4601542198
C   1.4039046904  0.1668955121 -0.0221744234
C  -1.3002621162  0.9417106116  0.7666339516
C   2.0698121891 -0.4002688534  1.2236590374
C   2.3657209618  0.3567066996 -1.1834889926
N   0.2590680666 -0.6649522925 -0.4059598019
N  -2.0791078313 -1.1301222784 -0.1821924841
O  -1.8227520851  1.5625239073 -0.3884474601
H  -2.4969641571  0.9438748045 -0.7069880341
H  -0.0123443239 -0.4215918505 -1.3530240710
H  -0.7047867721 -1.0176005471  1.4076922478
H   1.0665557109  1.1779734713  0.2185862991
H  -2.4376787996 -1.9063710442  0.3543326189
H  -1.8372669368 -1.4899319142 -1.0959545774
H  -0.4475758511  1.5349771134  1.0885809302
H  -2.0212777351  0.9475757921  1.5913502756
H   2.8839194404  0.2480276799  1.5499084359
H   1.8184311526  0.6640128503 -2.0778169987
H   2.4648760018 -1.4002831596  1.0369548534
H   1.3587573468 -0.4697761157  2.0492240108
H   3.0532592651  1.1671609257 -0.9362850442
H   2.9484960398 -0.5347234294 -1.4162799838
22
Image 225  Energy = -383.6459385192
C  -0.9129276199 -0.5120911669  0.4601796097
C   1.4039622873  0.1672494276 -0.0221170885
C  -1.3007183697  0.9416269242  0.7667745363
C   2.0699322199 -0.4001743082  1.2235726435
C   2.3658162544  0.3564704224 -1.1835176244
N   0.2589985350 -0.6643966208 -0.4060082663
N  -2.0789520418 -1.1303343480 -0.1822919274
O  -1.8228200764  1.5626397121 -0.3883848683
H  -2.4970436063  0.9441653267 -0.7072234120
H  -0.0125311537 -0.4205284044 -1.3529115836
H  -0.7046544099 -1.0175083330  1.4076844587
H   1.0668762287  1.1784427751  0.2186808705
H  -2.4376168027 -1.9064055689  0.3544401707
H  -1.8367501318 -1.4905422822 -1.0958039321
H  -0.4482068565  1.5348923531  1.0892171015
H  -2.0221384832  0.9471761883  1.5911445669
H   2.8842122255  0.2479284628  1.5497908954
H   1.8186776809  0.6638173230 -2.0779214863
H   2.4648497007 -1.4001935547  1.0365762566
H   1.3590350853 -0.4697505718  2.0492607619
H   3.0538854727  1.1665517517 -0.9365810057
H   2.9480208822 -0.5353955122 -1.4160956674
22
Image 226  Energy = -383.6459733120
C  -0.9129771673 -0.5120047292  0.4602046672
C   1.4040190375  0.1676014605 -0.0220603763
C  -1.3011722251  0.9415437686  0.7669148549
C   2.0700509335 -0.4000803794  1.2234863125
C   2.3659105911  0.3562350373 -1.1835458697
N   0.2589289026 -0.6638430186 -0.4060577016
N  -2.0787958959 -1.1305452904 -0.1823915997
O  -1.8228874684  1.5627551450 -0.3883220128
H  -2.4971209206  0.9444535578 -0.7074580926
H  -0.0127181476 -0.4194675931 -1.3527999109
H  -0.7045207700 -1.0174171492  1.4076757259
H   1.0671942616  1.1789092557  0.2187747469
H  -2.4375555924 -1.9064381513  0.3545476898
H  -1.8362322983 -1.4911525000 -1.0956525955
H  -0.4488357782  1.5348091514  1.0898510141
H  -2.0229947960  0.9467784098  1.5909399172
H   2.8845030170  0.2478297089  1.5496724258
H   1.8189229911  0.6636234406 -2.0780250921
H   2.4648223588 -1.4001045457  1.0361995502
H   1.3593111953 -0.4697245702  2.0492974863
H   3.0545087653  1.1659439237 -0.9368742524
H   2.9475460275 -0.5360649374 -1.4159118787
22
Image 227  Energy = -383.6460078331
C  -0.9130258002 -0.5119185745  0.4602293476
C   1.4040749725  0.1679516472 -0.0220043097
C  -1.3016237531  0.9414611446  0.7670549207
C   2.0701682234 -0.3999869203  1.2234000983
C   2.3660041141  0.3560006194 -1.1835736493
N   0.2588591577 -0.6632915022 -0.4061080688
N  -2.0786394428 -1.1307551204 -0.1824915273
O  -1.8229543230  1.5628701744 -0.3882589346
H  -2.4971960763  0.9447395542 -0.7076920567
H  -0.0129053116 -0.4184094040 -1.3526890434
H  -0.7043858766 -1.0173269831  1.4076660851
H   1.0675098512  1.1793729400  0.2188679402
H  -2.4374952050 -1.9064688106  0.3546552091
H  -1.8357134430 -1.4917625614 -1.0955005753
H  -0.4494625798  1.5347274705  1.0904826729
H  -2.0238467368  0.9463824369  1.5907363417
H   2.8847918318  0.2477313925  1.5495530485
H   1.8191670537  0.6634312122 -2.0781278567
H   2.4647940440 -1.4000162508  1.0358246958
H   1.3595857231 -0.4696981057  2.0493341525
H   3.0551290976  1.1653373615 -0.9371648404
H   2.9470715006 -0.5367317257 -1.4157286410
22
Image 228  Energy = -383.6460421221
C  -0.9130735778 -0.5118326736  0.4602536988
C   1.4041301569  0.1682999862 -0.0219488810
C  -1.3020729605  0.9413790371  0.7671946681
C   2.0702841700 -0.3998941272  1.2233138927
C   2.3660966458  0.3557670753 -1.1836010705
N   0.2587892632 -0.6627420384 -0.4061593832
N  -2.0784826654 -1.1309638757 -0.1825917232
O  -1.8230206132  1.5629848059 -0.3881955712
H  -2.4972691240  0.9450233091 -0.7079253297
H  -0.0130926265 -0.4173538323 -1.3525789519
H  -0.7042497524 -1.0172378233  1.4076555718
H   1.0678230278  1.1798339032  0.2189604553
H  -2.4374356401 -1.9064975228  0.3547627041
H  -1.8351936091 -1.4923724744 -1.0953478462
H  -0.4500872695  1.5346472793  1.0911120898
H  -2.0246943129  0.9459882210  1.5905338043
H   2.8850787359  0.2476335582  1.5494328116
H   1.8194099647  0.6632406170 -2.0782297114
H   2.4647646867 -1.3999285223  1.0354517256
H   1.3598586386 -0.4696711884  2.0493708012
H   3.0557465628  1.1647321485 -0.9374527801
H   2.9465973213 -0.5373958672 -1.4155459667
22
Image 229  Energy = -383.6460761877
C  -0.9131205257 -0.5117470564  0.4602777232
C   1.4041846140  0.1686464805 -0.0218941209
C  -1.3025198509  0.9412974548  0.7673341371
C   2.0703987148 -0.3998018592  1.2232278003
C   2.3661883519  0.3555344325 -1.1836280917
N   0.2587192637 -0.6621946137 -0.4062116120
N  -2.0783255886 -1.1311714842 -0.1826921407
O  -1.8230864238  1.5630989824 -0.3881319743
H  -2.4973400200  0.9453048922 -0.7081578882
H  -0.0132800964 -0.4163008685 -1.3524696339
H  -0.7041124212 -1.0171496256  1.4076441734
H   1.0681338278  1.1802921674  0.2190523019
H  -2.4373769456 -1.9065243385  0.3548702175
H  -1.8346727855 -1.4929822652 -1.0951944762
H  -0.4507098710  1.5345685067  1.0917392654
H  -2.0255375813  0.9455957533  1.5903323162
H   2.8853637245  0.2475361636  1.5493117192
H   1.8196516796  0.6630516647 -2.0783307284
H   2.4647343593 -1.3998414715  1.0350805928
H   1.3601299704 -0.4696438013  2.0494073897
H   3.0563611418  1.1641282485 -0.9377380954
H   2.9461234849 -0.5380573680 -1.4153638666
22
Image 230  Energy = -383.6461099773
C  -0.9131666509 -0.5116616828  0.4603013920
C   1.4042382503  0.1689911736 -0.0218399553
C  -1.3029645055  0.9412163698  0.7674733548
C   2.0705118800 -0.3997101207  1.2231418038
C   2.3662792705  0.3553027063 -1.1836547356
N   0.2586492398 -0.6616491913 -0.4062647352
N  -2.0781682435 -1.1313780586 -0.1827927971
O  -1.8231516682  1.5632127893 -0.3880681110
H  -2.4974088757  0.9455842425 -0.7083897829
H  -0.0134677198 -0.4152504980 -1.3523610890
H  -0.7039739080 -1.0170623898  1.4076319504
H   1.0684423239  1.1807477122  0.2191434575
H  -2.4373191129 -1.9065491940  0.3549777172
H  -1.8341510062 -1.4935919087 -1.0950404032
H  -0.4513303846  1.5344911148  1.0923642079
H  -2.0263765302  0.9452050021  1.5901318429
H   2.8856468044  0.2474392019  1.5491897908
H   1.8198922182  0.6628643449 -2.0784309173
H   2.4647030437 -1.3997550827  1.0347113092
H   1.3603997444 -0.4696159548  2.0494438892
H   3.0569728479  1.1635256323 -0.9380208231
H   2.9456500058 -0.5387162141 -1.4151823573
22
Image 231  Energy = -383.6461435610
C  -0.9132119377 -0.5115766171  0.4603247472
C   1.4042912108  0.1693340807 -0.0217864526
C  -1.3034069248  0.9411357762  0.7676123117
C   2.0706238221 -0.3996189916  1.2230558930
C   2.3663692291  0.3550718442 -1.1836809898
N   0.2585790712 -0.6611057911 -0.4063186796
N  -2.0780105830 -1.1315835383 -0.1828937217
O  -1.8232163918  1.5633262215 -0.3880039992
H  -2.4974756908  0.9458613934 -0.7086210131
H  -0.0136555068 -0.4142027021 -1.3522533566
H  -0.7038342462 -1.0169760613  1.4076188677
H   1.0687485268  1.1812006144  0.2192339361
H  -2.4372621842 -1.9065721523  0.3550852379
H  -1.8336282986 -1.4942014255 -1.0948856408
H  -0.4519487886  1.5344150810  1.0929869279
H  -2.0272112167  0.9448159353  1.5899323890
H   2.8859279626  0.2473426464  1.5490670334
H   1.8201316112  0.6626786501 -2.0785302655
H   2.4646706978 -1.3996692495  1.0343438744
H   1.3606679208 -0.4695876518  2.0494803429
H   3.0575817956  1.1629243996 -0.9383009642
H   2.9451769452 -0.5393724673 -1.4150014696
22
Image 232  Energy = -383.6461769387
C  -0.9132564434 -0.5114918222  0.4603477677
C   1.4043434140  0.1696751832 -0.0217335528
C  -1.3038470317  0.9410556827  0.7677509735
C   2.0707343302 -0.3995283704  1.2229700953
C   2.3664584143  0.3548419476 -1.1837069418
N   0.2585088150 -0.6605643381 -0.4063735196
N  -2.0778526220 -1.1317878990 -0.1829948304
O  -1.8232806271  1.5634392514 -0.3879396289
H  -2.4975404732  0.9461363737 -0.7088515830
H  -0.0138434308 -0.4131574948 -1.3521463275
H  -0.7036934538 -1.0168906418  1.4076049781
H   1.0690524842  1.1816508963  0.2193237445
H  -2.4372061747 -1.9065932054  0.3551927848
H  -1.8331046611 -1.4948108454 -1.0947302569
H  -0.4525651487  1.5343403158  1.0936074227
H  -2.0280416900  0.9444285342  1.5897339611
H   2.8862073036  0.2472465328  1.5489434960
H   1.8203698847  0.6624945751 -2.0786287591
H   2.4646374058 -1.3995841142  1.0339782579
H   1.3609345402 -0.4695588880  2.0495167097
H   3.0581878918  1.1623244281 -0.9385785772
H   2.9447042967 -0.5400261066 -1.4148212049
22
Image 233  Energy = -383.6462100624
C  -0.9133001370 -0.5114072669  0.4603704122
C   1.4043949072  0.1700145311 -0.0216812890
C  -1.3042849711  0.9409760284  0.7678893339
C   2.0708436266 -0.3994382758  1.2228843312
C   2.3665467815  0.3546128848 -1.1837324998
N   0.2584384488 -0.6600248537 -0.4064292659
N  -2.0776943753 -1.1319912447 -0.1830962248
O  -1.8233444080  1.5635518402 -0.3878750158
H  -2.4976032095  0.9464092331 -0.7090814827
H  -0.0140314776 -0.4121148701 -1.3520399722
H  -0.7035515562 -1.0168061217  1.4075903172
H   1.0693542431  1.1820985955  0.2194128732
H  -2.4371510898 -1.9066123244  0.3553003327
H  -1.8325801445 -1.4954201242 -1.0945741204
H  -0.4531793779  1.5342668391  1.0942257204
H  -2.0288679873  0.9440427782  1.5895365603
H   2.8864847618  0.2471508135  1.5488191804
H   1.8206070327  0.6623121181 -2.0787264572
H   2.4646031226 -1.3994996134  1.0336144722
H   1.3611995534 -0.4695296712  2.0495530499
H   3.0587912358  1.1617258042 -0.9388536658
H   2.9442320446 -0.5406771043 -1.4146415818
22
Image 234  Energy = -383.6462429715
C  -0.9133430174 -0.5113229994  0.4603927912
C   1.4044457001  0.1703521468 -0.0216295930
C  -1.3047207475  0.9408968370  0.7680274004
C   2.0709515307 -0.3993487622  1.2227987045
C   2.3666342947  0.3543847346 -1.1837577967
N   0.2583680468 -0.6594873262 -0.4064857634
N  -2.0775359053 -1.1321935734 -0.1831978415
O  -1.8234076927  1.5636640688 -0.3878101535
H  -2.4976639690  0.9466799318 -0.7093107390
H  -0.0142196930 -0.4110747860 -1.3519344257
H  -0.7034085765 -1.0167224602  1.4075748471
H   1.0696538443  1.1825437051  0.2195013236
H  -2.4370969456 -1.9066295045  0.3554078870
H  -1.8320547426 -1.4960292903 -1.0944173044
H  -0.4537915271  1.5341945823  1.0948418130
H  -2.0296901081  0.9436586295  1.5893401604
H   2.8867604162  0.2470555129  1.5486941197
H   1.8208430895  0.6621312708 -2.0788233220
H   2.4645678662 -1.3994157271  1.0332524995
H   1.3614630527 -0.4694999873  2.0495892616
H   3.0593918527  1.1611285175 -0.9391262516
H   2.9437602551 -0.5413255250 -1.4144626092
22
Image 235  Energy = -383.6462756264
C  -0.9133851390 -0.5112390172  0.4604148636
C   1.4044957860  0.1706880388 -0.0215785357
C  -1.3051542926  0.9408181282  0.7681651913
C   2.0710582860 -0.3992597518  1.2227131203
C   2.3667210584  0.3541574861 -1.1837827226
N   0.2582975278 -0.6589517221 -0.4065431232
N  -2.0773771765 -1.1323948889 -0.1832996634
O  -1.8234705247  1.5637758854 -0.3877450265
H  -2.4977227667  0.9469485079 -0.7095393685
H  -0.0144080269 -0.4100372644 -1.3518295513
H  -0.7032645387 -1.0166396405  1.4075586034
H   1.0699513237  1.1829862857  0.2195891021
H  -2.4370437577 -1.9066447454  0.3555154426
H  -1.8315284754 -1.4966383567 -1.0942598137
H  -0.4544016219  1.5341235004  1.0954557114
H  -2.0305080975  0.9432760724  1.5891447475
H   2.8870342151  0.2469605701  1.5485683096
H   1.8210780390  0.6619520346 -2.0789194034
H   2.4645316356 -1.3993324637  1.0328923386
H   1.3617249280 -0.4694698530  2.0496254651
H   3.0599897291  1.1605325291 -0.9393963746
H   2.9432889128 -0.5419713405 -1.4142843045
22
Image 236  Energy = -383.6463080973
C  -0.9134264694 -0.5111552641  0.4604365836
C   1.4045452360  0.1710221503 -0.0215280670
C  -1.3055857084  0.9407398039  0.7683026739
C   2.0711636523 -0.3991712545  1.2226276632
C   2.3668070463  0.3539311098 -1.1838073337
N   0.2582269015 -0.6584180293 -0.4066012621
N  -2.0772181856 -1.1325951206 -0.1834017453
O  -1.8235329177  1.5638872979 -0.3876796601
H  -2.4977795966  0.9472149849 -0.7097673547
H  -0.0145964828 -0.4090022831 -1.3517253876
H  -0.7031194593 -1.0165576648  1.4075416402
H   1.0702466928  1.1834264058  0.2196762237
H  -2.4369915820 -1.9066581283  0.3556230649
H  -1.8310013597 -1.4972473267 -1.0941016504
H  -0.4550096227  1.5340535843  1.0960674328
H  -2.0313219940  0.9428950911  1.5889503376
H   2.8873062533  0.2468660353  1.5484417952
H   1.8213119035  0.6617744123 -2.0790147185
H   2.4644944591 -1.3992498626  1.0325339678
H   1.3619852923 -0.4694392576  2.0496615374
H   3.0605849212  1.1599378817 -0.9396640507
H   2.9428180444 -0.5426145708 -1.4141066817
22
Image 237  Energy = -383.6463403405
C  -0.9134670932 -0.5110718205  0.4604580290
C   1.4045940129  0.1713545757 -0.0214781897
C  -1.3060150055  0.9406619178  0.7684398852
C   2.0712677598 -0.3990832930  1.2225423607
C   2.3668923720  0.3537056350 -1.1838316247
N   0.2581561898 -0.6578862460 -0.4066602509
N  -2.0770589301 -1.1327943822 -0.1835040247
O  -1.8235947998  1.5639983734 -0.3876140154
H  -2.4978345641  0.9474793077 -0.7099947493
H  -0.0147850621 -0.4079698465 -1.3516218970
H  -0.7029733687 -1.0164764785  1.4075239235
H   1.0705400118  1.1838640507  0.2197626795
H  -2.4369403767 -1.9066695379  0.3557306781
H  -1.8304734236 -1.4978561983 -1.0939427924
H  -0.4556155546  1.5339847796  1.0966769739
H  -2.0321318151  0.9425156556  1.5887569084
H   2.8875764965  0.2467718677  1.5483145798
H   1.8215446884  0.6615983932 -2.0791092633
H   2.4644563157 -1.3991678774  1.0321773899
H   1.3622441454 -0.4694081985  2.0496974735
H   3.0611773912  1.1593445139 -0.9399293175
H   2.9423476351 -0.5432551963 -1.4139297471
22
Image 238  Energy = -383.6463723514
C  -0.9135069537 -0.5109886342  0.4604791451
C   1.4046421280  0.1716853291 -0.0214289207
C  -1.3064421949  0.9405844313  0.7685768208
C   2.0713706351 -0.3989958431  1.2224570959
C   2.3669768998  0.3534809904 -1.1838556277
N   0.2580854509 -0.6573563246 -0.4067200043
N  -2.0768994270 -1.1329925962 -0.1836065682
O  -1.8236563188  1.5641090198 -0.3875481763
H  -2.4978875714  0.9477415931 -0.7102215029
H  -0.0149737634 -0.4069399361 -1.3515190752
H  -0.7028262893 -1.0163960882  1.4075054850
H   1.0708313133  1.1842992189  0.2198484660
H  -2.4368902158 -1.9066790872  0.3558383559
H  -1.8299446802 -1.4984649791 -1.0937832374
H  -0.4562194001  1.5339170609  1.0972843582
H  -2.0329376061  0.9421377485  1.5885644696
H   2.8878449703  0.2466780604  1.5481866915
H   1.8217764323  0.6614239664 -2.0792030355
H   2.4644172277 -1.3990865237  1.0318225993
H   1.3625014283 -0.4693766817  2.0497333664
H   3.0617672408  1.1587524997 -0.9401921763
H   2.9418777195 -0.5438932279 -1.4137535187
22
Image 239  Energy = -383.6464041565
C  -0.9135460779 -0.5109056971  0.4604999334
C   1.4046896287  0.1720144232 -0.0213802730
C  -1.3068672966  0.9405073471  0.7687134632
C   2.0714722893 -0.3989089011  1.2223719727
C   2.3670606646  0.3532572705 -1.1838793347
N   0.2580145833 -0.6568282829 -0.4067805412
N  -2.0767396551 -1.1331897856 -0.1837093428
O  -1.8237173984  1.5642192935 -0.3874820838
H  -2.4979387078  0.9480017939 -0.7104476580
H  -0.0151625679 -0.4059125510 -1.3514168949
H  -0.7026782334 -1.0163164896  1.4074863442
H   1.0711206304  1.1847319646  0.2199335815
H  -2.4368410977 -1.9066867474  0.3559460770
H  -1.8294151513 -1.4990736785 -1.0936229893
H  -0.4568211810  1.5338503843  1.0978895786
H  -2.0337394015  0.9417613480  1.5883730140
H   2.8881116887  0.2465846078  1.5480581367
H   1.8220071559  0.6612511208 -2.0792960151
H   2.4643771914 -1.3990058050  1.0314695849
H   1.3627571836 -0.4693447088  2.0497691402
H   3.0623544538  1.1581618040 -0.9404526702
H   2.9414083247 -0.5445287145 -1.4135780141
22
Image 240  Energy = -383.6464357512
C  -0.9135844732 -0.5108230408  0.4605204788
C   1.4047365037  0.1723418349 -0.0213322181
C  -1.3072902984  0.9404306859  0.7688497899
C   2.0715726538 -0.3988224998  1.2222869104
C   2.3671437422  0.3530343825 -1.1839027538
N   0.2579436939 -0.6563020858 -0.4068418352
N  -2.0765797477 -1.1333860650 -0.1838122850
O  -1.8237780626  1.5643291687 -0.3874157271
H  -2.4979879860  0.9482599351 -0.7106732170
H  -0.0153514863 -0.4048876739 -1.3513153832
H  -0.7025292282 -1.0162376396  1.4074665005
H   1.0714079868  1.1851623406  0.2200180452
H  -2.4367929889 -1.9066924226  0.3560537895
H  -1.8288848325 -1.4996823129 -1.0934620881
H  -0.4574209061  1.5337847197  1.0984926535
H  -2.0345372288  0.9413864276  1.5881825310
H   2.8883767278  0.2464915395  1.5479289543
H   1.8222368413  0.6610798613 -2.0793882576
H   2.4643362203 -1.3989257127  1.0311183421
H   1.3630113997 -0.4693122810  2.0498048211
H   3.0629390686  1.1575724452 -0.9407108083
H   2.9409394262 -0.5451616103 -1.4134032334
22
Image 241  Energy = -383.6464671576
C  -0.9136221805 -0.5107406676  0.4605406507
C   1.4047827392  0.1726676096 -0.0212846846
C  -1.3077112788  0.9403544002  0.7689858360
C   2.0716719481 -0.3987366080  1.2222019210
C   2.3672261357  0.3528123837 -1.1839259041
N   0.2578727364 -0.6557777007 -0.4069038651
N  -2.0764195737 -1.1335813485 -0.1839154553
O  -1.8238383136  1.5644386647 -0.3873491206
H  -2.4980354259  0.9485160263 -0.7108981926
H  -0.0155405193 -0.4038653050 -1.3512145130
H  -0.7023792863 -1.0161595518  1.4074459981
H   1.0716934281  1.1855903315  0.2201018327
H  -2.4367459513 -1.9066962024  0.3561615454
H  -1.8283537633 -1.5002908669 -1.0933004692
H  -0.4580185639  1.5337200505  1.0990935921
H  -2.0353310897  0.9410129758  1.5879930011
H   2.8886399829  0.2463987733  1.5477991337
H   1.8224655088  0.6609101889 -2.0794797792
H   2.4642942844 -1.3988462053  1.0307688703
H   1.3632640607 -0.4692793928  2.0498404211
H   3.0635210866  1.1569844003 -0.9409666199
H   2.9404710610 -0.5457919591 -1.4132291905
22
Image 242  Energy = -383.6464983274
C  -0.9136591688 -0.5106585435  0.4605605692
C   1.4048284406  0.1729917761 -0.0212377788
C  -1.3081301794  0.9402785040  0.7691216074
C   2.0717699649 -0.3986512117  1.2221170385
C   2.3673077888  0.3525912521 -1.1839487744
N   0.2578016644 -0.6552551566 -0.4069666324
N  -2.0762591453 -1.1337756039 -0.1840188948
O  -1.8238982003  1.5645477420 -0.3872822888
H  -2.4980810075  0.9487701169 -0.7111225689
H  -0.0157296447 -0.4028454310 -1.3511142822
H  -0.7022284438 -1.0160821827  1.4074248057
H   1.0719769792  1.1860159815  0.2201849703
H  -2.4367000251 -1.9066981467  0.3562693921
H  -1.8278219559 -1.5008993613 -1.0931381729
H  -0.4586141983  1.5336563151  1.0996923835
H  -2.0361210434  0.9406409658  1.5878044357
H   2.8889015766  0.2463063624  1.5476687133
H   1.8226931825  0.6607420848 -2.0795705593
H   2.4642514329 -1.3987673430  1.0304211508
H   1.3635152077 -0.4692460546  2.0498759162
H   3.0641005557  1.1563976799 -0.9412201245
H   2.9400032443 -0.5464197497 -1.4130558984
22
Image 243  Energy = -383.6465293220
C  -0.9136954568 -0.5105767108  0.4605801813
C   1.4048735239  0.1733143051 -0.0211914717
C  -1.3085471207  0.9402029926  0.7692570863
C   2.0718668121 -0.3985663262  1.2220322954
C   2.3673886838  0.3523710474 -1.1839713860
N   0.2577305717 -0.6547344118 -0.4070301037
N  -2.0760985278 -1.1339689486 -0.1841225382
O  -1.8239576744  1.5646564574 -0.3872151964
H  -2.4981248024  0.9490221713 -0.7113463758
H  -0.0159188726 -0.4018280371 -1.3510146869
H  -0.7020767044 -1.0160055373  1.4074029788
H   1.0722586726  1.1864393228  0.2202674579
H  -2.4366551598 -1.9066981317  0.3563772444
H  -1.8272894321 -1.5015077931 -1.0929751661
H  -0.4592077725  1.5335935056  1.1002890553
H  -2.0369070910  0.9402703835  1.5876168112
H   2.8891614709  0.2462142730  1.5475376975
H   1.8229198896  0.6605755410 -2.0796605882
H   2.4642076349 -1.3986890805  1.0300751794
H   1.3637648579 -0.4692122609  2.0499112691
H   3.0646774963  1.1558122881 -0.9414713503
H   2.9395360262 -0.5470450536 -1.4128833862
22
Image 244  Energy = -383.6465601020
C  -0.9137310253 -0.5104951093  0.4605994917
C   1.4049180982  0.1736352082 -0.0211457335
C  -1.3089620032  0.9401278138  0.7693922859
C   2.0719624974 -0.3984818680  1.2219476622
C   2.3674689479  0.3521516913 -1.1839937248
N   0.2576593708 -0.6542154591 -0.4070943269
N  -2.0759377504 -1.1341613401 -0.1842263584
O  -1.8240168086  1.5647647827 -0.3871478913
H  -2.4981667911  0.9492722382 -0.7115696043
H  -0.0161081798 -0.4008131371 -1.3509156653
H  -0.7019240884 -1.0159296028  1.4073805160
H   1.0725385201  1.1868604083  0.2203493052
H  -2.4366114080 -1.9066962147  0.3564851393
H  -1.8267561834 -1.5021161922 -1.0928115180
H  -0.4597993179  1.5335315856  1.1008836082
H  -2.0376893046  0.9399012199  1.5874301547
H   2.8894196528  0.2461224730  1.5474060949
H   1.8231456149  0.6604105691 -2.0797499123
H   2.4641629200 -1.3986114609  1.0297309402
H   1.3640130053 -0.4691780134  2.0499465139
H   3.0652518994  1.1552282089 -0.9417203249
H   2.9390693597 -0.5476678048 -1.4127116449
22
Image 245  Energy = -383.6465906804
C  -0.9137659652 -0.5104137652  0.4606185310
C   1.4049620098  0.1739545685 -0.0211005339
C  -1.3093748731  0.9400529823  0.7695271203
C   2.0720569043 -0.3983979653  1.2218631472
C   2.3675486095  0.3519331814 -1.1840158167
N   0.2575881738 -0.6536982662 -0.4071592069
N  -2.0757767320 -1.1343527605 -0.1843304241
O  -1.8240755423  1.5648727505 -0.3870803186
H  -2.4982070355  0.9495202913 -0.7117922775
H  -0.0162975851 -0.3998007028 -1.3508172793
H  -0.7017706114 -1.0158543671  1.4073574253
H   1.0728165971  1.1872791695  0.2204304846
H  -2.4365687883 -1.9066924263  0.3565931002
H  -1.8262222511 -1.5027245439 -1.0926471650
H  -0.4603888201  1.5334705404  1.1014760571
H  -2.0384677279  0.9395334387  1.5872444819
H   2.8896762465  0.2460310212  1.5472739547
H   1.8233703480  0.6602471679 -2.0798385629
H   2.4641173043 -1.3985344500  1.0293884327
H   1.3642596772 -0.4691432994  2.0499816008
H   3.0658238145  1.1546454557 -0.9419670596
H   2.9386032723 -0.5482880230 -1.4125406844
22
Image 246  Energy = -383.6466210485
C  -0.9138002646 -0.5103327204  0.4606372891
C   1.4050053757  0.1742723729 -0.0210559162
C  -1.3097858220  0.9399784872  0.7696617342
C   2.0721502538 -0.3983145490  1.2217787042
C   2.3676275452  0.3517155391 -1.1840376605
N   0.2575169447 -0.6531828491 -0.4072247809
N  -2.0756154730 -1.1345432288 -0.1844347492
O  -1.8241339343  1.5649803288 -0.3870125236
H  -2.4982455122  0.9497663787 -0.7120143816
H  -0.0164870757 -0.3987907308 -1.3507195005
H  -0.7016163083 -1.0157797880  1.4073336948
H   1.0730929139  1.1876956851  0.2205110177
H  -2.4365273119 -1.9066867622  0.3567011260
H  -1.8256876540 -1.5033328426 -1.0924820793
H  -0.4609762813  1.5334103394  1.1020664079
H  -2.0392423167  0.9391670360  1.5870597044
H   2.8899311618  0.2459398533  1.5471412602
H   1.8235941435  0.6600853195 -2.0799265090
H   2.4640707544 -1.3984580299  1.0290476536
H   1.3645048102 -0.4691081388  2.0500166178
H   3.0663932763  1.1540640434 -0.9422115768
H   2.9381377996 -0.5489057466 -1.4123705255
22
Image 247  Energy = -383.6466512545
C  -0.9138339017 -0.5102519196  0.4606557060
C   1.4050482319  0.1745885934 -0.0210118318
C  -1.3101947901  0.9399043497  0.7697960403
C   2.0722424881 -0.3982316220  1.2216943628
C   2.3677058906  0.3514987755 -1.1840593123
N   0.2574456377 -0.6526691685 -0.4072909966
N  -2.0754540768 -1.1347328231 -0.1845392358
O  -1.8241919644  1.5650875196 -0.3869444703
H  -2.4982822627  0.9500104992 -0.7122359424
H  -0.0166766531 -0.3977832115 -1.3506223275
H  -0.7014611754 -1.0157058984  1.4073093988
H   1.0733674771  1.1881100106  0.2205909077
H  -2.4364869688 -1.9066791610  0.3568091789
H  -1.8251523853 -1.5039411168 -1.0923163314
H  -0.4615617376  1.5333509430  1.1026546681
H  -2.0400131271  0.9388019832  1.5868758624
H   2.8901844357  0.2458489733  1.5470080362
H   1.8238170173  0.6599250141 -2.0800137322
H   2.4640232763 -1.3983821974  1.0287086017
H   1.3647484598 -0.4690725276  2.0500514934
H   3.0669602446  1.1534839221 -0.9424539089
H   2.9376729095 -0.5495209407 -1.4122011602
22
Image 248  Energy = -383.6466812327
C  -0.9138668488 -0.5101714146  0.4606738779
C   1.4050905233  0.1749032874 -0.0209683333
C  -1.3106018916  0.9398305355  0.7699300746
C   2.0723335687 -0.3981491703  1.2216101654
C   2.3677836649  0.3512828328 -1.1840807438
N   0.2573742707 -0.6521572341 -0.4073578944
N  -2.0752924753 -1.1349214709 -0.1846439443
O  -1.8242496711  1.5651943269 -0.3868762030
H  -2.4983172812  0.9502526819 -0.7124569504
H  -0.0168663016 -0.3967781448 -1.3505257277
H  -0.7013052499 -1.0156326448  1.4072844697
H   1.0736403378  1.1885221289  0.2206701566
H  -2.4364477888 -1.9066696779  0.3569172916
H  -1.8246164765 -1.5045493681 -1.0921498869
H  -0.4621451415  1.5332923367  1.1032408520
H  -2.0407801902  0.9384382734  1.5866929489
H   2.8904361211  0.2457583984  1.5468743084
H   1.8240389454  0.6597662602 -2.0801002810
H   2.4639749011 -1.3983069982  1.0283712496
H   1.3649906261 -0.4690364647  2.0500862370
H   3.0675247774  1.1529051292 -0.9426940680
H   2.9372086057 -0.5501336069 -1.4120325925
22
Image 249  Energy = -383.6467110270
C  -0.9138992174 -0.5100911648  0.4606917829
C   1.4051323207  0.1752164415 -0.0209253933
C  -1.3110069993  0.9397570162  0.7700637831
C   2.0724235020 -0.3980671671  1.2215261018
C   2.3678607814  0.3510677285 -1.1841019226
N   0.2573028314 -0.6516470082 -0.4074254940
N  -2.0751306368 -1.1351092077 -0.1847489046
O  -1.8243070693  1.5653007686 -0.3868077116
H  -2.4983505813  0.9504929350 -0.7126774047
H  -0.0170560130 -0.3957755298 -1.3504296634
H  -0.7011485416 -1.0155600437  1.4072589637
H   1.0739115170  1.1889320879  0.2207487689
H  -2.4364097876 -1.9066583172  0.3570254731
H  -1.8240799539 -1.5051575890 -1.0919827183
H  -0.4627265617  1.5332344914  1.1038249656
H  -2.0415435460  0.9380758830  1.5865109723
H   2.8906862012  0.2456680987  1.5467400840
H   1.8242599536  0.6596090477 -2.0801861724
H   2.4639256336 -1.3982324268  1.0280355967
H   1.3652313348 -0.4689999459  2.0501208255
H   3.0680869270  1.1523276766 -0.9429320781
H   2.9367449318 -0.5507437786 -1.4118648491
22
Image 250  Energy = -383.6467406547
C  -0.9139309439 -0.5100111636  0.4607094055
C   1.4051736282  0.1755280397 -0.0208830087
C  -1.3114102428  0.9396838189  0.7701971989
C   2.0725123226 -0.3979856382  1.2214421156
C   2.3679372549  0.3508535155 -1.1841228658
N   0.2572314087 -0.6511384779 -0.4074936992
N  -2.0749686635 -1.1352960377 -0.1848540416
O  -1.8243641284  1.5654068156 -0.3867389651
H  -2.4983822071  0.9507312626 -0.7128973318
H  -0.0172458092 -0.3947753430 -1.3503341987
H  -0.7009910629 -1.0154880727  1.4072328878
H   1.0741810273  1.1893399177  0.2208267499
H  -2.4363729824 -1.9066450741  0.3571337090
H  -1.8235428013 -1.5057658119 -1.0918148936
H  -0.4633059464  1.5331773935  1.1044070207
H  -2.0423032110  0.9377147931  1.5863299109
H   2.8909347084  0.2455780778  1.5466053859
H   1.8244800506  0.6594533745 -2.0802714136
H   2.4638754681 -1.3981584543  1.0277016357
H   1.3654705513 -0.4689629766  2.0501553044
H   3.0686466862  1.1517515408 -0.9431679589
H   2.9362819199 -0.5513515038 -1.4116979427
22
Image 251  Energy = -383.6467700854
C  -0.9139620012 -0.5099314437  0.4607267248
C   1.4052144158  0.1758381550 -0.0208411798
C  -1.3118116713  0.9396109508  0.7703303448
C   2.0726000012 -0.3979046276  1.2213582637
C   2.3680131188  0.3506401946 -1.1841436094
N   0.2571599348 -0.6506316395 -0.4075625527
N  -2.0748065499 -1.1354820067 -0.1849593670
O  -1.8244207844  1.5655125521 -0.3866699407
H  -2.4984122285  0.9509676176 -0.7131167554
H  -0.0174356516 -0.3937775853 -1.3502392729
H  -0.7008328352 -1.0154167318  1.4072062695
H   1.0744489209  1.1897456023  0.2209040896
H  -2.4363373586 -1.9066299151  0.3572419872
H  -1.8230050438 -1.5063740291 -1.0916463788
H  -0.4638833385  1.5331210048  1.1049870148
H  -2.0430591827  0.9373550019  1.5861497454
H   2.8911816711  0.2454883449  1.5464702283
H   1.8246992755  0.6592992214 -2.0803559616
H   2.4638243952 -1.3980850555  1.0273693686
H   1.3657083298 -0.4689255569  2.0501896061
H   3.0692040527  1.1511767034 -0.9434017431
H   2.9358195571 -0.5519567616 -1.4115318763
22
Image 252  Energy = -383.6467993364
C  -0.9139924558 -0.5098519755  0.4607437793
C   1.4052547030  0.1761467835 -0.0207999100
C  -1.3122111554  0.9395383463  0.7704631477
C   2.0726867186 -0.3978240280  1.2212744920
C   2.3680884752  0.3504276627 -1.1841641316
N   0.2570883970 -0.6501264771 -0.4076320437
N  -2.0746442585 -1.1356670532 -0.1850649143
O  -1.8244772017  1.5656178589 -0.3866007148
H  -2.4984405405  0.9512021282 -0.7133356265
H  -0.0176255491 -0.3927822517 -1.3501448810
H  -0.7006738702 -1.0153459993  1.4071790882
H   1.0747151994  1.1901491956  0.2209808123
H  -2.4363029553 -1.9066128956  0.3573503466
H  -1.8224666979 -1.5069822502 -1.0914771773
H  -0.4644587399  1.5330653045  1.1055649642
H  -2.0438115710  0.9369964913  1.5859705404
H   2.8914270348  0.2453988425  1.5463346030
H   1.8249175915  0.6591466040 -2.0804398924
H   2.4637724385 -1.3980122809  1.0270387757
H   1.3659445788 -0.4688876906  2.0502238360
H   3.0697590679  1.1506031897 -0.9436334421
H   2.9353578180 -0.5525595096 -1.4113666466
22
Image 253  Energy = -383.6468284121
C  -0.9140223703 -0.5097727635  0.4607605870
C   1.4052944889  0.1764539480 -0.0207591617
C  -1.3126087780  0.9394660098  0.7705956898
C   2.0727722574 -0.3977439036  1.2211908844
C   2.3681632357  0.3502160061 -1.1841844729
N   0.2570168774 -0.6496229932 -0.4077021344
N  -2.0744817139 -1.1358511546 -0.1851707068
O  -1.8245333279  1.5657228239 -0.3865312888
H  -2.4984672252  0.9514347434 -0.7135539805
H  -0.0178155112 -0.3917893216 -1.3500510573
H  -0.7005141877 -1.0152758689  1.4071513477
H   1.0749799150  1.1905506800  0.2210568922
H  -2.4362698046 -1.9065940514  0.3574588053
H  -1.8219277920 -1.5075904730 -1.0913072625
H  -0.4650321616  1.5330102600  1.1061408828
H  -2.0445603350  0.9366392422  1.5857922345
H   2.8916708953  0.2453096150  1.5461985500
H   1.8251350478  0.6589955064 -2.0805231736
H   2.4637196119 -1.3979401198  1.0267098460
H   1.3661794120 -0.4688493678  2.0502578701
H   3.0703117459  1.1500309957 -0.9438630771
H   2.9348967477 -0.5531598171 -1.4112022687
22
Image 254  Energy = -383.6468572689
C  -0.9140516319 -0.5096938281  0.4607770752
C   1.4053338168  0.1767596341 -0.0207189619
C  -1.3130046267  0.9393940089  0.7707279689
C   2.0728566993 -0.3976642372  1.2211073721
C   2.3682373600  0.3500051990 -1.1842046769
N   0.2569453276 -0.6491211433 -0.4077728400
N  -2.0743191110 -1.1360344826 -0.1852766525
O  -1.8245891677  1.5658273823 -0.3864616209
H  -2.4984922690  0.9516655043 -0.7137718123
H  -0.0180055108 -0.3907988026 -1.3499577353
H  -0.7003537950 -1.0152063412  1.4071231025
H   1.0752430780  1.1909501057  0.2211323498
H  -2.4362378558 -1.9065732546  0.3575672794
H  -1.8213883142 -1.5081987097 -1.0911366672
H  -0.4656035896  1.5329558685  1.1067147765
H  -2.0453054875  0.9362832363  1.5856148014
H   2.8919132345  0.2452206370  1.5460620796
H   1.8253516700  0.6588459068 -2.0806057624
H   2.4636659024 -1.3978685457  1.0263825861
H   1.3664128046 -0.4688105988  2.0502917555
H   3.0708621321  1.1494601338 -0.9440906607
H   2.9344363622 -0.5537576774 -1.4110387514
22
Image 255  Energy = -383.6468859942
C  -0.9140803091 -0.5096151713  0.4607933466
C   1.4053726839  0.1770639033 -0.0206792832
C  -1.3133985748  0.9393222709  0.7708598992
C   2.0729401075 -0.3975850415  1.2210239673
C   2.3683110403  0.3497952067 -1.1842246180
N   0.2568736987 -0.6486209287 -0.4078441397
N  -2.0741563039 -1.1362169415 -0.1853828749
O  -1.8246447147  1.5659315891 -0.3863917040
H  -2.4985157293  0.9518943905 -0.7139891463
H  -0.0181955553 -0.3898106830 -1.3498649526
H  -0.7001927190 -1.0151373863  1.4070943170
H   1.0755047069  1.1913474794  0.2212071850
H  -2.4362071600 -1.9065506013  0.3576758307
H  -1.8208483146 -1.5088069484 -1.0909653259
H  -0.4661730582  1.5329020954  1.1072866542
H  -2.0460471091  0.9359284622  1.5854382893
H   2.8921540625  0.2451319007  1.5459251975
H   1.8255673884  0.6586978427 -2.0806878006
H   2.4636113169 -1.3977975574  1.0260569811
H   1.3666447328 -0.4687713790  2.0503255072
H   3.0714102015  1.1488905697 -0.9443162274
H   2.9339766374 -0.5543530763 -1.4108760976
22
Image 256  Energy = -383.6469145004
C  -0.9141084018 -0.5095367891  0.4608093812
C   1.4054110635  0.1773666858 -0.0206401440
C  -1.3137907299  0.9392507974  0.7709916029
C   2.0730224612 -0.3975063107  1.2209406763
C   2.3683841440  0.3495860942 -1.1842444183
N   0.2568020942 -0.6481223539 -0.4079160115
N  -2.0739933614 -1.1363984934 -0.1854892207
O  -1.8247000088  1.5660354290 -0.3863215989
H  -2.4985375806  0.9521214436 -0.7142059650
H  -0.0183856427 -0.3888249462 -1.3497727055
H  -0.7000309746 -1.0150689927  1.4070649870
H   1.0757648296  1.1917428610  0.2212814085
H  -2.4361777245 -1.9065260811  0.3577844587
H  -1.8203077618 -1.5094152489 -1.0907933776
H  -0.4667405728  1.5328489124  1.1078565099
H  -2.0467851859  0.9355749103  1.5852626609
H   2.8923934055  0.2450434123  1.5457879296
H   1.8257822903  0.6585512715 -2.0807691877
H   2.4635558499 -1.3977271526  1.0257330230
H   1.3668752230 -0.4687317151  2.0503591115
H   3.0719559989  1.1483223157 -0.9445397944
H   2.9335176132 -0.5549460538 -1.4107143206
