30
Frame 1  Energy = -779.1168200759 Hartree
O      -0.35330830      2.54016749      1.03322912     -0.000057     0.000076     0.000156
O      -1.63344599     -0.88030095      2.12710129      0.000114    -0.000146     0.000064
O       1.85637924      2.25462593      0.94014962      0.000094    -0.000331    -0.000148
O       2.51884392     -1.82073746     -2.70571954     -0.000044     0.000312    -0.000363
N      -0.83079408      0.00922482      0.20317843      0.000030     0.000045     0.000098
N      -3.86216127     -1.93632866      0.87477442     -0.000054     0.000099     0.000141
N       3.99903283     -0.19836775     -2.11757062     -0.000115     0.000071     0.000074
C       0.47441038      0.31990118      0.73967325     -0.000065    -0.000117     0.000099
C       1.57899242     -0.38134689     -0.05068383     -0.000064     0.000033    -0.000174
C       1.65234456      0.05878693     -1.52365426     -0.000269     0.000060     0.000029
C      -3.10021025     -0.91615528      0.21665248      0.000193     0.000101     0.000158
C      -1.78552450     -0.60744019      0.94769338      0.000240     0.000001     0.000178
C       0.76849312      1.79074725      0.93221744      0.000041    -0.000127     0.000048
C      -3.90535911      0.37649793      0.09031776      0.000042    -0.000242    -0.000053
C       2.74793954     -0.73411500     -2.19796501     -0.000227    -0.000016    -0.000088
H       0.40047158     -0.10265555      1.74291166     -0.000043     0.000005     0.000258
H       1.36797330     -1.45617552     -0.03293429     -0.000575    -0.000053     0.000134
H       2.53337441     -0.19980717      0.44955337     -0.000112    -0.000997    -0.000881
H       0.72500671     -0.12857300     -2.05532896      0.000090     0.000688     0.000308
H       1.85393346      1.12985629     -1.54454721      0.000725     0.000975    -0.000431
H      -0.99809408      0.20310445     -0.77160953     -0.000027     0.000857    -0.000091
H      -2.91120397     -1.26303271     -0.80120359      0.000038    -0.000222    -0.000407
H      -3.35964272      1.17471950     -0.45666819      0.000838     0.000834    -0.000834
H      -4.23416641      0.76962965      1.06112377     -0.000109     0.000113     0.000181
H      -4.79872600      0.15500138     -0.44971634      0.000348     0.000181    -0.000135
H      -3.84733688     -1.75119839      1.86943200      0.000034    -0.000067     0.000170
H      -3.33529185     -2.79512054      0.81375606      0.000807     0.000105    -0.000168
H      -0.08779565      3.49092387      1.17630030     -0.000237     0.000085    -0.000339
H       4.78783338     -0.75013689     -2.40309157     -0.000510     0.000045    -0.000273
H       4.16766510      0.68052351     -1.66272343      0.000272    -0.000452     0.000431
30
Frame 2  Energy = -779.1136056811 Hartree
O      -0.55260721      2.14619899      1.24998107      0.000179    -0.000194     0.000155
O      -1.67146656     -0.73855102      2.23536198      0.000111    -0.000053     0.000108
O       1.56959632      2.28660814      0.52530230     -0.000047    -0.000059     0.000133
O       2.87054304     -1.66169078     -2.94385627     -0.000294     0.000242    -0.000175
N      -0.78016575     -0.32067857      0.17440127     -0.000268    -0.000062     0.000096
N      -4.12190231     -1.60504315      1.07139058     -0.000083    -0.000205     0.000153
N       4.12955774     -0.05747152     -1.92433246     -0.000016    -0.000140     0.000063
C       0.50912836      0.11379614      0.68359171     -0.000191     0.000047    -0.000123
C       1.65909528     -0.47180073     -0.10573390      0.000047    -0.000018    -0.000072
C       1.73915925     -0.03755623     -1.57937026      0.000304     0.000281    -0.000093
C      -3.17525801     -0.78754758      0.33668794     -0.000013     0.000168     0.000208
C      -1.81021027     -0.63492364      1.03234113     -0.000066    -0.000125    -0.000078
C       0.59640039      1.64332189      0.77903958      0.000101     0.000275    -0.000079
C      -3.73727524      0.61525593      0.15921869      0.000405    -0.000047     0.000094
C       2.94714399     -0.66307962     -2.24007087     -0.000154     0.000122    -0.000207
H       0.57495813     -0.22807290      1.72476296     -0.000125    -0.000468    -0.000709
H       1.54531669     -1.55195089     -0.07109961      0.000444     0.000235    -0.000035
H       2.60781033     -0.22049362      0.37503021      0.000325     0.000085    -0.000202
H       0.87825419     -0.36513739     -2.13869078     -0.000392     0.000247    -0.000728
H       1.81554110      1.03711490     -1.60746994     -0.000024    -0.000067    -0.000376
H      -0.98909024     -0.17813621     -0.80002531      0.000350     0.000419    -0.000439
H      -2.95492827     -1.27324806     -0.62927567      0.001037     0.000372     0.000589
H      -3.02500501      1.25169881     -0.36687075     -0.000789    -0.000180     0.000962
H      -3.92523939      1.05290667      1.15857232      0.000532    -0.000290    -0.000495
H      -4.64996831      0.56703588     -0.36999915      0.000002     0.000016    -0.000160
H      -4.23166572     -1.23281054      2.00098624     -0.000132    -0.000093    -0.000156
H      -3.85679463     -2.57006866      1.14841468      0.000134     0.000471    -0.001182
H      -0.41099739      3.09699235      1.32299153     -0.000343    -0.001479    -0.000695
H       5.00636444     -0.46091757     -2.22053582     -0.000493    -0.000880     0.000075
H       4.16775806      0.76827866     -1.34833512      0.000237    -0.000109    -0.000147
30
Frame 3  Energy = -779.1135098306 Hartree
O      -0.22274153      2.91736329      1.02057827     -0.000019    -0.000162    -0.000168
O      -1.25145218     -1.52904309      1.42891972      0.000075    -0.000128     0.000151
O       1.96234200      2.49139822      0.80717143      0.000110    -0.000139    -0.000165
O       2.24311900     -2.18615822     -1.88409637     -0.000116     0.000104     0.000189
N      -0.88993249      0.45370636      0.38793779      0.000242    -0.000157    -0.000062
N      -3.47294217     -2.05663882     -0.18760785      0.000283     0.000284    -0.000095
N       3.57160812     -0.45901894     -2.51671934     -0.000391     0.000024     0.000043
C       0.43257629      0.66596965      0.92990044      0.000052    -0.000071     0.000030
C       1.48399865     -0.19460481      0.21671321     -0.000065     0.000104     0.000092
C       1.54724043      0.01235176     -1.29869501     -0.000091     0.000233     0.000063
C      -3.01717657     -0.67448893      0.05531678      0.000227    -0.000150    -0.000257
C      -1.63284709     -0.64300289      0.68814879      0.000016    -0.000161     0.000117
C       0.85038484      2.09922971      0.90282293     -0.000122    -0.000068    -0.000132
C      -3.98522575      0.03430926      0.99635287      0.000111    -0.000168    -0.000032
C       2.47896710     -0.99137155     -1.91240320     -0.000031     0.000223     0.000087
H       0.41620441      0.38556952      1.99153914     -0.000017    -0.000006     0.000708
H       1.23257191     -1.23148096      0.42804322     -0.000745     0.000289     0.000222
H       2.45562917      0.02020106      0.65411142     -0.000229     0.000641    -0.000790
H       0.53251475     -0.15277203     -1.70592874      0.000502    -0.000746    -0.000541
H       1.86687587      1.02326382     -1.53936147     -0.000496     0.000052     0.000399
H      -1.35493307      1.14390250     -0.17585180      0.000044     0.000491    -0.000237
H      -3.00792312     -0.12194344     -0.88474221     -0.000774     0.000701     0.000440
H      -3.62702069      1.04711701      1.26521176      0.000350    -0.000932    -0.000147
H      -4.06300456     -0.52552824      1.92428320     -0.000778     0.000330    -0.000783
H      -4.97187056      0.10065292      0.52906394     -0.000963     0.000946     0.001139
H      -3.34847832     -2.58519896      0.67090527     -0.000258     0.000834     0.000012
H      -2.93515485     -2.48777067     -0.92133897      0.000086     0.000320     0.000238
H       0.10914245      3.80257478      0.99279841      0.000311     0.000771     0.000649
H       4.31072110     -1.07986570     -2.81812021     -0.000286     0.000266     0.000019
H       3.81548161      0.50323576     -2.34818928     -0.000550    -0.000190     0.000543
30
Frame 4  Energy = -779.1167771372 Hartree
O      -0.24150583      3.01290865      0.84024473      0.000102    -0.000142    -0.000129
O      -1.16185940     -1.41264247      1.54362768     -0.000126     0.000276     0.000038
O       1.96606870      2.63386589      0.96415611      0.000087     0.000074    -0.000064
O       1.72399315     -1.97621722     -2.45683126     -0.000079     0.000136     0.000042
N      -0.85964953      0.51131581      0.39618880      0.000018    -0.000278    -0.000041
N      -3.17461812     -2.12510469     -0.38101106     -0.000036    -0.000221     0.000336
N       3.66904199     -0.95640838     -1.93168741     -0.000095     0.000371    -0.000243
C       0.47990839      0.75879456      0.93657294     -0.000025    -0.000001    -0.000102
C       1.52435920     -0.11333366      0.26299829     -0.000134     0.000008    -0.000013
C       1.59166161      0.09808806     -1.27754533     -0.000198     0.000090     0.000099
C      -2.94231061     -0.72810877      0.04500663      0.000249    -0.000246     0.000248
C      -1.56376019     -0.57867296      0.74842515      0.000036    -0.000082    -0.000093
C       0.82920523      2.20480065      0.90270786     -0.000028    -0.000187    -0.000124
C      -4.05810110     -0.28707621      0.98282461      0.000152     0.000051    -0.000038
C       2.30880550     -1.04264302     -1.94850766      0.000134     0.000092     0.000060
H       0.48653275      0.53030671      2.00217302     -0.000421     0.000014     0.000009
H       1.22080860     -1.14146608      0.46965769      0.000019     0.000721    -0.000056
H       2.50361752      0.04244574      0.70677971     -0.000016    -0.000020    -0.000038
H       0.57236760      0.06727385     -1.70997746     -0.000281    -0.000251     0.000342
H       2.05521565      1.07251771     -1.53419214      0.000355     0.000353    -0.000124
H      -1.27125213      1.18819370     -0.21721294     -0.000561    -0.000705     0.000189
H      -2.93979752     -0.08724676     -0.86229108      0.000232    -0.000443     0.000223
H      -3.96567559      0.73867231      1.26978858      0.000148    -0.000069     0.000788
H      -4.05397661     -0.88278765      1.87573971      0.000183     0.000963     0.000734
H      -5.03529393     -0.44934031      0.47856396     -0.000281    -0.000359     0.000625
H      -3.08109789     -2.68164182      0.47671811     -0.000008    -0.000263    -0.000363
H      -2.45517878     -2.43334710     -1.02912529     -0.000294    -0.000170     0.000553
H       0.05845590      3.95396599      0.93873667      0.000946     0.000013    -0.001176
H       4.20032834     -1.76744411     -2.21608537     -0.000216    -0.000297    -0.000717
H       4.13054307     -0.24428159     -1.38874407     -0.000209     0.000125    -0.000391
30
Frame 5  Energy = -779.1138695894 Hartree
O      -0.48502432      2.45901174      1.12133758     -0.000354    -0.000125    -0.000308
O      -1.61150947     -0.96409520      2.07913457      0.000044    -0.000171     0.000079
O       1.73640747      2.34781796      0.95181786     -0.000208    -0.000017     0.000248
O       2.63907046     -1.99358634     -2.22846656     -0.000007    -0.000002     0.000035
N      -0.80412465      0.00843335      0.19756505     -0.000003     0.000076    -0.000067
N      -3.84600508     -1.92307303      0.58518294      0.000362     0.000126    -0.000063
N       3.87359154     -0.17982904     -2.76971111     -0.000107    -0.000016     0.000022
C       0.48645205      0.30245860      0.78129549     -0.000097     0.000374    -0.000324
C       1.64017316     -0.39816939      0.03522255      0.000109    -0.000073    -0.000019
C       1.84286860      0.09222136     -1.39769503     -0.000036    -0.000118     0.000409
C      -3.07596450     -0.77332454      0.16898528     -0.000030     0.000089    -0.000058
C      -1.77490033     -0.60277760      0.93344711      0.000214    -0.000062     0.000107
C       0.66758381      1.80831913      0.94325785     -0.000033     0.000196    -0.000333
C      -3.91923391      0.50416257      0.32444423      0.000187    -0.000082     0.000080
C       2.81258582     -0.79863059     -2.16507424      0.000195    -0.000189     0.000226
H       0.42936535     -0.11153755      1.79557340      0.000212    -0.000058     0.000166
H       1.39473739     -1.46136189     -0.01330371      0.000495     0.000231     0.000275
H       2.57184736     -0.30650466      0.60637169     -0.000306     0.000091    -0.000133
H       0.92376079      0.01041763     -1.94378497     -0.000378     0.000096     0.000565
H       2.13751038      1.14347682     -1.40459588      0.000335    -0.000081    -0.000282
H      -0.99729888      0.34018258     -0.72422254      0.000248     0.000083    -0.000282
H      -2.81838287     -0.88128001     -0.87833113      0.000599     0.000093     0.000658
H      -3.30834615      1.37341395      0.10045682     -0.000402     0.000533    -0.000128
H      -4.28457929      0.58241667      1.34994373      0.000282    -0.000752    -0.000664
H      -4.81833498      0.43459215     -0.35823130      0.000182     0.000113    -0.000537
H      -4.13879453     -1.81148312      1.54849770     -0.000732    -0.000280    -0.000093
H      -3.34755877     -2.79936433      0.52514092      0.000092    -0.000180    -0.000525
H      -0.24875201      3.40816790      1.21796500     -0.001383     0.000337     0.000599
H       4.56755589     -0.78750691     -3.18248792      0.000113     0.000428     0.000583
H       4.12687398      0.76559556     -2.53286704     -0.000584     0.000149    -0.000591
30
Frame 6  Energy = -779.1142093558 Hartree
O      -0.42080425      2.44982581      0.74275453     -0.000359    -0.000069    -0.000179
O      -1.66090847     -0.77344981      2.17033268      0.000241     0.000060    -0.000058
O       1.81595158      2.21304299      0.82055575      0.000234    -0.000113     0.000228
O       2.79369446     -1.50271639     -3.07937637      0.000078    -0.000039     0.000235
N      -0.82416640     -0.14595729      0.16290790     -0.000025    -0.000082     0.000104
N      -3.95023987     -1.88546808      0.88432448      0.000127     0.000115     0.000024
N       4.05667524     -0.14318529     -1.78824714     -0.000017    -0.000004     0.000043
C       0.46114630      0.21145985      0.71150966     -0.000018     0.000021     0.000211
C       1.60389267     -0.53488794      0.03938405     -0.000001     0.000161     0.000090
C       1.62071055     -0.21188065     -1.44543830      0.000083    -0.000051    -0.000178
C      -3.19039932     -0.81103232      0.30165192      0.000248    -0.000059    -0.000028
C      -1.82977000     -0.59991038      0.97057231     -0.000011     0.000061    -0.000201
C       0.71787581      1.72660411      0.76298261     -0.000441     0.000039    -0.000131
C      -3.91616435      0.52274736      0.47371908      0.000159    -0.000091    -0.000174
C       2.86125321     -0.69365925     -2.18587239     -0.000018     0.000085     0.000107
H       0.33726940     -0.08644411      1.75975873      0.000072    -0.000430     0.000005
H       1.39818649     -1.59178995      0.17226432     -0.000162     0.000693    -0.000228
H       2.54968534     -0.30406682      0.52289302     -0.000168     0.000565    -0.000233
H       0.79524224     -0.69625496     -1.94762708      0.000536     0.000208    -0.000587
H       1.55283437      0.88397740     -1.63589875     -0.000739    -0.000035     0.000539
H      -1.02877353      0.07727197     -0.78894144     -0.000168     0.000432     0.000024
H      -3.06728075     -1.00312799     -0.78261680     -0.000411     0.000149     0.000226
H      -3.36889742      1.32622469     -0.00753752     -0.000309    -0.000147    -0.001588
H      -4.04363252      0.81229498      1.49951633     -0.000405    -0.000149    -0.000485
H      -4.90565450      0.45268891      0.02076918     -0.000775     0.000580    -0.001322
H      -3.89747819     -1.83424295      1.88926413      0.000094    -0.000380     0.000040
H      -3.53458555     -2.77557268      0.65245390      0.000681    -0.000390     0.000552
H      -0.18084361      3.35261907      0.86927930     -0.001268    -0.000556     0.000281
H       4.88996252     -0.43532561     -2.26872849     -0.000817     0.000039    -0.000022
H       4.10707071      0.55610465     -1.06689669     -0.000448    -0.000405     0.000440
30
Frame 7  Energy = -779.1134213747 Hartree
O      -0.19303316      2.57528803      0.43821016      0.000014    -0.000039     0.000065
O      -1.53415821     -1.23491731      1.88324984      0.000103     0.000091     0.000149
O       1.73085824      2.19768040      1.46037614      0.000046     0.000040     0.000169
O       3.09665597     -1.90203704     -1.82146397      0.000013    -0.000063    -0.000083
N      -0.89370793      0.09475382      0.17876576      0.000097    -0.000190    -0.000159
N      -3.90440859     -1.90611738      0.62202908      0.000304    -0.000147    -0.000106
N       3.44216663     -0.08559561     -3.11744534     -0.000092    -0.000177     0.000246
C       0.41895731      0.29060017      0.76063788      0.000221     0.000218    -0.000184
C       1.54768684     -0.47685561      0.06938916      0.000003    -0.000109    -0.000002
C       1.79955672      0.07620400     -1.33843093     -0.000282     0.000200     0.000141
C      -3.20145351     -0.69691770      0.21314799     -0.000040     0.000089    -0.000276
C      -1.80787491     -0.64696170      0.85779746      0.000047     0.000091    -0.000085
C       0.75961586      1.76122040      0.93309024     -0.000319     0.000204     0.000286
C      -3.97602790      0.56068853      0.58981738      0.000042     0.000022    -0.000057
C       2.84478418     -0.75282142     -2.08330728      0.000057    -0.000236     0.000218
H       0.32149337     -0.07223578      1.78364986      0.000119     0.000106    -0.000418
H       1.29240852     -1.53022011      0.01647391      0.000224     0.000256    -0.000107
H       2.43581903     -0.37266128      0.67949677      0.000481     0.000046    -0.000247
H       0.89512186      0.04787897     -1.93424785      0.000345     0.000657    -0.000881
H       2.13137153      1.12858817     -1.30502012     -0.001248     0.000425     0.000298
H      -1.23027288      0.63123964     -0.59345434     -0.000631     0.000022    -0.000506
H      -3.06404392     -0.72886556     -0.85843505     -0.000891     0.000079    -0.001086
H      -3.47494058      1.48571087      0.27576413     -0.000480    -0.000291     0.000118
H      -4.10401767      0.60796979      1.69760965      0.000163    -0.000689    -0.000277
H      -4.93877881      0.47168417      0.12037975     -0.001224     0.000967     0.000412
H      -3.74121681     -2.00745803      1.61356440     -0.000154    -0.000137    -0.000651
H      -3.45481344     -2.72073563      0.22010635      0.000059    -0.000453    -0.000412
H       0.08955402      3.47505965      0.68959006     -0.001337    -0.000004    -0.000822
H       4.15624348     -0.56453821     -3.63556556      0.000715     0.000024    -0.000250
H       3.39716473      0.91374113     -3.16981529      0.000003    -0.000033    -0.000151
30
Frame 8  Energy = -779.1156352968 Hartree
O       0.00280679      3.00751897      0.34709982     -0.000076     0.000036     0.000037
O      -1.28677555     -1.27034367      1.66209339     -0.000094     0.000110    -0.000182
O       1.88721729      2.54259739      1.46564382      0.000083    -0.000015     0.000434
O       1.67087568     -1.92960358     -2.37131123     -0.000039    -0.000032    -0.000247
N      -0.88424433      0.52792325      0.34411344     -0.000169    -0.000040     0.000004
N      -3.10183678     -2.07264559     -0.44484261      0.000045     0.000279    -0.000022
N       3.66914089     -0.92905591     -2.10681895     -0.000070    -0.000089     0.000275
C       0.45441719      0.69694478      0.90722251      0.000099    -0.000180     0.000087
C       1.53493207     -0.13805455      0.23022698      0.000137    -0.000060     0.000070
C       1.72045581      0.18613490     -1.26611361     -0.000061     0.000118    -0.000010
C      -3.00856703     -0.73969581      0.11197699     -0.000329    -0.000131    -0.000306
C      -1.65940233     -0.51586968      0.78031604      0.000163     0.000035    -0.000203
C       0.87907526      2.15465056      0.92639444      0.000148    -0.000192    -0.000154
C      -4.14916247     -0.53959340      1.09862272     -0.000104     0.000023     0.000021
C       2.31835716     -0.98756531     -1.97880018      0.000301     0.000068     0.000046
H       0.43993864      0.39317365      1.95093896      0.000719    -0.000071     0.000056
H       1.24482915     -1.19315934      0.33450601     -0.000310    -0.000102     0.000319
H       2.45846819      0.00739222      0.80297732      0.000201     0.000371    -0.000127
H       0.73670815      0.38315586     -1.73240895     -0.000554    -0.000066     0.001054
H       2.34228414      1.07926602     -1.40911848      0.000217    -0.000304     0.000478
H      -1.22544922      1.11796242     -0.39851178      0.000108     0.000300    -0.000490
H      -3.13107039     -0.00447205     -0.70569764      0.000216    -0.000707    -0.000704
H      -4.15245101      0.49453155      1.48128292     -0.000911     0.000033    -0.000774
H      -4.01733959     -1.21567891      1.95238264     -0.000222    -0.000425     0.000327
H      -5.06989616     -0.74438999      0.63285680      0.000856     0.001087     0.000609
H      -3.05565558     -2.78535819      0.27356110     -0.000276    -0.000157    -0.000286
H      -2.37525738     -2.26140026     -1.13771158     -0.000069    -0.000032    -0.000323
H       0.38530916      3.91966837      0.44200936      0.000757     0.000411     0.000042
H       4.14435872     -1.64182151     -2.62816170     -0.000055     0.000097     0.000376
H       4.17863447     -0.12480237     -1.79932891     -0.000199    -0.000271     0.000555
30
Frame 9  Energy = -779.1130782104 Hartree
O      -0.31139052      2.72595165      0.59353161     -0.000030    -0.000220     0.000131
O      -1.36312161     -1.42659288      1.67367013     -0.000208    -0.000088    -0.000236
O       1.80231759      2.30448225      1.20764328      0.000365    -0.000251     0.000025
O       2.70638628     -2.05845919     -2.21565739     -0.000149     0.000016     0.000075
N      -0.94453320      0.18579376      0.16630715     -0.000002     0.000244    -0.000275
N      -3.89558904     -1.93366096      0.55603840     -0.000090    -0.000124     0.000015
N       3.90120651     -0.13152456     -2.42561371      0.000053     0.000106     0.000105
C       0.37722185      0.43428481      0.70642283     -0.000090     0.000023    -0.000017
C       1.49995443     -0.36163192      0.02493125     -0.000070     0.000189    -0.000069
C       1.69484172      0.00373064     -1.43399338      0.000113    -0.000094     0.000151
C      -3.18940175     -0.69138038      0.26922902     -0.000098     0.000039    -0.000068
C      -1.75552199     -0.70848975      0.77649721     -0.000107    -0.000019    -0.000126
C       0.72405148      1.89699308      0.84387406      0.000091    -0.000049     0.000434
C      -3.94990361      0.47950133      0.88281213      0.000103     0.000290     0.000057
C       2.79184177     -0.84885547     -2.06409041      0.000161     0.000078     0.000119
H       0.36031958      0.08841713      1.73767839      0.000191     0.000118     0.000462
H       1.27694225     -1.43017294      0.08580258      0.000186    -0.000185     0.000322
H       2.42308575     -0.19169213      0.56428410     -0.000027     0.000036     0.000588
H       0.79090073     -0.19244868     -2.00589072      0.000352     0.000963    -0.000284
H       1.94556793      1.07802577     -1.55382884     -0.000665    -0.000625     0.000068
H      -1.30087500      0.83919763     -0.51104645      0.000513    -0.000046    -0.000427
H      -3.14752291     -0.56459971     -0.80510363     -0.000638    -0.000880    -0.001232
H      -3.43973636      1.42686922      0.67676321      0.001096     0.000271     0.000271
H      -3.97393656      0.31647683      1.98966592     -0.000829    -0.000431    -0.000871
H      -4.95111639      0.52818008      0.53506932     -0.000679     0.000224    -0.000132
H      -3.80800342     -2.12994108      1.55172820      0.000065    -0.000572    -0.000637
H      -3.42112830     -2.69306808      0.06523513     -0.000340     0.000386    -0.001429
H      -0.01564838      3.59357902      0.83416997      0.000816    -0.000026    -0.000362
H       4.72708096     -0.62677197     -2.70518080     -0.000184     0.000456    -0.000054
H       3.96388842      0.85706686     -2.29568221     -0.000204     0.000357     0.000212
30
Frame 10  Energy = -779.1124704780 Hartree
O      -0.39718139      2.58291104      0.74587677      0.000173    -0.000085    -0.000027
O      -1.51967070     -1.32347147      1.84933692     -0.000127     0.000081     0.000005
O       1.79931384      2.27748126      0.97663805      0.000388    -0.000202    -0.000219
O       2.83657889     -2.00486625     -2.05487353     -0.000062    -0.000121     0.000165
N      -0.87853527      0.09115452      0.20699499     -0.000251    -0.000127    -0.000081
N      -3.91207783     -1.89114197      0.47609454     -0.000111     0.000049     0.000203
N       3.86966769     -0.07530721     -2.62652844      0.000176     0.000146     0.000075
C       0.43241860      0.34400900      0.73628365      0.000133     0.000231    -0.000091
C       1.54130350     -0.40662651      0.01882928     -0.000126     0.000079    -0.000206
C       1.73675695      0.01666095     -1.43352576     -0.000073    -0.000022    -0.000383
C      -3.20435889     -0.64309974      0.27053300     -0.000259     0.000069     0.000015
C      -1.79382682     -0.67412578      0.85188350     -0.000190    -0.000018     0.000145
C       0.71710114      1.81297875      0.85368138      0.000088    -0.000015     0.000181
C      -3.95301851      0.54818087      0.83009474      0.000121    -0.000068    -0.000010
C       2.86254101     -0.78497690     -2.05988913      0.000055     0.000008     0.000119
H       0.38845253     -0.03170561      1.77109201     -0.000294    -0.000274    -0.000717
H       1.26873729     -1.45419326      0.08194688     -0.000642     0.000664     0.000679
H       2.46247953     -0.26250001      0.58064562     -0.000057    -0.000152    -0.000641
H       0.85074259     -0.22630119     -2.01700259      0.000556     0.000400     0.000813
H       1.91592997      1.09093989     -1.48923390     -0.000132    -0.000361    -0.000276
H      -1.19744822      0.69511362     -0.52770745      0.000239    -0.000194     0.000127
H      -3.15048089     -0.50324394     -0.82149381      0.000351     0.000735     0.000315
H      -3.44458349      1.47199281      0.50160143      0.000266    -0.000247    -0.000349
H      -3.92409704      0.51029024      1.91169762     -0.000013    -0.000092    -0.000100
H      -4.97840993      0.58317687      0.49281695     -0.001402     0.000405    -0.001655
H      -3.68993206     -2.20564231      1.41487767      0.000299     0.000533     0.000921
H      -3.49883268     -2.57525961     -0.14596756     -0.000047     0.000684     0.000133
H      -0.09721533      3.49153895      0.78726259      0.000173    -0.000667     0.001364
H       4.53874976     -0.55732804     -3.19562863      0.000269    -0.000032     0.001013
H       3.82599563      0.92140380     -2.67677768      0.000118    -0.000296    -0.000413
30
Frame 11  Energy = -779.1159136505 Hartree
O      -0.05055597      2.99913433      0.50525113      0.000363    -0.000058    -0.000033
O      -1.25788331     -1.36590261      1.64192885     -0.000113     0.000122     0.000196
O       2.06303209      2.49044425      0.93919791      0.000330    -0.000163    -0.000133
O       1.93556479     -1.89983156     -2.52529380      0.000007     0.000039     0.000049
N      -0.93435903      0.53631581      0.46254325      0.000113    -0.000006    -0.000093
N      -3.23296587     -1.83959462     -0.60159497     -0.000207    -0.000077     0.000217
N       3.77573092     -0.79561238     -1.83399003      0.000103    -0.000214    -0.000108
C       0.42099936      0.72276992      0.92380200     -0.000104    -0.000027     0.000043
C       1.39004269     -0.23876439      0.22709739     -0.000107     0.000032    -0.000048
C       1.55857943      0.08479880     -1.24896940     -0.000182     0.000300     0.000151
C      -3.10653334     -0.66253999      0.23002426     -0.000294     0.000140    -0.000099
C      -1.70622555     -0.54008070      0.86762112     -0.000015     0.000034    -0.000053
C       0.91950795      2.14255454      0.80633321     -0.000140    -0.000156    -0.000275
C      -4.18331470     -0.71033220      1.29586012      0.000148     0.000117    -0.000188
C       2.42791172     -0.94070148     -1.95921332      0.000070    -0.000070     0.000014
H       0.45566111      0.44630031      1.99194807     -0.000052     0.000528     0.000216
H       0.95622276     -1.23557469      0.35026364     -0.000079     0.000654    -0.000281
H       2.35208383     -0.21563166      0.75591106      0.000311    -0.000061     0.000285
H       0.61725110      0.07819622     -1.77751874      0.000114    -0.000484     0.000116
H       2.02594557      1.09610326     -1.34702709     -0.000174     0.000799     0.000559
H      -1.32435208      1.19582246     -0.18378175      0.000008    -0.000132     0.000412
H      -3.21573085      0.18875849     -0.43842939     -0.000172    -0.000286     0.000350
H      -4.12001254      0.09117175      2.01675441     -0.000907     0.000157     0.000128
H      -4.07243148     -1.64610473      1.84585849     -0.000266    -0.000848     0.000602
H      -5.19624530     -0.66856223      0.84932522     -0.001047     0.000066    -0.000201
H      -3.07211486     -2.67025953     -0.04922482     -0.000941     0.000326     0.000773
H      -2.55821416     -1.83675191     -1.34499918      0.000624    -0.000183     0.000544
H       0.35275514      3.90999322      0.56557749      0.000522    -0.000106     0.000199
H       4.34912926     -1.47532809     -2.29445722     -0.000624    -0.000389     0.000240
H       4.18607715      0.05069799     -1.49409596      0.000675     0.000616     0.000006
30
Frame 12  Energy = -779.1125404711 Hartree
O      -0.15528561      2.77151296      0.38256794      0.000307     0.000097    -0.000162
O      -1.39475698     -1.47216382      1.61167568     -0.000236    -0.000030    -0.000236
O       1.81481867      2.32225265      1.34670155     -0.000272     0.000123     0.000113
O       2.60137435     -2.04738023     -1.87075359      0.000339    -0.000016     0.000204
N      -0.89811013      0.28211049      0.23801600      0.000091    -0.000200    -0.000134
N      -3.75756928     -1.98561246      0.21975835     -0.000024    -0.000053     0.000171
N       3.54207628     -0.28122690     -2.88452757      0.000067    -0.000068    -0.000091
C       0.39241062      0.47523537      0.84460611     -0.000319    -0.000045    -0.000092
C       1.51104951     -0.32739389      0.19781411     -0.000045    -0.000109     0.000136
C       1.81241513      0.14672015     -1.21329984      0.000306     0.000233     0.000036
C      -3.12853415     -0.67672284      0.17417173     -0.000427     0.000042     0.000175
C      -1.71588739     -0.67950802      0.75071687     -0.000250     0.000117    -0.000032
C       0.77223723      1.92966890      0.88689724      0.000158     0.000230    -0.000137
C      -3.99147236      0.29256315      0.98145208      0.000139     0.000025    -0.000010
C       2.71291731     -0.84194288     -1.96072256      0.000152    -0.000285     0.000097
H       0.29807013      0.20454999      1.89595576      0.000275    -0.000111     0.000260
H       1.25157525     -1.38002235      0.15433145     -0.000558    -0.000090    -0.000241
H       2.39086617     -0.22385777      0.80141383     -0.000156    -0.000541     0.000413
H       0.89864480      0.19076491     -1.78576413     -0.000111    -0.000426     0.000163
H       2.25778430      1.14249348     -1.24040798      0.000728     0.000541    -0.000497
H      -1.26757807      1.01252496     -0.35404177     -0.000129     0.000272     0.000153
H      -3.09008952     -0.36767622     -0.88639327     -0.000129     0.000005    -0.000126
H      -3.64053060      1.31070189      0.95322838      0.000733     0.000392     0.000069
H      -3.97322238     -0.04240319      2.01346435     -0.000453     0.000562    -0.000034
H      -5.05749630      0.24886699      0.61653715     -0.000062    -0.000602    -0.001043
H      -3.59918513     -2.38484310      1.14967326     -0.000380    -0.000021     0.000679
H      -3.25098934     -2.60322903     -0.40171072      0.000581    -0.000200     0.000012
H       0.20416943      3.66443993      0.41173980     -0.001340     0.000520    -0.000022
H       4.10028558     -0.92135008     -3.41565303      0.000890    -0.000439     0.000289
H       3.77757642      0.69020023     -2.86046390     -0.000515    -0.000649    -0.000081
30
Frame 13  Energy = -779.1154058235 Hartree
O      -0.06006462      2.84899206      0.35570213      0.000074     0.000004    -0.000109
O      -1.32136440     -1.44975765      1.58409313     -0.000098    -0.000087     0.000149
O       1.85071924      2.45888356      1.43355223      0.000061     0.000218    -0.000083
O       2.49497805     -2.13510899     -1.77473183      0.000042    -0.000273     0.000217
N      -0.86284262      0.36974819      0.33430324     -0.000138     0.000229    -0.000062
N      -3.51423297     -1.91731388     -0.30552512      0.000057    -0.000265    -0.000042
N       3.41449161     -0.40825301     -2.87347073      0.000090     0.000160    -0.000227
C       0.45773357      0.56520252      0.95021434      0.000041     0.000104    -0.000255
C       1.52428016     -0.28194054      0.20566875     -0.000023    -0.000125     0.000029
C       1.66252855      0.06592119     -1.26109790      0.000173     0.000104    -0.000111
C      -3.11180022     -0.61026973      0.17164488     -0.000256     0.000199    -0.000078
C      -1.70044507     -0.60095891      0.80064893     -0.000007    -0.000207     0.000212
C       0.85053169      2.03944040      0.95336474     -0.000189    -0.000158    -0.000050
C      -4.13108212     -0.07281859      1.17311420     -0.000110     0.000179     0.000287
C       2.54867236     -0.93039894     -1.95905847      0.000149    -0.000102    -0.000061
H       0.42782921      0.19325699      1.96849443     -0.000243     0.000225     0.000596
H       1.25350450     -1.33221774      0.27246063      0.000018    -0.001411    -0.000534
H       2.47490700     -0.15492893      0.70226729     -0.000396     0.000328     0.000279
H       0.65780339     -0.03256235     -1.72333096     -0.000024    -0.000869     0.000509
H       2.00960753      1.07994914     -1.43030827      0.000187     0.000175    -0.000377
H      -1.25901662      1.14659024     -0.15692011     -0.000022     0.000543     0.000071
H      -3.08342571      0.04423655     -0.69627656      0.000293     0.000500     0.000467
H      -3.87428823      0.91465908      1.51002037     -0.000093    -0.000006     0.000290
H      -4.22964031     -0.76493958      1.98809135      0.000306     0.000667     0.000624
H      -5.12545689     -0.02832211      0.66212387      0.000292     0.001348     0.000594
H      -3.32552091     -2.64341608      0.39428537     -0.000138    -0.000107     0.000267
H      -2.92912538     -2.17715366     -1.09667181      0.000237    -0.000217    -0.000328
H       0.31525951      3.71817828      0.39197029      0.001211     0.000219    -0.000174
H       3.98180946     -1.04268202     -3.39993359     -0.000085    -0.000217    -0.000279
H       3.50405021      0.57835502     -3.00801995     -0.000289    -0.000662     0.000120
30
Frame 14  Energy = -779.1145743017 Hartree
O      -0.32519968      2.73745614      0.45534942     -0.000120     0.000077     0.000029
O      -1.35444338     -1.47801009      1.60449833     -0.000080     0.000079     0.000063
O       1.83194596      2.36365067      0.96691661     -0.000137     0.000254     0.000254
O       2.59755267     -1.86224565     -2.67675848      0.000068    -0.000118     0.000031
N      -0.93724947      0.22067763      0.16729970     -0.000122     0.000021     0.000012
N      -3.84515298     -1.93198423      0.42424846     -0.000022    -0.000227    -0.000022
N       4.01068584     -0.31802343     -1.80762863      0.000012    -0.000110    -0.000340
C       0.38349942      0.47189090      0.71798595      0.000089    -0.000020     0.000179
C       1.50320930     -0.32177167      0.08549622      0.000051    -0.000051    -0.000075
C       1.62026576     -0.05979465     -1.43873986      0.000063    -0.000107    -0.000285
C      -3.21275022     -0.63607857      0.32360027     -0.000003     0.000211    -0.000066
C      -1.73791616     -0.69555092      0.74206170     -0.000076    -0.000020     0.000107
C       0.71913755      1.93329330      0.71850334      0.000050     0.000078     0.000109
C      -3.91716545      0.34446172      1.26194692      0.000007    -0.000216     0.000255
C       2.76412420     -0.85728774     -2.02173863      0.000211    -0.000113    -0.000209
H       0.31531164      0.17664296      1.77111910     -0.000803    -0.000425     0.000471
H       1.28886195     -1.37381379      0.22798455     -0.000426     0.000497    -0.000777
H       2.44096052     -0.08897972      0.63085349     -0.000091     0.000113    -0.000402
H       0.70923604     -0.34448951     -1.93431956     -0.000496     0.001067     0.000821
H       1.79308146      1.00194170     -1.61137393     -0.000627    -0.000477    -0.000526
H      -1.33599598      0.78914120     -0.55435578      0.000427    -0.000920     0.000606
H      -3.32327957     -0.28466709     -0.71707448     -0.000329     0.000138     0.000042
H      -3.50047717      1.35899173      1.25224770      0.000363     0.000333    -0.000493
H      -3.83255929     -0.04505973      2.27869660      0.000537     0.000960     0.000719
H      -4.99305818      0.42111586      1.02195394      0.001047     0.001050     0.000360
H      -3.85448459     -2.21796455      1.39806962     -0.000316     0.000341     0.000169
H      -3.29772457     -2.65145218     -0.03694472      0.000861    -0.000397    -0.000506
H      -0.02000435      3.67726036      0.55371174      0.000489     0.000180    -0.000678
H       4.79394389     -0.94469423     -1.93273890      0.000502     0.000368    -0.000942
H       4.10341546      0.38650166     -1.09235504      0.000276    -0.000229    -0.000168
30
Frame 15  Energy = -779.1146661749 Hartree
O      -0.05247271      2.89210633      0.44371456      0.000081    -0.000044     0.000083
O      -1.30123443     -1.38907054      1.53768810     -0.000044    -0.000061    -0.000142
O       2.00912830      2.37016382      1.11009858     -0.000256    -0.000001    -0.000010
O       2.25881191     -2.05985521     -2.16390632      0.000073    -0.000135    -0.000352
N      -0.94350010      0.47739360      0.31084492      0.000086    -0.000130     0.000087
N      -3.47922256     -2.00832971     -0.18451752      0.000082    -0.000114    -0.000079
N       3.75597975     -0.36302852     -2.23201537     -0.000052    -0.000131    -0.000007
C       0.39854325      0.60890013      0.86962872      0.000105     0.000039     0.000360
C       1.37610166     -0.34564429      0.17900056      0.000049     0.000066    -0.000079
C       1.57984283      0.03477530     -1.25400789      0.000086     0.000043    -0.000198
C      -3.13862408     -0.63179257      0.17851052     -0.000250    -0.000000     0.000182
C      -1.70825750     -0.56772651      0.73061980      0.000008     0.000137    -0.000044
C       0.89779257      2.02873055      0.84690262      0.000122     0.000159     0.000044
C      -4.13021138     -0.20827174      1.26077096     -0.000151     0.000003     0.000258
C       2.53126319     -0.90285051     -1.93114923      0.000088     0.000198    -0.000177
H       0.32205400      0.30810039      1.91158095      0.000313     0.000319     0.000608
H       0.99301562     -1.33979724      0.28965961      0.000069    -0.000287     0.000263
H       2.34410691     -0.31064725      0.69287433     -0.000333     0.000622    -0.000093
H       0.64181331     -0.08919228     -1.77978315     -0.000463     0.000354     0.000116
H       1.91572145      1.09276336     -1.34774684      0.000248    -0.000181    -0.000030
H      -1.32405135      1.17813095     -0.30571158     -0.000757     0.000706    -0.000165
H      -3.28084617     -0.00354870     -0.69691913      0.000107     0.000047     0.000547
H      -3.94592679      0.80791696      1.60894564     -0.000139     0.000771     0.000517
H      -3.99365445     -0.86339163      2.12590105      0.000433    -0.000672     0.000709
H      -5.13139993     -0.24426591      0.88793705      0.001051     0.001018     0.001166
H      -3.43091818     -2.57416821      0.64315214     -0.000729    -0.000507     0.000086
H      -2.81337607     -2.37578071     -0.85128566      0.000065     0.000293    -0.001105
H       0.38490213      3.77099779      0.40954569     -0.000654    -0.000743     0.001233
H       4.42237924     -0.90397795     -2.76248865      0.000332    -0.000151    -0.000915
H       3.88051007      0.63589996     -2.22836101      0.000482    -0.000249    -0.000389
30
Frame 16  Energy = -779.1159682724 Hartree
O      -0.23463057      2.82236840      0.58510283      0.000175     0.000079     0.000059
O      -1.31873094     -1.43432448      1.63098786     -0.000061    -0.000024     0.000058
O       1.90959988      2.28900457      0.91222834      0.000234    -0.000153     0.000015
O       2.55868633     -1.95112859     -2.40057968      0.000022     0.000079    -0.000121
N      -0.95547694      0.26520916      0.17459351      0.000009     0.000179     0.000085
N      -3.83425569     -2.03494279      0.41165865     -0.000038    -0.000133     0.000167
N       3.96557555     -0.22700894     -2.01918263     -0.000202     0.000257    -0.000146
C       0.35576174      0.46370226      0.75054080      0.000149    -0.000009    -0.000049
C       1.43283356     -0.39400384      0.07811915     -0.000162    -0.000203     0.000123
C       1.61476232      0.00857987     -1.40714533     -0.000050    -0.000066     0.000177
C      -3.19975228     -0.71209668      0.29163363     -0.000155    -0.000161     0.000015
C      -1.74849487     -0.69940670      0.76865775      0.000030     0.000001    -0.000167
C       0.77689250      1.92377153      0.77648326     -0.000160    -0.000271     0.000047
C      -3.99855410      0.36128698      1.04805502      0.000083     0.000160     0.000150
C       2.73537951     -0.81696700     -2.01272990     -0.000029     0.000335    -0.000298
H       0.31921203      0.19105467      1.81411111      0.000033    -0.000706     0.000307
H       1.12029877     -1.42783581      0.16266058      0.000413    -0.000322    -0.000614
H       2.38500202     -0.30186249      0.64563462     -0.000137    -0.000011     0.000057
H       0.70976658     -0.13341478     -2.00553443     -0.001058     0.000443    -0.000487
H       1.86606527      1.07112368     -1.42409298      0.000253     0.000031    -0.000283
H      -1.40878477      1.02710486     -0.31669647     -0.000093    -0.000264     0.000218
H      -3.18652092     -0.43248812     -0.76473740     -0.000427    -0.000404    -0.000279
H      -3.56515301      1.38266766      0.95025228      0.000323    -0.000284    -0.000053
H      -4.08478642      0.07606272      2.11997388      0.000669    -0.001122     0.000733
H      -4.97616853      0.39725949      0.63154158      0.000352    -0.000125     0.001151
H      -3.60515362     -2.36789794      1.33699826     -0.000352     0.000096    -0.000026
H      -3.34804536     -2.65771921     -0.23060499      0.000284     0.000567     0.000180
H       0.14795375      3.67755077      0.68188297      0.000710    -0.000193    -0.000436
H       4.73433196     -0.74665115     -2.39651377     -0.000099     0.000645    -0.000675
H       4.11789408      0.73493465     -1.79351869     -0.000003     0.000286    -0.001414
30
Frame 17  Energy = -779.1131727350 Hartree
O      -0.20478377      2.84575911      0.34061531     -0.000136    -0.000016    -0.000024
O      -1.26823289     -1.42118523      1.66066573      0.000265    -0.000089    -0.000235
O       1.87026743      2.48588104      1.07420181      0.000070    -0.000164     0.000116
O       2.19089962     -1.83016884     -2.69357514     -0.000250     0.000010     0.000011
N      -0.89239386      0.35268547      0.33026613      0.000021     0.000245     0.000014
N      -3.55392778     -2.04213745     -0.00319273     -0.000164     0.000149     0.000086
N       3.86968585     -0.66725555     -1.76383934     -0.000204     0.000003    -0.000163
C       0.41563859      0.57898281      0.87554428     -0.000105    -0.000069    -0.000322
C       1.51332935     -0.25443172      0.17013877      0.000039     0.000004    -0.000109
C       1.60229520      0.04648054     -1.32106827      0.000086    -0.000090     0.000046
C      -3.10383238     -0.69580193      0.23865207      0.000063     0.000056     0.000201
C      -1.68072448     -0.65101196      0.80604968      0.000017    -0.000111     0.000031
C       0.77978138      2.04244730      0.79211580      0.000038    -0.000013     0.000203
C      -4.04315569      0.04175321      1.20343758      0.000289    -0.000289     0.000152
C       2.56491684     -0.90508751     -2.01666744      0.000020     0.000275    -0.000171
H       0.37200487      0.26900808      1.91929748      0.000042     0.000278     0.000279
H       1.30506391     -1.29862253      0.27601906      0.000482    -0.000544     0.000194
H       2.48915991     -0.06640221      0.63498468     -0.000378    -0.000697    -0.000197
H       0.64671271     -0.07900993     -1.81445880      0.000461    -0.000141     0.000414
H       1.92365350      1.08861330     -1.48890488      0.000006    -0.000500     0.000855
H      -1.25578435      1.02414744     -0.31951105      0.000108    -0.000314    -0.000844
H      -3.08882733     -0.15322302     -0.71292708     -0.000058    -0.000353     0.000407
H      -3.71912060      1.08380692      1.29237743     -0.000047    -0.000412     0.000848
H      -4.05574380     -0.45191418      2.17808568     -0.000617     0.000049    -0.000312
H      -5.03113938      0.04133563      0.83229443     -0.000524    -0.000036     0.000765
H      -3.37325635     -2.59787931      0.82232518     -0.000415     0.000362    -0.000206
H      -3.11429414     -2.44382197     -0.82847833      0.001136     0.000709     0.000032
H       0.15942093      3.74525407      0.26240577      0.000898     0.001342     0.001171
H       4.54361446     -1.24782075     -2.23188083     -0.000150     0.001390    -0.000313
H       4.22515479      0.13812385     -1.28465115     -0.000644     0.000295    -0.000488
30
Frame 18  Energy = -779.1134898402 Hartree
O      -0.23764716      2.80934768      0.61825082     -0.000038    -0.000142    -0.000250
O      -1.28514182     -1.58474268      1.44985271      0.000022     0.000037    -0.000073
O       1.92175856      2.41606906      1.05528710      0.000011    -0.000043    -0.000098
O       2.46582392     -2.07028299     -1.93285012     -0.000125     0.000170    -0.000001
N      -0.93626559      0.36257016      0.39791349      0.000066    -0.000063    -0.000076
N      -3.74967833     -1.99901968      0.20375854      0.000291     0.000176    -0.000133
N       3.68070773     -0.31367705     -2.64993971     -0.000239     0.000195     0.000243
C       0.41926646      0.52408589      0.90345482     -0.000341    -0.000165    -0.000074
C       1.49273596     -0.33740626      0.20117832     -0.000222     0.000189    -0.000157
C       1.70680446      0.10565037     -1.27095960      0.000012    -0.000007     0.000201
C      -3.11535466     -0.69661773      0.14197766      0.000203    -0.000042     0.000416
C      -1.70707145     -0.70622732      0.72271556     -0.000040     0.000032    -0.000101
C       0.81994441      2.00394313      0.87576613      0.000306    -0.000098    -0.000167
C      -4.01077077      0.27277740      0.92410103      0.000293    -0.000096     0.000170
C       2.65469939     -0.88502692     -1.96296251      0.000182    -0.000062     0.000187
H       0.41470745      0.24603281      1.95360795     -0.000110    -0.000364    -0.000093
H       1.17800494     -1.38031807      0.23866167     -0.000026    -0.001073    -0.000452
H       2.44043632     -0.23968685      0.76997997     -0.000440    -0.000012     0.000387
H       0.73963906      0.06867254     -1.77763112     -0.001011    -0.000288    -0.000326
H       2.11225847      1.11737419     -1.29353042      0.000079    -0.000011     0.000551
H      -1.28144312      1.06350224     -0.22421615      0.000285     0.000446    -0.000229
H      -3.09706383     -0.39798699     -0.90193827     -0.000335     0.000039     0.000181
H      -3.58129104      1.27770839      0.96352500     -0.000190    -0.000850     0.000550
H      -4.14024505     -0.10210356      1.96171231      0.000147    -0.000074    -0.000249
H      -4.99061704      0.34847697      0.44500739     -0.001369     0.000630     0.000787
H      -3.75277135     -2.28978208      1.18176421     -0.000492    -0.000391    -0.000432
H      -3.20887922     -2.69293502     -0.31396407     -0.000066    -0.000286    -0.000411
H       0.10575371      3.74444018      0.62233021     -0.001204    -0.000095    -0.000075
H       4.33416278     -0.87836376     -3.17248685      0.000365     0.000785     0.000315
H       3.79265805      0.68223947     -2.71593976      0.000104    -0.000123     0.000069
30
Frame 19  Energy = -779.1131892243 Hartree
O      -0.27129228      2.85646696      0.85324482      0.000063    -0.000081    -0.000249
O      -1.38421578     -1.28572676      1.72235899     -0.000089     0.000092    -0.000111
O       1.92082464      2.45619200      1.07424733      0.000016     0.000293    -0.000319
O       2.21605822     -2.11487631     -1.95630773      0.000139     0.000026     0.000173
N      -0.84813219      0.36877513      0.28546673     -0.000168    -0.000043     0.000033
N      -3.45151207     -2.08915084     -0.15787785      0.000351     0.000019    -0.000117
N       3.65723151     -0.51792753     -2.63658488      0.000263    -0.000020    -0.000023
C       0.45498495      0.57435617      0.86473546     -0.000156    -0.000188    -0.000120
C       1.51812389     -0.24300290      0.15962536     -0.000288     0.000161     0.000266
C       1.70914209      0.12402884     -1.30743305     -0.000057    -0.000017     0.000290
C      -3.03902025     -0.71559752      0.07139168      0.000152    -0.000223     0.000123
C      -1.67321235     -0.58493656      0.77561555     -0.000186     0.000119    -0.000057
C       0.79693325      2.03235812      0.94322714     -0.000088     0.000116    -0.000120
C      -4.04058569      0.02024110      0.93851908      0.000269    -0.000264     0.000015
C       2.53040135     -0.95002579     -1.98313338     -0.000066     0.000053     0.000196
H       0.37757153      0.25759992      1.91365946     -0.000464    -0.000994    -0.000175
H       1.23936960     -1.29892458      0.28278665     -0.000389    -0.000382    -0.000052
H       2.44697963     -0.10411445      0.67125543     -0.000201    -0.000487     0.000136
H       0.75262670      0.17761005     -1.85163217     -0.000405     0.000136    -0.000190
H       2.19642328      1.10485378     -1.38954018      0.000044    -0.000264    -0.000103
H      -1.23065267      0.98392080     -0.41944526      0.000692    -0.000158     0.000373
H      -2.96514591     -0.20159923     -0.90542283      0.001012    -0.000055    -0.000066
H      -3.72824793      1.04742855      1.07653302     -0.000184    -0.000684     0.000095
H      -4.11918330     -0.41420548      1.91118089     -0.000832     0.000257     0.000775
H      -5.02139187      0.07914328      0.45053228     -0.000260     0.000579     0.001330
H      -3.34674876     -2.56984293      0.73501977     -0.000512     0.000037    -0.000477
H      -2.81218232     -2.57406684     -0.77223054     -0.000258     0.000268    -0.000074
H       0.05751724      3.74258451      0.93933655     -0.000896    -0.000565     0.000380
H       4.25672717     -1.20356734     -3.07481372     -0.000166    -0.000044     0.000837
H       4.04708928      0.40507517     -2.54525706     -0.000411     0.000616    -0.000355
30
Frame 20  Energy = -779.1163380619 Hartree
O      -0.36788130      2.73543441      0.72480527     -0.000114    -0.000109    -0.000070
O      -1.36449216     -1.39610380      1.83210251     -0.000185    -0.000070     0.000133
O       1.81878696      2.39822172      0.95326199     -0.000120    -0.000053     0.000109
O       2.43112743     -1.78121215     -2.77391324      0.000211    -0.000115    -0.000026
N      -0.91876174      0.16175659      0.24791144      0.000008    -0.000130    -0.000084
N      -3.86913636     -1.99490924      0.74628716      0.000238    -0.000035    -0.000055
N       4.04351479     -0.45536267     -1.94017448      0.000179     0.000129     0.000347
C       0.40449622      0.46267682      0.77266780     -0.000144     0.000234    -0.000054
C       1.50207712     -0.30571529      0.06351485     -0.000243    -0.000011     0.000074
C       1.68863866      0.06444372     -1.41332608     -0.000180    -0.000017     0.000242
C      -3.11973606     -0.85296684      0.23202360      0.000187     0.000233    -0.000251
C      -1.72637150     -0.73797148      0.86839779      0.000016    -0.000163     0.000123
C       0.70686264      1.94439239      0.83604407      0.000089    -0.000057    -0.000367
C      -3.86441861      0.48694784      0.51505830      0.000133     0.000092    -0.000286
C       2.72984416     -0.81450563     -2.10643639     -0.000132    -0.000026     0.000035
H       0.37322424      0.16505766      1.81536967     -0.000413    -0.000116     0.000279
H       1.23963879     -1.37979909      0.11024409     -0.000035     0.000417    -0.000422
H       2.44000862     -0.20214624      0.60529994     -0.000332     0.000545     0.000480
H       0.76420785     -0.06093975     -1.97571747      0.000135    -0.000093    -0.000021
H       2.03440211      1.09166253     -1.48199688      0.000545     0.000655    -0.000220
H      -1.31777350      0.71966700     -0.49266305     -0.000730     0.000131    -0.000037
H      -2.99247650     -0.93361063     -0.83960704     -0.000109     0.000306    -0.000541
H      -3.37953019      1.32301483      0.03335395      0.000268     0.000187     0.000116
H      -3.86499369      0.65154600      1.60263883      0.000435    -0.000733     0.000909
H      -4.92849429      0.42293962      0.13874331      0.000295     0.000206     0.000291
H      -3.59347079     -2.16060827      1.70718580     -0.000464     0.000426    -0.000078
H      -3.59592284     -2.84057375      0.28023578      0.000158     0.000566    -0.000178
H      -0.03786452      3.63532212      0.75638553      0.000941     0.000163    -0.001175
H       4.74212708     -1.13788263     -2.20067292     -0.000086    -0.000226     0.000806
H       4.34055045      0.25368862     -1.28555006      0.000041     0.000188     0.000336
30
Frame 21  Energy = -779.1171762947 Hartree
O       0.00929183      2.93135678      0.49256321     -0.000167     0.000100    -0.000224
O      -1.35348886     -1.38340219      1.64215982     -0.000016    -0.000193    -0.000071
O       1.91211527      2.38224532      1.50383323     -0.000050    -0.000023    -0.000096
O       2.67785889     -2.04442960     -1.54557657      0.000167     0.000007     0.000233
N      -0.84486951      0.37701296      0.30175516      0.000040    -0.000092    -0.000175
N      -3.52059155     -2.06486808     -0.19561429      0.000186     0.000104     0.000114
N       2.99031270     -0.53596724     -3.16647850      0.000267    -0.000000     0.000083
C       0.43097922      0.60232429      0.94798451      0.000024     0.000052     0.000083
C       1.51345110     -0.24200968      0.25612210      0.000180    -0.000203     0.000256
C       1.73458670      0.14424671     -1.21495027     -0.000008     0.000069     0.000048
C      -3.03713625     -0.71725285      0.03452990      0.000063    -0.000059    -0.000202
C      -1.67993471     -0.62461217      0.74738656     -0.000207     0.000013    -0.000234
C       0.88064597      2.04846223      1.02361307     -0.000321     0.000001     0.000334
C      -4.08709001     -0.00398622      0.90301765      0.000052     0.000006    -0.000074
C       2.49841097     -0.92359847     -1.97360294     -0.000189     0.000025     0.000039
H       0.35531745      0.24434880      1.96390163     -0.000460     0.000077    -0.000086
H       1.24369295     -1.29756432      0.33499839      0.000150     0.000018     0.000141
H       2.46363178     -0.12077010      0.81519258      0.000010     0.000033    -0.000222
H       0.75427535      0.26092178     -1.71058233     -0.000405     0.000625    -0.000378
H       2.28206180      1.09416654     -1.33471204     -0.001121     0.000255     0.000377
H      -1.13287484      1.03560862     -0.39293900     -0.000198    -0.000215     0.000128
H      -2.96564328     -0.21132838     -0.94736370      0.001043    -0.000325     0.000644
H      -3.73987705      0.98386436      1.15538512      0.000058     0.000581     0.000330
H      -4.25724498     -0.54245345      1.80038853     -0.000399    -0.000354     0.000265
H      -5.04622936      0.08423083      0.34611224     -0.000201    -0.000215    -0.000822
H      -3.59442500     -2.58488380      0.67233202     -0.000319     0.000903    -0.000433
H      -2.91549270     -2.59909447     -0.79347359      0.001190     0.000430    -0.000286
H       0.45623862      3.81975752      0.58476534     -0.000098     0.000521    -0.000248
H       3.45550888     -1.22599130     -3.73641596     -0.000510     0.000103    -0.000217
H       2.87518223      0.39544049     -3.53071490      0.000288     0.000255     0.000035
30
Frame 22  Energy = -779.1124748379 Hartree
O      -0.33723091      2.78619521      0.84172449     -0.000161     0.000090    -0.000231
O      -1.38352690     -1.35806351      1.73453312      0.000217     0.000012    -0.000058
O       1.86638858      2.40775532      0.80515404     -0.000084     0.000022     0.000266
O       2.42115866     -1.81026156     -2.76730471      0.000144     0.000291    -0.000008
N      -0.91564879      0.25310502      0.23862855      0.000105    -0.000100     0.000165
N      -3.72059694     -2.05894319      0.56147426      0.000096    -0.000152    -0.000051
N       4.01527870     -0.49219436     -1.88262040     -0.000117    -0.000056     0.000174
C       0.39331573      0.48951255      0.80387280      0.000011     0.000284    -0.000134
C       1.50283494     -0.33934022      0.12209778     -0.000223     0.000121     0.000009
C       1.66916829      0.00976767     -1.35962900     -0.000051     0.000017    -0.000068
C      -3.13050623     -0.79069146      0.21379145      0.000312    -0.000225    -0.000072
C      -1.74151723     -0.66354153      0.80594343      0.000141    -0.000033    -0.000121
C       0.73958755      1.96005023      0.78555417     -0.000167    -0.000268    -0.000070
C      -4.00530593      0.36642212      0.71668345     -0.000257    -0.000040    -0.000095
C       2.72011284     -0.86025694     -2.06072171      0.000094     0.000010     0.000190
H       0.36335482      0.21900824      1.86467804     -0.000234    -0.000323     0.000861
H       1.22364886     -1.37956344      0.18760166      0.000268    -0.000321     0.000265
H       2.44444645     -0.23336173      0.65380681     -0.000104    -0.000062     0.000508
H       0.72515728     -0.12123042     -1.88658162      0.000432     0.000001    -0.000620
H       1.95259880      1.04107363     -1.47289306     -0.000147    -0.000173    -0.000133
H      -1.26094719      0.86648086     -0.47956887      0.000762     0.000268     0.000331
H      -3.05603688     -0.74274490     -0.87875183     -0.000609    -0.000452    -0.000022
H      -3.65218526      1.34956027      0.38596106     -0.000208     0.000726    -0.001026
H      -4.05538678      0.37607732      1.81335550     -0.000699     0.000447     0.000384
H      -5.05377732      0.23580308      0.35719703     -0.001499     0.000615    -0.000758
H      -3.59490903     -2.19058038      1.56867092      0.000431    -0.000506    -0.000739
H      -3.22696827     -2.82108004      0.10965850      0.001072    -0.000717    -0.000452
H      -0.03513782      3.69742652      0.90620689     -0.000546    -0.000456     0.001588
H       4.70494943     -1.07940028     -2.32821479      0.000262     0.000069     0.000236
H       4.31796476      0.26061430     -1.28564081     -0.000535     0.000176     0.000361
30
Frame 23  Energy = -779.1123120387 Hartree
O      -0.26984720      2.83863503      0.81492778      0.000200     0.000198     0.000207
O      -1.30883788     -1.42075461      1.52469822      0.000030    -0.000048    -0.000063
O       1.94081336      2.41857637      0.63107764      0.000131    -0.000362     0.000129
O       2.55431970     -1.97810954     -2.54000611      0.000156    -0.000020    -0.000225
N      -0.94838212      0.34282474      0.19980600     -0.000121     0.000151    -0.000017
N      -3.75840617     -1.93953967      0.06907124     -0.000166     0.000266    -0.000158
N       3.93098816     -0.32864202     -1.86031951      0.000191    -0.000082     0.000024
C       0.37579060      0.54062165      0.76060846     -0.000021    -0.000227     0.000172
C       1.46749765     -0.36725365      0.15735193      0.000194    -0.000130     0.000188
C       1.57362489     -0.11807973     -1.33941710     -0.000417     0.000111    -0.000047
C      -3.21666922     -0.60582566      0.29708978     -0.000142     0.000162    -0.000234
C      -1.75179704     -0.62544536      0.71618550      0.000054     0.000077    -0.000060
C       0.79868518      2.01380212      0.71895358     -0.000063     0.000036     0.000098
C      -4.02423753      0.04646761      1.39477429      0.000091    -0.000047    -0.000083
C       2.70541811     -0.91717217     -1.95679307      0.000117    -0.000014     0.000016
H       0.29271174      0.28512520      1.80693280     -0.000277    -0.000311    -0.000383
H       1.19704560     -1.41973492      0.35130851     -0.000225     0.000077     0.000147
H       2.42182461     -0.17186492      0.65085170      0.000708    -0.000735     0.000175
H       0.65991478     -0.40630913     -1.87186777     -0.000614     0.000040     0.000282
H       1.74571949      0.94740938     -1.53204979     -0.000223    -0.001251     0.000277
H      -1.38283771      1.07927368     -0.34439267     -0.000040     0.000745     0.000084
H      -3.31906594     -0.01634235     -0.61728577     -0.000748     0.000119    -0.001094
H      -3.65180151      1.03409442      1.63748558      0.000180     0.000427    -0.000663
H      -3.97924776     -0.56665230      2.29155236     -0.000483    -0.000697     0.001058
H      -5.02752696      0.10891953      1.03784896     -0.001126     0.000303     0.000993
H      -3.51435331     -2.48842579      0.89810685     -0.000533    -0.000056     0.000068
H      -3.30161679     -2.36065609     -0.73605522     -0.000591     0.000184     0.000062
H       0.06688264      3.72003129      0.78113743     -0.000107     0.000991     0.000093
H       4.74399031     -0.84705689     -2.14300488     -0.000746    -0.000253     0.000668
H       4.06090744      0.49709868     -1.30519133      0.000201    -0.000170    -0.001035
30
Frame 24  Energy = -779.1129407767 Hartree
O      -0.22124257      2.90216157      0.78081824      0.000067     0.000072     0.000143
O      -1.27757709     -1.42542432      1.49726469      0.000034     0.000081    -0.000056
O       1.95340564      2.43662370      0.88525547      0.000299    -0.000144     0.000238
O       2.23508224     -2.14681630     -1.92257948      0.000040     0.000119     0.000070
N      -0.90351858      0.43814910      0.32836359      0.000011     0.000312    -0.000110
N      -3.42998188     -1.89053453     -0.41203822     -0.000228     0.000117    -0.000391
N       3.62366606     -0.46377147     -2.50803124     -0.000090     0.000056     0.000041
C       0.42324177      0.59265179      0.90439907     -0.000199    -0.000047    -0.000160
C       1.51791549     -0.26906253      0.23710392      0.000109    -0.000258     0.000384
C       1.64999254      0.07760766     -1.23672305      0.000093    -0.000056     0.000039
C      -3.09796013     -0.59679450      0.16374279     -0.000139    -0.000091    -0.000144
C      -1.68696921     -0.58292661      0.72605077      0.000018    -0.000186    -0.000312
C       0.82936236      2.05088693      0.86494058      0.000255     0.000072     0.000008
C      -4.05948446     -0.24348638      1.28317460     -0.000083     0.000003    -0.000014
C       2.52207200     -0.96389717     -1.91521273     -0.000135    -0.000247     0.000026
H       0.35041737      0.36934856      1.96193184     -0.000629    -0.000761    -0.000115
H       1.25753118     -1.32233398      0.37800897     -0.000073     0.000287     0.000447
H       2.45702491     -0.07057968      0.74930935      0.000879    -0.000085     0.001005
H       0.65579415      0.02884863     -1.72455034     -0.000160    -0.000244    -0.000253
H       2.06964836      1.09282605     -1.34069223     -0.000001     0.001018     0.000120
H      -1.31692184      1.19709396     -0.17174886      0.000279     0.000954     0.000385
H      -3.18666637      0.15761730     -0.62743100      0.000214    -0.000806     0.000155
H      -3.82187703      0.77932166      1.67905772     -0.000628     0.000162     0.000440
H      -3.95477195     -0.94341810      2.13719352      0.000293     0.000335    -0.000879
H      -5.06675138     -0.24878613      0.92883904     -0.001029     0.000474     0.000821
H      -3.32529114     -2.61276674      0.28158818      0.000408     0.000084    -0.000279
H      -2.80037681     -2.08603741     -1.18286191      0.000201    -0.000044     0.000061
H       0.16836543      3.81118103      0.82232927     -0.001298    -0.000405    -0.000024
H       4.30299667     -1.08599481     -2.90564221     -0.000038     0.000522     0.000009
H       3.88226079      0.49171988     -2.35893983     -0.000168    -0.000608     0.000294
30
Frame 25  Energy = -779.1133667895 Hartree
O      -0.36221093      2.67468228      0.86733142      0.000131    -0.000046    -0.000111
O      -1.39090451     -1.46164897      1.66752473      0.000055     0.000189    -0.000240
O       1.86345318      2.43393498      0.71834308     -0.000053    -0.000084     0.000017
O       2.58759114     -2.04371228     -2.17846489     -0.000130     0.000111    -0.000089
N      -0.90124821      0.24214754      0.23775896     -0.000151     0.000220     0.000098
N      -3.84079545     -1.90903093      0.22825062     -0.000346     0.000158     0.000319
N       3.94022450     -0.23935394     -2.25987290      0.000063    -0.000181     0.000114
C       0.43789285      0.46450628      0.77565544      0.000138    -0.000316    -0.000074
C       1.50006746     -0.36103147      0.03793415      0.000237    -0.000148    -0.000135
C       1.66584874      0.01866781     -1.42770112      0.000405     0.000190    -0.000166
C      -3.17425167     -0.63215269      0.22558046     -0.000259    -0.000168    -0.000013
C      -1.73376977     -0.68705431      0.79111500     -0.000091     0.000127     0.000095
C       0.76504497      1.92946959      0.79053001      0.000134     0.000126    -0.000026
C      -4.00159823      0.33228198      1.10640832     -0.000068    -0.000152     0.000040
C       2.75694518     -0.86171091     -2.00064104      0.000086    -0.000213     0.000275
H       0.43454707      0.14084604      1.83406802      0.000081    -0.000396    -0.000321
H       1.24868066     -1.40878869      0.13638019     -0.000529     0.000647     0.000641
H       2.46413784     -0.19746745      0.52299760      0.000494     0.000497    -0.000177
H       0.74170223     -0.16136456     -1.94766999     -0.000001     0.000001    -0.000365
H       1.97089782      1.04812570     -1.53229748      0.000256    -0.000220     0.000047
H      -1.31125327      0.92303264     -0.37753304     -0.000669     0.000134     0.000027
H      -3.12293850     -0.26456767     -0.79697660     -0.000756    -0.000123     0.000728
H      -3.51083850      1.29771020      1.22388755     -0.000606     0.000675    -0.000795
H      -4.09350676     -0.11024423      2.10319287      0.000082    -0.000755    -0.000237
H      -4.97332732      0.44914957      0.72577790     -0.000633    -0.000608    -0.000374
H      -3.76132581     -2.31804155      1.14124910     -0.000016     0.000393     0.000874
H      -3.41179457     -2.57572949     -0.40342925     -0.000018     0.000003    -0.000193
H      -0.08950826      3.61973826      0.83979648      0.001189     0.000984    -0.000692
H       4.71324159     -0.79641607     -2.57679102      0.000234     0.000222     0.000014
H       4.11360064      0.72160965     -2.03610391     -0.000045    -0.000266     0.000227
30
Frame 26  Energy = -779.1131237693 Hartree
O      -0.25990245      2.89174709      0.78935770      0.000172    -0.000158     0.000083
O      -1.23599648     -1.59857826      1.43180818     -0.000183     0.000119     0.000085
O       1.90501918      2.39967711      0.89319087      0.000219     0.000059    -0.000332
O       2.32410306     -2.03061760     -2.10256766      0.000075    -0.000024    -0.000043
N      -0.96783560      0.38109807      0.33089947      0.000037    -0.000032     0.000031
N      -3.73054317     -2.06396274      0.25805234      0.000078     0.000025     0.000071
N       3.90024413     -0.46021790     -2.32144725     -0.000168    -0.000026     0.000133
C       0.37485942      0.57125429      0.81468000     -0.000113    -0.000118     0.000293
C       1.44529966     -0.25327076      0.10252253      0.000250     0.000242    -0.000255
C       1.70434360      0.13049016     -1.35128757     -0.000047     0.000020    -0.000029
C      -3.13513720     -0.73771258      0.20688209     -0.000210     0.000163     0.000276
C      -1.68482970     -0.70860414      0.72268336     -0.000129     0.000240     0.000029
C       0.76534155      2.03840185      0.81472631      0.000156    -0.000238     0.000133
C      -3.99833921      0.26549618      0.96798934     -0.000122     0.000010    -0.000137
C       2.66512137     -0.88349954     -1.95426495      0.000119    -0.000387    -0.000236
H       0.39919610      0.22853072      1.84895074     -0.000721    -0.000377    -0.000611
H       1.14230299     -1.30958348      0.15319779     -0.000304     0.000184    -0.000808
H       2.36365130     -0.11752677      0.70088903      0.000023    -0.000244     0.000333
H       0.79993538      0.09372842     -1.94990256      0.000450    -0.000459     0.000121
H       2.13212501      1.14229909     -1.42600855      0.000151     0.000325    -0.000486
H      -1.43286211      1.11124854     -0.19643678     -0.000109     0.000131    -0.000151
H      -3.10599519     -0.43055401     -0.84527962      0.000149    -0.000065     0.000054
H      -3.51911004      1.26968826      1.00162398     -0.000210    -0.000061    -0.000241
H      -4.14000550     -0.07385609      2.01547999     -0.000710     0.001054     0.000481
H      -4.97892275      0.31688228      0.49923060     -0.001695     0.000617     0.000687
H      -3.55211457     -2.47031555      1.16870983     -0.000927    -0.000414     0.000119
H      -3.23265231     -2.69664476     -0.36711102      0.000134     0.000040    -0.000349
H       0.08984294      3.75640672      0.93055376      0.001022     0.000128    -0.000471
H       4.51351345     -1.16932146     -2.67253692     -0.000645     0.000552     0.000186
H       4.26955165      0.45532814     -2.15698742      0.000799    -0.000085     0.000289
30
Frame 27  Energy = -779.1103375149 Hartree
O      -0.20022037      2.88402737      0.77837203      0.000175    -0.000100    -0.000241
O      -1.37881886     -1.41386307      1.63425816     -0.000065     0.000174     0.000039
O       1.94961017      2.45938922      1.13786042      0.000111     0.000352    -0.000103
O       2.53850863     -2.14083438     -1.85845174     -0.000093    -0.000064    -0.000138
N      -0.91607276      0.37858775      0.33405122     -0.000143    -0.000228     0.000139
N      -3.62204351     -2.02634368     -0.07719900     -0.000019    -0.000008     0.000083
N       3.57194551     -0.39752956     -2.82172395      0.000141    -0.000300    -0.000202
C       0.42845953      0.56652433      0.87729166      0.000093     0.000234     0.000092
C       1.49550336     -0.30776905      0.16919402      0.000218     0.000147     0.000031
C       1.69319510      0.05339814     -1.31650038      0.000076    -0.000015     0.000250
C      -3.10303511     -0.68147294      0.11731903     -0.000064     0.000112     0.000087
C      -1.72693697     -0.63522148      0.77135589      0.000123     0.000060     0.000055
C       0.83874903      2.04431672      0.95086521     -0.000317     0.000107    -0.000181
C      -4.09874430      0.08117895      0.97578776     -0.000102     0.000015     0.000230
C       2.62413598     -0.94160601     -2.00197685     -0.000245    -0.000028    -0.000123
H       0.37875112      0.21747036      1.92601708      0.000535    -0.000847    -0.000830
H       1.20877230     -1.34778494      0.26677173     -0.000145     0.000412     0.000185
H       2.44434328     -0.13785588      0.67932812      0.000518    -0.000107    -0.000276
H       0.75144851     -0.01265938     -1.86992382     -0.000068     0.000055     0.000093
H       2.04346315      1.07041154     -1.38632421      0.000157    -0.000719     0.000374
H      -1.25336274      1.02197904     -0.35492112      0.000149    -0.000466    -0.000324
H      -3.02046844     -0.20108065     -0.85942553     -0.000688    -0.000729     0.000437
H      -3.85866064      1.11629270      1.10791482     -0.000628     0.000797     0.001083
H      -4.11658063     -0.35530533      1.96673708      0.000245    -0.000739     0.000210
H      -5.08443658     -0.01917386      0.53669011     -0.001847     0.000215     0.000666
H      -3.59009780     -2.53288060      0.81283220      0.000046    -0.001054     0.000117
H      -2.96512877     -2.52993136     -0.67528810      0.000695    -0.000174     0.000013
H       0.17315803      3.78282794      0.80098091      0.000285    -0.001794     0.000004
H       4.24553089     -1.02095568     -3.22412997      0.000591    -0.000372    -0.000222
H       3.76076323      0.58629253     -2.86762615      0.000980    -0.000307    -0.000029
30
Frame 28  Energy = -779.1152542833 Hartree
O      -0.26358287      2.86210089      0.57617793      0.000007    -0.000003    -0.000398
O      -1.29120541     -1.44575571      1.55785631     -0.000059     0.000201     0.000177
O       1.90003721      2.39267724      0.84861376     -0.000036    -0.000062    -0.000100
O       2.52200416     -1.93574760     -2.56495955      0.000164     0.000068    -0.000193
N      -0.95339079      0.34334448      0.21595597     -0.000010     0.000076     0.000099
N      -3.74456670     -1.98181356      0.13427333     -0.000162    -0.000179     0.000242
N       3.92772901     -0.37588576     -1.79491796     -0.000096     0.000013     0.000036
C       0.36618811      0.52824900      0.75043518      0.000134     0.000016    -0.000120
C       1.43368182     -0.34039025      0.08315571      0.000185    -0.000116    -0.000176
C       1.57567738     -0.05729761     -1.40924013     -0.000070    -0.000347     0.000023
C      -3.20532331     -0.65426020      0.30215762      0.000006    -0.000024     0.000165
C      -1.72241344     -0.66664089      0.72848091     -0.000082     0.000210     0.000294
C       0.76044673      1.99491843      0.72557069      0.000145     0.000035    -0.000279
C      -3.92760451      0.13438885      1.38223491      0.000010     0.000019     0.000077
C       2.67575289     -0.89208963     -1.98644386     -0.000246     0.000037     0.000053
H       0.32415838      0.24574239      1.80413838     -0.000279     0.001176    -0.000095
H       1.14468391     -1.38741495      0.23183900      0.000007    -0.000801     0.000459
H       2.35773335     -0.14908322      0.61517451      0.000373     0.000786     0.001101
H       0.64273749     -0.31269353     -1.88921370      0.000191    -0.000299     0.000357
H       1.78628359      1.00299433     -1.60619587      0.000483     0.000737    -0.000301
H      -1.38358403      1.06629420     -0.33014418      0.000598    -0.000347     0.000501
H      -3.28331956     -0.12246198     -0.65746962      0.000701     0.000409     0.000016
H      -3.40434933      1.09297390      1.51687595     -0.000252     0.000135     0.000432
H      -3.84496377     -0.41712633      2.31615510     -0.000532    -0.000672     0.000743
H      -5.01443367      0.30223846      1.13306069     -0.000407    -0.000531     0.000442
H      -3.64730228     -2.48474535      1.01656061      0.000199    -0.000495    -0.000422
H      -3.24299762     -2.47768863     -0.59005779      0.000413    -0.000252     0.000508
H       0.16403752      3.76160810      0.65410813     -0.000521     0.000274    -0.000593
H       4.70917350     -0.95762429     -2.03385907      0.000151    -0.000039    -0.000611
H       4.07334154      0.28123739     -1.05408870      0.000376    -0.000022    -0.000071
30
Frame 29  Energy = -779.1158218602 Hartree
O      -0.04362491      2.87573296      0.34395562     -0.000323     0.000037    -0.000303
O      -1.32408687     -1.42391366      1.54975245     -0.000169    -0.000069     0.000127
O       1.86772081      2.43395464      1.35856127      0.000015     0.000146     0.000192
O       2.40118926     -2.11577012     -1.77684338      0.000067    -0.000091    -0.000130
N      -0.89991061      0.39209873      0.31392568     -0.000000     0.000200    -0.000106
N      -3.49296588     -1.92775527     -0.32150059      0.000360    -0.000101    -0.000071
N       3.41966647     -0.40046202     -2.85146539     -0.000048    -0.000033    -0.000298
C       0.42324016      0.56708224      0.92646963     -0.000084    -0.000017     0.000031
C       1.50061456     -0.30685975      0.28703216      0.000026     0.000057     0.000304
C       1.75502722      0.09105402     -1.16946625      0.000252    -0.000037     0.000174
C      -3.11028789     -0.60899671      0.14793662      0.000027    -0.000095    -0.000035
C      -1.70626726     -0.62189359      0.71594087      0.000025    -0.000075     0.000025
C       0.83743187      2.02417916      0.93012244     -0.000444     0.000045    -0.000036
C      -4.05628244     -0.13436528      1.25154814      0.000039    -0.000065     0.000042
C       2.54296876     -0.92247468     -1.93128165      0.000189     0.000093    -0.000068
H       0.33981651      0.28508090      1.99063037     -0.000163     0.000486    -0.000051
H       1.16526121     -1.36085861      0.30665692      0.000352    -0.000165     0.000359
H       2.40941174     -0.25653346      0.90936900      0.000101     0.000233     0.000446
H       0.80108833      0.25119706     -1.67245329     -0.000114    -0.000524     0.000225
H       2.26484617      1.06728148     -1.17992745     -0.000297     0.000406    -0.000690
H      -1.29881539      1.10677158     -0.28473400      0.000163     0.000126     0.000799
H      -3.15513321      0.06044218     -0.71626736     -0.000130    -0.000301     0.000549
H      -3.89252448      0.86605635      1.55128783      0.000910    -0.000258    -0.000104
H      -3.93061593     -0.76703647      2.11317891      0.000183     0.000631    -0.000264
H      -5.10771484     -0.26824443      0.90908114     -0.000373    -0.000230    -0.000562
H      -3.35104562     -2.60762208      0.41498995      0.000400     0.000056     0.000694
H      -2.94816517     -2.17301053     -1.12455825      0.000575     0.000085    -0.000088
H       0.35127974      3.74141886      0.43124152     -0.000017     0.000011     0.001328
H       3.84090477     -1.01261076     -3.52599885     -0.000609    -0.000584     0.000191
H       3.43335003      0.57715155     -3.06479089      0.000832    -0.000140     0.000353
30
Frame 30  Energy = -779.1125293657 Hartree
O       0.00471512      2.77978748      0.10510331     -0.000155     0.000018     0.000139
O      -1.42092230     -1.43553967      1.71063919      0.000164    -0.000159     0.000201
O       1.85271907      2.39631242      1.33959460      0.000051     0.000287    -0.000077
O       2.33887633     -1.96906131     -2.39552157     -0.000162    -0.000265    -0.000096
N      -0.91602418      0.31170148      0.32562961      0.000188    -0.000152     0.000125
N      -3.67498342     -2.01590363      0.08309013     -0.000073    -0.000145    -0.000196
N       3.86958455     -0.32797044     -2.21941447     -0.000136     0.000017    -0.000286
C       0.39496270      0.53123627      0.86081712      0.000063    -0.000015    -0.000058
C       1.49476820     -0.29965797      0.16087134     -0.000089     0.000134     0.000147
C       1.63570272      0.06477743     -1.32211931     -0.000094     0.000077    -0.000155
C      -3.15020986     -0.66886606      0.24440307      0.000017    -0.000080     0.000068
C      -1.73186319     -0.64733198      0.83223730      0.000280     0.000013     0.000136
C       0.82485994      1.99189916      0.83642622     -0.000114     0.000089    -0.000290
C      -4.09913452      0.07513215      1.16452945     -0.000049    -0.000102     0.000287
C       2.62953149     -0.84554449     -2.02504882      0.000264     0.000063    -0.000042
H       0.36705641      0.17904042      1.91200985     -0.000290     0.000058     0.000199
H       1.25936045     -1.36130608      0.24588904     -0.000185     0.000824     0.000398
H       2.42846589     -0.08932922      0.67182067      0.000602     0.000597    -0.000153
H       0.68887172     -0.13898803     -1.79783292     -0.000288    -0.000077    -0.001082
H       1.86797084      1.12843638     -1.45556859      0.000654    -0.000891     0.000330
H      -1.26899733      0.93436927     -0.37450060     -0.000455     0.000088     0.000603
H      -3.13257961     -0.19097087     -0.74506608     -0.000033    -0.000144     0.000164
H      -3.69893050      1.07842959      1.40650407     -0.000930    -0.000047    -0.000026
H      -4.24173075     -0.46636903      2.09293499      0.000261     0.000176     0.000014
H      -5.09828091      0.18851035      0.66581105      0.000333     0.001224     0.000422
H      -3.47539784     -2.53718500      0.93103621      0.000289    -0.000841     0.000694
H      -3.16908915     -2.48613820     -0.65272435     -0.000737    -0.000291     0.000204
H       0.35083774      3.66906213      0.12148769     -0.000577     0.001080    -0.001069
H       4.57738322     -0.93218285     -2.60376735     -0.000627     0.001119     0.000241
H       4.20316574      0.48770221     -1.72980225      0.000531     0.000777     0.000287
30
Frame 31  Energy = -779.1141431854 Hartree
O      -0.02664594      2.76495948      0.08303723     -0.000170    -0.000080     0.000085
O      -1.21031264     -1.62305116      1.33657682      0.000017    -0.000392     0.000140
O       1.72941193      2.47957093      1.41088290      0.000135    -0.000088     0.000392
O       2.23383657     -2.00584025     -2.07151600     -0.000095     0.000069    -0.000207
N      -0.94397650      0.36121213      0.33979918      0.000110    -0.000123    -0.000072
N      -3.75700843     -2.00664292      0.15115860      0.000131     0.000079    -0.000087
N       3.81042416     -0.40288443     -2.35778638     -0.000215    -0.000209    -0.000228
C       0.39023963      0.55563700      0.86061660      0.000177     0.000242     0.000097
C       1.46939971     -0.27364675      0.17054909      0.000049    -0.000011    -0.000178
C       1.70483196      0.15737853     -1.28847717     -0.000245    -0.000080     0.000108
C      -3.14355953     -0.69601726      0.24013679      0.000070     0.000209    -0.000017
C      -1.68182835     -0.72162604      0.67564673      0.000086     0.000080    -0.000114
C       0.80062048      2.00029207      0.84210254     -0.000012     0.000248     0.000074
C      -3.89794224      0.19491548      1.24738567     -0.000025    -0.000120    -0.000080
C       2.60010626     -0.85467736     -1.94232528     -0.000037     0.000175     0.000024
H       0.40397135      0.23998842      1.91501940     -0.000326    -0.000068     0.001087
H       1.10363716     -1.28883228      0.16099527      0.000590     0.000349    -0.000272
H       2.42395977     -0.22107487      0.72513581     -0.000676    -0.000278    -0.000148
H       0.73675663      0.17766606     -1.81992146     -0.000322    -0.000191     0.000231
H       2.14281985      1.16646445     -1.27680418     -0.000029     0.000284     0.000399
H      -1.37751897      1.13012590     -0.13992112     -0.000252    -0.000132    -0.000360
H      -3.21144776     -0.22858980     -0.74222682      0.000502     0.000245     0.000144
H      -3.55243518      1.20446218      1.23969845     -0.000331     0.000866    -0.000277
H      -3.74812352     -0.20763506      2.24911491      0.000430     0.000071     0.001049
H      -4.95285024      0.14084811      1.00650686      0.001110     0.000465    -0.000864
H      -3.67778595     -2.48117663      1.05193276      0.001112     0.000581    -0.000636
H      -3.21047162     -2.60963812     -0.46778876     -0.000436    -0.000226     0.000152
H       0.30416830      3.70252786      0.14412745     -0.000631    -0.000010    -0.000340
H       4.44039700     -1.04617707     -2.81959497     -0.000178    -0.000323    -0.000621
H       4.06413513      0.56845951     -2.38247947      0.000107     0.000825     0.000362
30
Frame 32  Energy = -779.1120384598 Hartree
O      -0.10967848      2.78743498      0.44446320      0.000133     0.000136    -0.000081
O      -1.45592424     -1.43207965      1.67111499      0.000211    -0.000089     0.000105
O       1.93106719      2.31841446      1.21799092     -0.000053     0.000275     0.000163
O       2.84366485     -2.00713785     -1.67230796     -0.000275     0.000062    -0.000056
N      -0.90677980      0.30407750      0.29539753      0.000014    -0.000102     0.000159
N      -3.69728796     -1.92980438     -0.07367382      0.000069    -0.000126    -0.000127
N       3.38346421     -0.27376629     -3.02979650     -0.000402     0.000157    -0.000086
C       0.40318227      0.47794212      0.85481043      0.000358     0.000027    -0.000085
C       1.46328568     -0.39902175      0.19715198      0.000043    -0.000363    -0.000267
C       1.75479139      0.07309698     -1.23829359      0.000124    -0.000028     0.000003
C      -3.19014665     -0.59727677      0.19470683     -0.000051     0.000049     0.000165
C      -1.77658696     -0.62818051      0.81571967      0.000079    -0.000020     0.000166
C       0.84385206      1.92963656      0.87327582     -0.000254    -0.000013     0.000219
C      -4.12450783      0.11969187      1.14472289     -0.000092    -0.000171    -0.000071
C       2.72318857     -0.84479637     -1.98504613     -0.000200     0.000047    -0.000087
H       0.34729824      0.15941227      1.89681309      0.000719     0.000552     0.000327
H       1.13760572     -1.44928547      0.20314407      0.000310    -0.000957    -0.000081
H       2.36129688     -0.29094492      0.81062821      0.000541    -0.000491     0.000442
H       0.86854552      0.07590972     -1.86194697     -0.000020     0.000171    -0.001041
H       2.12669411      1.10536685     -1.26974795      0.000895    -0.000540     0.000018
H      -1.26704066      0.94836992     -0.39842142     -0.000119     0.000739     0.000406
H      -3.11795244     -0.03628991     -0.74646160      0.000008     0.000014    -0.000310
H      -3.72598292      1.12957756      1.42496153     -0.000233     0.000038    -0.000173
H      -4.21937393     -0.44733116      2.07666650     -0.000157    -0.000140     0.000209
H      -5.12696942      0.22997555      0.74352237      0.001184     0.000920    -0.000540
H      -3.64947774     -2.45191923      0.79789754      0.000778     0.000386    -0.000254
H      -3.09046194     -2.45069936     -0.71358669     -0.000888     0.000102    -0.000831
H       0.25767343      3.67992799      0.52442948      0.001096    -0.001209     0.000286
H       4.12813197     -0.80214508     -3.45087690     -0.000166     0.000192    -0.000382
H       3.50730765      0.72459588     -3.04748709      0.000109     0.000718     0.000096
30
Frame 33  Energy = -779.1149381268 Hartree
O      -0.31647690      2.89342628      0.79666766      0.000086     0.000037    -0.000062
O      -1.29891013     -1.48007729      1.44513157      0.000005    -0.000268    -0.000196
O       1.88618712      2.50930912      0.80649967      0.000015    -0.000219     0.000045
O       2.34480914     -2.06245730     -2.37214767     -0.000369     0.000139     0.000056
N      -0.90416421      0.37604370      0.25342551     -0.000056     0.000089    -0.000088
N      -3.63609332     -1.95284551     -0.10236589      0.000180    -0.000059    -0.000259
N       3.91297876     -0.50799682     -2.03246729      0.000201     0.000204     0.000039
C       0.41025049      0.60316335      0.80405612      0.000106    -0.000283    -0.000000
C       1.50924200     -0.25889138      0.15629215     -0.000185     0.000150     0.000059
C       1.61423385     -0.03697235     -1.33963137     -0.000112    -0.000114     0.000068
C      -3.16772035     -0.61823521      0.26209604     -0.000079    -0.000011     0.000053
C      -1.72286422     -0.62463391      0.69503182      0.000013    -0.000217    -0.000008
C       0.76197360      2.08329555      0.77667422      0.000084     0.000155    -0.000051
C      -3.96309538     -0.03209715      1.43160374      0.000264     0.000183     0.000003
C       2.63601212     -0.96288543     -1.96729673     -0.000250    -0.000101     0.000358
H       0.37022200      0.37868086      1.87821729     -0.000327    -0.000211     0.000277
H       1.22631441     -1.29743455      0.34350055      0.000431    -0.000296     0.000187
H       2.45144834     -0.06128046      0.63671291     -0.000260     0.000118    -0.000623
H       0.64340325     -0.19830370     -1.78994072      0.000480     0.000254     0.000111
H       1.95086558      0.99249950     -1.52080720      0.000346     0.000838     0.000378
H      -1.30616455      1.14784163     -0.24510584      0.000492    -0.000445     0.000409
H      -3.26527425      0.00534964     -0.62740505      0.000449    -0.000067     0.000530
H      -3.60275927      0.96304931      1.65877679      0.000952     0.001027     0.000285
H      -3.79344936     -0.66310089      2.32055554      0.000453    -0.000547     0.000033
H      -4.98854301     -0.02353201      1.20016990      0.000236     0.001014     0.000261
H      -3.37388140     -2.61095817      0.61010756      0.000514     0.000362    -0.000225
H      -3.24486708     -2.26739746     -0.98315917     -0.000605     0.000409    -0.000158
H       0.04063324      3.76933454      0.81235933     -0.000488     0.000838    -0.000333
H       4.60018165     -1.14858350     -2.37678230     -0.000717     0.000640    -0.000087
H       4.23150040      0.38300976     -1.71332148     -0.000430     0.000566    -0.000040
30
Frame 34  Energy = -779.1145656680 Hartree
O      -0.31097534      2.63928208      1.03220261      0.000025    -0.000109    -0.000112
O      -1.48694529     -1.28343365      1.86476725      0.000057    -0.000132    -0.000065
O       1.88760828      2.30841104      0.68008035      0.000080     0.000164     0.000183
O       2.77442210     -2.00812301     -2.24418423     -0.000146     0.000221     0.000098
N      -0.92810989      0.14081936      0.18226221      0.000139     0.000164    -0.000209
N      -3.90864238     -1.93849793      0.48271049     -0.000106    -0.000059     0.000098
N       3.92485047     -0.04741422     -2.35565594     -0.000308    -0.000071     0.000249
C       0.39358521      0.37944091      0.73308729      0.000007    -0.000095     0.000017
C       1.46896610     -0.43674406      0.00912994     -0.000098    -0.000014    -0.000232
C       1.67584203     -0.03086123     -1.44355658     -0.000018     0.000055     0.000114
C      -3.19678056     -0.71772819      0.23590720      0.000076    -0.000127     0.000107
C      -1.78875044     -0.67057620      0.84853379      0.000214     0.000118    -0.000026
C       0.77866656      1.87556975      0.79223396      0.000189    -0.000160    -0.000159
C      -4.01413700      0.45792485      0.76579656      0.000277    -0.000018    -0.000146
C       2.82556386     -0.81232969     -2.05629298     -0.000124     0.000143     0.000088
H       0.31903918      0.06481450      1.78122394     -0.000263     0.000067     0.000254
H       1.17898701     -1.47234878      0.11148026     -0.000180     0.000572     0.000146
H       2.39171768     -0.27721821      0.59426846      0.000618     0.000106    -0.000052
H       0.79105372     -0.28540138     -2.04068829     -0.000477     0.000108     0.000565
H       1.87619890      1.02338619     -1.52827015      0.000403    -0.000291     0.000284
H      -1.21950488      0.67355038     -0.60938659     -0.000822     0.000046    -0.000810
H      -3.07876176     -0.56576875     -0.84059078     -0.000427     0.000240     0.000131
H      -3.48182431      1.43239647      0.58029989     -0.000308    -0.000891    -0.000549
H      -4.12953620      0.38051258      1.85729565      0.000225     0.000383    -0.000557
H      -4.98131318      0.47341779      0.31686152      0.000118    -0.000583    -0.000210
H      -3.88137371     -2.09877145      1.47456989     -0.000713    -0.000039    -0.000690
H      -3.43537202     -2.71268052      0.03437335     -0.001403    -0.000876     0.001133
H       0.04394362      3.56026653      1.10516457      0.000301     0.001363    -0.000439
H       4.78443186     -0.51910373     -2.57618053      0.000050    -0.000827     0.000022
H       3.99920285      0.88758148     -2.00112722      0.000191    -0.000947     0.000037
30
Frame 35  Energy = -779.1126100425 Hartree
O      -0.26999990      2.78812168      0.43865294      0.000214     0.000038    -0.000170
O      -1.31393442     -1.41531714      1.63001418     -0.000182     0.000316    -0.000078
O       1.82831016      2.40313354      1.10789225     -0.000040     0.000292    -0.000040
O       2.39135147     -1.95520751     -2.52029750      0.000027     0.000024     0.000138
N      -0.91836057      0.29119787      0.22546554      0.000319    -0.000341     0.000189
N      -3.72958587     -1.98703903      0.16348835     -0.000082     0.000123    -0.000011
N       3.96290650     -0.41565093     -2.02458261     -0.000067    -0.000026     0.000010
C       0.41121860      0.52082813      0.79793019      0.000143    -0.000114     0.000188
C       1.54297359     -0.31747854      0.14146187     -0.000203    -0.000254     0.000012
C       1.63605808     -0.01010358     -1.35687236      0.000041    -0.000023     0.000132
C      -3.14711274     -0.66056839      0.27513858      0.000019    -0.000051    -0.000021
C      -1.71445192     -0.65294087      0.77695689     -0.000040    -0.000160    -0.000036
C       0.74255621      1.99310556      0.80486358     -0.000292    -0.000208    -0.000081
C      -4.00693476      0.19634474      1.19735604      0.000165     0.000009    -0.000463
C       2.69376088     -0.88634387     -2.03705938     -0.000165     0.000207     0.000169
H       0.37030953      0.24979750      1.85211077     -0.000335     0.000039    -0.000540
H       1.34858604     -1.36050603      0.30417706     -0.000102     0.000116     0.000165
H       2.47054183     -0.04544194      0.65956498     -0.000304     0.001078     0.000254
H       0.68413294     -0.21538672     -1.86482005      0.000651     0.000111     0.000012
H       1.85444074      1.03833273     -1.51736053      0.000230     0.000034     0.000205
H      -1.32248779      1.01367120     -0.34635440      0.000685     0.000525     0.000305
H      -3.13333502     -0.23014216     -0.73515680      0.000268    -0.000235    -0.000405
H      -3.60081811      1.18468860      1.34491642      0.000693    -0.000160    -0.000717
H      -4.09655299     -0.26756995      2.19332092      0.000399    -0.000386     0.000760
H      -4.99140877      0.27863429      0.78602146      0.000467    -0.000936     0.001033
H      -3.88353240     -2.35397558      1.09210905     -0.000689     0.000736     0.000073
H      -3.06610433     -2.62621981     -0.26475625     -0.000106     0.000117    -0.000145
H       0.02426592      3.73102306      0.47873395     -0.000647    -0.000635    -0.000830
H       4.66022926     -0.91365781     -2.55301846      0.000013    -0.000050     0.001139
H       4.15100728      0.52466913     -1.71509354      0.000037    -0.000510    -0.000351
30
Frame 36  Energy = -779.1141329659 Hartree
O      -0.17303952      2.74597938      0.32321843      0.000014     0.000062    -0.000159
O      -1.24102675     -1.57664270      1.49179962     -0.000054    -0.000016    -0.000059
O       1.82974754      2.46571066      1.23248713     -0.000020    -0.000054     0.000049
O       2.27001852     -1.95729934     -2.35693049      0.000061     0.000011     0.000149
N      -0.86694394      0.31170164      0.34616091      0.000087    -0.000052    -0.000118
N      -3.74968279     -2.00933711      0.41051295      0.000139     0.000133    -0.000183
N       3.79953741     -0.33933265     -2.22810525      0.000354     0.000026     0.000183
C       0.43960035      0.51047933      0.91044142     -0.000351    -0.000326     0.000011
C       1.52449315     -0.29940172      0.21071730     -0.000310    -0.000032     0.000237
C       1.58470233      0.05213715     -1.27707247      0.000148    -0.000310     0.000085
C      -3.08735618     -0.74903338      0.17529907     -0.000069     0.000312     0.000004
C      -1.65889518     -0.72780484      0.73582636      0.000068     0.000279    -0.000106
C       0.79405661      1.97704651      0.85251562     -0.000117     0.000109    -0.000055
C      -3.94154354      0.35380179      0.81724258     -0.000149     0.000141    -0.000227
C       2.56948920     -0.84249348     -1.98947229      0.000245    -0.000197     0.000039
H       0.41202090      0.20380285      1.95062101      0.000018    -0.000669     0.000372
H       1.30912172     -1.35679788      0.31367230     -0.000049     0.000655    -0.000316
H       2.50843192     -0.11444515      0.64977436     -0.000084     0.000087    -0.000210
H       0.62451732     -0.11131164     -1.73075683     -0.000444     0.000247     0.000209
H       1.84894173      1.11276408     -1.45863044     -0.000553     0.000361     0.000349
H      -1.29538093      1.05538972     -0.18751113     -0.000526    -0.000100     0.000350
H      -3.02895205     -0.58768670     -0.90033990      0.000583     0.000239     0.000632
H      -3.42567409      1.31965418      0.72567253     -0.001537    -0.000801    -0.000409
H      -4.07307411      0.13789652      1.87958975     -0.000331     0.000234     0.000380
H      -4.93726147      0.39334946      0.34444366      0.000971    -0.000362     0.000573
H      -3.58351562     -2.30641319      1.37367952      0.000059     0.000763     0.000274
H      -3.34545296     -2.75594170     -0.15142441      0.000298    -0.000373     0.000376
H       0.10283943      3.64844906      0.32979427     -0.000444    -0.000673    -0.000387
H       4.50889883     -1.00604943     -2.51048736      0.000009    -0.001033    -0.000192
H       4.09344534      0.51419658     -1.78249428      0.000298     0.000202     0.000109
30
Frame 37  Energy = -779.1127479063 Hartree
O      -0.05514276      2.83956549      0.26562561     -0.000324    -0.000175     0.000142
O      -1.37743103     -1.34531426      1.72082809      0.000101     0.000006     0.000030
O       1.88797882      2.34875072      1.21010166     -0.000066    -0.000020    -0.000091
O       2.15046081     -1.84000931     -2.48694958      0.000295     0.000143     0.000142
N      -0.95981077      0.34878848      0.29463967     -0.000158    -0.000062     0.000055
N      -3.58888325     -2.14995005      0.19146982     -0.000131     0.000118     0.000026
N       3.97885553     -0.53797444     -2.11574405      0.000068    -0.000263     0.000066
C       0.36163464      0.53960020      0.85070705     -0.000303     0.000024     0.000144
C       1.47353507     -0.29086465      0.16648229      0.000024     0.000096     0.000307
C       1.78685976      0.17823128     -1.25986429      0.000065     0.000005    -0.000028
C      -3.15635875     -0.76069621      0.21078392     -0.000016     0.000062    -0.000218
C      -1.76648855     -0.61453887      0.82125606      0.000082    -0.000063    -0.000075
C       0.82687025      1.97765139      0.82500578      0.000031     0.000275     0.000047
C      -4.15642468      0.07826084      1.01050041      0.000022    -0.000121    -0.000337
C       2.63529580     -0.82301638     -2.01451273      0.000097    -0.000161    -0.000184
H       0.31217171      0.23731214      1.89293219      0.000348     0.000434    -0.000067
H       1.12370602     -1.31577237      0.16070693     -0.000335     0.000215    -0.000773
H       2.36569219     -0.25684941      0.82296546     -0.000330     0.000270     0.000288
H       0.85699581      0.25237878     -1.80614399      0.000975     0.000378     0.000532
H       2.27335463      1.14992303     -1.19053541     -0.000840     0.000303     0.000354
H      -1.27319618      0.89528476     -0.48000665     -0.000059    -0.000866    -0.000556
H      -3.11246249     -0.37784945     -0.82536449     -0.000273     0.000093    -0.000435
H      -3.91722838      1.12730311      0.99679244     -0.000564     0.000567    -0.000823
H      -4.18036243     -0.23416215      2.04112054      0.000435    -0.000008     0.000162
H      -5.18167400     -0.06541217      0.59980741      0.001252    -0.000658    -0.000602
H      -3.39450436     -2.53731671      1.12206834     -0.000252     0.000966     0.000095
H      -2.98887886     -2.67218715     -0.44414821      0.001119    -0.000181     0.000810
H       0.39643882      3.69334310      0.28506573     -0.000036     0.001220    -0.000682
H       4.49267872     -1.14069997     -2.74360229      0.000689    -0.000128     0.000500
H       4.39450363      0.31022515     -1.77333770      0.000793    -0.000382    -0.000255
30
Frame 38  Energy = -779.1147457087 Hartree
O      -0.18006874      2.84582820      0.51512729     -0.000039     0.000189     0.000219
O      -1.22923189     -1.51774915      1.48867972      0.000192    -0.000225     0.000109
O       1.93479490      2.40111180      1.08182043     -0.000178     0.000038     0.000328
O       2.28643906     -2.02322604     -2.14833105      0.000109    -0.000160    -0.000293
N      -0.93442265      0.37705674      0.33374224      0.000315    -0.000034     0.000144
N      -3.72214790     -2.07496390      0.26091268     -0.000014     0.000025    -0.000237
N       3.78854933     -0.34051089     -2.31197614      0.000091    -0.000045    -0.000032
C       0.39249369      0.55595815      0.88663363     -0.000058     0.000029     0.000015
C       1.42161061     -0.35217078      0.17480216     -0.000067    -0.000067     0.000006
C       1.64178232      0.11087959     -1.27936810      0.000022     0.000455     0.000124
C      -3.09067687     -0.76898084      0.14249379     -0.000095    -0.000034    -0.000184
C      -1.67380301     -0.68854526      0.71806547     -0.000065    -0.000223    -0.000017
C       0.82252397      2.00145379      0.85364018     -0.000234    -0.000293    -0.000074
C      -3.94274356      0.24031289      0.91511028     -0.000158    -0.000020    -0.000100
C       2.55924920     -0.84879794     -1.97947748      0.000218     0.000147     0.000097
H       0.33515397      0.23519983      1.92309404      0.000248     0.000624    -0.000184
H       1.05171338     -1.35994281      0.22358071      0.000122    -0.000402     0.000653
H       2.37157926     -0.33070343      0.72575065      0.000163     0.000458    -0.000608
H       0.70441650      0.09057295     -1.81606559     -0.000808     0.000621    -0.000054
H       2.04625314      1.12263207     -1.27688547      0.000184     0.000051    -0.000421
H      -1.29883383      1.08518896     -0.28130563     -0.000257     0.000537    -0.000779
H      -3.01664572     -0.49245039     -0.90501003      0.000056     0.000379    -0.000091
H      -3.54859804      1.24110389      0.87131440      0.000263    -0.000643     0.000083
H      -3.96093882     -0.06237677      1.95617921     -0.000418     0.000434    -0.000832
H      -4.99111148      0.20151147      0.50511072     -0.000867     0.000194    -0.000157
H      -3.50299719     -2.41887783      1.19234019     -0.000655     0.000657    -0.000383
H      -3.35898037     -2.73710551     -0.40265196     -0.000381     0.000557     0.000689
H       0.25314030      3.74672162      0.53714734     -0.000013     0.000034    -0.000062
H       4.45396586     -0.92002238     -2.78718549      0.000414    -0.000173     0.000224
H       4.00633708      0.61108029     -2.07607007      0.000352     0.000010    -0.000489
30
Frame 39  Energy = -779.1148187380 Hartree
O      -0.22297374      2.91335346      0.75855370     -0.000166     0.000139     0.000345
O      -1.24602231     -1.41501795      1.52490087     -0.000054    -0.000034    -0.000168
O       1.93604388      2.46616882      0.96798092     -0.000072    -0.000270    -0.000020
O       2.11505431     -2.08903667     -2.21618781      0.000299     0.000190    -0.000101
N      -0.88978317      0.43387493      0.31666692     -0.000130    -0.000016     0.000098
N      -3.48534295     -2.09024971     -0.13016187     -0.000148    -0.000078    -0.000013
N       3.74472570     -0.54112130     -2.28844463      0.000157     0.000149     0.000136
C       0.40247918      0.63568153      0.89882193     -0.000221     0.000122    -0.000018
C       1.49524237     -0.18956667      0.23407880      0.000186    -0.000136    -0.000052
C       1.61389957      0.06465298     -1.27113874      0.000067    -0.000312    -0.000244
C      -3.04850994     -0.71567791      0.09251943      0.000007     0.000205    -0.000109
C      -1.65010581     -0.62349145      0.70591042      0.000068     0.000063    -0.000005
C       0.80375902      2.07570427      0.88990731     -0.000105     0.000103     0.000305
C      -3.97659760     -0.01039157      1.08014272     -0.000043    -0.000048    -0.000330
C       2.49907181     -0.97149116     -1.92799722      0.000034    -0.000009     0.000054
H       0.36632371      0.41253105      1.96567809      0.000152     0.000312    -0.000495
H       1.27840503     -1.25653139      0.38336175      0.000661    -0.000895    -0.001074
H       2.45460321      0.04434055      0.70362916      0.000931    -0.000471    -0.000126
H       0.60909368     -0.06395309     -1.71731936     -0.000493     0.000476    -0.000252
H       1.94549672      1.09378907     -1.46989916     -0.000016    -0.000274    -0.000045
H      -1.28762677      1.10787352     -0.32399986     -0.000072     0.000157     0.000749
H      -3.09310777     -0.20124711     -0.88254259     -0.000170    -0.000094     0.000386
H      -3.66917306      1.02651969      1.21382040     -0.000039     0.001203     0.000398
H      -3.91948497     -0.49132620      2.04273711     -0.000466    -0.000715     0.000099
H      -5.03785690     -0.04728825      0.74288166      0.000176     0.000225     0.000670
H      -3.57826850     -2.59110466      0.74056273      0.000051    -0.000112     0.000214
H      -2.84646545     -2.57591304     -0.72693809     -0.000308    -0.000256    -0.000166
H       0.09158601      3.81305571      0.81933228      0.000762    -0.001000     0.000437
H       4.37818755     -1.24077869     -2.62830109      0.000651     0.000338     0.000064
H       4.09380400      0.32029922     -1.90509248     -0.000190     0.000089    -0.000044
30
Frame 40  Energy = -779.1122229251 Hartree
O      -0.16301738      2.83863296      0.96118157     -0.000024    -0.000175     0.000139
O      -1.38046944     -1.32365485      1.68765145      0.000167    -0.000071    -0.000432
O       1.99609639      2.33074147      0.58766434      0.000125    -0.000162     0.000014
O       2.67242010     -1.99384035     -2.51870875      0.000011     0.000161    -0.000211
N      -0.93907625      0.38922302      0.30250030     -0.000079     0.000145     0.000048
N      -3.69250146     -2.01992421      0.12595636     -0.000111     0.000244     0.000214
N       3.83195531     -0.15173818     -1.91463015      0.000146     0.000202     0.000164
C       0.43502221      0.52084227      0.79798282      0.000111    -0.000053    -0.000023
C       1.42535878     -0.41058415      0.13804031     -0.000221    -0.000061     0.000133
C       1.43590435     -0.26948467     -1.37994543      0.000189    -0.000199    -0.000065
C      -3.18395793     -0.66260972      0.20926524     -0.000105    -0.000024    -0.000100
C      -1.76193860     -0.57730905      0.80794999     -0.000166     0.000057     0.000073
C       0.86678640      1.98164172      0.73984979      0.000121    -0.000077    -0.000030
C      -4.15291196      0.13967494      1.05750402     -0.000129     0.000106     0.000003
C       2.67452717     -0.89201779     -2.01193285     -0.000026    -0.000198    -0.000028
H       0.40120436      0.25610486      1.84969507     -0.000432     0.000488    -0.000283
H       1.14158464     -1.44048475      0.39046658      0.000052     0.000213    -0.000487
H       2.40609358     -0.22031803      0.54440751      0.000374    -0.000822    -0.000375
H       0.57931100     -0.77835223     -1.82128013      0.000648     0.000077    -0.000615
H       1.38592817      0.76460184     -1.68325862      0.000045    -0.000425     0.000902
H      -1.28807485      1.00130213     -0.40585948      0.000574    -0.000117    -0.001180
H      -3.15598383     -0.23966416     -0.79610013     -0.000111     0.000307     0.000479
H      -3.89799500      1.19208368      1.08665196     -0.000205     0.000166     0.000597
H      -4.20031056     -0.23963067      2.08644826     -0.000814     0.000063     0.000328
H      -5.14293277      0.01141132      0.62122743     -0.000928    -0.000666     0.002086
H      -3.50481910     -2.50908725      0.99930024      0.000552     0.000562     0.000463
H      -3.18378176     -2.52154372     -0.59051320     -0.000466    -0.000157    -0.000987
H       0.23848687      3.69857032      0.91245923     -0.000410     0.000675     0.000885
H       4.69550171     -0.56741195     -2.20689782      0.000096    -0.000078     0.000327
H       3.81703598      0.73601591     -1.45330079     -0.000143     0.000770     0.000158
30
Frame 41  Energy = -779.1154542075 Hartree
O      -0.25024170      2.94950322      0.61233696      0.000103    -0.000173     0.000055
O      -1.11200995     -1.58524651      1.38119757     -0.000058     0.000115    -0.000060
O       1.91842026      2.53453822      1.01237456      0.000119    -0.000059    -0.000061
O       1.96758875     -1.94724387     -2.41885646      0.000005    -0.000076    -0.000144
N      -0.93334622      0.42734389      0.41137989      0.000233     0.000261    -0.000040
N      -3.50038833     -2.12485432      0.09379087     -0.000280     0.000333     0.000006
N       3.84139668     -0.73615197     -1.94860459     -0.000098     0.000083    -0.000088
C       0.40965853      0.64762731      0.89791708      0.000071    -0.000215     0.000290
C       1.48804790     -0.17417376      0.18782867     -0.000002    -0.000211    -0.000347
C       1.62770532      0.12860478     -1.29246098     -0.000046    -0.000211     0.000127
C      -3.05077697     -0.74906966      0.14989253      0.000097     0.000027     0.000344
C      -1.61165255     -0.69430213      0.69942547      0.000002     0.000111     0.000072
C       0.79267667      2.13002346      0.85334735     -0.000000     0.000017    -0.000259
C      -3.99870885      0.10290000      0.96641472     -0.000192     0.000051     0.000077
C       2.48099786     -0.94111676     -1.98233845     -0.000090     0.000055    -0.000008
H       0.42294196      0.34094203      1.94709210     -0.000384     0.000275     0.001184
H       1.21953645     -1.23660258      0.30962896      0.000110    -0.000485    -0.000205
H       2.39128188     -0.00651294      0.75710360      0.000902     0.000464    -0.000230
H       0.63754474      0.06024367     -1.77581561      0.000540    -0.000411     0.000076
H       2.05938195      1.11525212     -1.46051651      0.000788    -0.000029    -0.000582
H      -1.33710274      1.12355273     -0.18466000     -0.000467    -0.000150     0.000357
H      -3.05984609     -0.36293341     -0.87442536     -0.000241    -0.000240    -0.000270
H      -3.57881932      1.11968057      1.12999254     -0.000323    -0.000449     0.000373
H      -4.17058601     -0.35869469      1.94836754      0.000072    -0.000966    -0.000380
H      -4.92496151      0.14877304      0.43919096      0.000692    -0.000406     0.000238
H      -3.29258318     -2.56195692      0.99767598      0.000765     0.000423     0.000522
H      -2.90835577     -2.65311686     -0.54877531     -0.000974     0.000597    -0.000029
H       0.08673072      3.88206859      0.67069959     -0.000486    -0.000373     0.000831
H       4.43549769     -1.49375074     -2.22741821     -0.000089     0.000022    -0.000122
H       4.21737420      0.10217987     -1.55907293      0.000307    -0.000122    -0.000251
30
Frame 42  Energy = -779.1144946610 Hartree
O      -0.07546852      2.89219904      0.52851979      0.000155    -0.000307     0.000003
O      -1.26771487     -1.48959501      1.58678841     -0.000173     0.000109     0.000024
O       1.96297989      2.43421858      1.34440842      0.000080     0.000099    -0.000107
O       2.24549136     -2.08714529     -1.88187088     -0.000033     0.000109     0.000184
N      -0.88651467      0.41375690      0.44015790     -0.000114     0.000167    -0.000090
N      -3.59530238     -2.15175039      0.09416182      0.000030     0.000147     0.000054
N       3.50942286     -0.41082545     -2.70685505     -0.000150    -0.000153    -0.000127
C       0.44377878      0.59013625      0.95465108     -0.000202    -0.000004    -0.000073
C       1.47968762     -0.24035978      0.18012084     -0.000006     0.000063    -0.000248
C       1.59007817      0.14621055     -1.28216769      0.000357     0.000191     0.000037
C      -3.00518725     -0.82528346      0.05012459     -0.000115     0.000005     0.000284
C      -1.65115160     -0.68948208      0.76066838     -0.000187    -0.000219    -0.000083
C       0.88339613      2.05316306      0.99393104      0.000364    -0.000161    -0.000065
C      -3.98160877      0.19316868      0.61594879     -0.000212     0.000074     0.000246
C       2.45425090     -0.89881819     -1.99547191      0.000187    -0.000207    -0.000115
H       0.44569801      0.23121278      1.97738923      0.000481     0.000542     0.000295
H       1.22102284     -1.28625210      0.28884771     -0.000101     0.000251     0.000467
H       2.45875988     -0.10192670      0.64596869      0.000580    -0.000710    -0.000179
H       0.58311315      0.09543264     -1.71471078     -0.000739     0.000258    -0.000745
H       1.97679847      1.16369384     -1.41423915      0.000698     0.000065     0.000085
H      -1.25016751      1.09058954     -0.22003421     -0.000130     0.000311    -0.000212
H      -2.87293567     -0.59569984     -1.01196514      0.000099     0.000186     0.000606
H      -3.65425964      1.23067805      0.57578224      0.000427     0.000124     0.000460
H      -4.19153085     -0.01213701      1.68278442      0.000621     0.000232     0.000579
H      -4.90093493      0.12606734      0.11100791     -0.000031    -0.000345     0.000313
H      -3.84732256     -2.43643268      1.03272014     -0.001068     0.000034    -0.000134
H      -2.93598133     -2.85278594     -0.24561512      0.000802    -0.000872     0.000260
H       0.30623210      3.79002196      0.52156724     -0.000563     0.000919    -0.000945
H       4.11086711     -1.09185602     -3.12969304      0.000160    -0.000396     0.000059
H       3.71189143      0.56535755     -2.71555859     -0.000731     0.000071    -0.000118
30
Frame 43  Energy = -779.1163225740 Hartree
O      -0.08332863      2.87928707      0.53914194     -0.000053    -0.000071    -0.000123
O      -1.39754122     -1.42609479      1.66520710     -0.000179     0.000151    -0.000042
O       2.06162472      2.18026613      0.47433545      0.000159    -0.000075    -0.000150
O       2.87682382     -1.63844757     -2.84415109      0.000145    -0.000042    -0.000192
N      -1.00639447      0.37559279      0.34746214      0.000089    -0.000141     0.000095
N      -3.73425838     -1.97581747      0.20584752     -0.000091    -0.000178     0.000499
N       3.81572849     -0.19306710     -1.38207591     -0.000150    -0.000089    -0.000108
C       0.36404048      0.49490014      0.78437925      0.000089    -0.000188    -0.000359
C       1.25891657     -0.52039251      0.08497908     -0.000082     0.000328    -0.000045
C       1.40395296     -0.34790884     -1.43500679      0.000054    -0.000072     0.000004
C      -3.24384579     -0.60454300      0.34798964     -0.000015     0.000037     0.000141
C      -1.80643293     -0.60890355      0.86343666      0.000071     0.000131     0.000014
C       0.90226879      1.92326327      0.59108226      0.000096     0.000091     0.000067
C      -4.15674630      0.13730071      1.32736246      0.000182    -0.000012     0.000021
C       2.76460124     -0.81223855     -1.96373235     -0.000086     0.000059     0.000145
H       0.44057555      0.27996879      1.87008357      0.000591     0.000341    -0.000083
H       0.89080539     -1.49249299      0.37557513      0.000441     0.000506     0.000675
H       2.25085607     -0.44303210      0.55366985     -0.000418     0.000198     0.000249
H       0.66294037     -0.89991460     -1.98077414      0.000128    -0.000275     0.000114
H       1.30020867      0.69566538     -1.73374419     -0.000145     0.000584    -0.000430
H      -1.39450623      1.11856325     -0.20388797     -0.000587     0.000387    -0.000127
H      -3.24024565     -0.13870678     -0.63618682      0.001019    -0.000586    -0.000530
H      -3.83101739      1.19588216      1.47696636     -0.000704     0.000009    -0.000214
H      -4.13732197     -0.38782684      2.29172098     -0.000644     0.000242     0.000205
H      -5.14729598      0.10001435      0.92810761     -0.000825     0.000714     0.000797
H      -3.59374177     -2.45226020      1.07910743     -0.001173    -0.000112     0.000591
H      -3.16308342     -2.44448819     -0.49062271     -0.000117     0.000051     0.000562
H       0.35218176      3.71420502      0.52748250     -0.000358    -0.000107    -0.000168
H       4.72739759     -0.41382373     -1.73117987     -0.000072    -0.000320     0.000355
H       3.63961645      0.60074569     -0.78997290      0.000145     0.000152    -0.000542
30
Frame 44  Energy = -779.1118405423 Hartree
O      -0.19722132      2.70820232      0.54088858     -0.000240     0.000179     0.000130
O      -1.51168744     -1.23060187      1.92068420      0.000076     0.000067     0.000084
O       1.91469901      2.20653294      1.03925115     -0.000164     0.000243    -0.000204
O       2.71373026     -1.92051877     -2.48407962     -0.000171     0.000067    -0.000010
N      -0.94959651      0.15931107      0.22045514     -0.000034     0.000037    -0.000066
N      -3.84537318     -2.02246577      0.47220200      0.000357    -0.000124     0.000097
N       3.96342248     -0.06883806     -2.05990325      0.000075    -0.000020     0.000002
C       0.37374462      0.38853693      0.70008825     -0.000109     0.000304     0.000094
C       1.45391728     -0.41022806     -0.04104457      0.000028    -0.000271    -0.000164
C       1.61627655     -0.02676919     -1.52268674      0.000054    -0.000100    -0.000146
C      -3.20855277     -0.72527429      0.29629030      0.000044    -0.000135    -0.000006
C      -1.80952707     -0.63248861      0.90283100      0.000157    -0.000043     0.000242
C       0.81127661      1.85364506      0.76112719     -0.000125     0.000045     0.000155
C      -4.04853214      0.39740130      0.89688922      0.000171    -0.000379    -0.000236
C       2.79449250     -0.77698416     -2.09973059      0.000014     0.000207     0.000018
H       0.38010039      0.02180999      1.71747825     -0.000802     0.000751     0.000837
H       1.16184502     -1.48440012     -0.02039066     -0.000136    -0.000153    -0.000107
H       2.38497638     -0.30227993      0.52163185     -0.000627    -0.000659    -0.000249
H       0.72958670     -0.30903464     -2.09298477     -0.000238    -0.000726     0.000600
H       1.75205389      1.05536888     -1.64766977      0.000014    -0.000788    -0.000002
H      -1.23667820      0.58178282     -0.63626719     -0.000251    -0.000576    -0.000199
H      -3.11452932     -0.54236078     -0.79114715     -0.000548    -0.000282     0.000972
H      -3.58146781      1.35562653      0.76667251     -0.000399     0.000198    -0.000561
H      -4.12270602      0.21052207      1.97505086      0.001306    -0.000153     0.000649
H      -5.05016517      0.38553961      0.48138392     -0.000532     0.000024     0.001271
H      -3.96182495     -2.19578532      1.45299176      0.000873     0.000322    -0.000085
H      -3.26719036     -2.76309238      0.09094329      0.000133     0.000100    -0.000451
H       0.18714434      3.59061394      0.57892149      0.000155    -0.000755    -0.001215
H       4.82144037     -0.56156400     -2.24211052      0.000031    -0.000058    -0.001117
H       4.00307041      0.74777547     -1.47849383      0.000597    -0.000149    -0.000284
30
Frame 45  Energy = -779.1161050042 Hartree
O       0.18321963      2.93173718      0.22032918     -0.000167     0.000176    -0.000042
O      -1.24218429     -1.51112534      1.38661578      0.000151    -0.000185    -0.000158
O       1.95041496      2.46585372      1.49656719     -0.000192     0.000161     0.000040
O       2.29268336     -2.13985324     -1.68613797     -0.000005    -0.000115    -0.000086
N      -0.93154848      0.54200264      0.50209533     -0.000082     0.000076    -0.000028
N      -3.39414532     -1.95078828     -0.47458109     -0.000048     0.000037    -0.000012
N       3.31167970     -0.44991047     -2.80359627     -0.000123     0.000096    -0.000162
C       0.43330637      0.67929490      1.00999950      0.000208    -0.000019     0.000020
C       1.41756649     -0.22816817      0.28564397      0.000057     0.000190     0.000340
C       1.56080682      0.07981682     -1.20214427     -0.000073    -0.000055     0.000148
C      -3.08012171     -0.65643024      0.10535355     -0.000095    -0.000192     0.000118
C      -1.68202705     -0.58445660      0.72258572     -0.000117     0.000059    -0.000179
C       0.92949633      2.09638039      0.95166499     -0.000177    -0.000020    -0.000074
C      -4.10127636     -0.35871511      1.21163142      0.000438    -0.000144     0.000088
C       2.39792425     -0.95175741     -1.91332386      0.000050    -0.000127     0.000065
H       0.43224921      0.39415352      2.05348417     -0.000501     0.000052     0.000218
H       1.02113077     -1.23180183      0.45021271      0.000711     0.000162    -0.000181
H       2.39537656     -0.14667585      0.74996731     -0.000587     0.000809    -0.000301
H       0.59053973      0.00913936     -1.70027967      0.000051     0.000044    -0.001009
H       1.95500320      1.08338792     -1.38539676     -0.000048     0.000705     0.000302
H      -1.23831814      1.21038920     -0.18950535      0.000601    -0.000097    -0.000496
H      -3.17023329      0.08422624     -0.67924084      0.000471     0.000091    -0.000049
H      -3.94775678      0.60567039      1.71683843      0.000772     0.000293     0.001049
H      -4.05053600     -1.11432282      1.98339193     -0.000398    -0.000158     0.000546
H      -5.14855557     -0.39989237      0.82235936      0.000291    -0.001026     0.000651
H      -3.15489160     -2.68498987      0.18819978      0.001140    -0.000555     0.000805
H      -2.81675913     -2.13120876     -1.29482110      0.000006    -0.000366     0.000117
H       0.61805939      3.82507410      0.33105135      0.000058    -0.000091     0.000042
H       3.86862082     -1.08364201     -3.34579596      0.000359    -0.000030    -0.000701
H       3.34729689      0.52553591     -3.03033815      0.000481     0.000337    -0.000533
30
Frame 46  Energy = -779.1144066397 Hartree
O      -0.27400991      2.65785894      0.41222893     -0.000078     0.000190    -0.000059
O      -1.56482996     -1.23702375      1.93395329      0.000139    -0.000109     0.000139
O       1.88177133      2.19941757      0.83234686      0.000074     0.000017     0.000330
O       2.86405249     -1.72713932     -2.82879621     -0.000080    -0.000041    -0.000097
N      -0.94928427      0.12802329      0.23137561      0.000009    -0.000111    -0.000159
N      -3.92237000     -1.94655854      0.44916715      0.000060    -0.000037    -0.000074
N       4.07690795     -0.14999651     -1.75819820     -0.000210    -0.000084     0.000032
C       0.37136195      0.36123329      0.71092435      0.000140     0.000029     0.000096
C       1.46448118     -0.47562341      0.00527364     -0.000162    -0.000151    -0.000105
C       1.63334646     -0.12443623     -1.47531482     -0.000116     0.000158     0.000067
C      -3.27684272     -0.63682513      0.37848770      0.000057    -0.000249     0.000164
C      -1.84883932     -0.61740450      0.93600983      0.000020    -0.000064     0.000331
C       0.76099065      1.82064205      0.66112290      0.000184     0.000255     0.000119
C      -4.05345461      0.38845349      1.20098321     -0.000068    -0.000099    -0.000101
C       2.90162875     -0.75337133     -2.09399664     -0.000019     0.000055    -0.000409
H       0.40489731      0.09521688      1.76949471      0.000362     0.000770    -0.000007
H       1.22583492     -1.53951339      0.13334200     -0.001034     0.000060    -0.000829
H       2.35931972     -0.25137167      0.58765615      0.000043     0.000374    -0.000418
H       0.78868928     -0.51511680     -2.03614981      0.000521     0.000012     0.000179
H       1.67140659      0.97722229     -1.56933702     -0.000835    -0.000328     0.000049
H      -1.25866024      0.57663484     -0.61845824     -0.000686     0.000193    -0.000028
H      -3.25958549     -0.36861478     -0.70076951      0.000348     0.000002    -0.000287
H      -3.63645191      1.35950249      1.02479206     -0.000112     0.000191    -0.001169
H      -3.95501147      0.16590846      2.25427545      0.000412    -0.000812    -0.000468
H      -5.12305150      0.36194381      0.90297017      0.000620     0.000231    -0.000763
H      -3.75714528     -2.33840737      1.38340870      0.000218     0.000209    -0.000485
H      -3.47152341     -2.61324022     -0.17496149      0.000371     0.000538    -0.000370
H       0.10872686      3.53884784      0.31994460      0.000905     0.001342     0.001273
H       4.93867334     -0.55265519     -2.06781819     -0.000326     0.000054    -0.000494
H       4.09965213      0.59967697     -1.09013805     -0.000184     0.000270    -0.000262
30
Frame 47  Energy = -779.1106098661 Hartree
O      -0.32655916      2.25059747      0.66602080      0.000218    -0.000184     0.000254
O      -1.73120546     -0.64591159      2.26514566      0.000420    -0.000049     0.000015
O       1.86857481      1.93012282      0.51733051     -0.000012     0.000163     0.000065
O       3.33445590     -1.28050261     -3.04371443     -0.000330     0.000082    -0.000135
N      -0.90025889     -0.33214056      0.19090463      0.000072     0.000233    -0.000006
N      -4.15952816     -1.64740320      1.17541456     -0.000096    -0.000179     0.000172
N       3.91966833      0.36849506     -1.60616800      0.000036     0.000039    -0.000073
C       0.43747066     -0.03353088      0.63644708      0.000042    -0.000317     0.000023
C       1.51513887     -0.79363283     -0.10076731     -0.000013    -0.000007    -0.000141
C       1.61304258     -0.40343398     -1.58885419     -0.000008     0.000155     0.000187
C      -3.32133611     -0.72194419      0.44621893     -0.000035    -0.000087     0.000033
C      -1.90827099     -0.56401201      1.06125352     -0.000068    -0.000188    -0.000071
C       0.74656909      1.47005101      0.62580216     -0.000068     0.000299    -0.000013
C      -3.99624756      0.66256732      0.42560190     -0.000071    -0.000091    -0.000400
C       3.03404556     -0.50193267     -2.15794092     -0.000351     0.000062    -0.000168
H       0.46275670     -0.32594659      1.69443429      0.000554    -0.000867     0.000708
H       1.28152892     -1.85648212     -0.03244158      0.000474    -0.000746    -0.000926
H       2.46936469     -0.64979535      0.39654289      0.000481    -0.000386    -0.000780
H       0.97930365     -1.04836964     -2.16692972     -0.000645     0.000896     0.000460
H       1.30577187      0.63175134     -1.73619742      0.000410     0.000875    -0.000385
H      -1.12193685     -0.28158952     -0.79186811      0.000788    -0.000094     0.000598
H      -3.23632250     -1.05127873     -0.57512147     -0.000429     0.000275     0.000592
H      -3.35772667      1.43845558      0.01863087      0.000046    -0.000462    -0.000352
H      -4.26686920      0.99593326      1.45565362     -0.000063     0.000799     0.000437
H      -4.92252109      0.65360825     -0.15420495      0.000510     0.001013     0.000673
H      -4.09041507     -1.49282678      2.17910833     -0.000369    -0.000574     0.000601
H      -3.88690498     -2.60637929      1.00859292      0.000425    -0.000772     0.000087
H      -0.01645917      3.14135338      0.72960575     -0.000876    -0.000389     0.000393
H       4.88102090      0.31788172     -1.90498326      0.000273     0.000486     0.000064
H       3.67366471      1.04021977     -0.89187273      0.000358     0.000531    -0.000071
30
Frame 48  Energy = -779.1175999047 Hartree
O      -0.24541445      2.41415730      0.53725188      0.000354     0.000043     0.000002
O      -1.74117024     -0.94724049      2.14997885      0.000083    -0.000258    -0.000022
O       1.95166992      1.90898161      0.45220698      0.000122     0.000070     0.000041
O       3.49598907     -1.47340029     -2.75442874     -0.000158    -0.000083    -0.000053
N      -0.98482318     -0.13926857      0.17821217      0.000026     0.000095     0.000107
N      -4.10439943     -1.76735278      0.69897576     -0.000115     0.000020    -0.000174
N       3.74764394      0.50715481     -1.69681698     -0.000159     0.000051     0.000114
C       0.38257062      0.08943267      0.60713479      0.000183     0.000009    -0.000026
C       1.45792933     -0.77729128     -0.02247556     -0.000380    -0.000146     0.000008
C       1.59772786     -0.56954020     -1.56357527     -0.000019     0.000223     0.000031
C      -3.35644326     -0.55451195      0.44174571     -0.000030    -0.000115    -0.000064
C      -1.94784316     -0.59124449      1.01198556      0.000307     0.000101    -0.000255
C       0.79975821      1.56678238      0.49279038     -0.000122    -0.000128     0.000149
C      -4.01391501      0.67381566      1.08720732      0.000179    -0.000131    -0.000079
C       3.03919276     -0.57976118     -2.07128555     -0.000168    -0.000025     0.000086
H       0.37768022     -0.15249824      1.68470817      0.000500     0.000265    -0.000520
H       1.25048908     -1.80447444      0.19142039      0.000265     0.000015    -0.000303
H       2.40750888     -0.53746346      0.47656912     -0.000937     0.000038     0.000567
H       1.01260339     -1.29251627     -2.14813209      0.000190     0.000060     0.000305
H       1.27014809      0.42796420     -1.83690864     -0.000404     0.000648     0.000432
H      -1.25990043      0.13066720     -0.75951767     -0.000211     0.000723     0.000553
H      -3.32742464     -0.39671284     -0.65129277     -0.000829    -0.000080     0.000087
H      -3.42428139      1.56431268      0.80795260      0.000027     0.000725     0.000610
H      -3.98052916      0.55322153      2.15088377     -0.000101    -0.000104     0.000126
H      -5.00433777      0.75803731      0.73300858      0.000429     0.000159     0.000332
H      -4.01886739     -1.94245081      1.69687040     -0.000106     0.000084     0.000171
H      -3.64791892     -2.54272693      0.24430027     -0.000758    -0.000054    -0.000728
H       0.09746362      3.32995132      0.41331185     -0.000205     0.001167     0.000502
H       4.72103787      0.56767358     -1.94669052     -0.000273    -0.000022    -0.000603
H       3.39112694      1.17685090     -1.03274100      0.000060     0.000234     0.000123
30
Frame 49  Energy = -779.1160309340 Hartree
O      -0.14651417      2.65748401      0.34608307      0.000035    -0.000057    -0.000041
O      -1.47180989     -1.52797198      1.55162048     -0.000153    -0.000009    -0.000127
O       1.97690810      2.06462104      0.37449198      0.000049    -0.000065    -0.000178
O       3.32177349     -1.47767685     -2.73745630     -0.000075    -0.000046     0.000249
N      -1.03277778      0.21654922      0.15642623      0.000191    -0.000015     0.000010
N      -4.11576912     -1.75871833      0.62815615      0.000052    -0.000059    -0.000168
N       3.81704509      0.23534911     -1.38123842     -0.000083     0.000259     0.000085
C       0.33138458      0.32602001      0.65174718     -0.000000     0.000101    -0.000190
C       1.29618697     -0.69513624      0.04517378     -0.000167    -0.000246    -0.000086
C       1.52278286     -0.56079760     -1.48410304     -0.000028    -0.000077     0.000427
C      -3.37437929     -0.52546720      0.53828443      0.000031     0.000310     0.000023
C      -1.87572601     -0.67982518      0.78939677     -0.000058     0.000104     0.000153
C       0.83268593      1.72806397      0.45415361      0.000163    -0.000035    -0.000197
C      -3.97229627      0.45618274      1.55866548      0.000095     0.000163    -0.000142
C       2.96531915     -0.65508997     -1.92563323      0.000020    -0.000069     0.000313
H       0.30944244      0.12602646      1.72713065      0.000458    -0.000195    -0.000030
H       0.83033357     -1.65298886      0.25225763     -0.000288     0.000541     0.000813
H       2.22897739     -0.67112008      0.61671422      0.000215     0.000088    -0.000152
H       0.94119006     -1.30965971     -2.03229236     -0.000304    -0.000428     0.000588
H       1.17137776      0.43526562     -1.81854507      0.000632     0.000128    -0.000172
H      -1.44907455      1.02955729     -0.28874669      0.001242    -0.000750     0.000243
H      -3.49512722     -0.11631910     -0.46851909      0.000443    -0.000947    -0.000072
H      -3.45052439      1.41765117      1.55262128     -0.000670    -0.000553    -0.000443
H      -3.89701936      0.03482434      2.60363804     -0.000554     0.000753    -0.000354
H      -5.01583234      0.63303451      1.35477722     -0.000708    -0.000787    -0.000051
H      -3.80668988     -2.23600879      1.46234824     -0.000233     0.000249    -0.000289
H      -3.99663391     -2.35036588     -0.16882178     -0.000202     0.000127    -0.000340
H       0.34490233      3.51541958      0.22670013     -0.000490    -0.000551    -0.000633
H       4.79485721      0.16067514     -1.61860845     -0.000244     0.000453    -0.000036
H       3.51070792      0.86556858     -0.65537779      0.000075    -0.000868    -0.000115
30
Frame 50  Energy = -779.1146003268 Hartree
O      -0.31190183      2.64523741      0.42895318     -0.000083     0.000155    -0.000044
O      -1.40761625     -1.40657702      1.73717475     -0.000207    -0.000063    -0.000075
O       1.80055277      2.19178757      1.04194380      0.000084    -0.000012    -0.000126
O       2.73212696     -1.87106294     -2.51158022     -0.000029     0.000074     0.000358
N      -0.93927542      0.07993471      0.10850509     -0.000051     0.000023     0.000077
N      -3.96240644     -1.87967238      0.73673795      0.000249     0.000015    -0.000116
N       4.05261705     -0.07177436     -2.04614043     -0.000191    -0.000110     0.000085
C       0.35741848      0.35916016      0.68070372     -0.000214     0.000037    -0.000052
C       1.49239244     -0.41237969     -0.00001207      0.000087     0.000082    -0.000012
C       1.68386396      0.01749573     -1.45336066      0.000263     0.000161     0.000163
C      -3.24719390     -0.67611457      0.33216694      0.000008    -0.000090    -0.000124
C      -1.80744113     -0.70939426      0.81022831     -0.000188     0.000018     0.000041
C       0.70522552      1.82290848      0.73905371      0.000192    -0.000120    -0.000223
C      -3.93527089      0.53009061      0.97471213     -0.000098     0.000055    -0.000313
C       2.85527347     -0.75759298     -2.04306783      0.000147    -0.000094     0.000232
H       0.32427844      0.02970230      1.71753497     -0.000212    -0.000190     0.000150
H       1.26516129     -1.49230606      0.06647653      0.000573     0.000011    -0.000195
H       2.40769112     -0.22309984      0.55502666      0.000052     0.000582     0.000346
H       0.84104566     -0.18594953     -2.07869881     -0.000115     0.000661     0.000373
H       1.87785151      1.09100172     -1.43471404      0.000658     0.000932    -0.000066
H      -1.34651479      0.78338509     -0.48924834     -0.000534    -0.000522    -0.000109
H      -3.24520881     -0.58632604     -0.75688727     -0.000395     0.000784     0.000366
H      -3.43040050      1.47350601      0.72261842     -0.000033     0.000293    -0.000572
H      -3.91379757      0.43820548      2.02970811      0.000686    -0.000061     0.000092
H      -4.98133136      0.62436059      0.66473283      0.001347    -0.000159     0.000933
H      -3.75508104     -2.00235980      1.72606435     -0.000276    -0.001140     0.000291
H      -3.53562554     -2.66606694      0.27790929      0.000257    -0.000852    -0.000139
H       0.02068182      3.53767650      0.47532397     -0.000947    -0.000792    -0.000786
H       4.84793054     -0.62635845     -2.31577669      0.000022    -0.000435     0.000154
H       4.19667657      0.72921042     -1.46010917      0.000187    -0.001118     0.000150
30
Frame 51  Energy = -779.1137468145 Hartree
O      -0.20365538      2.85620486      0.50637877     -0.000236     0.000217    -0.000006
O      -1.28356813     -1.52417214      1.38616009      0.000030     0.000126    -0.000135
O       1.89674609      2.40445978      1.06793191     -0.000129    -0.000203    -0.000043
O       2.46568740     -2.10863575     -2.06093285      0.000164    -0.000168     0.000182
N      -0.93332708      0.38084258      0.22355697      0.000086    -0.000024    -0.000052
N      -3.73689618     -1.92312261     -0.00579061      0.000102     0.000196    -0.000056
N       3.82697246     -0.30613422     -2.38652604      0.000319     0.000128     0.000285
C       0.36989533      0.55771806      0.81810159     -0.000261    -0.000094    -0.000043
C       1.45033374     -0.32359474      0.16435436     -0.000091     0.000019     0.000151
C       1.66759196      0.03646547     -1.31119155      0.000141     0.000089     0.000006
C      -3.19460276     -0.60166013      0.28696168      0.000146     0.000068     0.000016
C      -1.71405956     -0.64929503      0.66234785     -0.000287    -0.000050    -0.000220
C       0.79178402      2.00524854      0.82037258     -0.000215    -0.000311    -0.000045
C      -3.99970025      0.02249032      1.42724765      0.000206    -0.000202    -0.000136
C       2.67678668     -0.92393475     -1.95888038      0.000180    -0.000060     0.000025
H       0.33673914      0.28756752      1.87503418     -0.000039     0.000759    -0.000074
H       1.17465639     -1.34990092      0.29377401      0.000081    -0.000067     0.000678
H       2.37462354     -0.16523331      0.71900174     -0.000680     0.000033     0.000132
H       0.72447683     -0.06608891     -1.87095392     -0.000259     0.000492    -0.000079
H       1.98786250      1.06577240     -1.35242827     -0.000262    -0.000158     0.000401
H      -1.39078908      1.20296034     -0.11911363     -0.000178    -0.000083    -0.001067
H      -3.30521268      0.02795434     -0.61301287     -0.000356    -0.000099    -0.000453
H      -3.66911910      1.03850822      1.57776660     -0.000207    -0.000783     0.000380
H      -3.83761429     -0.56160943      2.35754531     -0.000054     0.000058     0.000095
H      -5.08230038     -0.00996550      1.12166763      0.000116    -0.000167     0.000165
H      -3.51815557     -2.56920801      0.75610346     -0.000244     0.001526     0.000374
H      -3.34648750     -2.31959080     -0.84704591     -0.000922     0.000745    -0.000778
H       0.16732315      3.73210166      0.52746111      0.001049     0.000913    -0.000047
H       4.60967180     -0.84501645     -2.72205548      0.000028    -0.000865     0.000390
H       3.95218268      0.65313348     -2.13069236     -0.000277     0.000428     0.000363
30
Frame 52  Energy = -779.1165695755 Hartree
O      -0.15909132      2.88374715      0.83879043     -0.000308     0.000019     0.000051
O      -1.40887661     -1.25278251      1.66680612      0.000081    -0.000030     0.000114
O       2.01152124      2.32875108      0.90952192     -0.000160    -0.000138     0.000004
O       2.53913811     -2.14572605     -2.04502427      0.000243     0.000138    -0.000035
N      -0.93793542      0.42839978      0.24047592     -0.000085     0.000138    -0.000015
N      -3.44333187     -1.91033991     -0.30171734      0.000094     0.000086    -0.000392
N       3.71839603     -0.27660605     -2.46538999      0.000094    -0.000011    -0.000139
C       0.39561378      0.56021228      0.81622423      0.000211    -0.000067     0.000030
C       1.44541730     -0.35163121      0.16616865     -0.000004     0.000075     0.000285
C       1.55342247     -0.07435100     -1.32269007      0.000116    -0.000131     0.000187
C      -3.16808202     -0.58870896      0.20708356     -0.000225     0.000114     0.000072
C      -1.76868775     -0.50779017      0.79301512      0.000020     0.000062     0.000037
C       0.86065489      1.98950571      0.84690471     -0.000088     0.000112     0.000009
C      -4.19519833     -0.22284193      1.27336593     -0.000094    -0.000085    -0.000077
C       2.61887470     -0.93374636     -1.97315210     -0.000011    -0.000142    -0.000100
H       0.26806695      0.27129427      1.86694630      0.000662    -0.001329     0.000829
H       1.13469468     -1.38007868      0.30480940      0.000456     0.000275     0.000020
H       2.40750111     -0.21694760      0.65046190      0.000551    -0.000356     0.000204
H       0.57723734     -0.35809119     -1.76264514      0.000971    -0.000729     0.000051
H       1.75012946      0.97511173     -1.53875408      0.000423    -0.000114     0.000471
H      -1.26674946      1.06562397     -0.46115959      0.000362     0.000626     0.000654
H      -3.24802703      0.13968949     -0.58550766     -0.000146     0.000364    -0.000060
H      -3.95081725      0.72703772      1.74135708     -0.000293     0.000376    -0.000884
H      -4.21166634     -0.94005005      2.04195132     -0.000314    -0.000251    -0.000582
H      -5.20439390     -0.16178086      0.83906308     -0.000708     0.000352    -0.000134
H      -3.43526708     -2.61245757      0.43863728     -0.000520     0.000202    -0.000143
H      -2.77132880     -2.21747283     -0.99687818      0.000447    -0.000591    -0.000312
H       0.25404527      3.78233104      0.96845625      0.000319     0.000483    -0.000009
H       4.44202955     -0.84847960     -2.87068520     -0.000361    -0.001271    -0.000114
H       3.86629567      0.70471288     -2.33866497     -0.000130    -0.000059     0.000189
30
Frame 53  Energy = -779.1125112234 Hartree
O      -0.29576186      2.81241763      0.55441036     -0.000332    -0.000006     0.000159
O      -1.25165540     -1.45333142      1.54192170      0.000282     0.000164     0.000076
O       1.86301453      2.43405162      0.95826968     -0.000230    -0.000083     0.000064
O       2.40739749     -1.84114551     -2.67669174      0.000118    -0.000144     0.000124
N      -0.94759801      0.31144815      0.18482047      0.000001    -0.000041    -0.000050
N      -3.77151327     -2.04240076      0.39556068      0.000001     0.000092    -0.000070
N       4.00116547     -0.52800014     -1.76214884      0.000141     0.000079    -0.000173
C       0.37348860      0.52974024      0.76094471      0.000022    -0.000115    -0.000155
C       1.45040034     -0.31217732      0.10372200     -0.000132    -0.000149     0.000077
C       1.65491824      0.02709498     -1.38677397      0.000229     0.000169    -0.000015
C      -3.19126144     -0.71651419      0.27074376      0.000020     0.000125     0.000002
C      -1.71664295     -0.68474359      0.71084710      0.000317     0.000218    -0.000220
C       0.76309103      2.00359877      0.75320651      0.000065    -0.000081     0.000162
C      -3.97604194      0.25933161      1.16696050     -0.000429     0.000051    -0.000113
C       2.71064898     -0.87463808     -1.99524568      0.000203    -0.000176     0.000113
H       0.33233622      0.27209462      1.83197270     -0.000223     0.000303    -0.000553
H       1.14739995     -1.36361078      0.13257937      0.000330    -0.001010     0.000399
H       2.37382641     -0.19840396      0.67256669      0.000285     0.000145    -0.000400
H       0.75619620     -0.15208382     -1.96028808     -0.000339    -0.000009     0.000559
H       1.93752286      1.06897524     -1.51313048     -0.000635    -0.000639    -0.000656
H      -1.36543030      0.98241906     -0.45106058     -0.000816    -0.000429    -0.000795
H      -3.31293280     -0.41963147     -0.79144810      0.000188    -0.000059     0.000573
H      -3.61522706      1.27986519      1.10621779     -0.000416     0.000274    -0.000166
H      -3.87058539     -0.08886833      2.23661034     -0.000807    -0.000270    -0.000245
H      -5.02907395      0.19774771      0.89276670     -0.001034     0.001287     0.000739
H      -3.45668368     -2.40639063      1.29250250     -0.000629    -0.000153     0.000072
H      -3.30348780     -2.66439535     -0.25753938     -0.000080     0.000561    -0.000147
H       0.08312147      3.71174886      0.54669618      0.000228    -0.001447     0.000695
H       4.72615566     -1.10860714     -2.14416941      0.000356     0.000199    -0.000395
H       4.20434016      0.28068472     -1.20236679      0.000642     0.000046    -0.000535
30
Frame 54  Energy = -779.1177403230 Hartree
O       0.02139143      2.95755703      0.31099063     -0.000033    -0.000051     0.000035
O      -1.25235223     -1.41828752      1.53740948     -0.000294     0.000147    -0.000076
O       1.83481126      2.54090197      1.52440829      0.000042    -0.000165     0.000244
O       1.77655746     -2.04109450     -2.00060361      0.000220     0.000110    -0.000218
N      -0.85642903      0.47792232      0.35120976      0.000018     0.000186     0.000003
N      -3.25276352     -2.15815191     -0.27614929     -0.000099     0.000046    -0.000231
N       3.46734271     -0.72919000     -2.65172572      0.000036     0.000098     0.000176
C       0.41361677      0.70177769      0.99427078      0.000291    -0.000172    -0.000037
C       1.52633320     -0.16793227      0.34209151      0.000290    -0.000095     0.000155
C       1.82272972      0.19846481     -1.11737651     -0.000042    -0.000038     0.000069
C      -2.95738245     -0.76758873      0.02033047     -0.000169     0.000227     0.000072
C      -1.60678799     -0.58797226      0.70576235     -0.000132     0.000034    -0.000166
C       0.83788085      2.12700504      0.99491609      0.000015    -0.000223     0.000110
C      -4.02613317     -0.19242607      0.93729884      0.000072    -0.000127    -0.000212
C       2.33486699     -0.95677618     -1.92129303      0.000002     0.000036    -0.000108
H       0.33480835      0.40874541      2.05021639     -0.000360    -0.000046    -0.000237
H       1.17803338     -1.22309222      0.39421672      0.000432    -0.000048    -0.000027
H       2.43915405     -0.08281951      0.92317800      0.000633    -0.000393     0.000003
H       0.89744499      0.47591734     -1.62324537     -0.000298    -0.000747     0.000522
H       2.49545419      1.05312372     -1.21516093     -0.000007     0.000760     0.000468
H      -1.28835496      1.18692328     -0.21208985      0.000825     0.000190     0.000350
H      -2.94781249     -0.24069113     -0.92094963     -0.001224    -0.000318    -0.000220
H      -3.85811802      0.86902658      1.20641930     -0.000029     0.000119     0.000293
H      -4.09162746     -0.72260691      1.86762986     -0.000049    -0.000547     0.000182
H      -4.95560699     -0.26875240      0.44832294     -0.000326    -0.000103     0.000182
H      -3.14210610     -2.75489272      0.52240999     -0.001080     0.000002     0.000454
H      -2.61033924     -2.48547123     -0.98777093     -0.000526    -0.000175     0.000333
H       0.37815629      3.82536302      0.39609554     -0.000092     0.000432     0.000404
H       3.83866999     -1.49400477     -3.18705038     -0.000065     0.000255    -0.000267
H       4.02489264      0.08947296     -2.47946547     -0.000105    -0.000324    -0.000091
30
Frame 55  Energy = -779.1130164661 Hartree
O      -0.22905442      2.62779934      0.51977330      0.000299    -0.000085    -0.000008
O      -1.50193873     -1.17968332      1.99321623     -0.000194     0.000287     0.000030
O       1.89653787      2.24395904      1.04194578      0.000220    -0.000168    -0.000225
O       2.67950954     -1.79647444     -2.74103918     -0.000093     0.000057    -0.000184
N      -0.89936750      0.12388429      0.24588586     -0.000031     0.000026    -0.000235
N      -3.88737243     -1.96700669      0.68881843     -0.000148    -0.000085     0.000268
N       3.94494475     -0.08768298     -1.93611735      0.000156     0.000053     0.000211
C       0.44166211      0.33822011      0.75868452      0.000149     0.000081    -0.000031
C       1.51601120     -0.43118110      0.00611081     -0.000111    -0.000039     0.000070
C       1.58204253     -0.09784606     -1.48174930      0.000032    -0.000121    -0.000043
C      -3.18539014     -0.77875090      0.25710082     -0.000242    -0.000068     0.000095
C      -1.78882028     -0.63701492      0.93412031      0.000159    -0.000055    -0.000019
C       0.79798892      1.81759893      0.80067970      0.000140    -0.000217    -0.000041
C      -4.04198218      0.44889365      0.59259459     -0.000048     0.000197     0.000041
C       2.76756803     -0.74621859     -2.12544287     -0.000297    -0.000168     0.000056
H       0.41743847     -0.01152455      1.80180688      0.000673     0.000031    -0.000082
H       1.32458481     -1.49598286      0.14756751      0.000172     0.000906     0.000105
H       2.46334443     -0.21879761      0.47245843      0.001200    -0.000793     0.000498
H       0.68805306     -0.46498106     -1.99704125     -0.000170     0.000077     0.000406
H       1.62487557      0.99365530     -1.58847089      0.000164    -0.000328     0.000725
H      -1.13492195      0.50272372     -0.64670075      0.000301     0.000306    -0.000013
H      -3.08489843     -0.82599407     -0.84151057     -0.000675     0.000856    -0.000029
H      -3.57103267      1.37069671      0.25722675      0.000239     0.000116    -0.000164
H      -4.15834928      0.51095497      1.71896443     -0.000544     0.000715    -0.000246
H      -5.00133620      0.29020711      0.14988579     -0.000376     0.000085    -0.000375
H      -3.85840767     -2.03420332      1.69579401     -0.000821     0.000397     0.000107
H      -3.41926912     -2.79687783      0.32322746     -0.001016     0.000810    -0.001107
H       0.09474195      3.55078990      0.64682471      0.000113    -0.000860     0.001487
H       4.78534650     -0.59487291     -2.15920986     -0.000066     0.000602    -0.000213
H       3.97694238      0.74000054     -1.36155995      0.000004     0.000349     0.000121
30
Frame 56  Energy = -779.1133692404 Hartree
O      -0.52985425      2.20545258      0.60616933      0.000171    -0.000248     0.000203
O      -1.67996484     -0.71308230      2.19594755     -0.000034    -0.000071    -0.000217
O       1.62884527      2.06331323      1.20375677      0.000132    -0.000027    -0.000364
O       2.85707375     -1.74486974     -2.57104568      0.000015     0.000290     0.000113
N      -0.78443430     -0.39039029      0.13901625     -0.000146     0.000032     0.000086
N      -4.08537398     -1.60767716      1.13978142     -0.000350     0.000167    -0.000074
N       4.08580915      0.15086839     -2.38645718      0.000225    -0.000067    -0.000045
C       0.49946320      0.03933868      0.66686432      0.000249     0.000055    -0.000026
C       1.66731179     -0.48891753     -0.12599420      0.000039     0.000073    -0.000219
C       1.75654867      0.08304871     -1.52759433      0.000010    -0.000170    -0.000018
C      -3.20250518     -0.74205113      0.35313811     -0.000270     0.000015     0.000084
C      -1.83403012     -0.63544138      0.98910596     -0.000167     0.000080     0.000394
C       0.60732025      1.53532814      0.85730012      0.000257     0.000027    -0.000006
C      -3.77459298      0.65006320      0.21955467      0.000013     0.000023     0.000156
C       2.93844591     -0.58814214     -2.23158831     -0.000158    -0.000271     0.000047
H       0.59910172     -0.33611604      1.67559618     -0.000157     0.000307     0.000541
H       1.52524874     -1.57500080     -0.19649654     -0.000051    -0.000338     0.000757
H       2.59742293     -0.29858654      0.40208047      0.000485     0.000088    -0.000005
H       0.87162562     -0.14257549     -2.11395895      0.000416     0.000164     0.000106
H       1.89595286      1.15983858     -1.45210837      0.000216    -0.000435     0.000147
H      -0.95172113     -0.28594019     -0.83944682      0.000263    -0.000025     0.000298
H      -3.11701572     -1.13961778     -0.66239077     -0.000796    -0.001016    -0.000492
H      -3.12713560      1.30845336     -0.37928724     -0.000059     0.000226    -0.000775
H      -3.90628157      1.08830623      1.18357113      0.000430    -0.000334     0.000203
H      -4.77193634      0.59673335     -0.21352199     -0.001202     0.000665    -0.000842
H      -3.99253885     -1.29304991      2.10255639      0.000382     0.000516     0.000230
H      -3.71373824     -2.56101729      1.09314161     -0.000445     0.000533     0.000208
H      -0.36173480      3.16122761      0.80255810     -0.000185     0.001248     0.000036
H       4.90355531     -0.32965918     -2.73397920      0.000068    -0.000225    -0.000252
H       4.14503455      1.06735309     -1.97801283      0.000193    -0.000319    -0.000415
30
Frame 57  Energy = -779.1114370355 Hartree
O      -0.35126880      2.33408417      0.93751793      0.000163     0.000025    -0.000193
O      -1.75679303     -0.68108140      2.18721061      0.000002     0.000086     0.000110
O       1.86424336      2.06266183      0.65851582     -0.000080     0.000096    -0.000004
O       3.17406384     -1.76363239     -2.57365032      0.000159    -0.000130     0.000064
N      -0.87423036     -0.17705113      0.14329599     -0.000155     0.000069     0.000007
N      -3.99741069     -1.83613522      0.79913796      0.000168    -0.000133     0.000307
N       3.95368445      0.30122661     -2.06203404     -0.000095     0.000229    -0.000190
C       0.44127746      0.10034098      0.64283245     -0.000364     0.000227    -0.000059
C       1.54295601     -0.60944183     -0.14074785     -0.000052     0.000090     0.000116
C       1.61080835     -0.21695915     -1.62238713      0.000295    -0.000114     0.000084
C      -3.27008736     -0.67506505      0.31770381     -0.000041     0.000054     0.000135
C      -1.89597725     -0.54680724      0.98058313     -0.000136    -0.000107    -0.000209
C       0.75549003      1.58599629      0.73592854      0.000018     0.000098    -0.000124
C      -4.05731472      0.59080367      0.65816233     -0.000061    -0.000075    -0.000062
C       2.97535223     -0.64987660     -2.16908036     -0.000001    -0.000251    -0.000023
H       0.42241424     -0.25891014      1.68401527     -0.000804     0.000565    -0.000798
H       1.41119863     -1.69037323     -0.05798381      0.000321    -0.000614     0.000185
H       2.49948088     -0.36939489      0.34720616      0.000737    -0.000226     0.000464
H       0.87689711     -0.73067202     -2.25116288      0.000850    -0.000383    -0.000146
H       1.48248300      0.86590771     -1.74749752      0.000446    -0.000325    -0.000167
H      -1.05755596     -0.08885903     -0.83475891      0.000244    -0.001225    -0.000144
H      -3.20325499     -0.75295120     -0.76905240     -0.000112    -0.000412     0.001643
H      -3.50734279      1.47722382      0.38516348     -0.000387    -0.001351    -0.000747
H      -4.22173946      0.62867064      1.74423720      0.000046    -0.000480     0.001363
H      -5.04882072      0.61296139      0.14817899      0.000290     0.000103     0.000242
H      -3.97491978     -1.82868982      1.81481773     -0.000566     0.000520     0.000270
H      -3.57970136     -2.69539549      0.43859794      0.001205    -0.000021     0.000280
H      -0.03922973      3.22646442      0.99595823     -0.000637     0.000646    -0.000614
H       4.89201793      0.00953594     -2.29113564      0.000261     0.000043    -0.000474
H       3.74139366      1.16184605     -1.58489152     -0.000570     0.000548    -0.001018
30
Frame 58  Energy = -779.1094102578 Hartree
O      -0.23956030      2.42295209      0.99763965     -0.000087     0.000219    -0.000062
O      -1.67995122     -0.90914684      2.10086812     -0.000051     0.000017     0.000095
O       1.89714200      2.09058149      0.41455663      0.000035     0.000387    -0.000060
O       3.19907502     -1.66650001     -2.71118664     -0.000180    -0.000311    -0.000221
N      -0.90315747     -0.03980900      0.16479854      0.000180    -0.000126    -0.000194
N      -3.97684162     -1.85180740      0.77210691      0.000017    -0.000199     0.000119
N       3.80876572      0.30427466     -1.78983237     -0.000327    -0.000215    -0.000018
C       0.43234296      0.17350258      0.66015291      0.000088     0.000048    -0.000044
C       1.47626424     -0.67463405     -0.05548941      0.000148     0.000124     0.000082
C       1.53443935     -0.38290884     -1.56828710     -0.000128     0.000140    -0.000160
C      -3.24737495     -0.67717854      0.32938233      0.000022    -0.000196     0.000273
C      -1.87289477     -0.55514540      0.96888866      0.000247    -0.000187     0.000239
C       0.80165392      1.65365684      0.65944482     -0.000014     0.000174     0.000067
C      -4.03803270      0.60051824      0.65224933      0.000276    -0.000140     0.000178
C       2.91476831     -0.67055240     -2.10390667     -0.000086    -0.000099     0.000022
H       0.37448570     -0.09498503      1.72252354      0.000199     0.000179    -0.001137
H       1.27269531     -1.73538251      0.08977011      0.000194    -0.000208     0.000277
H       2.43086051     -0.46589956      0.43040112     -0.000104     0.000356    -0.000228
H       0.84312004     -0.99549263     -2.10173142      0.000024    -0.000389     0.000223
H       1.29486164      0.66940064     -1.76852452     -0.000153     0.000302    -0.000721
H      -1.12631056      0.11880005     -0.79593300      0.000055     0.000163    -0.000218
H      -3.11655895     -0.81187835     -0.76714072      0.000369     0.001091    -0.000315
H      -3.57667179      1.50779804      0.29148973     -0.000047    -0.000106    -0.000045
H      -4.16571757      0.67728330      1.73427669     -0.001025     0.000898    -0.000498
H      -5.00846444      0.48187569      0.15812660      0.000938     0.001754     0.000795
H      -4.01011869     -1.82903453      1.78575538     -0.000530     0.000279     0.000846
H      -3.45402783     -2.68984488      0.52501831     -0.000459     0.000398     0.000853
H       0.06128201      3.32989463      1.07998880      0.000216     0.000091    -0.001718
H       4.77619883      0.12494689     -2.00957374     -0.000156    -0.000782    -0.000464
H       3.52328881      1.10409867     -1.24863915      0.000153     0.000145    -0.000235
30
Frame 59  Energy = -779.1115916667 Hartree
O      -0.37815396      2.14209345      0.98432369     -0.000039     0.000301     0.000005
O      -1.74214823     -0.46872115      2.30670720     -0.000016    -0.000059     0.000183
O       1.77026359      1.95701562      0.43057057     -0.000289     0.000113     0.000171
O       3.23560071     -1.09912708     -3.20741218      0.000003    -0.000038    -0.000341
N      -0.84154258     -0.42895341      0.22483734      0.000161    -0.000220     0.000210
N      -4.17583362     -1.43734935      1.38039301      0.000029    -0.000115     0.000013
N       3.89105473      0.27337337     -1.53985243      0.000238     0.000013    -0.000162
C       0.47756327     -0.06205629      0.67018052      0.000009     0.000149     0.000201
C       1.55324080     -0.81436716     -0.10665782     -0.000012    -0.000101    -0.000095
C       1.59140489     -0.47002420     -1.59899458     -0.000329    -0.000049    -0.000136
C      -3.24302183     -0.82078819      0.44563165      0.000080    -0.000261    -0.000089
C      -1.87970481     -0.56967962      1.09224352     -0.000137     0.000245    -0.000044
C       0.71222779      1.44391046      0.66867960     -0.000131     0.000187    -0.000021
C      -3.79873238      0.52700047     -0.06466722      0.000041    -0.000075     0.000113
C       2.97793624     -0.48269566     -2.20315051      0.000242    -0.000077    -0.000008
H       0.55450554     -0.31510813      1.73970165      0.000026    -0.000318     0.000742
H       1.39235427     -1.87338623      0.04986140      0.000267    -0.000199     0.000663
H       2.50134309     -0.57694448      0.35270187      0.000709    -0.001106    -0.000381
H       0.96983848     -1.14137715     -2.18239847      0.000311    -0.000246    -0.000350
H       1.20141353      0.55267981     -1.73565491     -0.000314    -0.000228    -0.000013
H      -1.04472172     -0.49282177     -0.76332171      0.000155     0.000377    -0.000346
H      -3.07301462     -1.47303631     -0.40270957     -0.000905    -0.001232    -0.000923
H      -3.19718289      0.94042201     -0.90412555      0.000933     0.000331    -0.000195
H      -3.81224487      1.26532718      0.73025455      0.000748    -0.000773     0.000229
H      -4.79726122      0.40257248     -0.42833318     -0.000268     0.001271    -0.000627
H      -4.27207496     -0.88728126      2.22023606      0.000002     0.000092     0.000966
H      -3.80404923     -2.31682532      1.71537737     -0.000033     0.000284     0.000538
H      -0.14088181      3.11058411      1.01693450      0.000184     0.000181    -0.000228
H       4.76588791      0.43781832     -2.01903415     -0.000218    -0.000243    -0.000930
H       3.61743551      0.94968383     -0.84195629      0.000649     0.001032     0.000686
30
Frame 60  Energy = -779.1138475885 Hartree
O      -0.20983532      2.46142423      0.71438236      0.000100     0.000003     0.000536
O      -1.68464816     -0.86828456      2.14983977      0.000243    -0.000060     0.000033
O       1.97890227      2.03804266      0.63149912      0.000073    -0.000008    -0.000004
O       3.16477391     -1.62969556     -2.76675044     -0.000236     0.000144    -0.000127
N      -0.91737461     -0.04463486      0.19286114     -0.000063     0.000158     0.000005
N      -4.02211670     -1.87056462      0.76747179      0.000077     0.000024    -0.000106
N       3.81719653      0.33158185     -1.82974009      0.000143     0.000133    -0.000073
C       0.42859030      0.17415286      0.69825025      0.000001    -0.000025    -0.000037
C       1.48525180     -0.64471667     -0.02829970      0.000291     0.000055    -0.000256
C       1.51738335     -0.37227578     -1.54606037     -0.000065    -0.000056     0.000164
C      -3.26928221     -0.71280409      0.32347416     -0.000146     0.000016     0.000215
C      -1.89954213     -0.58679038      0.99758261     -0.000069    -0.000165    -0.000224
C       0.83763226      1.62515186      0.66728350     -0.000139     0.000069    -0.000088
C      -4.05381560      0.53772954      0.65846477      0.000045    -0.000002     0.000101
C       2.91851754     -0.64428035     -2.10306246     -0.000041    -0.000068    -0.000148
H       0.35042560     -0.11132367      1.75136374      0.000213     0.000329    -0.000794
H       1.27581303     -1.69420664      0.12828412     -0.000040     0.000034    -0.000800
H       2.45831301     -0.43932640      0.41250858     -0.000133    -0.000546    -0.000396
H       0.83682098     -1.01094609     -2.12705256      0.000075     0.000085    -0.000001
H       1.26015556      0.66279454     -1.76195938      0.000281    -0.000014    -0.000033
H      -1.15849482      0.23676575     -0.75136010     -0.000814     0.000623     0.000105
H      -3.16428496     -0.75358928     -0.76287449     -0.000930    -0.000479    -0.000498
H      -3.47586450      1.38565848      0.29837310     -0.000059     0.000015     0.000937
H      -4.17955069      0.58188004      1.77191847     -0.000741    -0.000299     0.000721
H      -5.01049230      0.52864270      0.18864910     -0.001037    -0.000087     0.000318
H      -4.08973512     -1.84777767      1.77574956      0.000123    -0.000231    -0.000448
H      -3.56440301     -2.75017260      0.59116619     -0.000179    -0.000643    -0.000802
H       0.19017124      3.34791098      0.76260241     -0.000151    -0.001617     0.000863
H       4.78238816      0.24129742     -2.11439136     -0.000228    -0.000218    -0.000945
H       3.60078353      1.03817787     -1.14279960      0.000025    -0.000486     0.000490
30
Frame 61  Energy = -779.1128359441 Hartree
O      -0.28807254      2.25905169      0.80305564      0.000349    -0.000063    -0.000023
O      -1.76469174     -0.66123821      2.24720782      0.000009    -0.000053    -0.000039
O       1.89640973      1.89776747      0.47337649      0.000118    -0.000112    -0.000059
O       3.45653049     -1.42705540     -2.79368612     -0.000106     0.000218     0.000223
N      -0.85367787     -0.30816400      0.20266931     -0.000146     0.000049    -0.000303
N      -4.09784258     -1.65198051      1.06115395      0.000063     0.000024     0.000096
N       3.61523192      0.64101794     -1.85964510     -0.000367     0.000280    -0.000017
C       0.47643560     -0.02741873      0.70048833      0.000030    -0.000263     0.000048
C       1.54617330     -0.85264171     -0.03509011     -0.000166    -0.000171     0.000024
C       1.54987479     -0.57230475     -1.56664505     -0.000079    -0.000030    -0.000144
C      -3.28352966     -0.65494636      0.38582394      0.000021    -0.000043    -0.000064
C      -1.91643719     -0.52741832      1.03019767     -0.000059    -0.000127     0.000170
C       0.78824466      1.46765279      0.64595664      0.000152    -0.000267     0.000063
C      -3.95240813      0.70707108      0.35571375      0.000276     0.000228     0.000167
C       2.96157128     -0.53791267     -2.12215829     -0.000196     0.000260    -0.000085
H       0.48000804     -0.29414706      1.75637118      0.000203     0.000291     0.000012
H       1.30552207     -1.92014969      0.13159815      0.000420    -0.000064     0.000011
H       2.53878105     -0.65840193      0.39755441      0.000423     0.000373     0.000062
H       0.94805976     -1.31059775     -2.09786107     -0.000123     0.000434    -0.000038
H       1.11916976      0.41427106     -1.78115919      0.000323    -0.000008     0.000620
H      -1.01852078     -0.22663486     -0.79473378     -0.000370     0.000478    -0.000073
H      -3.14931633     -1.01575657     -0.66145763      0.000587    -0.000829     0.000133
H      -3.35304309      1.47466095     -0.16088593      0.000011    -0.000388     0.000420
H      -4.19213846      1.03378310      1.34494476      0.000381     0.000000    -0.000780
H      -4.89715864      0.65337009     -0.18706777     -0.001140    -0.000519    -0.001085
H      -4.04469373     -1.52093639      2.06966567     -0.000371     0.000957     0.000081
H      -3.75667015     -2.58538203      0.88587604     -0.000023     0.000605    -0.000402
H      -0.01181611      3.15957855      0.81593502      0.001551    -0.000314     0.000721
H       4.58274350      0.69507611     -2.14449552     -0.000274    -0.000576    -0.000296
H       3.28056373      1.23516993     -1.11430448     -0.001018    -0.000289    -0.000032
30
Frame 62  Energy = -779.1121030826 Hartree
O      -0.28124891      2.29253852      0.77908880      0.000242    -0.000168    -0.000158
O      -1.67892528     -0.86344333      2.23195410     -0.000211    -0.000061    -0.000441
O       1.89044978      1.94409779      0.36996931      0.000182    -0.000131     0.000098
O       3.37693186     -1.24068941     -3.03939010     -0.000171     0.000010     0.000268
N      -0.94095946     -0.21653210      0.19470066     -0.000027    -0.000096     0.000196
N      -4.19882376     -1.57593756      1.20385244      0.000117     0.000022     0.000155
N       3.80190414      0.39220336     -1.52152809     -0.000358     0.000095     0.000026
C       0.40821832      0.03601079      0.65915245     -0.000171    -0.000201    -0.000110
C       1.48877279     -0.79106881     -0.05978424     -0.000082    -0.000037    -0.000065
C       1.58888591     -0.53396593     -1.57558012     -0.000059     0.000201     0.000059
C      -3.30782849     -0.74713459      0.41571119     -0.000107     0.000147     0.000007
C      -1.89749362     -0.63797581      1.06476965      0.000133     0.000027    -0.000057
C       0.77865009      1.49985403      0.56139245      0.000095    -0.000033    -0.000145
C      -3.90251324      0.67727454      0.34593758      0.000219     0.000088    -0.000222
C       3.00443334     -0.50717771     -2.12732698     -0.000032     0.000119     0.000113
H       0.39058961     -0.20736657      1.71482334     -0.000029    -0.000869     0.000100
H       1.31655946     -1.84840513      0.11340636     -0.000144    -0.000188    -0.000177
H       2.42786802     -0.53092926      0.43189626      0.000131     0.000146    -0.000588
H       1.01780171     -1.26160549     -2.12706964      0.000578     0.000161    -0.000208
H       1.15208135      0.44395676     -1.82871043      0.000033    -0.000713     0.000121
H      -1.14759058     -0.03848249     -0.76967392      0.000442     0.000118     0.001279
H      -3.23730916     -1.14828375     -0.56960649      0.000276     0.000688     0.000093
H      -3.38178892      1.34301045     -0.31810141      0.000626     0.000191     0.001615
H      -3.91049110      1.10510294      1.35950648     -0.000331     0.000290    -0.001015
H      -4.95302388      0.57898735     -0.03912008      0.000352    -0.000139     0.000785
H      -4.09868121     -1.32101410      2.19093133     -0.000251     0.000088     0.001101
H      -3.92515012     -2.54502186      1.10621231      0.000104     0.000304     0.000036
H       0.04011963      3.22024260      0.79606025      0.001354     0.000971     0.000162
H       4.74292781      0.51202893     -1.86664332      0.000041    -0.000138    -0.000026
H       3.41292825      1.01837624     -0.83002031     -0.000106     0.000654     0.000186
30
Frame 63  Energy = -779.1133443716 Hartree
O      -0.31575165      2.52310950      0.59198353      0.000034    -0.000249    -0.000061
O      -1.49646050     -1.39617734      1.86229093     -0.000273    -0.000036     0.000104
O       1.88672834      2.08972349      0.60366630     -0.000377     0.000019    -0.000014
O       3.22626981     -1.57714417     -2.78006278     -0.000079     0.000171     0.000164
N      -0.96189463     -0.00049375      0.17321905      0.000200    -0.000067    -0.000009
N      -4.15307701     -1.69236184      1.02027126      0.000218    -0.000036     0.000101
N       3.86120123      0.25747567     -1.64421562     -0.000022     0.000045     0.000135
C       0.37769184      0.21946063      0.65295852      0.000219     0.000113    -0.000225
C       1.45961565     -0.64344714     -0.02962093     -0.000042     0.000178    -0.000021
C       1.54707734     -0.40425874     -1.54009299      0.000045    -0.000151     0.000119
C      -3.30793256     -0.66547381      0.44199041      0.000255    -0.000208    -0.000250
C      -1.84375375     -0.73741738      0.88500955      0.000044     0.000157     0.000041
C       0.74829263      1.69006998      0.60224946     -0.000295     0.000026     0.000175
C      -3.86301381      0.73333934      0.75366977      0.000366     0.000083    -0.000247
C       2.93732481     -0.62689846     -2.07356919      0.000013     0.000017    -0.000034
H       0.36018317     -0.04666321      1.71205453     -0.000072    -0.000783     0.000121
H       1.25147388     -1.67475814      0.19828391     -0.000045     0.000073    -0.000500
H       2.41926009     -0.39211846      0.43531036     -0.000239     0.000442     0.000465
H       0.85847284     -1.02414616     -2.09462842     -0.000324     0.000239     0.000485
H       1.25945723      0.63464590     -1.73441454      0.000424     0.000542     0.000185
H      -1.31949352      0.51285128     -0.60932179      0.000834     0.000376    -0.000428
H      -3.31150705     -0.78220315     -0.66108146      0.000394     0.001000    -0.000100
H      -3.26608882      1.52471245      0.31826830     -0.000028    -0.000119     0.000320
H      -3.91837717      0.86682926      1.81421158     -0.001461    -0.000669    -0.001033
H      -4.86528432      0.75282417      0.29481931     -0.000585     0.000202    -0.000874
H      -4.14317593     -1.54709483      2.03363910      0.000124    -0.000080     0.000288
H      -3.79344438     -2.62318649      0.85218668     -0.000185    -0.000088     0.000482
H       0.05970525      3.44436819      0.58021600     -0.000822    -0.001030     0.000253
H       4.81960711      0.09491148     -1.92097480      0.000327    -0.000554    -0.000435
H       3.63016564      1.10567269     -1.15400495     -0.000052     0.000176    -0.000214
30
Frame 64  Energy = -779.1126296353 Hartree
O      -0.25960302      2.43705025      0.87829403     -0.000321     0.000218    -0.000057
O      -1.57169265     -1.27946226      1.95659958      0.000113     0.000143    -0.000162
O       1.84586936      2.08959077      0.29384930     -0.000149    -0.000016    -0.000002
O       3.31630238     -1.58062758     -2.68314330      0.000033     0.000118    -0.000070
N      -0.92181169     -0.09261618      0.13791157      0.000149    -0.000012     0.000163
N      -4.15920121     -1.63481353      0.94788890      0.000200    -0.000212    -0.000131
N       3.72028965      0.44501998     -1.72469042     -0.000018     0.000025    -0.000048
C       0.40043703      0.16117897      0.66388899      0.000002    -0.000027     0.000095
C       1.46732073     -0.68865767      0.03329952     -0.000004     0.000187     0.000288
C       1.52869028     -0.53797895     -1.50344881      0.000060    -0.000062    -0.000088
C      -3.28266256     -0.64085258      0.36353376      0.000277    -0.000110    -0.000302
C      -1.86593457     -0.72518454      0.92519289     -0.000128     0.000078     0.000237
C       0.77054342      1.65082477      0.58771695     -0.000141     0.000086     0.000100
C      -3.80523142      0.74037662      0.67733851      0.000042    -0.000387    -0.000168
C       2.93545412     -0.61573469     -2.05511706     -0.000127    -0.000345     0.000010
H       0.35327369     -0.06274004      1.72045605     -0.000369    -0.000084     0.000683
H       1.27655999     -1.74029610      0.31678125     -0.000276     0.000426     0.000057
H       2.43625656     -0.42363423      0.45874238      0.000115     0.000870     0.000682
H       0.95157273     -1.31354351     -1.99912395      0.000433     0.000340     0.000486
H       1.12160433      0.42833495     -1.81816635     -0.000154     0.000152     0.000319
H      -1.25294984      0.44600291     -0.64192221      0.000566     0.000677     0.000100
H      -3.22986149     -0.73106924     -0.74896298      0.000001    -0.001214     0.000075
H      -3.19206937      1.53035351      0.20309037      0.000826     0.000592    -0.000344
H      -3.80255250      0.94322316      1.76321535      0.000672     0.000009     0.000368
H      -4.82529854      0.88609426      0.33574500     -0.000791     0.000572    -0.001391
H      -4.19163871     -1.48208761      1.95491473     -0.000189    -0.000126     0.000556
H      -3.81857042     -2.57285595      0.80682196      0.000554     0.000355     0.000207
H       0.07249488      3.32763172      0.82267082      0.000172     0.000423     0.001266
H       4.69172939      0.49306007     -1.98238017      0.000108    -0.000602    -0.000556
H       3.34710202      1.20150837     -1.17243375     -0.000928    -0.000067     0.000306
