30
Image 0  Energy = -779.1436054788
O  -0.0249514406  2.5835802377 -1.1224248873
O  -2.0737686599 -0.5253802916  1.5668851134
O   1.4243119125  2.9076791479  0.5508381229
O   3.4343908044 -1.7537525983  0.8655349462
N  -0.9595099193  0.3262588971 -0.2064110320
N  -3.5939550163 -2.1774175156 -0.1776459229
N   3.8941887052 -1.6240325073 -1.3390321553
C   0.0825640266  0.9161087628  0.6042482598
C   1.2640260752 -0.0379800011  0.8205587613
C   2.0052120401 -0.3592309915 -0.4686228880
C  -3.0153126943 -0.9211786390 -0.6186442309
C  -1.9830497183 -0.3646828876  0.3633602110
C   0.5720502672  2.2359308553  0.0410481155
C  -4.1226568967  0.1076810432 -0.8260698304
C   3.1681833040 -1.3072754751 -0.2302968570
H  -0.3528317751  1.1326831740  1.5829246154
H   0.8700993293 -0.9522135598  1.2637824111
H   1.9487681393  0.4007546415  1.5446539459
H   1.3350529102 -0.8181685257 -1.2036494027
H   2.4051227778  0.5535542891 -0.9235691667
H  -0.9662867941  0.5017275380 -1.1974279252
H  -2.5131168729 -1.0980526336 -1.5747790097
H  -3.7273809725  1.0578683510 -1.1885023406
H  -4.6420192589  0.2908373794  0.1165340077
H  -4.8392495358 -0.2795431267 -1.5486156000
H  -4.0269828452 -2.0367620508  0.7290502833
H  -2.8667456268 -2.8685066026 -0.0305896913
H   0.3638139251  3.4292069071 -1.3925339681
H   4.6880933879 -2.2306279382 -1.2295926302
H   3.6916402990 -1.2404660458 -2.2437112355
