30
Frame 1  Energy = -779.1178182254 Hartree
O      -0.31523006      2.51213897     -1.01308196      0.000006     0.000148     0.000053
O      -2.23011492     -0.38868751      1.59197034      0.000087     0.000056     0.000016
O       1.19094724      2.96626281      0.55857562      0.000004     0.000062    -0.000004
O       3.47742572     -1.87883628      0.78202172      0.000123    -0.000026    -0.000038
N      -0.83033995      0.06340951     -0.14283131      0.000009     0.000050     0.000100
N      -3.84346280     -1.97166647     -0.01685953     -0.000282     0.000217     0.000100
N       3.96711001     -1.67261249     -1.40563119      0.000151     0.000095     0.000109
C       0.15646221      0.80972088      0.63314539     -0.000020    -0.000041    -0.000156
C       1.49876004      0.07122535      0.81796838      0.000086    -0.000171    -0.000252
C       2.22945810     -0.25369122     -0.47338861      0.000078     0.000050    -0.000100
C      -2.99617957     -0.95572430     -0.60417244      0.000078     0.000112    -0.000005
C      -1.98338734     -0.39810613      0.40037538      0.000186    -0.000157    -0.000032
C       0.39434634      2.21001548      0.08749463     -0.000224    -0.000424     0.000118
C      -3.83480093      0.20108090     -1.11984988     -0.000166    -0.000303    -0.000172
C       3.27130107     -1.33919396     -0.27506609     -0.000212     0.000025     0.000200
H      -0.28651501      0.94616356      1.62725682      0.000648     0.000198     0.000416
H       1.26357365     -0.83771281      1.37217590     -0.000149    -0.000351     0.000004
H       2.17465992      0.65335483      1.45762767     -0.000032     0.000021    -0.000210
H       1.53374374     -0.58180595     -1.26956443     -0.000210     0.000488     0.001066
H       2.71630453      0.65012999     -0.83517932      0.000329     0.000549    -0.001109
H      -0.75020277      0.11570219     -1.13786555      0.000303     0.000130     0.000300
H      -2.41967350     -1.38321297     -1.42282868     -0.000323    -0.000542    -0.000284
H      -3.19761344      0.99029558     -1.49824017      0.000428     0.000392     0.000139
H      -4.40933700      0.60320157     -0.32792407      0.000877     0.000301     0.000546
H      -4.53751044     -0.11412404     -1.92011665      0.000133     0.000213    -0.000094
H      -4.18727893     -1.60372676      0.84987352     -0.000232     0.000737     0.000111
H      -3.39819378     -2.85912492      0.16829501     -0.001201    -0.000486    -0.000368
H      -0.00345639      3.42765987     -1.26727329     -0.000615     0.000332    -0.000447
H       4.71369889     -2.33734704     -1.30813955      0.000235    -0.000218     0.000032
H       3.80961036     -1.24390030     -2.29693404      0.000336     0.000216    -0.000065
30
Frame 2  Energy = -779.1153434700 Hartree
O      -0.36891928      2.46494602     -0.97145778     -0.000062    -0.000154     0.000078
O      -2.20326937     -0.50967096      1.65107864     -0.000056     0.000075     0.000026
O       1.41988414      2.71903792      0.35574422      0.000126    -0.000172    -0.000160
O       3.57754021     -1.84728430      0.75067533     -0.000054     0.000034    -0.000021
N      -0.91420752      0.05969900     -0.12167258     -0.000027    -0.000154    -0.000103
N      -4.13557078     -1.72010594      0.10092969     -0.000238    -0.000267     0.000106
N       4.26815268     -1.14812225     -1.29354090      0.000041     0.000305     0.000080
C       0.10770880      0.71635591      0.62630035      0.000217     0.000137     0.000111
C       1.38016391     -0.10572341      0.81383387     -0.000295    -0.000160     0.000141
C       2.06306058     -0.46336206     -0.48872923      0.000115    -0.000138    -0.000083
C      -3.11077604     -0.94005994     -0.52521907     -0.000049     0.000184    -0.000039
C      -2.04637442     -0.45393192      0.44603263      0.000081    -0.000045    -0.000086
C       0.45424284      2.07382385      0.00671541      0.000201     0.000252    -0.000134
C      -3.72118503      0.28468227     -1.26570487      0.000133     0.000242     0.000205
C       3.35568916     -1.23746320     -0.26627082     -0.000033     0.000116    -0.000132
H      -0.28742249      0.90148392      1.62338414     -0.000271    -0.000115    -0.000247
H       1.11202331     -1.02512673      1.32209475     -0.000296    -0.000022    -0.000059
H       2.06502615      0.42842886      1.45932259     -0.000213    -0.000372     0.000420
H       1.38464197     -1.04934428     -1.09216766      0.000368    -0.000259    -0.000828
H       2.27842272      0.45995098     -1.07522839     -0.000623    -0.000121     0.000753
H      -0.89289627      0.15274149     -1.12898208      0.000632     0.000473     0.000161
H      -2.64595059     -1.59017196     -1.28016637      0.000593    -0.000455     0.000015
H      -2.94997239      0.88499037     -1.72205804      0.000617     0.000114    -0.000401
H      -4.25504444      0.96807759     -0.57842339     -0.000287     0.000379    -0.000371
H      -4.41429897     -0.02846859     -2.07886599     -0.000739    -0.000469    -0.000952
H      -4.53526293     -1.23157441      0.88348009     -0.000312    -0.000262     0.000102
H      -3.75206896     -2.57790425      0.46312042     -0.000676     0.000225     0.000403
H      -0.07647645      3.35427883     -1.24142483      0.000468    -0.001976     0.000596
H       5.14344727     -1.63565159     -1.17995769      0.000004     0.000835     0.000579
H       4.11203758     -0.61364766     -2.12879782      0.000164     0.000058     0.000099
30
Frame 3  Energy = -779.1167155240 Hartree
O      -0.52993542      2.39361377     -0.92366237      0.000041    -0.000047     0.000063
O      -2.30271356     -0.16380696      1.59168923      0.000022     0.000221    -0.000050
O       1.38055791      2.60218872      0.23749159     -0.000048     0.000092    -0.000120
O       3.56398928     -2.06499305      0.63047000     -0.000043    -0.000161    -0.000054
N      -0.88839469     -0.11248175     -0.18527343      0.000167    -0.000087     0.000107
N      -4.08211705     -1.75599274      0.10631759     -0.000036     0.000016    -0.000166
N       4.55834502     -0.82463262     -0.99750926      0.000096    -0.000010     0.000264
C       0.12949922      0.59306826      0.54357077     -0.000241    -0.000290     0.000073
C       1.43377329     -0.19460877      0.73531217      0.000088     0.000068    -0.000041
C       2.16536913     -0.57226555     -0.56803061      0.000049     0.000019    -0.000229
C      -3.17720208     -0.81475609     -0.52784508      0.000115    -0.000142     0.000002
C      -2.09473591     -0.35766189      0.40981990     -0.000040     0.000207    -0.000075
C       0.44028099      1.94821414     -0.06257236     -0.000199    -0.000034    -0.000040
C      -3.93820232      0.40381297     -1.02262711      0.000121     0.000077     0.000324
C       3.48878463     -1.22120957     -0.23713200     -0.000098     0.000046    -0.000124
H      -0.30424266      0.80417040      1.53003164     -0.000188    -0.000145     0.000334
H       1.20568248     -1.10469536      1.29325637     -0.000056     0.000521     0.000143
H       2.11931289      0.38985098      1.36555048      0.000475    -0.000243    -0.000262
H       1.58322402     -1.29868550     -1.17174319     -0.000520     0.000614     0.000236
H       2.31062311      0.31224232     -1.15891803      0.001370     0.000218    -0.000052
H      -0.86111174     -0.19881046     -1.18594524      0.000647    -0.000928    -0.000176
H      -2.67757536     -1.37059930     -1.33758213     -0.001029    -0.000006    -0.000405
H      -3.27401025      1.13869789     -1.51909380     -0.001619    -0.000620     0.000769
H      -4.46598893      0.89540315     -0.17906116      0.000011    -0.000155    -0.000037
H      -4.71080360      0.11664945     -1.72243369     -0.000490    -0.000851     0.000090
H      -4.43623904     -1.37326223      0.98026872      0.000807     0.000500    -0.000496
H      -3.61044383     -2.61223331      0.34565615      0.000467     0.000729    -0.000078
H      -0.30811336      3.28764172     -1.11970071     -0.000451    -0.000092     0.000282
H       5.46196617     -1.14705281     -0.70380273      0.000338     0.000167     0.000236
H       4.50989123     -0.02322943     -1.59590324     -0.000021     0.000327     0.000419
30
Frame 4  Energy = -779.1154861966 Hartree
O      -0.64643116      2.38676451     -0.83092888     -0.000095    -0.000008     0.000057
O      -2.41890037      0.16173398      1.52654725     -0.000008     0.000055    -0.000064
O       1.39254360      2.63322896      0.05012296      0.000314     0.000134     0.000107
O       3.27438691     -2.40953471      0.12765076     -0.000258    -0.000267    -0.000173
N      -0.80290726     -0.20269072     -0.04133290     -0.000054    -0.000082    -0.000106
N      -3.93215871     -1.89448418      0.13549913      0.000099    -0.000092     0.000172
N       4.64102241     -0.75153955     -0.55398368     -0.000029     0.000125     0.000226
C       0.19630136      0.60988510      0.59530553      0.000029    -0.000023     0.000032
C       1.55468585     -0.06536985      0.77891010     -0.000039     0.000198    -0.000084
C       2.23607690     -0.37237584     -0.55478526     -0.000157     0.000124    -0.000013
C      -3.10158572     -0.87228453     -0.50097955     -0.000262     0.000277    -0.000076
C      -2.07736611     -0.25856384      0.43393972     -0.000092    -0.000166     0.000112
C       0.39251418      1.94989326     -0.06937733      0.000068     0.000006    -0.000103
C      -3.96165271      0.25310583     -1.03546379      0.000333    -0.000355    -0.000077
C       3.41271413     -1.28941415     -0.33176489      0.000069     0.000080    -0.000089
H      -0.20784567      0.78608465      1.59456118      0.000498     0.000095    -0.000024
H       1.39922020     -0.99670455      1.32912686      0.000087    -0.000058    -0.000436
H       2.16846286      0.58814406      1.37304130     -0.000132     0.000509    -0.000017
H       1.55538090     -0.92339441     -1.18351222     -0.000236    -0.000288    -0.000186
H       2.53111301      0.57130827     -1.04975833     -0.000852    -0.000328     0.000017
H      -0.64666769     -0.47240149     -0.99541617     -0.000748    -0.000926     0.000375
H      -2.59703372     -1.32678946     -1.34914290     -0.000033     0.000496     0.000295
H      -3.36746797      1.03945533     -1.52598237      0.000087    -0.000359    -0.000404
H      -4.45636727      0.74551674     -0.21924854      0.000131    -0.000251    -0.000644
H      -4.67252689     -0.11967109     -1.71304729      0.000926    -0.000386     0.000429
H      -4.38887542     -1.48713251      0.95164497      0.001110     0.000241    -0.000077
H      -3.34549763     -2.66747948      0.43919961      0.000010    -0.000119     0.000682
H      -0.39914227      3.25680914     -1.17894979      0.000317     0.001854     0.000142
H       5.45299482     -1.31584460     -0.35270756     -0.000354    -0.000075     0.000392
H       4.76308149      0.18907028     -0.89095853      0.000305    -0.000036     0.000084
30
Frame 5  Energy = -779.1158072824 Hartree
O      -0.53898247      2.65812195     -0.72299327     -0.000123     0.000115    -0.000095
O      -2.32947450      0.13708523      1.58132042      0.000026    -0.000002     0.000124
O       1.53933291      2.67706416      0.08966481     -0.000121    -0.000422    -0.000036
O       3.21709820     -2.56027677     -0.40072216      0.000117    -0.000008    -0.000198
N      -0.86557433      0.03325893     -0.14613393     -0.000035     0.000054     0.000056
N      -3.98882977     -1.77534502      0.47643779     -0.000029     0.000127    -0.000083
N       4.41879672     -0.66072477     -0.05984308     -0.000140     0.000044     0.000152
C       0.18086200      0.76330503      0.53064011     -0.000070     0.000037     0.000044
C       1.43670554     -0.09156627      0.68092233     -0.000017     0.000045    -0.000103
C       2.07158863     -0.48341575     -0.66830067     -0.000215    -0.000059    -0.000044
C      -3.02181713     -1.12422499     -0.35305150      0.000124     0.000078     0.000137
C      -2.04464067     -0.26813042      0.46281062      0.000157     0.000153     0.000087
C       0.47824367      2.13038142     -0.02238555      0.000298     0.000015     0.000109
C      -3.69172837     -0.23216248     -1.39934533      0.000143    -0.000383     0.000018
C       3.28575021     -1.33895344     -0.39514709     -0.000172     0.000111     0.000057
H      -0.27040292      0.92616916      1.51468159     -0.000774    -0.000009    -0.000119
H       1.15943853     -1.01437293      1.19180041     -0.000698    -0.000312    -0.000203
H       2.15136146      0.46917513      1.30121754     -0.000085    -0.001047    -0.000043
H       1.39132985     -1.06390218     -1.28977315      0.000143     0.000922    -0.000054
H       2.32070120      0.43271415     -1.18943194      0.000618     0.000627    -0.000226
H      -0.67638094     -0.35834524     -1.06062277      0.000424     0.000920    -0.000242
H      -2.48463463     -1.90024628     -0.89673717     -0.000187    -0.000512    -0.000321
H      -2.98499389      0.24215282     -2.07331501      0.001276     0.000339    -0.001333
H      -4.33283574      0.53651904     -0.95023202     -0.000702     0.000202    -0.000302
H      -4.35697900     -0.86590704     -1.98677471      0.000683     0.000452     0.000326
H      -4.33120585     -1.09491988      1.15661747      0.000132    -0.000191     0.000467
H      -3.49759781     -2.45073472      1.07498459      0.000727     0.000665     0.000084
H      -0.27276074      3.56603947     -1.03884175     -0.000119    -0.000068    -0.000779
H       5.21460724     -1.16717263      0.27397076     -0.000026    -0.000067    -0.000125
H       4.44448197      0.33980830     -0.05503700      0.000051     0.000021     0.000781
30
Frame 6  Energy = -779.1174431042 Hartree
O      -0.54566142      2.59254925     -0.78891806      0.000086     0.000026    -0.000017
O      -2.26220428      0.03140221      1.68901080      0.000029    -0.000153    -0.000027
O       1.54340694      2.63405502     -0.02206438     -0.000042     0.000121     0.000041
O       3.44762436     -2.50108247     -0.71000762      0.000188     0.000041     0.000050
N      -0.88271221      0.04881820     -0.10215907      0.000049    -0.000107     0.000143
N      -4.13949570     -1.60460925      0.48478368     -0.000058     0.000032     0.000110
N       4.27169215     -0.58731660      0.16638924     -0.000007     0.000016     0.000064
C       0.16361728      0.75982153      0.55392222      0.000041     0.000048    -0.000075
C       1.39888722     -0.11018165      0.75168793     -0.000128     0.000121    -0.000230
C       1.99258138     -0.56254255     -0.59146786     -0.000075    -0.000006    -0.000022
C      -3.02237746     -1.09404285     -0.32826454     -0.000143    -0.000112     0.000137
C      -2.04429968     -0.29331325      0.53469097     -0.000083     0.000073    -0.000027
C       0.50206082      2.07384017     -0.09923882     -0.000128    -0.000326    -0.000085
C      -3.55913634     -0.23985905     -1.45041902     -0.000000     0.000302    -0.000207
C       3.28231320     -1.32717283     -0.40347047     -0.000001    -0.000061     0.000037
H      -0.20539758      1.02762277      1.55056732     -0.000052    -0.001078    -0.000022
H       1.12664159     -0.95622089      1.36868886      0.000554     0.000576    -0.000167
H       2.15209914      0.45193015      1.31542432     -0.000055     0.001029    -0.000000
H       1.32429234     -1.26177691     -1.13311785      0.000303    -0.000831    -0.000468
H       2.19179184      0.31796635     -1.21670278     -0.000143    -0.000293     0.000113
H      -0.76681073     -0.25001776     -1.05076976      0.000451    -0.000655     0.000037
H      -2.48095904     -1.94858371     -0.77256609      0.000549    -0.000530     0.001125
H      -2.78164066      0.14472679     -2.09730631     -0.000619     0.000642     0.000130
H      -4.13767092      0.62053245     -1.06672446      0.000169     0.001029    -0.000296
H      -4.23823710     -0.87831063     -2.08743224      0.000718     0.000926    -0.000322
H      -4.52524402     -0.78565486      0.95806404     -0.000233     0.000496     0.000499
H      -3.76818815     -2.18376572      1.23629629      0.000874     0.000005    -0.000392
H      -0.29999528      3.49626487     -1.04394024     -0.000535    -0.001502     0.000538
H       5.20179447     -0.96987173      0.24682830      0.000146    -0.000048    -0.000552
H       4.14967101      0.39628582      0.34943050      0.000123     0.000034     0.000253
30
Frame 7  Energy = -779.1131317288 Hartree
O      -0.61138227      2.24592796     -0.91548673      0.000041    -0.000136    -0.000095
O      -2.37319005      0.12402203      1.62185896     -0.000226     0.000119    -0.000096
O       1.41563909      2.55357999      0.00933917     -0.000098    -0.000080     0.000041
O       3.57681912     -2.41795162     -0.44555039      0.000089     0.000105     0.000166
N      -0.84767941     -0.28494758     -0.00852565      0.000046    -0.000063     0.000026
N      -4.25716509     -1.56724611      0.35221148      0.000156     0.000046    -0.000029
N       4.52432757     -0.43318544      0.01603185      0.000227     0.000129    -0.000181
C       0.19229238      0.54030719      0.56030374     -0.000326     0.000066    -0.000053
C       1.51387126     -0.18211573      0.70501480      0.000038    -0.000062    -0.000201
C       2.19436793     -0.49286317     -0.65118025      0.000196    -0.000083    -0.000182
C      -3.18025289     -0.87798571     -0.38452863      0.000282     0.000022    -0.000170
C      -2.12002732     -0.31184570      0.51790231     -0.000049     0.000009     0.000159
C       0.41761949      1.86661599     -0.14257835     -0.000064    -0.000366     0.000333
C      -3.77015282      0.28744134     -1.15968301     -0.000058     0.000294     0.000160
C       3.48624974     -1.20822790     -0.37714692      0.000119    -0.000134     0.000177
H      -0.18774911      0.81576515      1.54727195     -0.000096     0.000373     0.000143
H       1.36655722     -1.13857735      1.23760936     -0.000424     0.000107    -0.000324
H       2.17158499      0.42878643      1.29964030      0.000218     0.000387    -0.000382
H       1.59100460     -1.16944635     -1.22162863      0.000497    -0.000169    -0.000561
H       2.34066487      0.42163954     -1.22670752     -0.000312    -0.000281     0.000422
H      -0.76742565     -0.55793451     -0.97358584     -0.000836     0.000042     0.000331
H      -2.69964341     -1.60760168     -1.05957139      0.000452     0.000997    -0.000390
H      -3.00343407      0.84010256     -1.69835575     -0.000725    -0.000062     0.001083
H      -4.24144222      0.97254516     -0.48793800      0.000302    -0.000784    -0.000008
H      -4.53047360     -0.08968459     -1.87234411     -0.001479     0.001492    -0.000338
H      -4.48126482     -0.99109177      1.16170389     -0.000063     0.000131     0.000388
H      -3.92819711     -2.44460926      0.72249290     -0.001099    -0.000635     0.000344
H      -0.37775579      3.07343992     -1.30154348     -0.001075    -0.000215    -0.000515
H       5.40894950     -0.87276990      0.18713054     -0.000023    -0.000006    -0.000060
H       4.45840170      0.56455594      0.05235831      0.000140    -0.000038    -0.000480
30
Frame 8  Energy = -779.1119601831 Hartree
O      -0.47602841      2.12565759     -0.93675411     -0.000014    -0.000054     0.000052
O      -2.38413031      0.30129750      1.53584041     -0.000051    -0.000068     0.000026
O       1.38481683      2.50780478      0.25353858     -0.000013    -0.000150     0.000065
O       3.76050983     -2.31881328      0.01131277      0.000033     0.000113     0.000146
N      -0.87840579     -0.32478639     -0.03389423     -0.000041     0.000186     0.000036
N      -4.18436721     -1.63203632      0.22008030      0.000336    -0.000020     0.000026
N       4.49782873     -0.25903896     -0.55901547     -0.000177     0.000019    -0.000272
C       0.17819913      0.42553212      0.60345504      0.000059     0.000063    -0.000144
C       1.48217870     -0.35372320      0.70871558      0.000163    -0.000138     0.000021
C       2.13518776     -0.68568294     -0.64835930     -0.000282     0.000019     0.000052
C      -3.23685154     -0.78082652     -0.43866686     -0.000231    -0.000269     0.000184
C      -2.14441700     -0.23070148      0.46558692     -0.000238     0.000091     0.000084
C       0.45537614      1.80729674     -0.03374139      0.000415     0.000128     0.000056
C      -3.97161686      0.41561411     -1.07338080      0.000056     0.000100    -0.000077
C       3.52046333     -1.19537104     -0.35973237     -0.000028    -0.000068     0.000083
H      -0.19590128      0.65010971      1.60810432      0.000232    -0.000861    -0.000110
H       1.32978462     -1.29330834      1.23631329      0.001009    -0.000921     0.000279
H       2.19169030      0.24873935      1.27835238     -0.000408    -0.000348    -0.000393
H       1.56166812     -1.47845872     -1.14590693      0.000370    -0.000193     0.000444
H       2.18124001      0.19285451     -1.28875058     -0.000921     0.001154    -0.000048
H      -0.72636154     -0.55492601     -1.00630159     -0.000162     0.000248    -0.000312
H      -2.79548579     -1.39901616     -1.20986009      0.000478     0.000092     0.000270
H      -3.28065368      1.07032405     -1.60766063     -0.000022     0.000393    -0.000445
H      -4.43388515      0.99789151     -0.27658836      0.000021     0.000021    -0.000946
H      -4.74374581      0.07199495     -1.73068301     -0.000828    -0.000444    -0.001945
H      -4.56562982     -1.14406909      1.01688026     -0.000850     0.000433    -0.001067
H      -3.71995979     -2.44173664      0.60089327      0.000404    -0.000228     0.000310
H      -0.22905689      2.99561680     -1.28956581      0.001178     0.001363    -0.000371
H       5.42769872     -0.48758767     -0.24270233      0.000067    -0.000039    -0.000308
H       4.25973360      0.71068990     -0.67720764     -0.000492     0.000166    -0.000113
30
Frame 9  Energy = -779.1189967804 Hartree
O      -0.42616303      2.38841297     -0.70268884     -0.000157     0.000261     0.000144
O      -2.41974058      0.18877648      1.59474433      0.000047    -0.000035     0.000056
O       1.61193370      2.45497757      0.19920881      0.000083    -0.000010    -0.000067
O       3.70804512     -2.27436101      0.05371461     -0.000066     0.000044    -0.000076
N      -0.88343361     -0.12076125     -0.02492102     -0.000046     0.000163     0.000113
N      -4.22523808     -1.59231458      0.26937308      0.000031     0.000242    -0.000060
N       4.30262106     -0.26934324     -0.80348316      0.000113    -0.000158     0.000186
C       0.19627440      0.53898377      0.68084770     -0.000009    -0.000103     0.000118
C       1.42990035     -0.32336864      0.76900731      0.000111     0.000158    -0.000062
C       1.92111200     -0.80725895     -0.58077493      0.000071    -0.000088    -0.000197
C      -3.14578428     -0.92270577     -0.44290134     -0.000009    -0.000115     0.000087
C      -2.13532091     -0.23577445      0.49432615      0.000049     0.000079     0.000048
C       0.56619976      1.89481304      0.04094419     -0.000337    -0.000131    -0.000104
C      -3.74468231      0.07085073     -1.42005312      0.000190    -0.000314    -0.000135
C       3.37794185     -1.21267098     -0.41218127      0.000039    -0.000073    -0.000102
H      -0.15377640      0.76962884      1.68884177     -0.000395     0.000656     0.000085
H       1.23837834     -1.16501524      1.41751678     -0.000090     0.000016    -0.000210
H       2.22444295      0.26384953      1.25644318      0.000598    -0.000320     0.000044
H       1.34485405     -1.69441740     -0.88030072     -0.000920    -0.000642     0.000150
H       1.80042624     -0.00552363     -1.33389425     -0.000656    -0.000816    -0.000024
H      -0.71457717     -0.44114401     -0.95761478      0.001400     0.000729     0.000228
H      -2.60090879     -1.68863659     -0.99113614      0.000249    -0.000269    -0.000457
H      -2.95311776      0.63167533     -1.95038553      0.000524    -0.000183     0.000114
H      -4.29807506      0.82665059     -0.79889298     -0.000011     0.000228     0.000129
H      -4.38628134     -0.40231513     -2.12219330     -0.000070     0.000199     0.000074
H      -4.70265564     -0.89158329      0.80663599     -0.000298    -0.000619     0.000269
H      -3.92162908     -2.33443184      0.88575106     -0.000433    -0.000053    -0.000588
H      -0.12617270      3.30091962     -0.97928507     -0.000612     0.000344    -0.000416
H       5.26879653     -0.45957009     -0.58336119     -0.000038     0.000624     0.000332
H       4.03198667      0.69110740     -0.93809718     -0.000385    -0.000471     0.000170
30
Frame 10  Energy = -779.1131284101 Hartree
O      -0.78038155      2.50541654     -0.27761552     -0.000050     0.000036     0.000120
O      -2.40302540      0.22058144      1.60568646     -0.000005     0.000216     0.000029
O       1.46433259      2.41199808     -0.33933727     -0.000015     0.000127    -0.000149
O       3.64468901     -2.48269035     -0.31326193     -0.000034    -0.000285    -0.000164
N      -0.82887916     -0.20379916      0.00713226     -0.000102    -0.000205    -0.000196
N      -4.31356118     -1.42389703      0.29077376     -0.000120    -0.000093     0.000227
N       4.47220500     -0.37061424     -0.24626271     -0.000079     0.000093     0.000271
C       0.21878856      0.57782502      0.63384312     -0.000038    -0.000135     0.000012
C       1.51998026     -0.19543433      0.71854725     -0.000049     0.000060     0.000047
C       2.09451794     -0.66807556     -0.62632047      0.000329     0.000047    -0.000057
C      -3.11908910     -0.97339680     -0.37738216     -0.000121     0.000174    -0.000238
C      -2.10640195     -0.26115689      0.53452824     -0.000165    -0.000188     0.000169
C       0.38996744      1.90844840     -0.05550936     -0.000209     0.000130    -0.000289
C      -3.51542605      0.02676427     -1.47881678      0.000231     0.000038    -0.000076
C       3.47045012     -1.29371099     -0.40715155      0.000019     0.000007    -0.000083
H      -0.15646160      0.84701360      1.62880592      0.000600    -0.000185    -0.000028
H       1.32667057     -1.07217140      1.34092528      0.000363     0.000226    -0.000434
H       2.26530941      0.41176986      1.23024142      0.000232     0.000100    -0.000230
H       1.47579211     -1.40345439     -1.08884112      0.001136     0.000102     0.000191
H       2.17653263      0.19381341     -1.29500292      0.000502    -0.000165     0.000347
H      -0.69050923     -0.62696121     -0.90095585      0.000333     0.000022     0.000035
H      -2.65099183     -1.87962521     -0.80925260      0.000959     0.000304     0.000589
H      -2.61087733      0.38936415     -1.98692241      0.000106    -0.000038     0.000047
H      -4.01521750      0.87780842     -1.02187819      0.000159     0.000061     0.000497
H      -4.21580314     -0.42208791     -2.18267388      0.001541     0.000585     0.001612
H      -4.73470406     -0.65324808      0.79863517     -0.000003    -0.000456     0.000304
H      -4.16763492     -2.14378802      0.98711152     -0.000299     0.000028    -0.000549
H      -0.60662151      3.36871213     -0.68054199     -0.000034    -0.001354     0.001245
H       5.39491638     -0.65752009      0.01650446     -0.000192     0.000189     0.000982
H       4.27452625      0.60852142     -0.31600672      0.000461     0.000342    -0.000043
30
Frame 11  Energy = -779.1145296622 Hartree
O      -0.76441919      2.34124912     -0.61684759      0.000243    -0.000103    -0.000414
O      -2.44930825      0.28856206      1.58986886     -0.000089    -0.000004     0.000126
O       1.42048991      2.51315986     -0.17348945     -0.000124     0.000071     0.000217
O       3.67807178     -2.46601396     -0.56860836     -0.000102     0.000085     0.000064
N      -0.84314300     -0.26233407      0.05072077      0.000196     0.000243     0.000116
N      -4.29248596     -1.46999617      0.36797116     -0.000096    -0.000050    -0.000083
N       4.48056768     -0.45497759      0.03416895     -0.000039     0.000005     0.000113
C       0.22700104      0.54499575      0.59889434     -0.000073    -0.000545    -0.000110
C       1.55745577     -0.19106011      0.72337146      0.000066    -0.000098    -0.000160
C       2.15161951     -0.60601105     -0.61021935     -0.000001    -0.000310     0.000048
C      -3.14160554     -0.94242896     -0.34644448      0.000171    -0.000105     0.000104
C      -2.11480290     -0.24468940      0.55383924     -0.000078     0.000028     0.000133
C       0.39545652      1.89658383     -0.11217020      0.000292     0.000222     0.000098
C      -3.60531073      0.14553688     -1.37618306     -0.000234     0.000103     0.000025
C       3.50393827     -1.27385294     -0.42716969     -0.000290     0.000341    -0.000230
H      -0.14273078      0.78801529      1.59820243      0.000012     0.000464    -0.000013
H       1.41986755     -1.06169045      1.35823480      0.000185    -0.000304     0.000111
H       2.25620859      0.47924059      1.21756757      0.000224    -0.000023    -0.000103
H       1.52833722     -1.37048694     -1.09504858     -0.000594     0.000365     0.000578
H       2.26685608      0.25673297     -1.26214177      0.000164     0.000791    -0.000626
H      -0.72575231     -0.67969032     -0.85620121      0.000072    -0.000401    -0.000020
H      -2.70325766     -1.79972416     -0.86962052     -0.000540     0.000388    -0.000070
H      -2.78428431      0.54609626     -1.93792946      0.000500     0.000143    -0.000787
H      -4.06285912      0.95726572     -0.85783704     -0.000247    -0.000391     0.000267
H      -4.31678879     -0.33265179     -2.08260547      0.000480    -0.000645     0.000639
H      -4.63814718     -0.76757918      1.02925233      0.000752    -0.000279     0.000135
H      -4.02471823     -2.29294458      0.89410854      0.000527     0.000043    -0.000626
H      -0.58564342      3.20715909     -0.94634995      0.000393     0.000395    -0.000435
H       5.40030589     -0.83166178      0.20547922      0.000025     0.000194     0.000033
H       4.36413723      0.54647380      0.06476219      0.000110     0.000056     0.000104
30
Frame 12  Energy = -779.1142508865 Hartree
O      -0.09443655      2.10546193     -1.22401950      0.000186    -0.000373     0.000093
O      -2.42697633      0.24199521      1.62391609      0.000043     0.000020     0.000071
O       1.30976807      2.66969776      0.41048768      0.000011     0.000214     0.000257
O       3.64667004     -2.42673484     -0.44044022     -0.000131    -0.000285     0.000132
N      -0.93782654     -0.13312030     -0.02885254      0.000066    -0.000048    -0.000132
N      -4.21294770     -1.61869226      0.43544927      0.000018    -0.000078    -0.000198
N       4.42414474     -0.33071532     -0.20319656     -0.000085     0.000376    -0.000104
C       0.15389934      0.56514936      0.63667335      0.000175     0.000145    -0.000195
C       1.43335135     -0.28337439      0.70950596     -0.000153     0.000036     0.000038
C       2.06013026     -0.62193809     -0.65648864      0.000129    -0.000033    -0.000227
C      -3.19199130     -0.90636894     -0.35985227     -0.000126    -0.000029     0.000062
C      -2.15002420     -0.22238694      0.53579409      0.000019     0.000131    -0.000052
C       0.50590663      1.90162431     -0.02199616     -0.000114    -0.000154    -0.000236
C      -3.87161036      0.13268514     -1.22720736      0.000005     0.000146     0.000217
C       3.44626588     -1.21953011     -0.45167572     -0.000129    -0.000020     0.000081
H      -0.20351322      0.79528702      1.64289775      0.000156    -0.000514    -0.000411
H       1.20877107     -1.20215916      1.26972869     -0.000395     0.000262    -0.000427
H       2.15368587      0.28827215      1.29864851     -0.000149    -0.000464     0.000650
H       1.47617068     -1.38271613     -1.21101214     -0.000090     0.000136    -0.001242
H       2.10703304      0.28650291     -1.29628783     -0.000284     0.000247     0.000759
H      -0.80544494     -0.46114149     -0.96658927     -0.000041     0.000339     0.000093
H      -2.69981089     -1.63566293     -0.98816413      0.000563     0.000155    -0.000168
H      -3.15480001      0.71746394     -1.78219179      0.000651    -0.000282     0.000903
H      -4.45281017      0.80112893     -0.57412888     -0.000536    -0.000311     0.000299
H      -4.59006672     -0.35548185     -1.93285582     -0.000728    -0.001135    -0.000434
H      -4.53545029     -0.99153844      1.17734120      0.000551     0.000117    -0.000089
H      -3.82258365     -2.43582071      0.90527034      0.000246     0.000131     0.000919
H       0.23250719      2.96741130     -1.55196426      0.000902     0.001255     0.000103
H       5.32965072     -0.68788201      0.03077860     -0.000288     0.000385     0.000247
H       4.27437519      0.65836917     -0.21811732      0.000026     0.000286    -0.000231
30
Frame 13  Energy = -779.1156694390 Hartree
O      -0.22180902      2.10299575     -1.20934589     -0.000180     0.000114     0.000151
O      -2.34965775      0.08380907      1.64976394      0.000126    -0.000098    -0.000072
O       1.24923182      2.70350288      0.39127859      0.000026    -0.000040    -0.000257
O       3.48798615     -2.43391050     -0.11629478     -0.000194     0.000131     0.000148
N      -0.89847331     -0.17070844     -0.06804278     -0.000080    -0.000113     0.000343
N      -4.13563129     -1.71295655      0.27667288     -0.000151    -0.000118    -0.000176
N       4.57790834     -0.46614856     -0.46393921      0.000108    -0.000146     0.000005
C       0.16342308      0.57936476      0.57891257     -0.000032    -0.000098    -0.000120
C       1.45777082     -0.22541004      0.72311752      0.000041     0.000162    -0.000145
C       2.15016780     -0.48925468     -0.63284351      0.000001     0.000107    -0.000274
C      -3.21767094     -0.83911615     -0.39137345      0.000068     0.000252    -0.000087
C      -2.13401715     -0.25417174      0.50749366      0.000302    -0.000087    -0.000044
C       0.46227405      1.90047354     -0.07211131      0.000002     0.000114     0.000193
C      -3.94195226      0.31468421     -1.06032966      0.000142     0.000086     0.000092
C       3.46586242     -1.23669638     -0.37190125     -0.000187     0.000034     0.000235
H      -0.20872640      0.83851506      1.57597407      0.000464     0.000341     0.000187
H       1.22595612     -1.18747451      1.18803182     -0.000821     0.000108     0.000091
H       2.10756558      0.31561107      1.40254337      0.000445    -0.000412    -0.000643
H       1.53513941     -1.11319790     -1.25863275      0.000163    -0.000246     0.000633
H       2.35870428      0.42677328     -1.18313560     -0.000294    -0.000703     0.000151
H      -0.86737428     -0.36134883     -1.06295205      0.000248    -0.000055     0.000282
H      -2.73957314     -1.44684998     -1.17953825      0.000135     0.000422    -0.000904
H      -3.24455374      1.02579268     -1.55903806     -0.000318    -0.001106     0.000854
H      -4.50380964      0.90851448     -0.32440666      0.001158    -0.000214     0.000601
H      -4.64586954     -0.06223389     -1.78469256     -0.000351    -0.000831    -0.000646
H      -4.57179418     -1.21013559      1.04279121     -0.000028     0.000354     0.000240
H      -3.58647492     -2.44139217      0.73622331      0.000513    -0.000172    -0.000233
H       0.00929768      2.99010912     -1.59971561     -0.000914    -0.000158    -0.000181
H       5.45853042     -0.82329314     -0.12658879      0.000382    -0.000583    -0.000431
H       4.46924615      0.52991038     -0.55720242      0.000430     0.000012    -0.000124
30
Frame 14  Energy = -779.1135466349 Hartree
O      -0.73521236      2.52188028     -0.71580502     -0.000006     0.000347     0.000337
O      -2.24779252     -0.23353542      1.64982267      0.000082    -0.000060    -0.000000
O       1.40791671      2.65982963     -0.07280406      0.000105    -0.000064    -0.000167
O       3.27726065     -2.41214466      0.19106783     -0.000146     0.000184     0.000195
N      -0.82573690     -0.09260371     -0.11742490     -0.000001     0.000038    -0.000049
N      -4.10184109     -1.72189326      0.18310754      0.000132     0.000094    -0.000123
N       4.62377318     -0.79193849     -0.56800125     -0.000306    -0.000014    -0.000007
C       0.19845023      0.67947578      0.54094742     -0.000048     0.000103     0.000029
C       1.51845294     -0.04990957      0.72619815     -0.000019    -0.000020    -0.000121
C       2.17249229     -0.44270731     -0.59121152      0.000200     0.000032    -0.000127
C      -3.09638817     -0.90289090     -0.48534972     -0.000057    -0.000265     0.000061
C      -2.02223030     -0.39856655      0.47296902     -0.000069    -0.000143    -0.000053
C       0.39106823      2.04991324     -0.10537278      0.000172     0.000119    -0.000101
C      -3.78171113      0.29766920     -1.10191713      0.000048     0.000094     0.000015
C       3.39359628     -1.29656073     -0.28740938     -0.000133    -0.000113     0.000161
H      -0.20728618      0.88660376      1.53549220      0.000120    -0.000944    -0.000078
H       1.35898409     -0.93367219      1.32604414      0.001150    -0.000637     0.000020
H       2.17553966      0.64480277      1.26767947     -0.000348     0.000503    -0.000686
H       1.49800421     -1.08755008     -1.15300091      0.000408    -0.000557    -0.000436
H       2.45143705      0.39593256     -1.21511758      0.000021     0.000899    -0.000928
H      -0.82416465     -0.16989025     -1.11552537     -0.000827    -0.000544    -0.000183
H      -2.63219214     -1.47365937     -1.30510311     -0.000127    -0.000673     0.000836
H      -3.08990691      0.91847517     -1.69493397      0.000602    -0.000445    -0.000787
H      -4.22345402      0.93544670     -0.33396266     -0.000373    -0.000593    -0.000608
H      -4.55122645     -0.00518821     -1.75128261      0.000561    -0.000508     0.000428
H      -4.35407114     -1.21924096      1.02523821     -0.000226    -0.000544     0.000786
H      -3.63433924     -2.55322853      0.52070502      0.000773     0.000295    -0.000569
H      -0.49422952      3.40531202     -1.02359829     -0.000020    -0.001386     0.000664
H       5.40804458     -1.40077685     -0.40900002     -0.000859    -0.000436    -0.000297
H       4.77200528      0.12510157     -0.94264904     -0.000109    -0.000235     0.000151
30
Frame 15  Energy = -779.1148943762 Hartree
O      -0.63339131      2.88896796     -0.27466768     -0.000001     0.000064     0.000086
O      -2.22599258     -0.20928105      1.59849144     -0.000115     0.000128     0.000009
O       1.57008839      2.57853397     -0.31405276      0.000189    -0.000036     0.000041
O       3.17101977     -2.37864850      0.42372570     -0.000185     0.000375     0.000010
N      -0.88053877      0.11359020     -0.20204160      0.000002    -0.000021    -0.000002
N      -3.87730599     -1.97326414      0.18120418      0.000232    -0.000036     0.000072
N       4.42492471     -0.91241675     -0.78259968     -0.000141    -0.000075    -0.000004
C       0.16514881      0.81922500      0.54071906     -0.000141     0.000233    -0.000064
C       1.42353233     -0.01730026      0.71342109     -0.000071    -0.000135    -0.000097
C       2.06809902     -0.50978228     -0.57224339      0.000055    -0.000069    -0.000061
C      -2.99191857     -1.03369531     -0.54729809      0.000379    -0.000007    -0.000026
C      -1.99368180     -0.35811208      0.41303766      0.000051     0.000095    -0.000049
C       0.46315576      2.16705955     -0.05039022     -0.000074    -0.000430     0.000074
C      -3.80087819      0.06142596     -1.21399476      0.000040    -0.000296    -0.000105
C       3.25341210     -1.36532840     -0.23606775     -0.000065    -0.000201    -0.000117
H      -0.28102349      0.99684403      1.52079797      0.000279     0.000851     0.000399
H       1.17239867     -0.87939616      1.33118367     -0.000282     0.000612    -0.000423
H       2.14122350      0.58898821      1.27779364      0.000447    -0.000436     0.000540
H       1.36266386     -1.14029134     -1.15195563     -0.000615    -0.000126     0.000436
H       2.38278577      0.31439969     -1.22688582     -0.000518    -0.000512     0.000346
H      -0.73142201     -0.07896913     -1.17922918     -0.000733    -0.000248     0.000311
H      -2.41360984     -1.55778112     -1.29816683     -0.000002     0.001035    -0.000413
H      -3.17407204      0.78922279     -1.71632085      0.000507     0.001456     0.000215
H      -4.42608385      0.60489046     -0.49048011     -0.000204     0.000016     0.000955
H      -4.47760369     -0.35891318     -1.95121779      0.000903     0.000521     0.000702
H      -4.22523943     -1.48520471      0.99681407     -0.000488    -0.000658     0.000031
H      -3.33041220     -2.72353900      0.56483768     -0.000053    -0.000439    -0.000647
H      -0.33694319      3.68387506     -0.68939487     -0.000538     0.000565    -0.000524
H       5.26872752     -1.38675451     -0.50768196      0.000264     0.000158    -0.000006
H       4.50306550      0.01087954     -1.16567942     -0.000579     0.000255     0.000153
30
Frame 16  Energy = -779.1157196346 Hartree
O      -0.57258585      2.84235905     -0.46058551      0.000012    -0.000116    -0.000291
O      -2.28469558     -0.03080521      1.51803144     -0.000012    -0.000026     0.000027
O       1.60435806      2.65375843     -0.08015110     -0.000318    -0.000100     0.000134
O       3.11296008     -2.33606135      0.45019591     -0.000092     0.000256     0.000048
N      -0.84413703      0.13931786     -0.20622775     -0.000182    -0.000082     0.000028
N      -3.58831737     -2.14415997      0.09968458      0.000218     0.000005     0.000112
N       4.40653333     -1.03087392     -0.85670043      0.000198    -0.000102     0.000107
C       0.16112225      0.81319003      0.57563559      0.000300     0.000135     0.000211
C       1.39222388     -0.04784736      0.75613943     -0.000021    -0.000086    -0.000112
C       2.04045110     -0.49101642     -0.54219051     -0.000101    -0.000065    -0.000173
C      -2.98512857     -1.01656023     -0.56684682     -0.000190    -0.000167    -0.000049
C      -2.01174625     -0.24636196      0.34870981      0.000141     0.000089    -0.000091
C       0.49679676      2.17543313     -0.02699637      0.000192     0.000010     0.000151
C      -4.03840297      0.01215535     -1.03400930     -0.000179     0.000117    -0.000008
C       3.23388129     -1.37626532     -0.26356595      0.000006    -0.000113    -0.000115
H      -0.28864707      1.02972074      1.55515283      0.000583    -0.000480     0.000331
H       1.07118776     -0.94071035      1.31700157      0.000427    -0.000311    -0.000113
H       2.08553192      0.48243712      1.39042715     -0.000378     0.000483    -0.000503
H       1.33379401     -1.09338306     -1.09081761      0.000929     0.000654    -0.000449
H       2.31477692      0.37515227     -1.15086806     -0.000060     0.000811     0.000598
H      -0.63297879     -0.09276973     -1.16628437      0.000060    -0.000454    -0.000097
H      -2.45418991     -1.39656218     -1.44065185      0.000636     0.000597    -0.000407
H      -3.59248052      0.88467818     -1.50863828     -0.000301    -0.000195    -0.000130
H      -4.64684239      0.38506768     -0.21376265     -0.000560     0.000178     0.000708
H      -4.72257634     -0.47334183     -1.79061838     -0.000377     0.001144     0.000601
H      -3.92256916     -1.83493517      1.00471892     -0.000281     0.000110    -0.000893
H      -2.87740071     -2.84264045      0.26354365     -0.000343    -0.000395    -0.000115
H      -0.29097835      3.74006427     -0.75079856      0.000913     0.001356     0.000286
H       5.20593823     -1.62975925     -0.72241500     -0.000025     0.000024     0.000192
H       4.47707602     -0.22021097     -1.44506315      0.000246    -0.000280     0.000068
30
Frame 17  Energy = -779.1161496404 Hartree
O      -0.44309942      2.54379191     -0.98892392      0.000322    -0.000100    -0.000237
O      -2.20420884     -0.21324983      1.56670311     -0.000035    -0.000205     0.000209
O       1.42610005      2.76915423      0.24818684     -0.000006     0.000069     0.000072
O       3.05306945     -2.31525651      0.40070512     -0.000113    -0.000031     0.000006
N      -0.84151865      0.06165950     -0.22395053     -0.000170    -0.000044     0.000168
N      -3.69651707     -2.07527138     -0.03382634      0.000004     0.000127    -0.000141
N       4.48403786     -1.07784438     -0.83608430      0.000197     0.000036    -0.000109
C       0.16990247      0.77036924      0.54361399     -0.000094     0.000081    -0.000098
C       1.45478266     -0.02745667      0.78377250      0.000159     0.000206    -0.000024
C       2.22431047     -0.27646836     -0.49305370      0.000102    -0.000011    -0.000007
C      -3.08436922     -0.86425725     -0.54538568     -0.000019    -0.000293    -0.000019
C      -2.01550675     -0.33247343      0.37275395      0.000177    -0.000086     0.000125
C       0.48000510      2.13288395     -0.08437258     -0.000154     0.000006     0.000094
C      -4.16419065      0.17211032     -0.72152487     -0.000035     0.000247     0.000123
C       3.28900988     -1.32322412     -0.23675230     -0.000194     0.000020     0.000088
H      -0.28244015      0.98490596      1.50782485     -0.000149    -0.000274    -0.000120
H       1.17342576     -0.97912071      1.23079061      0.000077    -0.000245     0.000387
H       2.09707355      0.51327445      1.47854090      0.000138     0.000285    -0.000331
H       1.57425889     -0.66650249     -1.27515219     -0.001170     0.000228    -0.000310
H       2.65521759      0.63842457     -0.84655983      0.000899    -0.000558    -0.000190
H      -0.83838235      0.09069117     -1.22351151     -0.000552    -0.000082     0.000004
H      -2.63729256     -1.08309190     -1.53592975      0.000158     0.000095    -0.000430
H      -3.79011925      1.06112504     -1.22028864     -0.000120    -0.000383     0.000778
H      -4.53105096      0.42954965      0.25051956     -0.000076     0.000504    -0.001027
H      -5.01797350     -0.23715115     -1.29708498     -0.001059     0.000897    -0.000523
H      -4.04033092     -1.90274104      0.90688162     -0.000461    -0.000428    -0.000662
H      -3.05956784     -2.87115204      0.00256001     -0.000235     0.000288     0.000106
H      -0.10121361      3.43213233     -1.28008901     -0.000848    -0.000831    -0.000743
H       5.23177927     -1.72165729     -0.65907638      0.001006     0.000811     0.000154
H       4.69211424     -0.17740349     -1.22076032     -0.000016     0.000253    -0.000113
30
Frame 18  Energy = -779.1130126044 Hartree
O       0.10590472      2.38004781     -1.36621142      0.000115     0.000082    -0.000267
O      -1.88796594     -0.74208062      1.57079723      0.000234    -0.000240    -0.000044
O       1.23881994      3.00456168      0.46038550     -0.000092     0.000032     0.000244
O       3.04227869     -2.33896846      0.35818755      0.000015    -0.000084     0.000116
N      -0.95166873      0.19835579     -0.26062850     -0.000239     0.000273    -0.000119
N      -3.92462699     -1.97251289      0.10566305     -0.000077     0.000056     0.000278
N       4.38828111     -0.86554082     -0.72597212      0.000144     0.000123     0.000133
C       0.06824408      0.87619198      0.50500777      0.000127    -0.000140     0.000129
C       1.32018986      0.01364432      0.77372438     -0.000299     0.000063    -0.000016
C       2.00567608     -0.39262001     -0.52145615     -0.000089    -0.000095    -0.000073
C      -3.13976384     -0.92674550     -0.47100994      0.000192     0.000163    -0.000022
C      -1.93176982     -0.51500857      0.37668232     -0.000207    -0.000037    -0.000042
C       0.52042838      2.19175144     -0.10115234      0.000219    -0.000031    -0.000236
C      -3.99106074      0.32337939     -0.69364392      0.000140    -0.000201     0.000040
C       3.18064997     -1.30420330     -0.24733224     -0.000035     0.000116    -0.000213
H      -0.34006645      1.12576383      1.49428384      0.000377     0.000199     0.000171
H       1.00942287     -0.86292359      1.32950509      0.000172    -0.000344     0.000169
H       2.00952992      0.58408319      1.40956100     -0.000717    -0.000217     0.000111
H       1.27485532     -0.98915813     -1.08148330     -0.000476    -0.000251    -0.000086
H       2.30103745      0.46227831     -1.16980686     -0.000281     0.000893    -0.000590
H      -1.09711878      0.46216089     -1.22172867     -0.000998    -0.000164     0.000301
H      -2.76691694     -1.29277518     -1.43427035      0.000827     0.000757     0.000467
H      -3.37599161      1.11693830     -1.10923922     -0.000140     0.000497     0.000111
H      -4.34513835      0.68651330      0.27990488      0.000325    -0.000481    -0.000582
H      -4.82410068      0.12141820     -1.33242846     -0.001510     0.000085    -0.001029
H      -4.21134639     -1.73526662      1.05612369     -0.000412    -0.000118     0.000466
H      -3.42181023     -2.85666556      0.16272532     -0.000510     0.000062    -0.000239
H       0.46826298      3.21050475     -1.66162483      0.000208    -0.001023     0.000987
H       5.22467838     -1.37873459     -0.48771100     -0.000438    -0.000727     0.000109
H       4.49089350      0.03449000     -1.16481175      0.001073    -0.000169    -0.000038
30
Frame 19  Energy = -779.1157758084 Hartree
O       0.06175398      2.38824580     -1.36886558     -0.000411    -0.000140     0.000037
O      -1.85651821     -0.69186826      1.58427898     -0.000219     0.000177     0.000095
O       1.31735301      2.96749511      0.37591454      0.000090    -0.000001    -0.000126
O       2.88103625     -2.41345407      0.19050451      0.000002    -0.000189    -0.000092
N      -0.94006504      0.24982869     -0.22867881      0.000062     0.000024     0.000042
N      -3.80233075     -2.03772911      0.09776751      0.000155    -0.000231    -0.000109
N       4.36892099     -0.89792367     -0.56084380     -0.000024    -0.000178     0.000109
C       0.06847311      0.93546528      0.52746067     -0.000111    -0.000043     0.000169
C       1.26361100      0.03042496      0.79338846      0.000142     0.000025     0.000083
C       2.02008177     -0.29495557     -0.49542482      0.000168    -0.000054    -0.000226
C      -3.06895225     -0.95377016     -0.48961876     -0.000057    -0.000024    -0.000016
C      -1.89758321     -0.46925056      0.38432760      0.000148     0.000218    -0.000058
C       0.54987906      2.21930979     -0.12276849     -0.000029     0.000136     0.000121
C      -4.04199711      0.24248527     -0.67030958      0.000117     0.000133    -0.000102
C       3.12042494     -1.30436276     -0.24992413     -0.000118     0.000101     0.000028
H      -0.33999401      1.22594727      1.49048042      0.000337     0.000920     0.000202
H       0.92821259     -0.88439861      1.25627466      0.000486    -0.000095    -0.000407
H       1.90473260      0.55351923      1.50957526      0.000471     0.000167     0.000222
H       1.34341449     -0.72893282     -1.25431266     -0.000054     0.001007     0.000119
H       2.42050793      0.64478342     -0.92017127      0.000728    -0.001004     0.000925
H      -0.99824739      0.46102093     -1.21546129      0.000489    -0.000169    -0.000198
H      -2.65471299     -1.31973045     -1.41661748     -0.000234    -0.000027     0.000140
H      -3.52713910      1.12228306     -1.09389103     -0.000334    -0.000146    -0.000308
H      -4.44831140      0.49644577      0.33767176     -0.000850     0.000090     0.000470
H      -4.84222813     -0.06286832     -1.29750999      0.000266     0.000553     0.000135
H      -4.02082003     -1.80092831      1.06948700      0.000867    -0.000695     0.000618
H      -3.25549359     -2.88876737      0.11646276      0.001364     0.000218    -0.000712
H       0.35213047      3.24718041     -1.65266711     -0.000481     0.001040    -0.000469
H       5.10002681     -1.57437198     -0.45461253      0.000272     0.000036    -0.000238
H       4.57918361      0.02610653     -0.87519833     -0.000554     0.000007     0.000316
30
Frame 20  Energy = -779.1162755843 Hartree
O      -0.44644380      2.72613485     -0.96097486     -0.000024     0.000175     0.000202
O      -2.06286984     -0.25628343      1.56839241     -0.000052     0.000046     0.000052
O       1.52455792      2.89854988      0.12402098      0.000219    -0.000020    -0.000217
O       2.71893363     -2.55232996      0.06147320     -0.000047    -0.000083    -0.000038
N      -0.85747892      0.22782219     -0.29656574     -0.000177     0.000072    -0.000120
N      -3.40637430     -2.24704517      0.02711509     -0.000057    -0.000042     0.000016
N       4.42565284     -1.12634324     -0.33006163      0.000268    -0.000189     0.000059
C       0.16272386      0.93394525      0.45678194      0.000061     0.000122    -0.000010
C       1.38865821      0.07076188      0.75363600     -0.000331     0.000019     0.000057
C       2.16431829     -0.30142459     -0.54062864     -0.000094     0.000009     0.000044
C      -2.99690771     -0.93959101     -0.52529472     -0.000132    -0.000059    -0.000180
C      -1.93480121     -0.31114237      0.34995022      0.000161     0.000173    -0.000071
C       0.51771550      2.26827866     -0.13755710     -0.000254    -0.000084     0.000081
C      -4.20774742      0.00662989     -0.60671346     -0.000074    -0.000268     0.000024
C       3.11664234     -1.43393565     -0.24202962      0.000068     0.000040    -0.000099
H      -0.31974864      1.19657934      1.41057493      0.000088    -0.000312     0.000107
H       0.97918505     -0.82605677      1.23343447      0.000249     0.000263    -0.000222
H       2.06251388      0.56590829      1.45458571      0.000133    -0.000287    -0.000183
H       1.48102916     -0.66698619     -1.28000802      0.000100    -0.000323     0.000618
H       2.66661746      0.57007018     -0.92024704     -0.000084    -0.000023    -0.000449
H      -0.89401545      0.31989244     -1.29292894      0.000238     0.000027    -0.000448
H      -2.62805628     -1.07390331     -1.55134593      0.000759    -0.000286    -0.000475
H      -3.87781144      0.94066962     -1.09964093     -0.000683     0.000282    -0.000044
H      -4.51136673      0.23946695      0.40068885     -0.000195    -0.000239     0.000542
H      -5.02295461     -0.44928364     -1.17117608      0.001994    -0.000365     0.000933
H      -3.44129248     -2.17493545      1.03808414      0.000531     0.000786     0.000262
H      -2.72909409     -2.96273746     -0.19360687      0.000963    -0.000132     0.000438
H      -0.20436913      3.62425329     -1.29969941      0.000498     0.001312     0.000476
H       5.08176042     -1.85936496     -0.09896854      0.000525     0.000211     0.000778
H       4.74287131     -0.18338156     -0.47428694     -0.000009    -0.000018     0.000156
30
Frame 21  Energy = -779.1178725709 Hartree
O      -0.41082100      3.08675732     -0.66930309      0.000087     0.000150     0.000026
O      -1.93577915     -0.32769717      1.58180792      0.000172    -0.000099     0.000059
O       1.74942409      2.70080065     -0.23614439     -0.000266    -0.000053     0.000049
O       2.74398378     -2.64624346      0.05558827      0.000147    -0.000220    -0.000015
N      -0.92695865      0.42732812     -0.27233619     -0.000076     0.000264    -0.000004
N      -3.26819189     -2.32935463     -0.06630721     -0.000160    -0.000292    -0.000053
N       4.24961598     -0.98263785     -0.20536783     -0.000167     0.000086     0.000032
C       0.12630788      1.04355653      0.46901199      0.000107    -0.000014    -0.000124
C       1.28439695      0.08038951      0.76299664      0.000003     0.000105     0.000015
C       1.87180829     -0.47877461     -0.52726466     -0.000094    -0.000085     0.000255
C      -2.90021304     -1.00893264     -0.53155241      0.000064     0.000168    -0.000050
C      -1.91295852     -0.28280965      0.36164471     -0.000081     0.000077     0.000039
C       0.60177558      2.34301966     -0.18630366      0.000254     0.000247    -0.000283
C      -4.18463794     -0.18167821     -0.63957783      0.000090    -0.000078    -0.000032
C       2.98223154     -1.47447307     -0.22477784     -0.000036    -0.000155     0.000066
H      -0.34614009      1.29984292      1.41926486      0.000111    -0.000294    -0.000206
H       0.91347097     -0.75346826      1.36252534      0.000455    -0.000005     0.000837
H       2.02254402      0.60978355      1.34494220      0.000904     0.000092    -0.000550
H       1.11664324     -1.06851612     -1.08606051     -0.000651    -0.000575    -0.000231
H       2.22554493      0.33184516     -1.17407188     -0.000480     0.000432    -0.000146
H      -0.87015212      0.31798231     -1.26587891     -0.000414    -0.000171     0.000392
H      -2.46152020     -1.11582773     -1.54587323     -0.001102     0.000878    -0.000381
H      -4.01346713      0.79786317     -1.02877959      0.000609     0.000651    -0.000279
H      -4.64960967     -0.11109924      0.32905661      0.000400    -0.000748    -0.000282
H      -4.84478333     -0.77302721     -1.31919180      0.000451    -0.000058     0.000373
H      -3.67416208     -2.24889622      0.84888445     -0.000040    -0.000191    -0.000020
H      -2.42257050     -2.87068219      0.06137811      0.000074    -0.000151     0.000130
H       0.00880419      3.85820513     -1.12253478     -0.000448    -0.000860     0.000594
H       4.97668699     -1.57922211      0.14142012      0.000107     0.000563    -0.000205
H       4.42007138     -0.00375270     -0.32765125     -0.000259    -0.000014    -0.000211
30
Frame 22  Energy = -779.1152419680 Hartree
O      -0.25800035      2.99432409     -0.96280352      0.000049    -0.000033    -0.000277
O      -1.75446166     -0.72247143      1.52411028      0.000121    -0.000096    -0.000014
O       1.81566754      2.64477967     -0.18340326      0.000137     0.000026     0.000175
O       2.86275295     -2.62417384      0.02538823      0.000036     0.000317    -0.000098
N      -1.05934211      0.53797221     -0.22852219     -0.000005     0.000107    -0.000045
N      -3.40471387     -2.31631368     -0.13852766     -0.000194     0.000189    -0.000136
N       4.16509390     -0.77411507     -0.09927797      0.000016    -0.000033     0.000017
C       0.07655941      1.10351401      0.48744253      0.000086     0.000029     0.000083
C       1.21315784      0.09301525      0.78753473      0.000229    -0.000124     0.000112
C       1.78750000     -0.51175471     -0.47719940      0.000199    -0.000016    -0.000098
C      -3.01817186     -0.96775153     -0.53130618     -0.000013    -0.000251     0.000052
C      -1.87082847     -0.39193424      0.34956820     -0.000107    -0.000070    -0.000013
C       0.67813372      2.29869511     -0.23150556     -0.000247    -0.000174    -0.000016
C      -4.17609509     -0.00156811     -0.44209820     -0.000215     0.000283     0.000277
C       2.96334055     -1.42227725     -0.16203460      0.000083     0.000036     0.000160
H      -0.30243607      1.51999555      1.42654455      0.000182     0.000599    -0.000055
H       0.78361009     -0.67739645      1.44372705     -0.000146    -0.000457    -0.000444
H       2.00080750      0.61484629      1.34949642     -0.000293    -0.000788     0.000040
H       1.04357023     -1.12034151     -0.97520847      0.000054    -0.000714     0.000151
H       2.13420955      0.26221139     -1.18826565     -0.000563    -0.000186     0.000856
H      -1.15591898      0.74822718     -1.21469655     -0.000951     0.000312     0.000158
H      -2.67532050     -0.99929858     -1.56478329     -0.000729    -0.000774     0.000392
H      -3.89016762      0.98405309     -0.76656210      0.000027    -0.000549    -0.000090
H      -4.56206841      0.02052722      0.58303774     -0.000075     0.000461     0.000260
H      -4.97673403     -0.39554044     -1.10985024     -0.000726    -0.000689    -0.001158
H      -3.52835452     -2.30777873      0.86528265      0.000828    -0.000448    -0.000208
H      -2.61437715     -2.93244973     -0.28984350     -0.000568     0.000685    -0.000619
H       0.16218294      3.77447800     -1.29930790     -0.000619    -0.001144    -0.000728
H       4.98309547     -1.26896597      0.21550460      0.000118    -0.000101     0.000241
H       4.23369565      0.22177654     -0.23037995      0.000386     0.000174     0.000244
30
Frame 23  Energy = -779.1156151063 Hartree
O      -0.06697337      2.46626133     -1.38663610      0.000095    -0.000288    -0.000124
O      -1.82415871     -0.73508317      1.47131515     -0.000016     0.000140    -0.000206
O       1.40125097      2.91362354      0.24077996     -0.000325     0.000139    -0.000078
O       3.09175310     -2.55394578     -0.06351860     -0.000012     0.000159    -0.000102
N      -0.96352745      0.29720985     -0.35488986     -0.000112    -0.000127     0.000276
N      -3.66083920     -2.09155612     -0.19049397     -0.000033    -0.000066     0.000091
N       4.38144331     -0.71419575      0.02063289      0.000072     0.000072     0.000064
C       0.08854557      0.92082268      0.43950256     -0.000048    -0.000161     0.000085
C       1.27721329     -0.00506007      0.71755752      0.000045    -0.000116    -0.000169
C       1.99565742     -0.49758755     -0.54287881      0.000237     0.000044     0.000100
C      -3.20065142     -0.72125105     -0.48611203     -0.000054     0.000275     0.000109
C      -1.93591362     -0.39955055      0.29548860     -0.000036     0.000119    -0.000168
C       0.54028184      2.19249415     -0.22649671      0.000184    -0.000243     0.000265
C      -4.29561332      0.23277355     -0.06283267     -0.000117     0.000152     0.000071
C       3.20384068     -1.35535584     -0.17255553      0.000112    -0.000161    -0.000073
H      -0.34349246      1.21895315      1.40040693      0.000049     0.000020     0.000351
H       0.90343411     -0.86649222      1.24048680      0.000139    -0.000871    -0.000011
H       1.95091678      0.53355607      1.37943204     -0.000483     0.000326     0.000256
H       1.37284165     -1.10708385     -1.16450080      0.001044     0.000154    -0.000214
H       2.32010396      0.37161648     -1.09987702     -0.000043     0.000401     0.000519
H      -1.15786508      0.70945910     -1.25110766      0.000381     0.000105    -0.000167
H      -3.02130988     -0.57800800     -1.54626083      0.001001     0.000361    -0.000165
H      -4.00857866      1.30553986     -0.19247705      0.000536    -0.001006     0.000343
H      -4.48738693      0.08813337      1.00171437      0.000734    -0.000333    -0.000248
H      -5.18088178      0.02703375     -0.62698123     -0.001143    -0.000214    -0.000446
H      -3.58117121     -2.22758288      0.82151416     -0.000742     0.000164    -0.000178
H      -3.00316329     -2.75147259     -0.59176057     -0.000745    -0.000074     0.000206
H       0.27567304      3.30578983     -1.68854967      0.000625     0.001094    -0.000350
H       5.13115565     -1.27455226      0.38910019      0.000227     0.000385    -0.000360
H       4.46849100      0.28502117      0.06895946     -0.000335    -0.000112    -0.000052
30
Frame 24  Energy = -779.1194745320 Hartree
O       0.19170862      2.26895860     -1.45595426     -0.000014     0.000098     0.000100
O      -1.96466869     -0.60256821      1.61126871     -0.000116     0.000115     0.000173
O       1.28824495      2.90617580      0.36281630      0.000047     0.000028     0.000076
O       3.14244515     -2.48123106     -0.33293734      0.000049    -0.000083    -0.000094
N      -1.02396190      0.25931737     -0.25915108      0.000078     0.000043    -0.000076
N      -3.80145062     -2.08912971     -0.02950216     -0.000041     0.000202     0.000105
N       4.43000662     -0.66548751     -0.00878099      0.000083     0.000028    -0.000004
C       0.04853294      0.84248547      0.48208657      0.000084     0.000188    -0.000040
C       1.23569284     -0.07857293      0.73261239     -0.000016     0.000018    -0.000100
C       2.10887884     -0.31687027     -0.48465184     -0.000027    -0.000103     0.000077
C      -3.20633876     -0.83917017     -0.44051717      0.000241    -0.000505     0.000131
C      -2.02852104     -0.39554382      0.40744934     -0.000101    -0.000218     0.000025
C       0.57130844      2.13160845     -0.16916878     -0.000147     0.000173     0.000078
C      -4.25349582      0.30569013     -0.38424934     -0.000132    -0.000047    -0.000213
C       3.25409466     -1.28657493     -0.27844175     -0.000174    -0.000133    -0.000055
H      -0.34861838      1.15634583      1.44487150     -0.000359    -0.000567    -0.000426
H       0.82834697     -1.00646040      1.12495074     -0.000251     0.000758     0.000027
H       1.86018612      0.36128942      1.53482166      0.000524    -0.000304    -0.000109
H       1.49360917     -0.73524897     -1.29567071     -0.000183    -0.000568     0.000227
H       2.52070175      0.62849341     -0.86340114      0.000270     0.000548    -0.001020
H      -1.12114804      0.44234904     -1.23725665      0.000335     0.000993     0.000270
H      -2.85676629     -0.97228111     -1.47881293      0.000397    -0.000292    -0.000275
H      -3.87698131      1.22896205     -0.84267664      0.000685     0.000239    -0.000776
H      -4.58211203      0.51496047      0.64444121      0.000509    -0.000281    -0.000541
H      -5.11623141      0.00021391     -0.91205260      0.000630     0.000370     0.000108
H      -3.94376880     -2.05669584      0.98811902     -0.000752    -0.000016    -0.000202
H      -3.09734553     -2.81475349     -0.16455796     -0.000042    -0.000004     0.000082
H       0.69051815      3.05113670     -1.81579841      0.000265     0.000504    -0.000588
H       5.24374887     -1.23004687      0.15660878      0.000139    -0.000368    -0.000031
H       4.50020892      0.33047538      0.06639460     -0.000052     0.000169     0.000025
30
Frame 25  Energy = -779.1141404491 Hartree
O      -0.26518753      2.64597816     -1.13363681     -0.000112     0.000123     0.000374
O      -1.97328458     -0.50073157      1.65549830      0.000148    -0.000063     0.000052
O       1.47620947      2.88623567      0.28447199      0.000231    -0.000129    -0.000145
O       3.00279584     -2.57943219     -0.39651149     -0.000188    -0.000018     0.000041
N      -0.93964695      0.26102590     -0.19824889      0.000245     0.000151     0.000028
N      -3.79130450     -2.03948278      0.21613933      0.000124     0.000141    -0.000018
N       4.36294550     -0.79504518     -0.07998242      0.000167    -0.000053    -0.000009
C       0.10767881      0.94084624      0.52920068     -0.000161    -0.000084    -0.000174
C       1.35541016      0.04098822      0.78253302      0.000193     0.000091     0.000112
C       1.96877798     -0.44720414     -0.52298867     -0.000203    -0.000040    -0.000075
C      -3.01103591     -1.00781399     -0.46930005     -0.000132    -0.000141     0.000024
C      -1.92304618     -0.41568422      0.43825477     -0.000005     0.000075     0.000081
C       0.51217093      2.24380525     -0.10368218     -0.000043    -0.000041    -0.000160
C      -3.94362588      0.06872933     -0.98622850     -0.000194    -0.000228    -0.000426
C       3.15107429     -1.38695768     -0.31073848     -0.000009     0.000175    -0.000024
H      -0.27449509      1.20484823      1.52732354     -0.000347     0.000231     0.000099
H       1.01171309     -0.81611982      1.38186278      0.000399     0.000202    -0.000431
H       2.09024666      0.56873823      1.36375523      0.000072     0.000871     0.000303
H       1.28012761     -1.06235829     -1.10756283     -0.000591     0.000611    -0.000174
H       2.30058826      0.40136168     -1.16557176     -0.000141     0.000239     0.001146
H      -1.01029003      0.37108628     -1.20239670     -0.000172    -0.001033     0.000173
H      -2.47141344     -1.44323018     -1.31893835      0.000340     0.000355     0.001098
H      -3.39432650      0.82631575     -1.51906735      0.000423     0.000216    -0.000627
H      -4.46263629      0.56382806     -0.15216686     -0.000873     0.000555     0.000134
H      -4.67729865     -0.33681993     -1.68318951      0.001182     0.000172     0.000281
H      -4.19259041     -1.62839550      1.05604001     -0.000716     0.000110    -0.000115
H      -3.21080105     -2.81909758      0.52791580     -0.000289    -0.000602     0.000085
H       0.07930695      3.52754950     -1.39830145     -0.001028    -0.001215     0.000392
H       5.13117974     -1.40189524      0.16427895     -0.000081    -0.000116    -0.000070
H       4.43011046      0.19293416      0.09440217     -0.000258    -0.000243     0.000235
30
Frame 26  Energy = -779.1179780650 Hartree
O      -0.57284983      2.93169714     -0.59019488     -0.000304     0.000101     0.000076
O      -1.93137094     -0.47764165      1.59115390      0.000141     0.000178     0.000012
O       1.59157154      2.76683572     -0.09461880     -0.000175    -0.000009    -0.000061
O       2.88755606     -2.60847705     -0.18773233      0.000068    -0.000360     0.000158
N      -0.92336637      0.28628140     -0.25051997      0.000042    -0.000117    -0.000120
N      -3.77197885     -1.98093082      0.29550962      0.000111     0.000028     0.000056
N       4.38672995     -0.91032363     -0.12893112     -0.000126     0.000017    -0.000042
C       0.14223520      0.92339757      0.51881071     -0.000270    -0.000143     0.000088
C       1.37304127      0.04467896      0.73956020     -0.000026     0.000166    -0.000105
C       2.05809118     -0.37414881     -0.56323322      0.000108     0.000073    -0.000014
C      -2.96949945     -1.09208455     -0.48780410      0.000132     0.000053    -0.000179
C      -1.90385291     -0.40096340      0.36979950     -0.000017     0.000014    -0.000037
C       0.49975444      2.28124561     -0.08983361      0.000338    -0.000087     0.000125
C      -3.86792386     -0.07775086     -1.19993650      0.000099    -0.000029    -0.000068
C       3.14658805     -1.42387897     -0.28213402      0.000066     0.000052    -0.000026
H      -0.32297639      1.15070525      1.48419643      0.001029     0.000011     0.000066
H       1.05384350     -0.83548505      1.31104896     -0.000796     0.000131     0.000569
H       2.07739740      0.62040538      1.34091371     -0.000345    -0.000367    -0.000325
H       1.32058721     -0.84262383     -1.20819801      0.000334     0.000155     0.000681
H       2.43436952      0.50264046     -1.05332925     -0.000789     0.000492    -0.000310
H      -0.82227897      0.24686600     -1.25151157      0.000463     0.000658    -0.000503
H      -2.43962574     -1.65905790     -1.25022453      0.000192     0.001062    -0.000559
H      -3.28675711      0.69828382     -1.70267948     -0.000260     0.000064     0.000180
H      -4.48690220      0.42423466     -0.47283257     -0.000299    -0.000392     0.000436
H      -4.56121744     -0.58464144     -1.93535246     -0.000134     0.000243     0.000591
H      -4.29365568     -1.47126902      0.99474886     -0.000598     0.000547     0.000068
H      -3.19724881     -2.64834659      0.79614753     -0.000395    -0.000535     0.000142
H      -0.22228467      3.76508728     -0.86929983      0.000293    -0.000670     0.000860
H       5.12431002     -1.54335084      0.11604137     -0.000162    -0.000197    -0.000122
H       4.53225705      0.07869798     -0.13652340      0.000266     0.000075    -0.000664
30
Frame 27  Energy = -779.1125209326 Hartree
O      -0.58716951      2.79086230     -0.66007085      0.000106    -0.000253    -0.000067
O      -2.12003582     -0.36376666      1.60915528     -0.000251     0.000058    -0.000080
O       1.57672499      2.70067819     -0.12468420      0.000292     0.000073     0.000101
O       3.00987559     -2.54649692      0.02636822      0.000188     0.000063     0.000032
N      -0.86269329      0.18633685     -0.20155805     -0.000101    -0.000058     0.000060
N      -3.72028689     -2.06189088      0.04508307     -0.000024    -0.000132    -0.000003
N       4.46232289     -0.87889480     -0.38863016     -0.000047    -0.000131    -0.000198
C       0.14145416      0.88461975      0.55512478     -0.000023     0.000031    -0.000047
C       1.38339511     -0.00261351      0.81954175     -0.000072     0.000074     0.000165
C       2.06913667     -0.40966372     -0.48091124      0.000078    -0.000127     0.000033
C      -2.98021703     -0.99491212     -0.54224673     -0.000235     0.000004    -0.000065
C      -1.95312945     -0.35624209      0.39792619      0.000014    -0.000052    -0.000083
C       0.48461774      2.21387942     -0.10245843     -0.000290     0.000005    -0.000031
C      -3.95135754      0.12880008     -0.97467865     -0.000022     0.000293     0.000418
C       3.21093728     -1.38262412     -0.26232565      0.000324     0.000270     0.000110
H      -0.29315062      1.13975603      1.51678897     -0.001722    -0.000116    -0.000307
H       1.02473463     -0.87724130      1.34073193      0.000422    -0.000571    -0.000484
H       2.04906132      0.53092480      1.51064679      0.000356    -0.000653     0.000507
H       1.29950283     -0.91333132     -1.09122964     -0.000397    -0.000454    -0.001084
H       2.42224866      0.47789871     -1.02203168      0.000291    -0.000126     0.000116
H      -0.90448374      0.28129331     -1.19567962      0.000083     0.000774     0.000256
H      -2.46800564     -1.40185963     -1.42242705      0.000481     0.000006    -0.000641
H      -3.46004860      0.99207553     -1.40359062     -0.000666    -0.000141    -0.000281
H      -4.50605655      0.45069793     -0.10064189      0.001091     0.000360    -0.000534
H      -4.68188093     -0.26706805     -1.70338436     -0.000768    -0.000269    -0.000593
H      -4.24030968     -1.75448289      0.85242332     -0.000313    -0.000685     0.000492
H      -3.10419492     -2.79539727      0.34361767      0.000860     0.000395    -0.000118
H      -0.29806867      3.61651204     -1.06251622     -0.000099     0.001225    -0.001092
H       5.26156763     -1.47699873     -0.24169833     -0.000198    -0.000099     0.000282
H       4.58998129      0.07861751     -0.67004096      0.000330    -0.000192    -0.000297
30
Frame 28  Energy = -779.1178407183 Hartree
O      -0.30627668      2.54057984     -1.06490587      0.000189    -0.000181    -0.000152
O      -2.17103743     -0.33441895      1.56010714     -0.000095    -0.000193    -0.000104
O       1.44171353      2.75272502      0.34657405     -0.000143    -0.000100     0.000040
O       3.30250200     -2.39467788      0.33003651      0.000221    -0.000003     0.000092
N      -0.93336142      0.11250264     -0.30293922      0.000133     0.000131     0.000028
N      -3.81296121     -2.05266416     -0.05035397     -0.000174     0.000186    -0.000000
N       4.55682334     -0.79816326     -0.63338638     -0.000103     0.000070    -0.000044
C       0.13474565      0.74837591      0.47309844     -0.000119    -0.000278    -0.000020
C       1.36802601     -0.12152141      0.72895780     -0.000068     0.000055     0.000126
C       2.15263802     -0.48142834     -0.53645573     -0.000151     0.000252     0.000069
C      -3.21168915     -0.80503695     -0.56287300     -0.000024     0.000004    -0.000067
C      -2.05616325     -0.34815521      0.33822426     -0.000076     0.000047    -0.000032
C       0.50169655      2.10216643     -0.07681715      0.000109     0.000010     0.000085
C      -4.26117700      0.29610906     -0.62445318      0.000187     0.000072     0.000278
C       3.37154007     -1.30793897     -0.21922607     -0.000179     0.000018    -0.000128
H      -0.30648038      0.96435124      1.46742697      0.000660     0.000271     0.000332
H       1.06070666     -1.01089590      1.28346844     -0.000215     0.000785     0.000255
H       2.00384008      0.48083815      1.38940742      0.000528     0.000403    -0.000617
H       1.54892636     -1.08211624     -1.21303151      0.001258     0.000360     0.000481
H       2.46589300      0.42788901     -1.09024852      0.000335    -0.000379    -0.000312
H      -0.94046043      0.07582652     -1.31389960      0.000854    -0.000432     0.000319
H      -2.79863684     -0.99149767     -1.56885433     -0.000198    -0.000284    -0.000030
H      -3.87431033      1.16078198     -1.15792432     -0.000182    -0.000181     0.000499
H      -4.52364259      0.59751164      0.41045257     -0.000946    -0.000283    -0.000075
H      -5.12398189     -0.06484233     -1.12990698     -0.000970    -0.000684    -0.000520
H      -3.98421399     -1.95810766      0.93889131      0.000506    -0.000001    -0.000183
H      -3.22642463     -2.85734989     -0.17940428      0.000541     0.000632    -0.000186
H      -0.00819906      3.47432066     -1.25312962      0.000729    -0.000062    -0.000751
H       5.38448846     -1.27155867     -0.32469070     -0.000076    -0.000066    -0.000633
H       4.64796508      0.16729233     -0.88362337      0.000288    -0.000028    -0.000075
30
Frame 29  Energy = -779.1159837869 Hartree
O       0.07891573      2.30035808     -1.31441108      0.000205     0.000143     0.000061
O      -2.01676156     -0.66817442      1.58497164      0.000329     0.000010    -0.000122
O       1.29716379      2.87374519      0.45194260     -0.000153     0.000065     0.000135
O       3.25451540     -2.30946817      0.35617441     -0.000247     0.000001     0.000003
N      -0.95794142      0.16372546     -0.21892543      0.000089     0.000096    -0.000122
N      -3.94673762     -1.96952838     -0.07198224     -0.000076    -0.000294     0.000196
N       4.42257594     -0.74523762     -0.76246868      0.000010     0.000004    -0.000073
C       0.07994372      0.80835140      0.56867530     -0.000017    -0.000076    -0.000186
C       1.30412649     -0.05725338      0.82194139     -0.000116     0.000043     0.000017
C       2.02058761     -0.42113883     -0.47329945     -0.000129    -0.000019     0.000091
C      -3.17280241     -0.82686524     -0.54107096     -0.000158     0.000314     0.000106
C      -2.01060112     -0.43549984      0.38352341      0.000149    -0.000170     0.000029
C       0.56394976      2.10380431     -0.06218469     -0.000271     0.000062    -0.000082
C      -4.13614130      0.37243085     -0.66962662      0.000201    -0.000076    -0.000231
C       3.27076090     -1.25370977     -0.24504879      0.000136    -0.000127     0.000036
H      -0.36065933      1.08300890      1.51579814     -0.000367     0.000992    -0.000705
H       1.00140037     -0.97282115      1.32757295      0.000065     0.000020    -0.000469
H       1.94717329      0.50954910      1.48075897     -0.000043    -0.000133     0.000856
H       1.32754788     -1.00467303     -1.09047180      0.000237    -0.000519    -0.000119
H       2.31505543      0.42670632     -1.05170216     -0.000664    -0.000265     0.000259
H      -1.09284104      0.51863001     -1.15235125     -0.000194    -0.000614    -0.000782
H      -2.79880598     -1.05854374     -1.53554716      0.000284     0.001128     0.000771
H      -3.57654953      1.29178908     -0.95399196      0.000492    -0.000094    -0.000196
H      -4.66167197      0.53814378      0.28496102     -0.000079     0.000305     0.000437
H      -4.86606028      0.13746145     -1.40277013      0.000723     0.000279     0.000253
H      -4.16641843     -1.84645664      0.90880844      0.000502     0.000255    -0.000334
H      -3.34994986     -2.78961461     -0.13052898     -0.000295    -0.000189     0.000576
H       0.39765032      3.18290637     -1.57909011     -0.000514    -0.001121     0.001042
H       5.28564695     -1.26168694     -0.69356145      0.000099    -0.000204     0.000074
H       4.43419646      0.11938061     -1.27522338     -0.000236    -0.000019    -0.000259
30
Frame 30  Energy = -779.1154505380 Hartree
O      -0.06010033      2.50523289     -1.26206071     -0.000115     0.000072    -0.000064
O      -1.83370954     -0.74804284      1.54916108     -0.000058     0.000151     0.000011
O       1.23670616      3.05828555      0.50020371      0.000107    -0.000140    -0.000132
O       2.87106319     -2.39039874      0.32095249     -0.000213     0.000001    -0.000135
N      -0.95761269      0.28608224     -0.25813333      0.000077    -0.000086    -0.000043
N      -3.81551643     -2.03504472      0.04045775      0.000212     0.000089    -0.000298
N       4.38430904     -1.09481040     -0.75190053     -0.000091    -0.000079    -0.000156
C       0.09090016      0.94020707      0.54281212     -0.000003     0.000054     0.000106
C       1.29921202      0.02409394      0.78726306      0.000048    -0.000026     0.000071
C       2.09033829     -0.26548258     -0.47748622      0.000075     0.000137     0.000226
C      -3.03834576     -0.97344230     -0.52159783      0.000263    -0.000398     0.000225
C      -1.87009603     -0.49019596      0.35491730     -0.000015     0.000049     0.000127
C       0.48134716      2.27008234     -0.04164727     -0.000172     0.000032     0.000044
C      -3.95635763      0.22518182     -0.77233687     -0.000036    -0.000118    -0.000030
C       3.15405056     -1.34979490     -0.24013411     -0.000259    -0.000116     0.000181
H      -0.37004194      1.18528701      1.51432390     -0.000075     0.000226    -0.000092
H       0.94939720     -0.94135208      1.19264987      0.000264    -0.000129     0.000207
H       1.91558986      0.48363374      1.56421144     -0.000247     0.000161    -0.000453
H       1.46438145     -0.64065455     -1.27347593     -0.000024     0.000386    -0.000418
H       2.57251300      0.64931519     -0.85374490      0.000926     0.000669    -0.000024
H      -1.11889469      0.51377516     -1.21885578      0.000224     0.001681     0.000541
H      -2.63281636     -1.31218126     -1.47195352      0.000098    -0.000261    -0.000318
H      -3.41553485      1.08681063     -1.18486604      0.000020     0.000455    -0.000837
H      -4.41817331      0.53336091      0.15820956      0.000424     0.000425     0.000045
H      -4.71929551     -0.08733316     -1.49864014      0.001246    -0.000119     0.001627
H      -4.12542519     -1.73776645      0.96827172      0.000737    -0.000114    -0.000275
H      -3.18390426     -2.81249795      0.24960205      0.000271     0.000713    -0.000013
H       0.28814444      3.31918861     -1.58238554     -0.000294     0.000137     0.000198
H       5.09400731     -1.78213223     -0.57264013     -0.000347    -0.000096    -0.000209
H       4.63955348     -0.22324247     -1.17130000     -0.000352     0.000223     0.000712
30
Frame 31  Energy = -779.1174348486 Hartree
O      -0.29444089      2.77875405     -1.02106409     -0.000145     0.000196     0.000219
O      -1.92943386     -0.50626603      1.57281346     -0.000017    -0.000025    -0.000351
O       1.48843633      3.02663599      0.28357316      0.000015     0.000090    -0.000036
O       2.48293500     -2.45581569      0.20662469     -0.000055     0.000111    -0.000030
N      -0.90452429      0.40048785     -0.20462106      0.000052     0.000101    -0.000027
N      -3.34175201     -2.33800282     -0.08376986      0.000309    -0.000185     0.000185
N       4.22814855     -1.38923381     -0.73508507     -0.000014    -0.000167     0.000156
C       0.12122521      1.04795404      0.59183923     -0.000040     0.000160    -0.000083
C       1.32627364      0.15329067      0.84867242      0.000148     0.000032    -0.000036
C       2.14638688     -0.14709945     -0.38756394     -0.000130    -0.000061     0.000041
C      -2.84470467     -1.02850196     -0.58329460     -0.000136     0.000075    -0.000038
C      -1.85367818     -0.36847791      0.36563954     -0.000010     0.000117    -0.000102
C       0.54299393      2.38554730     -0.02573589      0.000325    -0.000058     0.000086
C      -4.02092430     -0.09966917     -0.80435240     -0.000128    -0.000135     0.000104
C       2.94594311     -1.44081986     -0.25507070     -0.000175    -0.000063     0.000030
H      -0.31079277      1.28036410      1.55857737     -0.000342    -0.000360    -0.000126
H       0.91848188     -0.75725842      1.26923458     -0.000348    -0.000579    -0.000033
H       1.97363978      0.61519894      1.58593533      0.000167     0.000298     0.000226
H       1.48125123     -0.34995507     -1.26297778     -0.001150    -0.000393     0.000046
H       2.79788416      0.66619471     -0.69506096     -0.000312    -0.000573    -0.000453
H      -0.91397924      0.45608839     -1.21410657      0.001006    -0.001074     0.000132
H      -2.37817313     -1.18052183     -1.57394906      0.000622    -0.000425     0.000021
H      -3.69150680      0.79490868     -1.26974027      0.000313    -0.000281    -0.000118
H      -4.42753124      0.14369285      0.17107418     -0.000349    -0.000200    -0.000009
H      -4.83207122     -0.58838330     -1.40090368     -0.000191    -0.000134     0.000558
H      -3.73638352     -2.16929267      0.85095836      0.000027    -0.000039     0.000291
H      -2.53584164     -2.93909995      0.09152010      0.000205    -0.000429    -0.000472
H       0.04712291      3.63044280     -1.33986867      0.000816     0.001342    -0.000809
H       4.77684283     -2.22912378     -0.63769247     -0.000058    -0.000522    -0.000593
H       4.68306586     -0.51451585     -0.92228387     -0.000278     0.000169     0.000101
30
Frame 32  Energy = -779.1150180068 Hartree
O      -0.30515717      3.04220967     -0.87724555     -0.000046     0.000030    -0.000096
O      -1.76990449     -0.56231517      1.53594745     -0.000048    -0.000020    -0.000010
O       1.69928475      2.91517740      0.11219784      0.000236    -0.000077    -0.000146
O       2.30666306     -2.51887426      0.26022950     -0.000176    -0.000061     0.000012
N      -0.94941093      0.55813204     -0.24268206      0.000238     0.000043    -0.000128
N      -2.94736823     -2.40608053     -0.30124258      0.000118     0.000162    -0.000119
N       4.11164981     -1.38234761     -0.50370527     -0.000207     0.000303     0.000035
C       0.11316689      1.18816115      0.54684997      0.000106     0.000276     0.000203
C       1.24729588      0.21403012      0.81474522      0.000032    -0.000053     0.000089
C       1.92495140     -0.29363096     -0.46156587     -0.000020    -0.000086    -0.000048
C      -2.79436368     -1.01113895     -0.62321452      0.000141     0.000165    -0.000113
C      -1.80559101     -0.31652984      0.33852061      0.000093    -0.000348    -0.000001
C       0.59505492      2.45834947     -0.09403497     -0.000173    -0.000203    -0.000009
C      -4.18559083     -0.33254064     -0.55239381      0.000007    -0.000021     0.000254
C       2.79659068     -1.51347463     -0.18656459     -0.000021    -0.000013     0.000090
H      -0.36992917      1.43358530      1.50472940      0.000073    -0.000711     0.000774
H       0.83148641     -0.64312213      1.34860993     -0.000008     0.000509     0.000280
H       1.98681209      0.69669874      1.47496071     -0.000556    -0.000295    -0.000407
H       1.18077031     -0.65191358     -1.17052111      0.000315     0.000352     0.000442
H       2.51740750      0.50444693     -0.95889546     -0.000427     0.000373     0.000672
H      -0.97718445      0.65105569     -1.24565725     -0.000753     0.000333    -0.000486
H      -2.38195796     -0.93874196     -1.64102701     -0.001023    -0.000189    -0.000033
H      -4.14187317      0.72639001     -0.81126059     -0.000263    -0.000575     0.001479
H      -4.59923478     -0.43570725      0.44630415      0.000516    -0.000174     0.000531
H      -4.84562602     -0.84416362     -1.27407214     -0.001065    -0.000094    -0.001575
H      -3.03072412     -2.49903587      0.71163161     -0.000193    -0.000750     0.000107
H      -2.08702031     -2.87851000     -0.54890178      0.000197    -0.000588    -0.000513
H       0.10091216      3.91292732     -1.15171345      0.000324    -0.000265    -0.000367
H       4.69282167     -2.19870463     -0.42207508     -0.000583     0.000390     0.000299
H       4.45109124     -0.54000003     -0.92783590     -0.000048     0.000040    -0.000012
30
Frame 33  Energy = -779.1139747024 Hartree
O      -0.22776170      2.96197385     -1.06224589      0.000304     0.000040    -0.000137
O      -1.69758533     -0.61610997      1.47104951      0.000025     0.000200     0.000051
O       1.66226366      2.95398003      0.14849289     -0.000336     0.000036    -0.000007
O       2.30707525     -2.54915254      0.20681084     -0.000008    -0.000037    -0.000092
N      -0.97661910      0.54764227     -0.31948335      0.000011    -0.000328     0.000046
N      -2.90393836     -2.32368936     -0.67509908     -0.000061     0.000075    -0.000295
N       4.15605741     -1.33754545     -0.21017249      0.000043     0.000018     0.000066
C       0.07920644      1.15453669      0.46678343     -0.000077     0.000018    -0.000177
C       1.24158231      0.17493775      0.74059749     -0.000074    -0.000018    -0.000169
C       1.98346729     -0.29552317     -0.49707956     -0.000077    -0.000172    -0.000004
C      -2.95371290     -0.86450728     -0.58654806      0.000087    -0.000164     0.000013
C      -1.81193195     -0.31398959      0.29501348      0.000035     0.000159     0.000134
C       0.62549047      2.43167893     -0.14512233      0.000254    -0.000011     0.000081
C      -4.27188803     -0.41321374      0.01807879      0.000033     0.000181     0.000371
C       2.81031276     -1.50627721     -0.12515982      0.000166     0.000102     0.000031
H      -0.28400220      1.48713502      1.45513956     -0.000562    -0.000935    -0.000255
H       0.82188718     -0.65094956      1.28862452     -0.000446    -0.000236    -0.000051
H       1.92286458      0.69910202      1.40539514      0.000209     0.000692     0.000503
H       1.26721119     -0.60427533     -1.25565523     -0.000730     0.000902     0.000624
H       2.58939632      0.48182638     -0.91806269     -0.000226     0.000400     0.000052
H      -1.26042420      0.99960674     -1.16405294     -0.000355    -0.000229     0.000235
H      -2.84595060     -0.45045549     -1.58139528     -0.000863    -0.000997    -0.000543
H      -4.29002925      0.70463283      0.09290634      0.000058     0.000039     0.000071
H      -4.35426589     -0.81371331      1.03292955      0.000347     0.000478    -0.000451
H      -5.09633168     -0.73030958     -0.57924989     -0.001063    -0.000572     0.000677
H      -2.92486966     -2.74015947      0.23918362     -0.000164    -0.000507    -0.000511
H      -2.08986228     -2.66665070     -1.15729001      0.000148    -0.000043    -0.000670
H       0.18477427      3.77327905     -1.39381137     -0.000976    -0.000754     0.001341
H       4.75480986     -2.09252440      0.07123603      0.000261     0.000033     0.000476
H       4.54674897     -0.42615703     -0.35831914      0.000544     0.000101     0.000638
30
Frame 34  Energy = -779.1162487716 Hartree
O       0.07302270      2.59857791     -1.30945836      0.000049    -0.000171    -0.000273
O      -1.87859010     -0.53541586      1.55483612     -0.000106     0.000099    -0.000076
O       1.62186351      2.94850233      0.28306244      0.000220    -0.000066     0.000310
O       2.49702141     -2.56522742     -0.14639019      0.000080    -0.000158    -0.000241
N      -1.01351470      0.56572683     -0.22405377     -0.000084    -0.000105    -0.000061
N      -2.92688290     -2.20688899     -0.66520641      0.000043    -0.000054     0.000175
N       4.18490308     -1.07847441     -0.03561417     -0.000098     0.000224     0.000041
C       0.09318584      1.11070531      0.53773700      0.000167     0.000350    -0.000032
C       1.21554983      0.09586053      0.77175140      0.000030    -0.000067     0.000314
C       1.91879560     -0.28956126     -0.52262034     -0.000086     0.000114     0.000060
C      -3.03962615     -0.77821903     -0.54308636     -0.000172     0.000130     0.000184
C      -1.94935370     -0.23478515      0.37547632      0.000123    -0.000017    -0.000020
C       0.68390369      2.32811763     -0.15149568     -0.000062    -0.000364     0.000045
C      -4.39622521     -0.45453946      0.06235472     -0.000113    -0.000253    -0.000264
C       2.89023993     -1.42027138     -0.22593977     -0.000132     0.000204    -0.000066
H      -0.27717205      1.45816194      1.49403267      0.000492    -0.000430     0.000108
H       0.77254156     -0.79397514      1.24096995      0.000584     0.000450    -0.000008
H       1.90489637      0.55822083      1.48680017     -0.000492     0.000195    -0.000054
H       1.15363773     -0.69713643     -1.20146542     -0.000540    -0.000624    -0.000281
H       2.40641422      0.57933621     -0.99628904      0.000498     0.000197    -0.000398
H      -1.07201804      0.69789300     -1.21959657     -0.000266     0.000035     0.000361
H      -2.91006022     -0.30856525     -1.52025171     -0.000415     0.000180    -0.000695
H      -4.58517515      0.61247922      0.13445801      0.000045     0.000598     0.000201
H      -4.46634183     -0.92421646      1.06536005      0.000308     0.000435    -0.000261
H      -5.14167117     -0.91191665     -0.54429654      0.000551     0.000448     0.000483
H      -3.11950805     -2.65915050      0.20759391      0.000085     0.000838     0.000499
H      -2.04481697     -2.53078174     -1.02865310     -0.000576    -0.000656     0.000033
H       0.57646626      3.29847525     -1.69418857      0.000457     0.000141     0.000047
H       4.81848764     -1.80773558      0.25423150      0.000273     0.000781     0.000067
H       4.49078399     -0.12276503      0.03395758      0.000002     0.000053    -0.000442
30
Frame 35  Energy = -779.1144889261 Hartree
O       0.24237835      2.58139122     -1.33837434     -0.000223    -0.000118     0.000163
O      -1.93038517     -0.40472164      1.60604827      0.000042     0.000067    -0.000165
O       1.51786957      2.99188960      0.46153634     -0.000024     0.000081    -0.000167
O       2.76347919     -2.66105408     -0.45709544      0.000175     0.000079    -0.000104
N      -1.02100365      0.54459644     -0.24531180      0.000027    -0.000068    -0.000019
N      -3.03112100     -2.31947768     -0.31160272     -0.000197     0.000017    -0.000025
N       4.06297932     -0.91214590      0.14294277      0.000135    -0.000278    -0.000008
C       0.06920458      1.08382433      0.50580148      0.000036    -0.000144     0.000104
C       1.21397582      0.05974348      0.70282446     -0.000210     0.000018     0.000045
C       1.82289766     -0.43660694     -0.61271078      0.000050    -0.000023    -0.000049
C      -3.02005513     -0.89414102     -0.49768782      0.000140    -0.000224    -0.000018
C      -1.94742533     -0.23830252      0.39291155     -0.000219    -0.000105    -0.000038
C       0.67118007      2.34190535     -0.10328545      0.000141     0.000317     0.000199
C      -4.37720807     -0.26783468     -0.18634594      0.000167     0.000170    -0.000082
C       2.90947448     -1.46086689     -0.32311683      0.000012     0.000160     0.000001
H      -0.26885164      1.34707110      1.52397952     -0.001016     0.000601    -0.000175
H       0.77696395     -0.75210794      1.29292156     -0.000150    -0.000298     0.000798
H       1.97759799      0.52251847      1.30918041      0.000069     0.000621    -0.000130
H       1.08015401     -0.90064414     -1.24509180     -0.000295     0.000897     0.000246
H       2.29542925      0.40259418     -1.16509318      0.000119    -0.001006     0.000203
H      -1.08720436      0.73188073     -1.23764177     -0.000172    -0.000973    -0.000340
H      -2.77624595     -0.64729393     -1.54909642      0.000453    -0.000922     0.000128
H      -4.38007460      0.79499584     -0.33774532     -0.000055     0.000315     0.000027
H      -4.62298876     -0.44710387      0.87331830     -0.000670    -0.000244     0.001207
H      -5.15686858     -0.70839246     -0.81506181      0.000918     0.000942     0.000611
H      -3.12075093     -2.55567258      0.67088560     -0.000326     0.000426    -0.000224
H      -2.20171489     -2.76314972     -0.68067067     -0.000388    -0.000084     0.001258
H       0.62026996      3.42235297     -1.65962777      0.001070     0.000876    -0.000724
H       4.86631020     -1.47981696      0.33177818      0.000272    -0.000174     0.000296
H       4.19349205      0.07941559      0.11963466     -0.000265    -0.000164    -0.000048
30
Frame 36  Energy = -779.1172732671 Hartree
O      -0.19095821      2.69974581     -1.20299982     -0.000030     0.000088     0.000218
O      -1.76249599     -0.70581641      1.58384012      0.000283    -0.000088    -0.000022
O       1.50282648      2.90006220      0.21550794     -0.000047    -0.000163    -0.000018
O       2.67639781     -2.50095711     -0.49476791      0.000043    -0.000045    -0.000012
N      -0.98889947      0.37014316     -0.24544746      0.000052    -0.000131    -0.000207
N      -3.51820082     -2.23542925     -0.13523660     -0.000345    -0.000052     0.000169
N       4.24980471     -1.05573300      0.25845071      0.000176    -0.000034    -0.000064
C       0.10222262      0.98906578      0.46427547     -0.000014     0.000065     0.000076
C       1.28945040      0.07949099      0.72971636     -0.000005     0.000177     0.000131
C       2.09900097     -0.21227136     -0.53333604      0.000010     0.000062     0.000072
C      -2.99852476     -0.93228269     -0.49084574      0.000054     0.000345    -0.000099
C      -1.86059137     -0.43818933      0.39791055      0.000053    -0.000185     0.000005
C       0.56583118      2.28152858     -0.17851683     -0.000465    -0.000028    -0.000199
C      -4.12045342      0.10336530     -0.42175488      0.000159    -0.000000    -0.000251
C       3.04553913     -1.35550258     -0.27454241     -0.000034     0.000002     0.000085
H      -0.27745220      1.25809353      1.44166263      0.001045     0.000410     0.000051
H       0.86051373     -0.82011932      1.16205744      0.000484    -0.000215    -0.000369
H       1.93063136      0.54380835      1.50135360     -0.001163     0.000320     0.000054
H       1.44176507     -0.54576182     -1.33820242      0.001162    -0.000772     0.000308
H       2.58170268      0.69409857     -0.84555120      0.000277    -0.000194    -0.000420
H      -1.10060912      0.57411374     -1.21953703      0.000201     0.000442    -0.000461
H      -2.56664428     -0.96956828     -1.49415684     -0.000454    -0.000192     0.000524
H      -3.77195926      1.11140547     -0.69644102     -0.000040    -0.000239    -0.000131
H      -4.50585916      0.11522486      0.57616772      0.000009     0.000800     0.000195
H      -4.97668430     -0.19888598     -1.08275097     -0.000165     0.000419     0.000314
H      -3.82918976     -2.23119840      0.84112068      0.000564     0.000474     0.000202
H      -2.82979506     -2.97404167     -0.23138918     -0.000288     0.000156     0.000017
H       0.17505548      3.60448558     -1.41517234     -0.000687    -0.000057     0.000205
H       4.82218038     -1.82877069      0.56770839     -0.000327    -0.000223     0.000353
H       4.50278517     -0.12003153      0.52774330     -0.000047    -0.000019     0.000086
30
Frame 37  Energy = -779.1125685069 Hartree
O      -0.47264944      2.77122199     -0.92120057      0.000112     0.000041     0.000074
O      -1.73739911     -0.87639997      1.49649968     -0.000099     0.000099     0.000075
O       1.52302944      2.88169260      0.12110390     -0.000087    -0.000332    -0.000001
O       2.85152853     -2.59474867     -0.27856713      0.000075     0.000026    -0.000010
N      -0.91449069      0.31336898     -0.25326423     -0.000215     0.000089    -0.000119
N      -3.76596614     -2.04487837      0.03515573     -0.000097    -0.000150    -0.000073
N       4.28777139     -0.88675836      0.11881970      0.000088     0.000268    -0.000162
C       0.13505185      0.93887408      0.49045478      0.000401    -0.000280    -0.000046
C       1.38598887      0.07115484      0.69008027     -0.000112    -0.000011     0.000117
C       2.06666399     -0.35316084     -0.60782741      0.000001    -0.000097     0.000251
C      -3.01720615     -0.94552754     -0.51946856     -0.000108     0.000293     0.000024
C      -1.82716022     -0.49899595      0.34382295      0.000027     0.000159     0.000116
C       0.49526358      2.27805471     -0.11691565     -0.000001     0.000015    -0.000012
C      -3.96237293      0.25547392     -0.69697492      0.000055    -0.000104     0.000033
C       3.09201205     -1.40091837     -0.26231276      0.000053    -0.000132    -0.000001
H      -0.28001455      1.21596993      1.46424325     -0.000888     0.000975    -0.000177
H       1.06276695     -0.82773046      1.20095589     -0.000275     0.000707     0.001012
H       2.09399115      0.57768210      1.33906349      0.001071     0.000455    -0.000221
H       1.32669911     -0.79667544     -1.28579264     -0.000568    -0.000544    -0.000336
H       2.54683829      0.50566882     -1.09631332      0.000074     0.000253     0.000098
H      -1.17098070      0.72367206     -1.13098540      0.000165     0.000485     0.000349
H      -2.64480727     -1.25260297     -1.49107807      0.000216    -0.000650    -0.000522
H      -3.42544768      1.09781113     -1.12637687     -0.000541     0.000595    -0.000399
H      -4.35199331      0.59294085      0.26497060      0.000527     0.000335    -0.001733
H      -4.79058918     -0.00490422     -1.37716494     -0.000648    -0.000054    -0.001017
H      -4.04743402     -1.80969601      0.98980613      0.000694     0.000075     0.000254
H      -3.12717378     -2.83604561      0.11872692      0.000342    -0.000287     0.000305
H      -0.16217841      3.61957099     -1.25440957     -0.001263    -0.001040     0.000794
H       4.92663190     -1.51789132      0.56410432      0.000176     0.000073    -0.000810
H       4.42534865      0.09999871      0.20961230      0.000225     0.000250    -0.000609
30
Frame 38  Energy = -779.1162534691 Hartree
O      -0.28882355      2.76448571     -0.83079296     -0.000065    -0.000018    -0.000018
O      -2.15235614     -0.40928975      1.59066070     -0.000249     0.000176    -0.000117
O       1.69202714      2.63349536      0.19661845     -0.000010    -0.000071     0.000152
O       3.21730946     -2.49931871     -0.06005267      0.000160     0.000194     0.000040
N      -0.98771006      0.28951395     -0.19182070     -0.000005     0.000114    -0.000032
N      -3.71924172     -2.11719146     -0.05101559      0.000006     0.000152    -0.000113
N       4.36236225     -0.56741369     -0.28410618      0.000197     0.000040    -0.000196
C       0.12627957      0.80477491      0.56815003     -0.000188    -0.000229    -0.000205
C       1.29438563     -0.17379447      0.69767915      0.000053    -0.000122     0.000146
C       1.92759687     -0.56141240     -0.63806451     -0.000223    -0.000176     0.000177
C      -3.08438821     -0.90741692     -0.55676539      0.000125     0.000045     0.000042
C      -2.03909922     -0.34460998      0.38440582     -0.000066     0.000190     0.000039
C       0.62538851      2.14728471     -0.01055216     -0.000057     0.000028    -0.000099
C      -4.14679912      0.16124211     -0.79836185      0.000243    -0.000037     0.000256
C       3.21908827     -1.31422463     -0.32548387      0.000126    -0.000119    -0.000085
H      -0.23422592      1.05691052      1.58677091     -0.000017    -0.000939    -0.000103
H       0.91887161     -1.09626946      1.18628237      0.000467    -0.000238    -0.000599
H       2.07268808      0.24725096      1.33561639     -0.000670    -0.000208     0.000367
H       1.34196257     -1.23742956     -1.24656993      0.000748    -0.000289     0.000125
H       2.16119427      0.33428510     -1.24097129     -0.000268    -0.000937     0.000106
H      -0.87494713      0.19850771     -1.19442598      0.000548    -0.000218     0.000105
H      -2.61425090     -1.16428464     -1.52469114     -0.000771    -0.000998    -0.000379
H      -3.69516089      1.07522292     -1.14560870     -0.001109    -0.000621     0.000277
H      -4.70699939      0.35289680      0.14561078     -0.000963    -0.000120    -0.000149
H      -4.83896599     -0.19534543     -1.52839200     -0.000723    -0.000253    -0.000210
H      -4.04729541     -1.92818727      0.89284785      0.000411     0.000331     0.000547
H      -2.99690109     -2.82354287      0.09355301      0.000295    -0.000044     0.000106
H       0.11822787      3.57962882     -1.08195362      0.001388     0.000106     0.000343
H       5.20342434     -1.04834402     -0.00539531      0.000557     0.000369    -0.000196
H       4.39807582      0.40528607     -0.53879351     -0.000198     0.000366     0.000264
30
Frame 39  Energy = -779.1135573374 Hartree
O      -0.32495921      2.56273445     -0.81782492     -0.000226    -0.000222    -0.000013
O      -2.33644247     -0.10989288      1.60363333     -0.000072    -0.000014    -0.000195
O       1.64117602      2.53029516      0.20588209      0.000271     0.000114    -0.000104
O       3.50355782     -2.44301024     -0.03235786     -0.000004    -0.000125    -0.000083
N      -0.92441426      0.05032525     -0.15689126      0.000119    -0.000131    -0.000041
N      -3.77375379     -2.05937695     -0.17285004     -0.000027    -0.000138     0.000049
N       4.38834236     -0.38007444     -0.39270221     -0.000148     0.000189     0.000033
C       0.15963017      0.65539393      0.58970083     -0.000193     0.000137     0.000384
C       1.36807518     -0.26144178      0.73960589      0.000250     0.000051    -0.000054
C       2.00778410     -0.65477948     -0.60604471      0.000322     0.000147    -0.000115
C      -3.19070326     -0.76672745     -0.57607693     -0.000297     0.000277    -0.000065
C      -2.13148629     -0.24529056      0.41178296     -0.000130    -0.000108    -0.000049
C       0.58056363      1.99380121     -0.00348585     -0.000065    -0.000265     0.000086
C      -4.26868176      0.28022714     -0.73151213      0.000115    -0.000005    -0.000026
C       3.37429439     -1.28577398     -0.34230755      0.000360    -0.000107     0.000089
H      -0.27449209      0.83213885      1.56489132     -0.001022    -0.000178    -0.000224
H       1.06072466     -1.16365624      1.24509593     -0.000794    -0.000106     0.000856
H       2.10056514      0.23086027      1.36880039      0.000547    -0.000316    -0.000100
H       1.42780779     -1.42774232     -1.11713282     -0.000342     0.000644     0.000883
H       2.10552563      0.19472037     -1.25960801     -0.000029     0.000084    -0.000077
H      -0.86280251     -0.00523616     -1.15719652     -0.000020     0.000342    -0.000480
H      -2.70033128     -0.91198580     -1.55222612     -0.000890    -0.000355     0.000653
H      -3.79406411      1.25517159     -1.01135300     -0.000414     0.000387     0.000361
H      -4.79770797      0.41027492      0.21025603     -0.000130     0.000951     0.000876
H      -4.94197454     -0.02642885     -1.49578567      0.000410     0.000471     0.000066
H      -4.10040955     -1.95337600      0.77885911     -0.000720     0.000764     0.000170
H      -3.04213456     -2.75413655     -0.14232361     -0.000236    -0.000424     0.000300
H       0.02926420      3.42326645     -1.12057669      0.000664     0.001076    -0.000404
H       5.31502600     -0.66600872     -0.12976450     -0.000366     0.000127    -0.000165
H       4.23054366      0.57934638     -0.64406452      0.000316     0.000050     0.000003
30
Frame 40  Energy = -779.1141925837 Hartree
O      -0.54438177      2.52628751     -0.70226207     -0.000054     0.000060     0.000004
O      -2.24109181     -0.23444367      1.63033754      0.000228    -0.000037    -0.000107
O       1.55167510      2.48267915      0.07740326     -0.000118    -0.000146    -0.000118
O       3.62990753     -2.43880347     -0.28254741      0.000036     0.000067    -0.000177
N      -0.90753577     -0.06767626     -0.21162978     -0.000020     0.000037     0.000037
N      -4.11291254     -1.79322336      0.05275820     -0.000124     0.000183     0.000130
N       4.42866160     -0.31999702     -0.01467146      0.000079    -0.000117     0.000216
C       0.16485084      0.59656984      0.47640162     -0.000336    -0.000070     0.000072
C       1.43916596     -0.26309888      0.66916310      0.000019    -0.000070     0.000039
C       2.12669417     -0.64341629     -0.65414263     -0.000127    -0.000060     0.000076
C      -3.21359804     -0.80518670     -0.51778802      0.000130    -0.000023     0.000070
C      -2.09373530     -0.35197913      0.42558499      0.000097    -0.000106     0.000020
C       0.48758409      1.94279086     -0.07716874      0.000152     0.000166    -0.000065
C      -4.03428299      0.43578838     -0.91464574      0.000092    -0.000122    -0.000199
C       3.47071964     -1.24795270     -0.32913421      0.000005     0.000327     0.000107
H      -0.23616194      0.78251662      1.48668553      0.000252    -0.001012     0.000835
H       1.16638279     -1.14603250      1.25878403      0.000129     0.000039    -0.000664
H       2.12098788      0.35333258      1.28295284     -0.000808     0.000150     0.000441
H       1.51355688     -1.38101110     -1.18576932     -0.000382    -0.000619    -0.000830
H       2.24390213      0.24613901     -1.28309272     -0.000905     0.000731    -0.000019
H      -0.84949485     -0.16823056     -1.20704052      0.000631     0.000193     0.000401
H      -2.79708151     -1.23254011     -1.42128276     -0.001243    -0.001078     0.000144
H      -3.45374228      1.21867989     -1.42582115      0.000846     0.000507    -0.001116
H      -4.47583828      0.86634977     -0.01909990      0.000129     0.000287    -0.000853
H      -4.83168672      0.06769836     -1.57250071      0.000653     0.000984     0.001184
H      -4.37158045     -1.48187069      0.98038823      0.000076    -0.000108     0.000089
H      -3.57225251     -2.62686558      0.21118586     -0.000821    -0.000172     0.000282
H      -0.27559353      3.43626303     -1.00173023     -0.000330    -0.000336     0.000282
H       5.32829347     -0.60553997      0.32316336      0.000429    -0.000737    -0.000710
H       4.21104735      0.65749626      0.04246811      0.000434     0.000131     0.000077
30
Frame 41  Energy = -779.1155002154 Hartree
O      -0.58380511      2.48763976     -0.71464200      0.000073     0.000036     0.000059
O      -2.23176354     -0.30421819      1.69897546      0.000050     0.000178     0.000026
O       1.49960653      2.54778220      0.09672715     -0.000010    -0.000057     0.000244
O       3.65828429     -2.39441563     -0.58194548      0.000042    -0.000184    -0.000137
N      -0.89979745     -0.08140977     -0.13845235      0.000042    -0.000102    -0.000082
N      -4.28559530     -1.53857820      0.21532511      0.000162     0.000088    -0.000037
N       4.35513651     -0.34734927      0.07075095     -0.000124     0.000070    -0.000247
C       0.16776651      0.59489117      0.57136387      0.000232     0.000006    -0.000275
C       1.41010809     -0.25072201      0.73929071      0.000004     0.000260     0.000108
C       2.04964839     -0.63087395     -0.60169023     -0.000103     0.000215     0.000171
C      -3.15255212     -0.90929122     -0.47431600     -0.000077    -0.000044     0.000175
C      -2.06919041     -0.41987672      0.49827604     -0.000115     0.000058     0.000130
C       0.47020304      1.96451931     -0.02438153      0.000074    -0.000336     0.000145
C      -3.63657082      0.27175766     -1.28987240     -0.000155    -0.000132    -0.000241
C       3.42603991     -1.21830791     -0.39278945     -0.000085     0.000102     0.000023
H      -0.22869060      0.81800373      1.57162033     -0.000668     0.000144    -0.001002
H       1.17825683     -1.15848253      1.28757340     -0.000065     0.000316     0.000539
H       2.05362639      0.35310105      1.35614539      0.000439     0.000646    -0.000006
H       1.44247613     -1.37132864     -1.09952481      0.000119     0.000378     0.000263
H       2.08729942      0.27903157     -1.23994794      0.000395    -0.000323     0.000814
H      -0.90106558     -0.04232336     -1.15086588     -0.000007    -0.000218    -0.000115
H      -2.68293647     -1.63797696     -1.14070008      0.000090    -0.001457     0.000615
H      -2.86033926      0.71008075     -1.85782206      0.000028     0.000212    -0.000232
H      -4.05806050      1.02206989     -0.61526833      0.000554     0.000587    -0.000187
H      -4.46413308     -0.05002980     -1.96381556      0.000354     0.000273    -0.000142
H      -4.65807086     -0.85838515      0.86639686      0.000280    -0.000108    -0.000724
H      -3.98289816     -2.30536214      0.80348841     -0.000281    -0.000289    -0.000531
H      -0.27795686      3.36840707     -0.95881597     -0.001093    -0.001523    -0.000572
H       5.31636635     -0.64150802      0.14767420     -0.000301    -0.000290     0.000037
H       4.13447511      0.63152551      0.17693558     -0.000737    -0.000213     0.000469
30
Frame 42  Energy = -779.1139151380 Hartree
O      -0.48163291      2.31368323     -0.67705798     -0.000008    -0.000197     0.000122
O      -2.50427511      0.28023333      1.47082710      0.000169     0.000340    -0.000242
O       1.45564912      2.54049462      0.39673552      0.000012     0.000038     0.000164
O       3.59910682     -2.40294983     -0.52029928      0.000011     0.000073     0.000048
N      -0.85438684     -0.23634651      0.02719133      0.000033    -0.000236     0.000218
N      -4.18516061     -1.64358430      0.24296024      0.000048     0.000034     0.000193
N       4.46163815     -0.30528215     -0.25639253      0.000258    -0.000033    -0.000081
C       0.18165918      0.49101979      0.72855993     -0.000029     0.000225    -0.000258
C       1.48869197     -0.29247440      0.72852403     -0.000109    -0.000091     0.000081
C       2.08872811     -0.52510487     -0.68247716     -0.000257    -0.000031     0.000161
C      -3.12727559     -0.95890831     -0.48087652      0.000192     0.000147    -0.000232
C      -2.15488855     -0.26226650      0.44514115     -0.000106    -0.000026    -0.000011
C       0.46081283      1.88616100      0.16090925     -0.000044    -0.000273     0.000162
C      -3.72938148      0.11666626     -1.38439150     -0.000081    -0.000150    -0.000136
C       3.43820380     -1.19376683     -0.49657755     -0.000144     0.000203    -0.000036
H      -0.17634680      0.65542675      1.74137964     -0.000612    -0.000239    -0.000154
H       1.31771251     -1.26828751      1.20497755      0.000430    -0.000051    -0.000107
H       2.25399266      0.22738481      1.32208449     -0.000241    -0.000081    -0.000817
H       1.47014570     -1.21800651     -1.24995549      0.001263     0.000145    -0.000167
H       2.23693707      0.38174028     -1.23676725      0.000447    -0.000380    -0.000164
H      -0.63810694     -0.61529812     -0.87399949      0.000241     0.000421    -0.000327
H      -2.58958760     -1.70833801     -1.10203108      0.000057     0.000128    -0.000034
H      -2.95964775      0.70485494     -1.87844601     -0.000909    -0.000325     0.000650
H      -4.27840828      0.82172851     -0.77134287      0.000157     0.000152     0.000851
H      -4.39025610     -0.33185789     -2.15679237     -0.001438     0.000026    -0.000918
H      -4.64766362     -0.95077742      0.82204890      0.000454    -0.000225     0.000128
H      -3.82080700     -2.38108427      0.84444668     -0.001124    -0.000486    -0.000366
H      -0.26149726      3.18540124     -0.96288553     -0.000254     0.000462     0.000115
H       5.38620861     -0.62033978     -0.03725997      0.000205    -0.000291    -0.000490
H       4.25492835      0.67494860     -0.25354364      0.000582    -0.000092    -0.001054
30
Frame 43  Energy = -779.1143665618 Hartree
O      -0.51609644      2.12189444     -0.67271659      0.000162    -0.000229    -0.000152
O      -2.49076735      0.60414939      1.22380661      0.000086    -0.000151     0.000079
O       1.19885836      2.52245880      0.72101095     -0.000214    -0.000033    -0.000011
O       3.57149400     -2.31891415     -0.29510703      0.000138     0.000076     0.000074
N      -0.82511582     -0.40713269      0.07586670      0.000138     0.000081    -0.000074
N      -4.14496575     -1.53852546      0.33593566      0.000091     0.000098     0.000031
N       4.63730610     -0.35563984     -0.61371467     -0.000295    -0.000130    -0.000274
C       0.21798693      0.32083758      0.75386440      0.000157     0.000027     0.000323
C       1.53563668     -0.39438895      0.69488297     -0.000067    -0.000093    -0.000070
C       2.17343798     -0.43131089     -0.68945367      0.000146     0.000239     0.000055
C      -3.15320132     -0.90783449     -0.48749035     -0.000096    -0.000305    -0.000085
C      -2.13321681     -0.16761163      0.35913024     -0.000189    -0.000044    -0.000149
C       0.37404716      1.77794089      0.25198122      0.000213     0.000143     0.000228
C      -3.80166910      0.11059100     -1.43842862      0.000033     0.000275     0.000002
C       3.50284418     -1.11770554     -0.53428730     -0.000084    -0.000023     0.000044
H      -0.08730123      0.45467074      1.80225241     -0.000051     0.000576     0.000235
H       1.46799480     -1.41121286      1.03930739      0.000322    -0.000453    -0.000268
H       2.22360803      0.13092398      1.34313690     -0.000474     0.000571     0.000745
H       1.60918075     -1.05058238     -1.39767159     -0.001160     0.000127    -0.000650
H       2.28229793      0.56862195     -1.11439423     -0.000212     0.000655     0.000082
H      -0.59705379     -0.98556786     -0.71335094      0.000674     0.000019     0.000611
H      -2.67446734     -1.71268627     -1.04419567     -0.000951    -0.000278     0.000579
H      -3.01519185      0.61201761     -2.05117150     -0.000016    -0.000124     0.000146
H      -4.35304154      0.85948393     -0.88361530      0.000433    -0.000548    -0.001001
H      -4.51397250     -0.36353254     -2.09830885     -0.000751    -0.000185    -0.000910
H      -4.53180083     -0.84679224      0.98366762      0.000008     0.000235    -0.000005
H      -3.76400419     -2.28686482      0.91198628     -0.000503     0.000569     0.000565
H      -0.37652873      3.06756841     -0.89669896     -0.000217     0.001267    -0.000540
H       5.50707470     -0.81478272     -0.38761500     -0.000306    -0.000447     0.000184
H       4.59520310      0.64837660     -0.65965162      0.000078     0.000052     0.000673
30
Frame 44  Energy = -779.1177695492 Hartree
O      -0.20889771      1.96160187     -0.90794484     -0.000120     0.000070     0.000089
O      -2.48363169      0.42634231      1.45348006     -0.000035    -0.000065    -0.000071
O       0.90166436      2.63152616      0.93713889     -0.000151     0.000109     0.000228
O       3.42649854     -2.28488430     -0.26904671     -0.000224     0.000175    -0.000083
N      -0.81747888     -0.42039860      0.19130884      0.000019    -0.000087    -0.000008
N      -4.33227427     -1.35340638      0.21518629     -0.000053     0.000163     0.000008
N       4.56971219     -0.46506456     -0.93106562      0.000020    -0.000090    -0.000135
C       0.20184822      0.37087621      0.84575949     -0.000062     0.000129     0.000076
C       1.57530843     -0.25076780      0.74945588      0.000342     0.000019     0.000339
C       2.18343838     -0.26061491     -0.64095933     -0.000040     0.000004    -0.000121
C      -3.08982480     -0.93752412     -0.44347023      0.000049     0.000086    -0.000181
C      -2.12622847     -0.24348884      0.50875437      0.000012    -0.000134    -0.000004
C       0.31279797      1.79783248      0.31916549      0.000007    -0.000056    -0.000317
C      -3.40064546     -0.02057095     -1.61817942      0.000192    -0.000132     0.000138
C       3.42783672     -1.11180569     -0.60001415      0.000028    -0.000137     0.000066
H      -0.11383607      0.49358872      1.86968850      0.000454    -0.000628     0.000488
H       1.50309068     -1.29668558      1.09824428      0.000131     0.000337     0.000420
H       2.26538199      0.27180345      1.43651127      0.000094    -0.000172     0.000407
H       1.46186459     -0.68870488     -1.35160163     -0.000251     0.000206     0.001104
H       2.39496844      0.78179374     -0.95644932      0.000324    -0.000245    -0.000489
H      -0.59068207     -0.92203594     -0.65779762     -0.000236     0.000027    -0.000335
H      -2.61203601     -1.83417597     -0.80185944     -0.000060    -0.000782    -0.000093
H      -2.50032699      0.32274342     -2.12209754      0.000250     0.000377    -0.000544
H      -3.87117602      0.90581010     -1.22480253      0.001064    -0.000454     0.000026
H      -4.03572517     -0.48260960     -2.32464889      0.000522    -0.000295     0.000346
H      -4.77872735     -0.55742952      0.67238547      0.000182     0.000984    -0.000334
H      -4.19411213     -2.07108608      0.91447137     -0.000363    -0.000066     0.000309
H      -0.05194161      2.92069525     -1.12829780      0.000117    -0.000916    -0.000860
H       5.41094462     -1.01268475     -1.00322749      0.000163     0.000586    -0.000153
H       4.55669518      0.43812297     -1.36512155     -0.000094    -0.000704    -0.000941
30
Frame 45  Energy = -779.1144717931 Hartree
O      -0.51975926      1.96752868     -0.63988470      0.000047     0.000152     0.000048
O      -2.46574675      0.67055645      1.18651304      0.000068     0.000277    -0.000053
O       0.83292940      2.65584690      1.00003535      0.000061    -0.000049    -0.000034
O       3.26189944     -2.22816685     -0.26826508      0.000107     0.000026    -0.000129
N      -0.71976546     -0.53069138      0.39958120     -0.000098    -0.000060    -0.000054
N      -4.31882204     -1.16493054      0.11352787     -0.000003    -0.000064    -0.000064
N       4.50381279     -0.68386524     -1.34390687     -0.000234     0.000033    -0.000193
C       0.23640158      0.35555626      1.00919076     -0.000033    -0.000232     0.000283
C       1.66296187     -0.18372250      0.87274912     -0.000217     0.000017     0.000119
C       2.21845182     -0.13625735     -0.56140949     -0.000070     0.000180     0.000115
C      -2.99057899     -1.03500057     -0.42711536      0.000211     0.000086    -0.000077
C      -2.04515657     -0.21757409      0.46969177     -0.000044     0.000023    -0.000004
C       0.18578273      1.76392829      0.48822955     -0.000056     0.000131     0.000053
C      -3.03492216     -0.30645086     -1.78886160      0.000188    -0.000503    -0.000181
C       3.37523217     -1.10077094     -0.68702462     -0.000151    -0.000188     0.000003
H       0.04343648      0.41123034      2.08961298      0.000917    -0.000274     0.000012
H       1.66046743     -1.19620319      1.23669593     -0.000537     0.000396     0.000956
H       2.30215691      0.39492986      1.51027609     -0.000294     0.000686    -0.000154
H       1.47046444     -0.51944798     -1.25321661      0.000116     0.000542     0.000458
H       2.46696971      0.86197802     -0.86223611     -0.000190    -0.000239     0.000084
H      -0.40407837     -1.17837476     -0.29517271      0.000804     0.000041     0.000119
H      -2.64632663     -2.07662413     -0.57382338     -0.000429    -0.000026    -0.000894
H      -2.05163777     -0.23834152     -2.24916645      0.000107    -0.000998    -0.000076
H      -3.39144703      0.72844621     -1.66232140     -0.000541     0.000988    -0.000379
H      -3.70517371     -0.80082649     -2.47968157      0.000489     0.000782     0.000875
H      -4.64870886     -0.24344231      0.37027405      0.000152     0.000114     0.000898
H      -4.29997823     -1.70809762      0.96660892      0.000455    -0.000070     0.000607
H      -0.46387221      2.91341861     -0.77270425      0.001089    -0.001208     0.000751
H       5.33793549     -1.24076687     -1.26521466     -0.000221    -0.000309     0.000183
H       4.65923752      0.29230029     -1.51506379      0.000273     0.000163    -0.000185
30
Frame 46  Energy = -779.1140898030 Hartree
O      -0.06437215      2.04232736     -0.62737280      0.000001     0.000085     0.000118
O      -2.53649990      0.77924994      0.99393580      0.000031     0.000020    -0.000045
O       0.67818221      2.75869059      1.32724661     -0.000339    -0.000100     0.000071
O       3.17370159     -2.23748338     -0.30610284     -0.000093    -0.000042    -0.000060
N      -0.72663032     -0.42020196      0.36991742      0.000203     0.000080     0.000033
N      -4.30783053     -1.15303392      0.10882697     -0.000004     0.000102     0.000019
N       4.24185021     -0.72635509     -1.57605423     -0.000094     0.000015    -0.000098
C       0.23031218      0.40507110      1.09088823     -0.000052    -0.000138    -0.000161
C       1.62826896     -0.19533373      0.90986290      0.000397     0.000226     0.000013
C       2.19244478     -0.03330908     -0.50090223      0.000084    -0.000246     0.000117
C      -2.91874183     -1.15934856     -0.37302573     -0.000032    -0.000099    -0.000114
C      -2.05514044     -0.17556922      0.41835760      0.000224     0.000144    -0.000191
C       0.27941961      1.86088807      0.65921405     -0.000199    -0.000056    -0.000158
C      -2.87650491     -0.76371810     -1.84078240     -0.000062    -0.000082     0.000029
C       3.23105705     -1.12320539     -0.76561019      0.000194    -0.000177     0.000081
H      -0.01710583      0.41481484      2.14720072     -0.000763     0.000680     0.000055
H       1.57604378     -1.27819177      1.15980949      0.000242    -0.000052     0.000086
H       2.28219819      0.27571014      1.65688420      0.000049    -0.000284     0.000309
H       1.40753786     -0.09828518     -1.24007734     -0.001131     0.000345     0.000048
H       2.64176087      0.96249190     -0.62037074      0.000077     0.000140    -0.000142
H      -0.42369930     -1.29562670     -0.03574289     -0.000417     0.000241     0.000018
H      -2.56870020     -2.19855006     -0.24914369     -0.000439     0.000696     0.001138
H      -1.85372406     -0.80672836     -2.25605174      0.000126    -0.000162    -0.000846
H      -3.25958063      0.22408208     -1.99666031      0.000270    -0.000051    -0.000297
H      -3.52209630     -1.45902438     -2.43940319      0.000586    -0.000437     0.000870
H      -4.60446801     -0.19282203      0.15404724      0.000762     0.000427     0.000525
H      -4.35617778     -1.46503079      1.07061730      0.000846     0.000179     0.000138
H       0.06790903      2.97092741     -0.78931076     -0.000659     0.001686     0.001591
H       4.87764269     -1.43527197     -1.91177492     -0.000547    -0.000360     0.000447
H       4.18922486      0.13805540     -2.08855418     -0.000713    -0.000117    -0.000076
30
Frame 47  Energy = -779.1190481757 Hartree
O      -0.04696920      2.03586169     -0.63409058      0.000147    -0.000113    -0.000077
O      -2.43633007      0.80989900      0.93505551     -0.000082    -0.000119     0.000155
O       0.31708008      2.80860451      1.46803017      0.000066     0.000088    -0.000070
O       2.96542987     -2.27018436     -0.35668634     -0.000048    -0.000183    -0.000155
N      -0.62336761     -0.44091943      0.40043153      0.000042     0.000134     0.000086
N      -4.22385981     -1.12264451      0.07406222      0.000099    -0.000076     0.000116
N       4.17568972     -0.89272284     -1.68853189     -0.000137     0.000114    -0.000062
C       0.31682156      0.42518417      1.13368075     -0.000009     0.000233     0.000127
C       1.74586940     -0.06452965      0.95545796     -0.000288    -0.000134     0.000098
C       2.21020883     -0.03546356     -0.50772736     -0.000035     0.000117     0.000251
C      -2.80913126     -1.16986905     -0.37286608      0.000293     0.000023    -0.000009
C      -1.95203081     -0.17752778      0.40612692      0.000070    -0.000041    -0.000062
C       0.17897951      1.88414493      0.69895583     -0.000124     0.000027    -0.000131
C      -2.77166926     -0.76899737     -1.82813991      0.000121     0.000142    -0.000073
C       3.16518961     -1.17341358     -0.81788705     -0.000271    -0.000033    -0.000045
H       0.02037883      0.43787459      2.18961500      0.000423    -0.000012     0.000196
H       1.83389748     -1.05252369      1.35382553     -0.000895     0.000261     0.000227
H       2.36877103      0.58362796      1.57208331     -0.000136    -0.000427    -0.000200
H       1.30386675     -0.16881687     -1.15259081      0.000439    -0.000854    -0.000180
H       2.59577241      0.94821170     -0.78100907     -0.000043     0.000167    -0.000208
H      -0.28722659     -1.31244398      0.02710516      0.000062    -0.000198    -0.000158
H      -2.46468802     -2.18564811     -0.26400579      0.000066    -0.000198    -0.000913
H      -1.78147414     -0.70916204     -2.22999245      0.000718     0.000342     0.000444
H      -3.18930803      0.23314430     -1.94728411      0.000153    -0.001272    -0.000040
H      -3.33922935     -1.50413261     -2.43034689     -0.000068    -0.000132    -0.001201
H      -4.42425010     -0.13787438      0.19623726      0.000815    -0.000131     0.000203
H      -4.28933526     -1.51732534      1.00282303      0.000188     0.000381    -0.000192
H      -0.13673974      2.99686972     -0.85759455      0.000165     0.000711    -0.000365
H       4.85005824     -1.62589882     -1.79858149     -0.000122    -0.000072     0.000842
H       4.41885714      0.05115648     -1.91658740     -0.000254     0.000244     0.000057
30
Frame 48  Energy = -779.1150158509 Hartree
O      -0.44167434      2.00513932     -0.55176524     -0.000163     0.000190     0.000029
O      -2.37748515      0.64795287      1.07557395      0.000037    -0.000321     0.000035
O       0.70501077      2.85628162      1.19169015     -0.000002    -0.000008    -0.000094
O       2.54890875     -2.27488078     -0.48959872     -0.000142    -0.000093    -0.000205
N      -0.53257366     -0.43640515      0.42001684     -0.000103     0.000129    -0.000190
N      -4.05957344     -1.36332303     -0.00292484      0.000169     0.000005     0.000171
N       4.12153453     -1.00556763     -1.51670052     -0.000093    -0.000288     0.000199
C       0.27917545      0.50570045      1.16347197      0.000056     0.000035    -0.000086
C       1.76443457      0.07042328      1.08748316      0.000068     0.000158     0.000097
C       2.30626688      0.13857177     -0.34869660     -0.000154     0.000247     0.000145
C      -2.70123025     -1.16068888     -0.49368342      0.000056     0.000025    -0.000017
C      -1.87120769     -0.24631280      0.41954297      0.000179    -0.000281    -0.000004
C       0.19588599      1.93265701      0.63620824      0.000208     0.000212     0.000012
C      -2.68179632     -0.58053511     -1.90981867      0.000177     0.000091    -0.000046
C       2.97007990     -1.17851983     -0.77671559     -0.000067     0.000096     0.000115
H      -0.00203240      0.51413039      2.21190909     -0.000925    -0.000097    -0.000351
H       1.84207614     -0.96672633      1.46963681      0.000003    -0.000031    -0.000010
H       2.34236179      0.74199501      1.73098624      0.000775     0.000708     0.000112
H       1.51813678      0.33504417     -1.05957534      0.000973     0.000348    -0.000015
H       3.05562203      0.92628360     -0.47028282      0.000112    -0.001053     0.000500
H      -0.08513740     -1.21517794     -0.04180319     -0.000275     0.000853    -0.000725
H      -2.28513391     -2.16882058     -0.50914857      0.000273    -0.000581    -0.000046
H      -1.67816921     -0.45985642     -2.28954871     -0.001051     0.000139     0.000571
H      -3.20649895      0.38789868     -1.96188820      0.000063     0.000883     0.000106
H      -3.23321066     -1.21973808     -2.57883875     -0.000652    -0.000388    -0.001057
H      -4.37474574     -0.44615893      0.32819984      0.000053    -0.000382    -0.000233
H      -4.01973368     -1.90263177      0.85521093     -0.000082     0.000398    -0.000014
H      -0.37768974      2.93920977     -0.83994801     -0.000598    -0.001408    -0.000016
H       4.49513418     -1.81514281     -1.99209867     -0.000174    -0.000175    -0.000250
H       4.36742261     -0.08147334     -1.83353845     -0.000070    -0.000329     0.000059
30
Frame 49  Energy = -779.1053014749 Hartree
O      -0.30981404      2.14546975     -0.64197019      0.000066    -0.000082    -0.000023
O      -2.34068798      0.39300297      1.13360806     -0.000239     0.000192    -0.000030
O       0.64605767      3.03540774      1.19592239      0.000021     0.000230     0.000164
O       1.48553655     -1.67220886     -1.07496191     -0.000354     0.000357    -0.000524
N      -0.32634773     -0.28220811      0.33378966     -0.000149    -0.000012     0.000248
N      -3.58634173     -1.86485703     -0.01568268      0.000591    -0.000354     0.000030
N       3.69469849     -1.62948723     -1.23639284     -0.000310    -0.000209     0.000231
C       0.39231468      0.65939952      1.12491976      0.000040     0.000139     0.000192
C       1.84846119      0.30847601      1.30025856     -0.000116     0.000059    -0.000002
C       2.63236958      0.18420746     -0.01348756      0.000081    -0.000264     0.000036
C      -2.33101717     -1.32329767     -0.55706719      0.000069    -0.000188     0.000007
C      -1.68268258     -0.33763758      0.40793768     -0.000026     0.000273    -0.000035
C       0.26845369      2.07338335      0.57771264      0.000235    -0.000210    -0.000074
C      -2.62801551     -0.60338299     -1.85720171      0.000077     0.000017    -0.000027
C       2.52324360     -1.11788972     -0.80052516     -0.000003    -0.000223    -0.000289
H      -0.09204817      0.74362661      2.10416943     -0.000407     0.000485     0.000098
H       1.91043365     -0.58684727      1.90118804     -0.000119     0.000856     0.000561
H       2.29051524      1.11196765      1.86025565     -0.000497     0.000021    -0.000394
H       2.31128681      1.00664329     -0.64434899      0.000433     0.001056     0.000764
H       3.68487859      0.35400822      0.16934517      0.000948     0.000354     0.000728
H       0.18133498     -0.85247072     -0.33960503     -0.000486     0.000846    -0.000204
H      -1.64928358     -2.17434579     -0.75070198      0.000309     0.000207     0.001417
H      -1.68413928     -0.23320617     -2.35516391     -0.000053    -0.000120     0.000113
H      -3.18222238      0.30756706     -1.65043813      0.000297     0.000463     0.000031
H      -3.14835283     -1.22478875     -2.55071512      0.000347    -0.000199    -0.000122
H      -4.08664378     -1.06635051      0.39292722      0.000118    -0.000660    -0.000602
H      -3.41456623     -2.51379349      0.75062702      0.000811    -0.000775    -0.000228
H      -0.44177823      3.06451709     -0.81207496      0.000252    -0.000563    -0.000650
H       3.66089120     -2.46883569     -1.78483365      0.000359    -0.000224     0.000481
H       4.57033349     -1.30493512     -0.87959103     -0.000374    -0.000077    -0.000234
30
Frame 50  Energy = -779.1011309356 Hartree
O      -0.17842882      2.16126213     -0.68424002     -0.000319     0.000059    -0.000075
O      -2.33397890      0.21371084      1.23557989      0.000060    -0.000151     0.000217
O       0.72051788      3.05599900      1.14518737     -0.000129    -0.000178    -0.000146
O       1.64788937     -1.14498130     -1.61537099      0.000582     0.000063    -0.000182
N      -0.36425635     -0.28659636      0.25383733     -0.000349     0.000202    -0.000289
N      -3.60261618     -1.99499895      0.11420442     -0.000360     0.000098     0.000113
N       3.57663440     -1.90598424     -0.69923690      0.000232    -0.000222     0.000073
C       0.36554181      0.65122992      1.04873191     -0.000202    -0.000010    -0.000281
C       1.82651076      0.24740102      1.26205882      0.000191     0.000037    -0.000228
C       2.73919331      0.26719822      0.02268526      0.000308     0.000038     0.000176
C      -2.44199548     -1.38212248     -0.53421869     -0.000069     0.000079     0.000065
C      -1.72817332     -0.39543176      0.37620971      0.000053     0.000020     0.000159
C       0.32720202      2.08294510      0.54087892     -0.000139     0.000045     0.000191
C      -2.86320358     -0.59086670     -1.78734543     -0.000182     0.000038     0.000109
C       2.59272989     -0.97562248     -0.87538784      0.000413    -0.000040     0.000215
H      -0.10511513      0.65261274      2.03023521      0.000516    -0.000920    -0.000334
H       1.81151397     -0.74792434      1.73038732     -0.000486    -0.000782     0.000317
H       2.28168217      0.93849505      1.97774156      0.000713    -0.000085    -0.000414
H       2.55059435      1.16844346     -0.60493897     -0.000116    -0.000452    -0.000154
H       3.77857031      0.38208059      0.37390042     -0.000168    -0.000059    -0.000226
H       0.11655167     -0.63736851     -0.56718056     -0.000308     0.000633    -0.000808
H      -1.77139452     -2.17527678     -0.82314798      0.000140     0.000457    -0.000687
H      -1.99747589     -0.17303216     -2.30761308      0.001209     0.000901     0.000335
H      -3.50313526      0.25129907     -1.49042273     -0.000364    -0.001463     0.000358
H      -3.43819111     -1.20575677     -2.47689959      0.000311     0.001803     0.000482
H      -4.17541886     -1.27280782      0.54197830     -0.001388    -0.000181    -0.000019
H      -3.29917221     -2.61324308      0.86576932     -0.000586    -0.000294     0.000464
H      -0.20515529      3.09131678     -0.95100856     -0.000397     0.001681    -0.000415
H       3.47097270     -2.83594311     -1.07602301      0.000121    -0.000389    -0.000182
H       4.28534139     -1.78097850      0.00153072     -0.000091    -0.001107     0.000832
30
Frame 51  Energy = -779.1074499826 Hartree
O      -0.71573814      2.21176214     -0.49317006     -0.000117    -0.000059     0.000198
O      -2.27944957     -0.17728405      1.51447346     -0.000355    -0.000025     0.000019
O       1.15472950      2.86920591      0.54444495      0.000153     0.000037    -0.000588
O       1.70881718     -1.18645331     -1.42878088     -0.000109    -0.000076     0.000141
N      -0.39393375     -0.30368465      0.21822542     -0.000049     0.000159     0.000053
N      -3.65145852     -1.96180212     -0.20517643      0.000279    -0.000203    -0.000402
N       3.65166898     -1.84721579     -0.55121759     -0.000000    -0.000066    -0.000354
C       0.35200597      0.64615202      0.99270091      0.000241     0.000214     0.000317
C       1.80674225      0.29297211      1.26714427      0.000043     0.000087     0.000038
C       2.76295186      0.33890067      0.06412431      0.000191    -0.000256     0.000147
C      -2.46769811     -1.26648329     -0.61660957     -0.000115    -0.000338     0.000097
C      -1.70743120     -0.57102808      0.51332037     -0.000058    -0.000017     0.000200
C       0.31252433      2.05102636      0.34670705     -0.000233     0.000343     0.000243
C      -2.86597346     -0.14270657     -1.59429040      0.000127     0.000212    -0.000000
C       2.66180186     -0.95713023     -0.71554093     -0.000104    -0.000030     0.000118
H      -0.18028778      0.75848510      1.94227030      0.000089     0.000016     0.000588
H       1.86828408     -0.68322985      1.75279056      0.000104     0.000891    -0.000872
H       2.14977247      1.04173896      1.99923203     -0.000259    -0.000513     0.000407
H       2.48098197      1.13818075     -0.59031981      0.000561     0.000173     0.000027
H       3.76028022      0.51861710      0.42511144      0.000396    -0.000846    -0.000622
H       0.02352657     -0.64462420     -0.64409096     -0.000246    -0.000679     0.000032
H      -1.78726877     -1.98889803     -1.08919994      0.000781    -0.000035    -0.000318
H      -2.03249259      0.44908284     -1.85238331     -0.000062     0.000796     0.000534
H      -3.63700819      0.48870432     -1.14049323     -0.000474     0.000778     0.000326
H      -3.29774099     -0.57530082     -2.51639988      0.001697     0.000429     0.000060
H      -4.20084257     -1.34509431      0.37148830     -0.000324     0.000075    -0.000324
H      -3.47518699     -2.79493163      0.33831142      0.000905    -0.000015    -0.000005
H      -0.60945030      3.11672625     -0.89866045      0.000116    -0.000285    -0.000125
H       3.61442613     -2.63134517     -1.18434844     -0.000436     0.000006     0.000044
H       4.53314582     -1.62190160     -0.12891027     -0.000333     0.000144    -0.000146
30
Frame 52  Energy = -779.1096786703 Hartree
O      -0.75658041      2.71564295      0.09181583      0.000228     0.000239     0.000259
O      -2.45911924      0.04284103      1.33001557     -0.000085    -0.000039    -0.000115
O       1.46789634      2.74497022      0.30276662      0.000373     0.000064     0.000279
O       1.67870030     -1.21300303     -1.41559643      0.000180     0.000016    -0.000122
N      -0.54394244     -0.06195845      0.11223916     -0.000197     0.000084    -0.000278
N      -3.38681182     -2.25724167     -0.07024109     -0.000137    -0.000126     0.000275
N       3.76416274     -1.82570742     -0.80667822      0.000232     0.000046     0.000237
C       0.26775109      0.75582321      0.99391257     -0.000162     0.000047    -0.000406
C       1.68191190      0.20341902      1.33311675     -0.000174    -0.000126    -0.000168
C       2.75485691      0.12502339      0.24705106     -0.000279    -0.000128    -0.000048
C      -2.40352236     -1.35009632     -0.63931521      0.000013     0.000080     0.000010
C      -1.83494067     -0.40246452      0.38992508     -0.000023     0.000112    -0.000034
C       0.41802641      2.16814508      0.44157403     -0.000140    -0.000043    -0.000092
C      -3.03902714     -0.61953290     -1.80896018     -0.000022    -0.000276     0.000048
C       2.64660451     -1.04128557     -0.70633138      0.000176     0.000062    -0.000115
H      -0.27226053      0.87489906      1.94404044      0.000650     0.000635    -0.000169
H       1.55391575     -0.76551358      1.81072584     -0.000026    -0.000651    -0.000003
H       2.07590869      0.85149886      2.09049662     -0.000142    -0.000009     0.000325
H       2.79499313      0.99197496     -0.42215454      0.000066    -0.000391    -0.000505
H       3.75073173      0.11972122      0.74374603      0.000345     0.000484     0.000523
H      -0.04574664     -0.55985863     -0.61127592     -0.000565    -0.000280    -0.000325
H      -1.54965027     -1.92774570     -1.02902833     -0.000391     0.000592    -0.000019
H      -2.34419834      0.06256510     -2.30545014     -0.000401    -0.001320     0.000061
H      -3.83995066     -0.00401483     -1.41279786     -0.000821    -0.000121    -0.000034
H      -3.43183532     -1.37114454     -2.53989917     -0.000961    -0.001194    -0.000162
H      -4.10274697     -1.71238277      0.38239174     -0.000182     0.000206    -0.000145
H      -2.98611990     -2.87338297      0.61265707     -0.000171     0.000767     0.000776
H      -0.58165153      3.62009091     -0.18336601      0.000151    -0.001071     0.001471
H       3.76787107     -2.56241236     -1.48752960     -0.000354    -0.000128     0.000165
H       4.60060915     -1.58328413     -0.31269625      0.000456     0.001237    -0.000383
30
Frame 53  Energy = -779.1048063863 Hartree
O      -0.44541722      2.64590822     -0.36994851      0.000305    -0.000295    -0.000407
O      -2.50141560      0.12692674      1.22029871     -0.000044     0.000012    -0.000002
O       1.35570331      2.94170827      0.90461196     -0.000238    -0.000131     0.000120
O       1.47496134     -1.48220510     -1.20833445     -0.000293    -0.000275     0.000117
N      -0.50667853     -0.02643512      0.10411318      0.000061    -0.000313     0.000303
N      -3.19881012     -2.40094680     -0.01275195      0.000218    -0.000093    -0.000224
N       3.70099113     -1.63896343     -1.08399113     -0.000142     0.000225    -0.000007
C       0.27585113      0.79549349      0.99753443      0.000074    -0.000139     0.000365
C       1.64545969      0.18711718      1.32790993     -0.000045     0.000236     0.000074
C       2.66258421      0.09474656      0.19147073      0.000119     0.000432    -0.000106
C      -2.35350177     -1.41683820     -0.63427507     -0.000025     0.000327    -0.000158
C      -1.80488764     -0.36147938      0.34465606     -0.000113    -0.000037     0.000168
C       0.45471894      2.22530125      0.49964664      0.000189    -0.000294    -0.000077
C      -3.05155343     -0.61389358     -1.75146594      0.000212     0.000434     0.000327
C       2.52029519     -1.09816098     -0.72800852     -0.000325     0.000082    -0.000101
H      -0.29271808      0.90033113      1.92810067      0.000100     0.000762    -0.000148
H       1.49960811     -0.79821039      1.80140493     -0.000223     0.000232     0.000384
H       2.04223497      0.86601796      2.09649655      0.000304     0.000436    -0.000744
H       2.59797749      0.98540007     -0.45291712     -0.000157    -0.000429    -0.000446
H       3.66077925      0.11307205      0.59140531     -0.001200     0.000161    -0.000109
H       0.03722715     -0.59825453     -0.53707142     -0.000486    -0.000486     0.000408
H      -1.50692986     -1.93388966     -1.07329032      0.000325     0.000508    -0.000148
H      -2.32639714      0.13332803     -2.13508863     -0.000247    -0.000005     0.000026
H      -3.93963044     -0.12008480     -1.35766243      0.001062    -0.000553    -0.000461
H      -3.37674589     -1.25758525     -2.55634969      0.000534    -0.000922    -0.000495
H      -4.02365449     -1.93226046      0.35430149      0.000684    -0.000504    -0.000102
H      -2.72533675     -2.73059677      0.81718938      0.000241     0.000523    -0.000300
H      -0.24181725      3.55698103     -0.53738474      0.000491     0.000573    -0.000936
H       3.63952202     -2.48578492     -1.63165810     -0.000093     0.000932    -0.000898
H       4.54063711     -1.38808446     -0.58992956     -0.000002    -0.000185    -0.000157
30
Frame 54  Energy = -779.1047158504 Hartree
O       0.02406231      1.99910755     -0.81899909      0.000224    -0.000225     0.000013
O      -2.36382952      0.31567638      1.19750989     -0.000050     0.000008    -0.000204
O       0.43740028      2.98577519      1.13895996     -0.000294    -0.000303     0.000124
O       1.80050647     -1.76039769     -0.90430216      0.000375     0.000040     0.000188
N      -0.42618030     -0.34354847      0.25349759      0.000048    -0.000343     0.000090
N      -3.62173631     -1.97946215      0.01573266     -0.000171     0.000590     0.000537
N       3.93353317     -1.32269063     -1.36994944      0.000179     0.000290    -0.000137
C       0.31770534      0.58206578      1.02867143     -0.000112    -0.000326     0.000060
C       1.77710233      0.17593369      1.29148450     -0.000064    -0.000110     0.000019
C       2.76686399      0.21616764      0.12886177     -0.000055    -0.000053    -0.000237
C      -2.52856140     -1.21920349     -0.62565281     -0.000183     0.000207    -0.000083
C      -1.77228863     -0.36363472      0.37369347     -0.000059    -0.000023    -0.000069
C       0.25617594      2.00065656      0.49676066     -0.000200     0.000171    -0.000088
C      -3.14889956     -0.24193073     -1.61034284     -0.000076     0.000010    -0.000082
C       2.77269249     -1.06319528     -0.71722011      0.000294    -0.000018    -0.000219
H      -0.17715276      0.63018700      2.00167578     -0.001077    -0.000382     0.000053
H       1.73058590     -0.81777406      1.70177648      0.000346     0.000150    -0.000001
H       2.15619884      0.84485578      2.06807896     -0.000589    -0.000163     0.000083
H       2.54793650      1.01527617     -0.54926304     -0.000480    -0.000290    -0.000505
H       3.78686358      0.39273981      0.52440003     -0.000013     0.001456     0.000980
H       0.07619878     -0.98417970     -0.35491570     -0.000445    -0.000712    -0.000351
H      -1.83724799     -1.87415363     -1.16258991     -0.000512    -0.000737    -0.000304
H      -2.41028646      0.38642829     -2.09818122      0.000348    -0.000106    -0.000589
H      -3.83982050      0.41407277     -1.04461470      0.000284     0.000547    -0.000548
H      -3.66051564     -0.80191066     -2.33823881      0.000426     0.000008     0.000427
H      -4.07408358     -1.34615661      0.68089172      0.000603     0.000603     0.000385
H      -3.19716641     -2.70833160      0.59370932      0.000897     0.001133     0.000410
H      -0.03343410      2.94959025     -1.07917422     -0.000286     0.000890    -0.000666
H       3.94695823     -2.11420709     -1.98308079      0.000505    -0.000052     0.000261
H       4.77543680     -0.80673863     -1.21252499      0.000559    -0.000452    -0.000032
30
Frame 55  Energy = -779.1016018790 Hartree
O      -0.07304644      1.94876434     -0.59892301      0.000200     0.000231    -0.000097
O      -2.25111259      0.73102086      0.79783349     -0.000349    -0.000336     0.000073
O       0.49379045      2.86708891      1.36448130      0.000377     0.000039     0.000354
O       1.85487686     -1.83078231     -0.88594377     -0.000388     0.000084     0.000135
N      -0.40301359     -0.48303779      0.39993408     -0.000057    -0.000004    -0.000163
N      -3.91085028     -1.47621437      0.14499997      0.000217     0.000144    -0.000222
N       3.81895634     -1.01566691     -1.64232782     -0.000416    -0.000017    -0.000156
C       0.32780563      0.45493474      1.20678214      0.000165     0.000264    -0.000196
C       1.80946606      0.07720523      1.33476302      0.000088     0.000114    -0.000099
C       2.66398575      0.21555245      0.05939277      0.000005     0.000067    -0.000012
C      -2.58586454     -1.32253833     -0.46775651      0.000296    -0.000188     0.000186
C      -1.73833094     -0.25493862      0.27478046     -0.000036    -0.000113     0.000099
C       0.21549206      1.87905209      0.72241241     -0.000140    -0.000062    -0.000138
C      -2.69835310     -0.92446503     -1.93540940      0.000510    -0.000509    -0.000044
C       2.72306548     -0.98925200     -0.85266406     -0.000461    -0.000007     0.000279
H      -0.08147617      0.48424701      2.21954833     -0.000441    -0.000448    -0.000932
H       1.83175723     -0.95286790      1.71685703     -0.000371     0.000010     0.000262
H       2.22253920      0.71808375      2.11243676      0.000285     0.000739     0.000603
H       2.26050562      1.08630376     -0.52137617      0.000648     0.000492    -0.000269
H       3.66486071      0.50214077      0.34376349      0.000187    -0.000280     0.000161
H       0.13653196     -1.18474291     -0.10939112      0.000163    -0.000006     0.000092
H      -2.06200947     -2.28283122     -0.41369469      0.000208     0.000538    -0.000214
H      -1.71248242     -0.93030524     -2.39441670      0.001038    -0.000291     0.000222
H      -3.16913065      0.05917858     -2.05748262     -0.000449     0.000803    -0.000413
H      -3.33457858     -1.66637293     -2.42580134      0.000731     0.000839     0.000724
H      -4.26285690     -0.53126578      0.31600443     -0.000629     0.000224    -0.000886
H      -3.75636145     -1.87137629      1.07895754     -0.000529     0.000813     0.000318
H      -0.23985811      2.90229767     -0.78918900      0.001278    -0.000686     0.000771
H       3.86257082     -1.71828225     -2.36751645     -0.000254     0.000132    -0.000495
H       4.41802878     -0.21247430     -1.74177697     -0.000856     0.000317    -0.000702
30
Frame 56  Energy = -779.1083574824 Hartree
O       0.07088370      2.26684706     -0.56138779     -0.000135    -0.000100     0.000077
O      -2.46703870      0.42824128      1.09996966     -0.000106    -0.000102    -0.000170
O       0.89271015      2.97758816      1.37922561      0.000079    -0.000405    -0.000209
O       1.52064087     -1.96428987     -0.59626034      0.000033     0.000187     0.000344
N      -0.41729960     -0.22318358      0.41150758      0.000036    -0.000044     0.000036
N      -3.74823857     -1.52680757     -0.50910562     -0.000056     0.000189     0.000173
N       2.79125932     -0.86366843     -2.07177978     -0.000344     0.000123    -0.000167
C       0.34395476      0.65814429      1.25167802     -0.000056    -0.000080    -0.000021
C       1.79507253      0.17594205      1.43280694      0.000373     0.000113    -0.000072
C       2.59906087      0.10729766      0.13867501      0.000331     0.000062     0.000015
C      -2.30721295     -1.48775851     -0.43200000     -0.000215     0.000107    -0.000040
C      -1.75488077     -0.32127137      0.45802463      0.000139     0.000333    -0.000159
C       0.43592536      2.08409490      0.71243791     -0.000061    -0.000136     0.000166
C      -1.72974718     -1.40103400     -1.83774382      0.000109    -0.000243    -0.000228
C       2.21857590     -1.00259534     -0.83542485      0.000001     0.000098     0.000255
H      -0.10116217      0.75432562      2.23715681      0.000075     0.000233     0.000514
H       1.75829312     -0.82869399      1.87705942      0.000478     0.000740    -0.000409
H       2.30297124      0.82521427      2.13109502     -0.001012     0.000406    -0.000507
H       2.59388060      1.05174795     -0.37950208      0.000359    -0.000533     0.000031
H       3.66970489     -0.09278669      0.36335757      0.000001     0.000129    -0.000147
H       0.06378687     -1.02488452      0.01220699      0.000385    -0.000126     0.000107
H      -1.96518968     -2.41170067      0.03662969     -0.000459    -0.000002     0.000112
H      -0.67476331     -1.69320955     -1.89667854      0.000275    -0.000388     0.000312
H      -1.86360495     -0.40292962     -2.23647119      0.001278    -0.000445     0.000298
H      -2.32609237     -2.12940761     -2.47218204      0.001130    -0.000485    -0.000966
H      -4.08461243     -0.83720279     -1.17489504     -0.000228    -0.000072    -0.001020
H      -4.17130773     -1.25087665      0.37150730     -0.000537     0.000454    -0.000035
H       0.15161952      3.18882680     -0.76947655      0.000027    -0.000710     0.001856
H       2.70926988     -1.60258104     -2.74774654     -0.001331     0.000453    -0.000132
H       3.52360804     -0.19626011     -2.21998300     -0.000744     0.000268    -0.000235
30
Frame 57  Energy = -779.1017263662 Hartree
O       0.17192379      1.87406905     -0.66769087      0.000788    -0.000218    -0.000019
O      -2.24216053      0.70207589      0.88710678      0.000143    -0.000061     0.000325
O       0.50857469      2.83835907      1.32466799     -0.000411    -0.000275    -0.000079
O       2.20510777     -2.01756077     -0.47731465     -0.000093     0.000046    -0.000185
N      -0.38792339     -0.50961435      0.56081792     -0.000078     0.000084    -0.000190
N      -3.90434198     -0.94889966     -0.62559222      0.000152     0.000048    -0.000006
N       2.29298767     -0.44862602     -2.09621368     -0.000191     0.000190    -0.000103
C       0.41381207      0.46745561      1.30057826     -0.000060    -0.000165     0.000043
C       1.88334833      0.08243998      1.45912174     -0.000020     0.000591     0.000081
C       2.75093106      0.19743174      0.19578608     -0.000195     0.000061     0.000214
C      -2.53765099     -1.33596828     -0.37212024      0.000139    -0.000091     0.000082
C      -1.71994358     -0.28273362      0.39678218     -0.000126     0.000128     0.000172
C       0.35945307      1.85880618      0.67163305     -0.000054    -0.000347    -0.000186
C      -1.86008197     -1.76557904     -1.68866338      0.000101     0.000035    -0.000109
C       2.38500166     -0.85958111     -0.80868796     -0.000250     0.000022     0.000037
H       0.02864635      0.61434052      2.32632129      0.000223     0.000332     0.000006
H       1.96351524     -0.93678009      1.83597151     -0.000016    -0.000649     0.000754
H       2.27680387      0.77762419      2.20350748      0.000045     0.000731    -0.000051
H       2.69187749      1.21322863     -0.21351065     -0.000020    -0.000011     0.000212
H       3.77946953      0.01845262      0.44452157     -0.000056    -0.000709     0.000436
H       0.03683298     -1.33801404      0.16832787      0.000117     0.000799    -0.000479
H      -2.58567059     -2.21672277      0.27348402     -0.000129     0.000176     0.001510
H      -0.89148524     -2.20353122     -1.51784925     -0.000472     0.000506    -0.000278
H      -1.71949615     -0.86833729     -2.31596751     -0.000487    -0.001398    -0.000027
H      -2.48112878     -2.47133496     -2.22112029     -0.000812    -0.000591    -0.000867
H      -3.97639323     -0.17326831     -1.26667802      0.000177    -0.000087    -0.000813
H      -4.34728735     -0.70747456      0.24040526      0.000382     0.001022     0.000228
H       0.22906403      2.79121865     -0.93016779      0.001175     0.000930    -0.001045
H       2.02802269     -1.16083995     -2.75813861     -0.000354    -0.000465     0.000345
H       2.41544455      0.50516638     -2.37907483      0.000614     0.000215    -0.000429
30
Frame 58  Energy = -779.1070028949 Hartree
O       0.29015321      1.86839952     -0.57915567     -0.000200     0.000027     0.000258
O      -2.25345788      0.83065484      0.56659774      0.000008     0.000050    -0.000345
O       0.51794513      2.95423246      1.36950030      0.000565    -0.000135    -0.000003
O       1.70117755     -1.94758719     -0.69056298      0.000018     0.000121     0.000213
N      -0.42163674     -0.45913642      0.82098992     -0.000135    -0.000244     0.000131
N      -3.74028850     -1.16151653     -0.55582159     -0.000316    -0.000288     0.000129
N       2.43333618     -0.43519800     -2.18894427      0.000105    -0.000153     0.000132
C       0.39542860      0.53538034      1.43350030     -0.000153    -0.000217     0.000182
C       1.85176062      0.00345352      1.49262591      0.000146     0.000132    -0.000147
C       2.60625822      0.13012501      0.17007820      0.000023     0.000441    -0.000186
C      -2.32382080     -1.41842011     -0.33404969     -0.000004     0.000174    -0.000297
C      -1.67386837     -0.23175953      0.38071510     -0.000178     0.000084    -0.000122
C       0.37629264      1.91068645      0.76572106      0.000005     0.000012     0.000113
C      -1.67910623     -1.85336665     -1.65019264     -0.000025    -0.000041     0.000004
C       2.18014689     -0.84784214     -0.91539499     -0.000105    -0.000089     0.000040
H       0.02394372      0.69428408      2.43001635      0.000616    -0.000393     0.000505
H       1.83545604     -1.04241125      1.79125817      0.000594     0.001096    -0.000552
H       2.43449283      0.55753886      2.25309253      0.000448    -0.000812    -0.000250
H       2.56840065      1.16152333     -0.20050122     -0.000643     0.001021    -0.000135
H       3.66707311     -0.13433922      0.34403708      0.000136     0.001098    -0.000558
H       0.02567746     -1.30827952      0.52795743      0.000070     0.000009    -0.000481
H      -2.23088260     -2.24514840      0.38893555      0.000437    -0.000146    -0.000594
H      -0.66317897     -2.20423583     -1.44833254     -0.000998     0.000118    -0.000555
H      -1.63329341     -1.03713516     -2.36371231      0.000435     0.000515    -0.000921
H      -2.24496666     -2.64952595     -2.05814933      0.000819    -0.000311     0.000137
H      -3.89908654     -0.33245207     -1.10355442     -0.000175    -0.000153     0.000618
H      -4.18564223     -0.96319494      0.32250383      0.000606     0.000923     0.000610
H       0.20717189      2.80555160     -0.89549346     -0.001055     0.000523    -0.000625
H       2.30069754     -1.11099588     -2.92567577      0.000473    -0.000376     0.000681
H       2.93958014      0.41529818     -2.36061062      0.000308    -0.000519    -0.000353
30
Frame 59  Energy = -779.1060320797 Hartree
O       0.06365725      2.21722487     -0.71811953      0.000047     0.000041    -0.000127
O      -2.38139860      0.38897601      1.20290148      0.000009    -0.000223     0.000061
O       0.62198154      2.95917633      1.32941582     -0.000051    -0.000225    -0.000015
O       1.92314047     -2.07343853     -0.43455103      0.000079     0.000451     0.000198
N      -0.41445404     -0.34716937      0.36946790     -0.000076    -0.000022     0.000193
N      -3.86375471     -1.35785943     -0.39739408     -0.000076    -0.000199    -0.000073
N       2.78181891     -0.74939472     -2.05267843      0.000036    -0.000283     0.000062
C       0.35800450      0.61970790      1.11569261     -0.000015     0.000075    -0.000077
C       1.78433281      0.08704282      1.41752802     -0.000062    -0.000155    -0.000099
C       2.76947327      0.05936333      0.24495427     -0.000032     0.000277     0.000117
C      -2.42148956     -1.37591872     -0.45437956      0.000025     0.000016    -0.000043
C      -1.75496847     -0.35848015      0.45478981     -0.000039     0.000009     0.000150
C       0.35180385      2.05556576      0.60283273      0.000289     0.000063    -0.000186
C      -1.96111819     -1.23961795     -1.91339112     -0.000507     0.000206     0.000052
C       2.44309589     -1.02454637     -0.77537293      0.000114     0.000064    -0.000033
H      -0.13945647      0.72392574      2.09981752     -0.000541     0.000135     0.000188
H       1.68342264     -0.91393403      1.83946920     -0.000024    -0.000336    -0.000175
H       2.19121222      0.71014130      2.20283977      0.001123     0.000803     0.000351
H       2.82115533      1.03964685     -0.22513851      0.000539     0.000026     0.001193
H       3.76686836     -0.14665209      0.64773106      0.000163    -0.000338    -0.001273
H       0.06219199     -1.06792551     -0.15010118     -0.000441     0.000142    -0.000980
H      -2.10236731     -2.36878894     -0.09113578     -0.000040    -0.000019    -0.000823
H      -0.85812811     -1.38887656     -2.02955101      0.000803     0.000079    -0.001329
H      -2.21619065     -0.26591931     -2.30427157     -0.001067     0.000717     0.000059
H      -2.45492653     -2.02788765     -2.48649593     -0.001168     0.001321    -0.000180
H      -4.15605528     -0.48649761     -0.81709181      0.001259    -0.000455    -0.000069
H      -4.11071126     -1.23185950      0.58063389      0.000337     0.000397    -0.000230
H       0.11128470      3.18673700     -0.86776435      0.000266    -0.001341     0.000590
H       2.60401009     -1.45673324     -2.73929699      0.000084    -0.000536     0.000145
H       3.12154132      0.14426665     -2.35026893      0.001704    -0.000878    -0.000424
30
Frame 60  Energy = -779.1064530943 Hartree
O      -0.18773671      1.80829491     -0.67035348      0.000129    -0.000016    -0.000041
O      -2.32657863      0.70316866      0.81850548      0.000339    -0.000124     0.000296
O       0.57865679      2.91328896      1.10195776     -0.000041     0.000247    -0.000017
O       1.67989408     -1.77725477     -0.82973713     -0.000259     0.000425    -0.000126
N      -0.44446551     -0.52529589      0.71008220      0.000104    -0.000188     0.000062
N      -3.70002771     -1.67261505     -0.03477723      0.000320     0.000038     0.000262
N       3.54703029     -0.95327323     -1.76969344      0.000103    -0.000054     0.000420
C       0.36357635      0.52626217      1.30583038     -0.000028     0.000016    -0.000198
C       1.81250893      0.06536325      1.45029862     -0.000067    -0.000082     0.000082
C       2.75895518      0.08822992      0.26909457     -0.000182     0.000075    -0.000005
C      -2.39081309     -1.25246615     -0.54748729     -0.000135    -0.000001    -0.000345
C      -1.71872202     -0.26801248      0.37628685      0.000095    -0.000199     0.000167
C       0.25761034      1.86766393      0.59468042      0.000210    -0.000169    -0.000171
C      -2.50799985     -0.67647010     -1.95009883     -0.000601     0.000074    -0.000336
C       2.57744821     -0.96521204     -0.81073371     -0.000052    -0.000104     0.000063
H      -0.06235911      0.76416624      2.25999868      0.000184    -0.000516    -0.000652
H       1.75189339     -0.95780877      1.86172745     -0.000156     0.000020    -0.000294
H       2.25713959      0.70625580      2.19855436     -0.000536    -0.000415    -0.000569
H       2.70594868      1.04313385     -0.26084685     -0.000771     0.000566    -0.000162
H       3.77602860      0.02748001      0.62074173      0.000073     0.000691    -0.000430
H       0.06246921     -1.19415125      0.13287742      0.000358    -0.000730     0.000547
H      -1.76907974     -2.14185518     -0.61480440     -0.000812    -0.000499    -0.000568
H      -1.53772296     -0.43743939     -2.33925289     -0.000006     0.000028    -0.001058
H      -3.12260713      0.25115021     -1.91455166      0.000547    -0.000478    -0.000532
H      -3.05462100     -1.40369726     -2.58317528     -0.000512     0.000481     0.000094
H      -4.23926761     -0.80610196      0.02279842     -0.000362    -0.000827    -0.000461
H      -3.58176250     -1.94340718      0.94593793      0.000211     0.001193    -0.000024
H      -0.30093878      2.69236623     -0.98011058      0.000960    -0.000625    -0.000433
H       3.40930731     -1.47610134     -2.62320145      0.000290    -0.000245     0.000528
H       4.17027796     -0.16080067     -1.83901404     -0.000414     0.000395     0.000743
30
Frame 61  Energy = -779.1083460363 Hartree
O       0.25381603      1.99294877     -0.90955173      0.000056     0.000420    -0.000228
O      -2.39283714      0.26843733      1.29163414     -0.000002    -0.000406    -0.000006
O       0.62205852      2.91945588      1.07814467      0.000249    -0.000337    -0.000097
O       1.79893794     -1.63087097     -1.04207122     -0.000175     0.000124     0.000115
N      -0.51206184     -0.30342689      0.19597315     -0.000024    -0.000109     0.000066
N      -3.82191904     -1.76146079      0.13047259     -0.000131     0.000392     0.000113
N       3.92308539     -0.97603016     -1.44428628      0.000066    -0.000005     0.000163
C       0.25905341      0.58113408      1.03813480      0.000113    -0.000002    -0.000210
C       1.60167320     -0.01098351      1.41527922      0.000197     0.000097     0.000120
C       2.73526538      0.07094393      0.38904220     -0.000064     0.000122     0.000110
C      -2.60937018     -1.28908233     -0.49687013      0.000272    -0.000246    -0.000159
C      -1.83576904     -0.36966125      0.39711484      0.000025    -0.000191    -0.000176
C       0.38917908      1.94218614      0.42295016      0.000080     0.000215     0.000017
C      -2.97593585     -0.58164652     -1.80015706     -0.000130    -0.000054     0.000030
C       2.76165430     -0.94932115     -0.75442973     -0.000159     0.000067     0.000077
H      -0.30952265      0.73956704      1.98134415      0.000036     0.000066    -0.000358
H       1.40526328     -1.02650733      1.72874669     -0.000332    -0.000436     0.000610
H       1.95080016      0.54611561      2.29261876     -0.000368    -0.000332     0.000062
H       2.79244593      1.07122019     -0.06043472     -0.000514     0.000070     0.000102
H       3.66843754     -0.02129748      0.98834821     -0.000019    -0.000259     0.000425
H      -0.05616101     -0.81674365     -0.54755915      0.000651     0.000118    -0.000165
H      -1.97244758     -2.13915026     -0.75968879     -0.000538    -0.000983     0.000084
H      -2.10133070     -0.30489868     -2.35347585     -0.001758    -0.000596     0.000741
H      -3.54741062      0.32204422     -1.59383999     -0.000287     0.000524     0.000963
H      -3.55577179     -1.27525165     -2.41289092     -0.000355    -0.000259    -0.000273
H      -4.51175583     -0.99894048      0.10783068     -0.000660     0.000067     0.000218
H      -3.67554356     -1.92287622      1.12742781      0.000173    -0.000976    -0.000375
H       0.34180417      2.93367363     -1.11996098      0.000248     0.001871    -0.001024
H       4.01779763     -1.69249629     -2.13747121     -0.000936     0.000533    -0.000416
H       4.74260511     -0.53339639     -1.07705432     -0.000107    -0.000207     0.000357
30
Frame 62  Energy = -779.1126628695 Hartree
O      -0.16186470      2.18145758     -0.81195449     -0.000282     0.000260     0.000074
O      -2.54107746      0.27057307      1.24244103      0.000032     0.000047    -0.000055
O       1.33166673      2.77696076      0.75540723      0.000250    -0.000014    -0.000168
O       1.54197768     -1.33174258     -1.10777214     -0.000254     0.000280     0.000358
N      -0.53650988     -0.29844110      0.30915413      0.000126    -0.000455     0.000213
N      -3.65347925     -2.09298516     -0.00313406      0.000145     0.000148     0.000106
N       3.72365674     -1.00976386     -1.37009397     -0.000117     0.000062    -0.000101
C       0.26306877      0.64558127      1.02475929      0.000130    -0.000089    -0.000030
C       1.58220495      0.06459977      1.54803549     -0.000104    -0.000138    -0.000053
C       2.79369101     -0.11129539      0.63861435      0.000346    -0.000087     0.000040
C      -2.50743664     -1.36869431     -0.53779676      0.000135    -0.000127    -0.000256
C      -1.88134598     -0.37812694      0.43336406      0.000085    -0.000067    -0.000118
C       0.54041411      1.99496256      0.31514629     -0.000046     0.000039    -0.000166
C      -2.85656639     -0.56623431     -1.80174687      0.000037     0.000143    -0.000105
C       2.57400480     -0.86172990     -0.66434632     -0.000173     0.000149     0.000205
H      -0.33905955      0.95180498      1.86162618     -0.000836    -0.000275    -0.000232
H       1.35820236     -0.89377000      2.00422533     -0.000147     0.000303    -0.000212
H       1.94973266      0.68750497      2.38477822     -0.000554     0.000248     0.000691
H       3.19113829      0.87024145      0.33092662      0.000301    -0.000264     0.000468
H       3.56019450     -0.62139574      1.20472234     -0.000143    -0.000208    -0.000535
H      -0.05290930     -0.93818915     -0.31074649     -0.000137    -0.000276    -0.000698
H      -1.73240415     -2.11438433     -0.79602573     -0.000206    -0.000607     0.000177
H      -1.88640873     -0.15454370     -2.17916895      0.000225    -0.000191    -0.000314
H      -3.53777930      0.23610357     -1.62233436      0.000094     0.000411    -0.000500
H      -3.25526324     -1.19751867     -2.58207421     -0.000780    -0.000747    -0.000439
H      -4.50227612     -1.53343890     -0.06857703     -0.000475     0.000195     0.000472
H      -3.49236638     -2.34511183      0.96170049      0.000505    -0.001171     0.000181
H       0.08100864      3.10213004     -1.11108597     -0.000688     0.000591     0.000065
H       3.64299623     -1.43967749     -2.27937540     -0.000577    -0.000627    -0.000063
H       4.56882310     -0.53817063     -1.09525930      0.000423    -0.000974     0.000362
30
Frame 63  Energy = -779.1062611067 Hartree
O      -0.65296628      2.25376782     -0.42911644     -0.000069     0.000160    -0.000178
O      -2.39658183      0.22574458      1.25115711      0.000366    -0.000232     0.000212
O       1.35647321      2.67551101      0.46111747      0.000070    -0.000003     0.000032
O       1.85106062     -1.48443791     -0.93550700     -0.000014     0.000063     0.000162
N      -0.52928753     -0.35487781      0.12722057      0.000158     0.000022     0.000148
N      -3.88588530     -1.69674913      0.07816376      0.000089     0.000393     0.000083
N       4.03446085     -0.95748640     -1.28352240     -0.000024    -0.000134     0.000099
C       0.29416036      0.52502794      0.92694367     -0.000344    -0.000168    -0.000007
C       1.58780470     -0.06548215      1.45918529     -0.000184    -0.000001     0.000025
C       2.87141101      0.02090662      0.60790155     -0.000075     0.000069    -0.000235
C      -2.64487884     -1.31424599     -0.56725284     -0.000002     0.000180    -0.000239
C      -1.85077475     -0.42760048      0.36720148      0.000255    -0.000088    -0.000064
C       0.42119219      1.91782297      0.29923175     -0.000330    -0.000142     0.000132
C      -2.99343430     -0.59018819     -1.89211825     -0.000096    -0.000067    -0.000221
C       2.84978049     -0.87709173     -0.59967206     -0.000035     0.000003    -0.000013
H      -0.33284174      0.77148084      1.80741637     -0.000333     0.000340     0.001003
H       1.38105978     -1.11567607      1.72186670      0.000267     0.000167    -0.001205
H       1.81137663      0.43362953      2.38646843      0.000300    -0.000379     0.000027
H       3.00171105      1.03741119      0.26393608      0.000069     0.000829    -0.000434
H       3.72871811     -0.19620157      1.24477005     -0.000031     0.000886     0.000670
H      -0.05628326     -1.00566634     -0.48820960      0.000348    -0.000773     0.000574
H      -2.06521544     -2.20499036     -0.80758650     -0.001022    -0.000144    -0.000994
H      -2.12148073     -0.36628080     -2.52365699      0.000622     0.000102    -0.001539
H      -3.47943306      0.39985120     -1.69645381      0.000058    -0.000829    -0.000732
H      -3.67806149     -1.23042545     -2.42573724      0.000268    -0.000380     0.000320
H      -4.47540203     -0.90155787      0.25758449      0.000541     0.000789     0.001797
H      -3.70690957     -2.10151006      0.98533945     -0.000372    -0.000901     0.000229
H      -0.56803788      3.19542449     -0.63780653      0.000784    -0.001517     0.000108
H       3.99680133     -1.39683322     -2.18827545      0.000272    -0.000099     0.000305
H       4.80526753     -0.35811050     -1.05347942     -0.000806     0.000771    -0.000903
30
Frame 64  Energy = -779.1098447052 Hartree
O      -0.27249399      2.01427107     -0.72593124      0.000170     0.000066    -0.000264
O      -2.44909410      0.23561044      1.28405509     -0.000117     0.000081    -0.000119
O       1.09737739      2.86293749      0.84039499     -0.000385    -0.000168     0.000362
O       1.50855144     -1.40704700     -1.05367684     -0.000051     0.000145    -0.000127
N      -0.44071583     -0.42900424      0.50647652      0.000010    -0.000261     0.000300
N      -3.73897905     -1.80627306     -0.15138242      0.000106     0.000115     0.000050
N       3.70047863     -1.21886454     -1.42283984     -0.000356    -0.000184    -0.000027
C       0.27983571      0.63485586      1.17141528      0.000250    -0.000065     0.000233
C       1.68599732      0.17345288      1.50647157     -0.000110     0.000312    -0.000144
C       2.71922134      0.16100855      0.33576660     -0.000090     0.000151    -0.000132
C      -2.43448938     -1.33186309     -0.57749590      0.000177     0.000014    -0.000104
C      -1.78576472     -0.41800902      0.48558005      0.000053     0.000125    -0.000264
C       0.39478970      1.96482731      0.42295822      0.000142    -0.000008    -0.000120
C      -2.57137604     -0.58598775     -1.89415221      0.000310    -0.000230     0.000149
C       2.57025446     -0.91053746     -0.73742615     -0.000126    -0.000054     0.000226
H      -0.25406620      0.81992472      2.11388727      0.000685     0.000184    -0.000834
H       1.58621164     -0.82794762      1.93524035     -0.000170    -0.000421     0.000349
H       2.06812967      0.85486544      2.25382275      0.000235     0.000057    -0.000588
H       2.69515696      1.12409372     -0.20838572     -0.000476    -0.000124     0.000419
H       3.72248458      0.13783652      0.80322237      0.000185    -0.000089    -0.000557
H       0.06628667     -0.84871142     -0.27263826      0.000058    -0.000249     0.000040
H      -1.76981588     -2.18334811     -0.72165689     -0.000194    -0.000302     0.000092
H      -1.65169447     -0.15466252     -2.21871546     -0.000275    -0.000805     0.000031
H      -3.32527149      0.20649592     -1.75908462     -0.000484    -0.000065     0.000066
H      -2.92679587     -1.25369043     -2.68584178      0.000613     0.000884     0.001215
H      -4.47106966     -1.16509334     -0.37075180      0.000446     0.000688     0.000365
H      -3.76573809     -1.94201553      0.84948084      0.001109    -0.000628    -0.000184
H      -0.09958724      2.84013505     -1.14934621      0.000398     0.001061     0.000676
H       3.62196739     -1.96066760     -2.09874162     -0.000110     0.000301    -0.001006
H       4.60592306     -1.00223435     -1.05509510      0.000180    -0.000797    -0.000370
30
Frame 65  Energy = -779.1028865458 Hartree
O      -0.01281257      2.00246014     -0.67640030     -0.000194     0.000171     0.000249
O      -2.31824494      0.55557157      1.04891341     -0.000377     0.000086    -0.000169
O       0.31176442      2.86824422      1.36647867     -0.000337    -0.000174     0.000162
O       1.67361141     -1.66171359     -0.96576350      0.000194    -0.000327     0.000291
N      -0.40968022     -0.46685814      0.43434197     -0.000060    -0.000157     0.000061
N      -3.95297505     -1.37310107     -0.03300650     -0.000011     0.000380     0.000132
N       3.82599867     -1.27842052     -1.46033390      0.000089     0.000319    -0.000111
C       0.40467858      0.49477187      1.15834571      0.000025    -0.000027    -0.000124
C       1.87527902      0.15693794      1.22934805      0.000244    -0.000010    -0.000363
C       2.70498218      0.29741398     -0.03667098      0.000115    -0.000189    -0.000135
C      -2.54926756     -1.34718393     -0.43058048      0.000023     0.000442    -0.000065
C      -1.75057208     -0.31607202      0.39613013      0.000065    -0.000096     0.000169
C       0.21830739      1.92512715      0.65355987     -0.000083     0.000100    -0.000173
C      -2.41245103     -0.99918195     -1.89918922      0.000157    -0.000342     0.000028
C       2.65694051     -0.96309918     -0.84915565      0.000190    -0.000146    -0.000211
H      -0.00198985      0.58382876      2.16423127      0.000134    -0.000916     0.001054
H       1.99421944     -0.84366825      1.63596013      0.000245     0.000055    -0.000805
H       2.28270829      0.86369602      1.98460518      0.000602    -0.001080     0.000142
H       2.36136707      1.11426470     -0.66622207      0.000048    -0.000642     0.000081
H       3.72179566      0.49942912      0.24760861     -0.000372    -0.000135    -0.000277
H       0.07961640     -1.05973023     -0.21848056     -0.000279     0.000330    -0.000558
H      -2.12224392     -2.34893416     -0.23950178      0.000135     0.000494     0.000203
H      -1.41546401     -1.22911877     -2.28026424     -0.000390    -0.000599    -0.000096
H      -2.59683541      0.03419238     -2.05483694      0.001680     0.000281    -0.000865
H      -3.15508630     -1.58897194     -2.48008771     -0.000616    -0.000505     0.000147
H      -4.46631185     -0.61338283     -0.45546178      0.000104     0.000699     0.001322
H      -3.97955852     -1.23302301      0.96607001      0.000456     0.000238    -0.000472
H      -0.15970029      2.94868244     -0.88348371     -0.000019     0.001510    -0.000788
H       3.88556855     -2.08841404     -2.06281525      0.000610    -0.000464     0.001379
H       4.67439488     -0.76129639     -1.30831909     -0.000026     0.000264     0.000364
30
Frame 66  Energy = -779.1063548084 Hartree
O      -0.22051812      2.21153845     -0.42852955     -0.000080     0.000462     0.000024
O      -2.35581659      0.61455920      0.95701615      0.000003    -0.000005     0.000220
O       0.38366314      2.87320870      1.62012389     -0.000010     0.000156    -0.000029
O       1.86009061     -2.06215798     -0.50571472     -0.000227    -0.000016     0.000063
N      -0.37374410     -0.40091051      0.47041959     -0.000268    -0.000084    -0.000090
N      -3.86973380     -1.22657366     -0.34999814      0.000413    -0.000160     0.000046
N       3.57270476     -1.29428222     -1.79991254     -0.000297    -0.000321    -0.000305
C       0.37504160      0.56296698      1.23242247     -0.000055    -0.000046     0.000153
C       1.92635281      0.34826625      1.09086305     -0.000025    -0.000110     0.000175
C       2.40489440      0.26820331     -0.37749534      0.000094    -0.000144     0.000126
C      -2.41775125     -1.34953006     -0.43512217      0.000242     0.000373    -0.000060
C      -1.72618640     -0.29404309      0.43212935      0.000026    -0.000187     0.000025
C       0.13873246      1.97250778      0.84697835     -0.000259    -0.000020     0.000028
C      -1.98895757     -1.22100445     -1.89859741      0.000529     0.000046    -0.000078
C       2.57186503     -1.15296670     -0.88115515     -0.000052     0.000067    -0.000100
H       0.12665158      0.51288844      2.30619276     -0.000241    -0.000203    -0.000631
H       2.18623573     -0.53211751      1.66399084     -0.000813     0.000328     0.000378
H       2.39884295      1.18461629      1.58361777      0.000281     0.000741    -0.000151
H       1.69332492      0.73921772     -1.05232206     -0.000527     0.000446    -0.000229
H       3.34519612      0.83503698     -0.44851539      0.000382     0.000386    -0.000038
H       0.11899559     -1.16391793      0.03219230      0.000326    -0.000288     0.000890
H      -2.13876311     -2.34879180     -0.09049771      0.000503     0.000438     0.000098
H      -0.95046355     -1.53662235     -2.05907325      0.001365     0.000258    -0.000097
H      -2.06208362     -0.18020603     -2.26329146     -0.000398    -0.001018    -0.000081
H      -2.63172918     -1.87660724     -2.48646046      0.000089    -0.001234    -0.001484
H      -4.19263136     -0.50342875     -1.00301796      0.000462    -0.000923    -0.000038
H      -4.07739302     -0.79519910      0.54581350      0.000980     0.000804    -0.000577
H      -0.26502913      3.20217434     -0.48707900      0.000166    -0.000403    -0.000338
H       3.59577039     -2.13082141     -2.35075360     -0.001312    -0.000453    -0.000100
H       3.98962481     -0.47632197     -2.19961384     -0.000145    -0.000282    -0.000364
30
Frame 67  Energy = -779.1090139853 Hartree
O      -0.01169142      2.10371849     -0.44253815      0.000055    -0.000411    -0.000086
O      -2.40799157      0.67868847      0.81667973      0.000137     0.000279    -0.000085
O       0.45402301      3.00874492      1.54263998      0.000079    -0.000059    -0.000155
O       1.81339679     -2.06807880     -0.41096042      0.000402    -0.000180     0.000066
N      -0.41562876     -0.36134513      0.65069865     -0.000284    -0.000005     0.000265
N      -3.71242753     -1.38500470     -0.48934075      0.000030    -0.000028     0.000033
N       2.92765744     -1.12490836     -2.11334846     -0.000017     0.000254    -0.000017
C       0.36761311      0.58369485      1.38145424     -0.000067    -0.000179    -0.000070
C       1.87310953      0.25986744      1.22520824      0.000012    -0.000032    -0.000129
C       2.43625019      0.25798712     -0.19797276     -0.000049     0.000210     0.000100
C      -2.25692814     -1.38795161     -0.46798429     -0.000091     0.000144    -0.000164
C      -1.72938088     -0.22464927      0.36852644      0.000183     0.000177    -0.000091
C       0.20727141      2.03671108      0.88940956     -0.000028    -0.000002     0.000352
C      -1.62745063     -1.34691555     -1.87511675     -0.000424    -0.000381    -0.000142
C       2.32817769     -1.08223739     -0.89903160      0.000097     0.000079     0.000013
H       0.04910226      0.58386047      2.40757834     -0.000725     0.000296    -0.000195
H       2.02475187     -0.75683485      1.65201932     -0.000326    -0.000318     0.000487
H       2.43100235      0.98512598      1.80628731     -0.000803     0.000400     0.000143
H       1.97050165      1.05100839     -0.82023019      0.000566     0.000063     0.000223
H       3.49561948      0.51359511     -0.14947923      0.000008    -0.000361     0.000127
H       0.08953220     -1.12424565      0.22577137     -0.000042     0.000289     0.000835
H      -1.91593623     -2.27949764      0.05420485      0.000166     0.000816     0.000774
H      -0.54279999     -1.31860176     -1.82053463     -0.000873     0.000663    -0.000207
H      -2.03413315     -0.46251971     -2.42265046     -0.000671     0.000299     0.000479
H      -1.91195427     -2.20802788     -2.43926210      0.000710     0.000954    -0.000276
H      -3.99752285     -0.42094178     -0.27878299      0.000176    -0.000155    -0.000288
H      -4.05701741     -1.96389778      0.27877730      0.000249    -0.000059     0.000316
H      -0.02502591      3.03087563     -0.66477375      0.000733    -0.001686     0.000121
H       2.93175618     -2.00323024     -2.60959048     -0.000581     0.000466    -0.000555
H       3.37673035     -0.31089363     -2.50459240     -0.001148     0.000965    -0.000159
30
Frame 68  Energy = -779.1057933522 Hartree
O       0.44045509      1.90304812     -0.79356618      0.000357    -0.000232     0.000038
O      -2.31943111      0.55407326      0.86177113     -0.000329     0.000220    -0.000177
O       0.31784339      2.92839669      1.19143120      0.000196    -0.000063    -0.000060
O       2.11892474     -2.02319037     -0.42448831      0.000179    -0.000140    -0.000150
N      -0.37246408     -0.48227148      0.50401975     -0.000158     0.000141     0.000073
N      -3.86014319     -1.35168665     -0.20398593     -0.000023    -0.000368    -0.000011
N       2.53313112     -0.52294147     -2.03672569     -0.000005     0.000421     0.000171
C       0.35058250      0.52128703      1.24221450      0.000013     0.000277    -0.000047
C       1.78553320      0.12880401      1.53120905     -0.000074    -0.000018    -0.000113
C       2.77040188      0.15876182      0.34000238     -0.000249     0.000075     0.000027
C      -2.43858960     -1.42215017     -0.45296462     -0.000177    -0.000053     0.000159
C      -1.71973045     -0.37358505      0.36126459     -0.000127    -0.000165     0.000405
C       0.33868857      1.91025615      0.55817805      0.000334    -0.000316    -0.000373
C      -2.12973024     -1.15167208     -1.94880862      0.000046     0.000086     0.000006
C       2.44740573     -0.89500943     -0.73266626      0.000000    -0.000041     0.000017
H      -0.13163462      0.68100620      2.22257875      0.000419     0.000146     0.000538
H       1.79505898     -0.84724008      1.98103606      0.000249     0.000393     0.000425
H       2.15548317      0.81874111      2.29593028     -0.001113    -0.000774    -0.000464
H       2.82469315      1.13994166     -0.10224633      0.000381    -0.000089    -0.001007
H       3.76201728     -0.05249849      0.73752822     -0.000929    -0.000397     0.000244
H       0.11899244     -1.26155512      0.10604359     -0.000254    -0.000102     0.000386
H      -2.03632319     -2.41472212     -0.20636213     -0.000759    -0.000390    -0.000344
H      -1.05680825     -0.94926585     -2.06377654      0.000090     0.000434     0.000412
H      -2.63026757     -0.26883982     -2.26169828      0.000561     0.001072    -0.000439
H      -2.41575792     -2.00008978     -2.58881231      0.000565     0.001160     0.000577
H      -4.06383895     -0.38064081      0.04482220     -0.001198    -0.000326     0.000921
H      -4.13633130     -1.88093629      0.62511736      0.000291    -0.001020     0.000095
H       0.38190599      2.82074510     -1.05195397      0.000423     0.001079    -0.000278
H       2.44739457     -1.27539449     -2.69393424      0.000247     0.001106    -0.000283
H       2.84793873      0.38407956     -2.32362045      0.000017     0.000289     0.000541
30
Frame 69  Energy = -779.1080220375 Hartree
O      -0.08865568      1.76041139     -0.75807908     -0.000076    -0.000135     0.000189
O      -2.41792354      0.65072575      0.57532033     -0.000503    -0.000066     0.000173
O       0.96153331      2.80147164      0.91364025      0.000094    -0.000125    -0.000146
O       1.69074549     -1.75222768     -0.60542969      0.000310    -0.000012    -0.000083
N      -0.45839825     -0.49610407      0.74235134     -0.000129     0.000074     0.000018
N      -3.69075629     -1.73931783     -0.06145619     -0.000061    -0.000091     0.000178
N       2.91275718     -0.33973595     -1.86982893      0.000383     0.000033    -0.000074
C       0.35498566      0.55459435      1.30932168      0.000002     0.000090     0.000330
C       1.76299252      0.05143563      1.64212285     -0.000101    -0.000108    -0.000057
C       2.75713628      0.12007873      0.50675595     -0.000220    -0.000046    -0.000053
C      -2.31707498     -1.44579105     -0.51266448      0.000245     0.000076    -0.000102
C      -1.74849903     -0.33717928      0.36284545     -0.000243     0.000054    -0.000185
C       0.44284294      1.80472586      0.46220894      0.000136     0.000299    -0.000225
C      -2.29281471     -0.95147027     -1.97796589     -0.000084     0.000269     0.000197
C       2.40100426     -0.76927732     -0.67849238      0.000136     0.000003    -0.000110
H      -0.08619218      0.91258318      2.23028639     -0.000244     0.000521    -0.000380
H       1.70316352     -0.97337870      2.01543609     -0.000273    -0.000553    -0.000640
H       2.17843167      0.64277346      2.48026633      0.000810    -0.000208     0.001014
H       2.88694455      1.13361858      0.10408340     -0.000491    -0.000287    -0.000284
H       3.74937896     -0.23035622      0.83022698      0.000675    -0.000100    -0.000152
H       0.04900003     -1.26485355      0.33097967     -0.000319    -0.000658     0.000483
H      -1.73443376     -2.36887505     -0.42706110      0.000210    -0.000028    -0.000211
H      -1.25965601     -0.89720644     -2.29010048      0.001123    -0.000939    -0.000144
H      -2.73765684      0.03061404     -2.07399943      0.000118    -0.000499     0.000192
H      -2.83795526     -1.66965197     -2.63325078     -0.000597    -0.000182    -0.000397
H      -4.12287984     -0.88262985      0.26143724     -0.001207     0.000690    -0.001185
H      -3.69235742     -2.39981109      0.69914435     -0.000169     0.000192     0.000657
H       0.05640958      2.67764898     -1.11367800     -0.000607     0.000902     0.000221
H       2.75175518     -0.91375528     -2.67977795      0.001389    -0.000822    -0.000171
H       3.58859780      0.40077993     -1.93084225      0.001220    -0.000493    -0.000376
30
Frame 70  Energy = -779.1100594451 Hartree
O       0.09266708      1.88183016     -0.94891274      0.000077     0.000043    -0.000177
O      -2.39431469      0.17617310      1.39109354     -0.000282    -0.000181     0.000048
O       0.66719074      2.92286601      0.96608104      0.000023     0.000153     0.000196
O       1.80532603     -1.64477117     -0.84209267      0.000266     0.000096    -0.000257
N      -0.49759867     -0.40707505      0.32677213     -0.000027    -0.000175    -0.000002
N      -3.96872453     -1.50591055     -0.05448088     -0.000035     0.000037     0.000007
N       3.75487242     -0.74374751     -1.54963742      0.000291    -0.000258     0.000099
C       0.23619112      0.59236103      1.07079157     -0.000159    -0.000160    -0.000210
C       1.64457647      0.11699756      1.47447003     -0.000142    -0.000059     0.000161
C       2.72416757      0.19683761      0.40422471     -0.000005    -0.000093    -0.000236
C      -2.58337700     -1.39415419     -0.46348474     -0.000070     0.000137     0.000388
C      -1.83954097     -0.43001998      0.48521173     -0.000157     0.000032    -0.000050
C       0.34712037      1.93823642      0.38444220     -0.000180     0.000219     0.000008
C      -2.46949254     -0.93647697     -1.94725366      0.000276     0.000179     0.000166
C       2.68977061     -0.82570956     -0.71481909      0.000172     0.000098    -0.000125
H      -0.34449598      0.81462259      1.97696427     -0.000047    -0.000119     0.000400
H       1.56104904     -0.91102407      1.82688159     -0.000602     0.000834    -0.000676
H       1.96025996      0.72593805      2.29656160      0.000606    -0.000217    -0.000337
H       2.73885969      1.17997477     -0.08578224     -0.000411     0.000232    -0.000060
H       3.71371014      0.08828179      0.86190257     -0.000936     0.001141     0.000196
H       0.01650834     -0.98842069     -0.32407768      0.000109    -0.000308    -0.000319
H      -2.12695222     -2.37873322     -0.37446086      0.000500     0.000301    -0.000682
H      -1.50033245     -1.18809092     -2.35967317     -0.000561     0.001349     0.000436
H      -2.63555947      0.16905072     -2.02268867     -0.000566    -0.000024    -0.000267
H      -3.23195638     -1.45144428     -2.53544659     -0.000528    -0.001290     0.000243
H      -4.19443984     -0.75959095      0.58116712      0.000673     0.000194     0.000041
H      -4.11851064     -2.36842830      0.42862343     -0.000730     0.000308     0.000956
H       0.18866870      2.80578244     -1.27322489     -0.000233    -0.001364    -0.000096
H       3.67242135     -1.23040053     -2.43140942      0.000782    -0.000583     0.000408
H       4.38160429      0.04417767     -1.51758107      0.000614    -0.000881     0.000087
