30
Image 0  Energy = -779.1353547324
O  -0.0189000000  2.6053000000 -1.1286000000
O  -2.1388000000 -0.6028000000  1.6144000000
O   1.4271000000  2.9333000000  0.5797000000
O   3.4102000000 -1.7369000000  0.9141000000
N  -0.9820000000  0.3409000000 -0.1621000000
N  -3.5464000000 -2.1716000000 -0.1643000000
N   3.9073000000 -1.6170000000 -1.3302000000
C   0.0864000000  0.9229000000  0.6105000000
C   1.2442000000 -0.0651000000  0.7983000000
C   2.0138000000 -0.3706000000 -0.4899000000
C  -3.0055000000 -0.8980000000 -0.6324000000
C  -2.0210000000 -0.3840000000  0.4105000000
C   0.5816000000  2.2369000000  0.0281000000
C  -4.1305000000  0.1087000000 -0.8381000000
C   3.1726000000 -1.3021000000 -0.2099000000
H  -0.3282000000  1.1685000000  1.5964000000
H   0.8630000000 -1.0005000000  1.2284000000
H   1.9425000000  0.3517000000  1.5366000000
H   1.3567000000 -0.8464000000 -1.2265000000
H   2.4198000000  0.5451000000 -0.9334000000
H  -0.9611000000  0.4652000000 -1.1702000000
H  -2.4887000000 -1.0707000000 -1.5827000000
H  -3.7334000000  1.0618000000 -1.2046000000
H  -4.6619000000  0.3168000000  0.0978000000
H  -4.8581000000 -0.2569000000 -1.5708000000
H  -4.0303000000 -2.0426000000  0.7234000000
H  -2.7865000000 -2.8280000000  0.0101000000
H   0.3154000000  3.4670000000 -1.4573000000
H   4.7079000000 -2.2376000000 -1.2727000000
H   3.6825000000 -1.2447000000 -2.2473000000
30
Image 1  Energy = -779.1349301306
O  -0.0189265245  2.6053288537 -1.1285169590
O  -2.1389853505 -0.6030572485  1.6150896111
O   1.4278072845  2.9339823585  0.5802512308
O   3.4101988617 -1.7370850379  0.9148398704
N  -0.9815806259  0.3410978557 -0.1621713440
N  -3.5463117630 -2.1714698816 -0.1641025237
N   3.9072314756 -1.6169516798 -1.3302241083
C   0.0864392394  0.9230081124  0.6104746746
C   1.2439172260 -0.0651767012  0.7981428565
C   2.0139839865 -0.3706711156 -0.4900900540
C  -3.0052343395 -0.8976708283 -0.6327926950
C  -2.0215024861 -0.3843538630  0.4104715333
C   0.5809708870  2.2359909225  0.0276406160
C  -4.1304302491  0.1085222003 -0.8380136961
C   3.1723841262 -1.3017839488 -0.2101689683
H  -0.3282731625  1.1685238821  1.5964628666
H   0.8630220846 -1.0006706206  1.2284570685
H   1.9425844260  0.3517603029  1.5367062309
H   1.3566627550 -0.8464362524 -1.2264834899
H   2.4198369221  0.5451067145 -0.9333847356
H  -0.9610134157  0.4652540705 -1.1704476538
H  -2.4886966304 -1.0707103345 -1.5827551438
H  -3.7333798314  1.0618546614 -1.2046277381
H  -4.6619770192  0.3168757317  0.0978413085
H  -4.8582024457 -0.2568720974 -1.5708828138
H  -4.0304263137 -2.0426348679  0.7235002945
H  -2.7863713919 -2.8280842789  0.0100935171
H   0.3153751030  3.4672964985 -1.4576127554
H   4.7080939932 -2.2377285114 -1.2728053608
H   3.6825031785 -1.2446448965 -2.2475916392
30
Image 2  Energy = -779.1400122794
O  -0.0178211571  2.6035624100 -1.1303789051
O  -2.1321283930 -0.5944807193  1.5970750859
O   1.4158182305  2.9210773655  0.5690518750
O   3.4125790054 -1.7342836840  0.8972708301
N  -0.9915918811  0.3372357130 -0.1598307205
N  -3.5505144036 -2.1760840898 -0.1702842160
N   3.9089636637 -1.6183477085 -1.3285603863
C   0.0856570474  0.9207807103  0.6109303613
C   1.2513911082 -0.0626883026  0.8022937965
C   2.0091704180 -0.3688861601 -0.4839173953
C  -3.0125628024 -0.9072032309 -0.6214498494
C  -2.0078380554 -0.3738252633  0.4056647057
C   0.5884157123  2.2534885918  0.0358165216
C  -4.1322736449  0.1131716990 -0.8399802302
C   3.1766283717 -1.3082554079 -0.2097354641
H  -0.3257947273  1.1675159875  1.5945009880
H   0.8623729464 -0.9945786996  1.2266287661
H   1.9407385929  0.3502809593  1.5341289622
H   1.3579006815 -0.8449926364 -1.2267830403
H   2.4183535698  0.5445975722 -0.9337608554
H  -0.9645743480  0.4631390052 -1.1620735228
H  -2.4896551492 -1.0703094527 -1.5794686559
H  -3.7336953180  1.0605338195 -1.2039074094
H  -4.6595033901  0.3143782839  0.0965152425
H  -4.8549199292 -0.2579729398 -1.5682828401
H  -4.0259699016 -2.0416473149  0.7198158640
H  -2.7905744087 -2.8255448258  0.0103387222
H   0.3166086450  3.4582978377 -1.4474751810
H   4.7024033595 -2.2340897090 -1.2690113360
H   3.6821160441 -1.2462698928 -2.2378317554
30
Image 3  Energy = -779.1406913829
O  -0.0180361758  2.6013696497 -1.1305692533
O  -2.1287184548 -0.5908108631  1.5927537261
O   1.4174939464  2.9214026454  0.5685465090
O   3.4148645374 -1.7350029115  0.8937447229
N  -0.9917117550  0.3383350382 -0.1596688857
N  -3.5530120127 -2.1780565276 -0.1724513789
N   3.9089474496 -1.6184249365 -1.3278948614
C   0.0854236347  0.9205385889  0.6109686993
C   1.2526367387 -0.0617282248  0.8029366804
C   2.0083597102 -0.3685054487 -0.4824567523
C  -3.0141033099 -0.9091754702 -0.6193940028
C  -2.0060418529 -0.3718659157  0.4020309044
C   0.5843353473  2.2533552132  0.0352628333
C  -4.1323700302  0.1136857173 -0.8399043254
C   3.1765399568 -1.3087031572 -0.2127710271
H  -0.3247973359  1.1669660429  1.5939857095
H   0.8620696496 -0.9919581057  1.2260887927
H   1.9409950181  0.3502954656  1.5341133945
H   1.3583174507 -0.8441323371 -1.2265959363
H   2.4174739568  0.5441816334 -0.9337326619
H  -0.9664141220  0.4621870250 -1.1593182959
H  -2.4908098723 -1.0702222418 -1.5770809869
H  -3.7334635659  1.0604720164 -1.2038041924
H  -4.6587243605  0.3134818357  0.0962081890
H  -4.8538220708 -0.2586139727 -1.5674866037
H  -4.0242594445 -2.0414333952  0.7184496040
H  -2.7921468715 -2.8249153039  0.0104510503
H   0.3178242602  3.4559887057 -1.4436530967
H   4.7011490217 -2.2335015259 -1.2670371123
H   3.6817004432 -1.2466093227 -2.2344214812
30
Image 4  Energy = -779.1419727233
O  -0.0209911216  2.5895647631 -1.1311743995
O  -2.1127162607 -0.5744400659  1.5808179582
O   1.4185059517  2.9190225522  0.5618889175
O   3.4265954737 -1.7405257087  0.8814139973
N  -0.9873192755  0.3463644649 -0.1596204946
N  -3.5647948403 -2.1860184400 -0.1817794401
N   3.9081994887 -1.6185111487 -1.3252482857
C   0.0850591467  0.9213586907  0.6107544575
C   1.2549693827 -0.0567582958  0.8036072747
C   2.0073831923 -0.3676803875 -0.4792347641
C  -3.0184318917 -0.9133462917 -0.6164966345
C  -2.0043185770 -0.3674579041  0.3844428718
C   0.5732542186  2.2531810989  0.0379422702
C  -4.1308911791  0.1131185042 -0.8381404203
C   3.1733070147 -1.3079099459 -0.2253294462
H  -0.3206884296  1.1641952749  1.5930610806
H   0.8601460088 -0.9806749233  1.2246175985
H   1.9442793716  0.3518866195  1.5362197808
H   1.3594726676 -0.8396635082 -1.2251787922
H   2.4130231868  0.5423958484 -0.9332871065
H  -0.9745513834  0.4587257303 -1.1523183357
H  -2.4971829982 -1.0704195886 -1.5656247773
H  -3.7316868085  1.0608183645 -1.2035448482
H  -4.6560882216  0.3098781000  0.0960134165
H  -4.8495979668 -0.2620557856 -1.5646494593
H  -4.0177828753 -2.0409728019  0.7138104337
H  -2.7988730781 -2.8235330269  0.0107974121
H   0.3247380195  3.4474087522 -1.4263743665
H   4.6978187083 -2.2328670109 -1.2568487289
H   3.6788629704 -1.2464840131 -2.2232371857
30
Image 5  Energy = -779.1420572739
O  -0.0232987602  2.5841316666 -1.1313437463
O  -2.1030441057 -0.5638489197  1.5731716076
O   1.4203628296  2.9211106971  0.5584897806
O   3.4326166618 -1.7431241960  0.8701859651
N  -0.9884753599  0.3491126889 -0.1632989341
N  -3.5701730738 -2.1881064921 -0.1876926348
N   3.9076954109 -1.6186058732 -1.3264556167
C   0.0870257773  0.9248857018  0.6121899234
C   1.2561124834 -0.0517337501  0.8032667324
C   2.0077464091 -0.3672801973 -0.4804890079
C  -3.0214131593 -0.9130253843 -0.6189138763
C  -2.0025566741 -0.3663334277  0.3863346349
C   0.5660719437  2.2445702101  0.0380300495
C  -4.1286397064  0.1120925971 -0.8374085600
C   3.1729352045 -1.3097027506 -0.2194605540
H  -0.3189038768  1.1617022350  1.5950107397
H   0.8575717708 -0.9746691368  1.2253809585
H   1.9474114646  0.3541658102  1.5384442896
H   1.3584155046 -0.8362652963 -1.2242602937
H   2.4101717767  0.5426601897 -0.9333661789
H  -0.9775782204  0.4593606179 -1.1575635241
H  -2.5006163326 -1.0721602101 -1.5626821868
H  -3.7301586810  1.0602023220 -1.2028706787
H  -4.6553330931  0.3078527101  0.0979413334
H  -4.8473602757 -0.2650641963 -1.5633655874
H  -4.0161414828 -2.0411766368  0.7136960369
H  -2.8037356542 -2.8245032241  0.0101094817
H   0.3295611895  3.4405431100 -1.4142622378
H   4.6973978934 -2.2342205339 -1.2479526572
H   3.6760320296 -1.2439704166 -2.2235652607
30
Image 6  Energy = -779.1424661571
O  -0.0234073599  2.5842989064 -1.1309134446
O  -2.1044316809 -0.5655385290  1.5777294451
O   1.4184481804  2.9199239053  0.5578767385
O   3.4325968768 -1.7443271212  0.8751331301
N  -0.9881592067  0.3488887578 -0.1636669060
N  -3.5694013358 -2.1872247962 -0.1864974374
N   3.9075176916 -1.6185601881 -1.3264344007
C   0.0863839671  0.9242048050  0.6119580302
C   1.2559910566 -0.0521924519  0.8032535280
C   2.0078582713 -0.3672885976 -0.4803550994
C  -3.0206478314 -0.9126250646 -0.6187819399
C  -2.0028884674 -0.3663835227  0.3844335057
C   0.5690288089  2.2463997148  0.0384191191
C  -4.1290330081  0.1121608508 -0.8374301129
C   3.1726679139 -1.3083179119 -0.2227199742
H  -0.3192747744  1.1618640540  1.5953667081
H   0.8576193355 -0.9752633471  1.2255789018
H   1.9472553699  0.3542216075  1.5382863754
H   1.3580971137 -0.8366089392 -1.2244253111
H   2.4105941802  0.5429703004 -0.9335067717
H  -0.9769242899  0.4598032400 -1.1585519997
H  -2.5000137695 -1.0723116108 -1.5640926990
H  -3.7302011407  1.0601330563 -1.2028469014
H  -4.6554677393  0.3080579557  0.0979755585
H  -4.8476642912 -0.2648824293 -1.5635675942
H  -4.0167142271 -2.0413061733  0.7138594511
H  -2.8034258676 -2.8247527662  0.0098362915
H   0.3294443371  3.4414060956 -1.4153218502
H   4.6976048045 -2.2342607485 -1.2485466249
H   3.6762469777 -1.2438891360 -2.2247477205
30
Image 7  Energy = -779.1426546305
O  -0.0244395554  2.5823536302 -1.1302704085
O  -2.1023887929 -0.5634280266  1.5801584566
O   1.4165982632  2.9191820237  0.5556276034
O   3.4345991206 -1.7465232494  0.8762390127
N  -0.9882785761  0.3495910812 -0.1660513444
N  -3.5704138589 -2.1866541091 -0.1869580629
N   3.9070071017 -1.6184722377 -1.3272251165
C   0.0860257246  0.9243906423  0.6121245295
C   1.2564531572 -0.0509657900  0.8033523192
C   2.0079999112 -0.3669680994 -0.4804337887
C  -3.0206536633 -0.9122237657 -0.6191997362
C  -2.0023972551 -0.3659049810  0.3836311157
C   0.5701878639  2.2455579332  0.0387314748
C  -4.1289471557  0.1120385824 -0.8371572525
C   3.1728931618 -1.3079292629 -0.2235176275
H  -0.3191267896  1.1609899295  1.5967221895
H   0.8566304855 -0.9734394140  1.2262039597
H   1.9482279728  0.3552858680  1.5388150165
H   1.3570734715 -0.8356905714 -1.2243148180
H   2.4100843454  0.5436551585 -0.9338407120
H  -0.9771256306  0.4608567992 -1.1621513654
H  -2.5004757818 -1.0733278706 -1.5652979544
H  -3.7296246951  1.0597134497 -1.2024848471
H  -4.6552553421  0.3074475999  0.0987789829
H  -4.8471375090 -0.2658962676 -1.5632877291
H  -4.0169255189 -2.0415807240  0.7139534448
H  -2.8051891200 -2.8255309853  0.0089615780
H   0.3313106822  3.4396072496 -1.4116832961
H   4.6974368270 -2.2346694522 -1.2456405289
H   3.6755510513 -1.2428652264 -2.2264850961
30
Image 8  Energy = -779.1428762582
O  -0.0267448117  2.5776571231 -1.1289034389
O  -2.0966743583 -0.5572950551  1.5828119863
O   1.4142747944  2.9187519232  0.5511129900
O   3.4391422212 -1.7508764323  0.8758340581
N  -0.9884061432  0.3513612288 -0.1717497146
N  -3.5731127722 -2.1856038265 -0.1881596369
N   3.9058548651 -1.6183029986 -1.3292750265
C   0.0850461237  0.9245691779  0.6123621634
C   1.2576526983 -0.0481856438  0.8039555769
C   2.0081645687 -0.3660402000 -0.4801605597
C  -3.0206095052 -0.9119492816 -0.6196754195
C  -2.0008634483 -0.3645425607  0.3830315960
C   0.5703017421  2.2422637836  0.0385359911
C  -4.1288893361  0.1118817246 -0.8363713609
C   3.1740615138 -1.3081272571 -0.2237905445
H  -0.3187090656  1.1586371360  1.5996001027
H   0.8543178653 -0.9684428727  1.2276762059
H   1.9504722861  0.3579484190  1.5399036835
H   1.3546731895 -0.8332678757 -1.2238737598
H   2.4087530609  0.5452561584 -0.9346808927
H  -0.9778429974  0.4633520292 -1.1699052163
H  -2.5018901226 -1.0757393807 -1.5677438005
H  -3.7282139687  1.0587381697 -1.2015729382
H  -4.6545192512  0.3057693418  0.1005854777
H  -4.8457005918 -0.2684628985 -1.5624617234
H  -4.0173047977 -2.0421353246  0.7139491193
H  -2.8099411281 -2.8273250904  0.0065978595
H   0.3359430488  3.4346420675 -1.4022624664
H   4.6963130478 -2.2351349477 -1.2384574008
H   3.6741511620 -1.2407967260 -2.2296129095
30
Image 9  Energy = -779.1430289663
O  -0.0284421228  2.5742273895 -1.1278117585
O  -2.0916904465 -0.5515518593  1.5832457825
O   1.4139559449  2.9192327546  0.5477510006
O   3.4418364447 -1.7536225133  0.8742305022
N  -0.9876530803  0.3518500242 -0.1769974533
N  -3.5744642314 -2.1835681611 -0.1868180652
N   3.9045035503 -1.6182494653 -1.3311847724
C   0.0829015466  0.9225448282  0.6114827162
C   1.2585469480 -0.0470356082  0.8056660764
C   2.0082980091 -0.3648999843 -0.4782387342
C  -3.0185605191 -0.9130472646 -0.6183352503
C  -1.9984464155 -0.3624611282  0.3828099878
C   0.5691916726  2.2398521901  0.0376784844
C  -4.1294735908  0.1119018273 -0.8352480356
C   3.1762654134 -1.3092010557 -0.2243642189
H  -0.3192817689  1.1555959191  1.6009423632
H   0.8525448248 -0.9635781034  1.2299034628
H   1.9515860187  0.3612220061  1.5397452021
H   1.3521195984 -0.8308348901 -1.2226320086
H   2.4081225299  0.5471182101 -0.9357100589
H  -0.9775965705  0.4668497599 -1.1758852534
H  -2.5031601122 -1.0781548475 -1.5711604586
H  -3.7270379721  1.0578661041 -1.2004403968
H  -4.6534752352  0.3039765916  0.1021543492
H  -4.8446054241 -0.2709066854 -1.5616199327
H  -4.0191440577 -2.0423885348  0.7140979616
H  -2.8155495197 -2.8298472796  0.0024473427
H   0.3404759064  3.4297540637 -1.3938587663
H   4.6931696065 -2.2336946958 -1.2329924407
H   3.6747629324 -1.2403496848 -2.2315576265
30
Image 10  Energy = -779.1431337652
O  -0.0305764773  2.5704194147 -1.1271526221
O  -2.0849481378 -0.5434120192  1.5809217960
O   1.4132708746  2.9186930305  0.5431074171
O   3.4448973194 -1.7561912590  0.8697457002
N  -0.9857697314  0.3513159581 -0.1827048889
N  -3.5762161109 -2.1809324793 -0.1856603101
N   3.9018372481 -1.6178143280 -1.3327169801
C   0.0830792398  0.9222765114  0.6109081914
C   1.2588562292 -0.0445353253  0.8066870815
C   2.0093601813 -0.3640094224 -0.4773237405
C  -3.0168984671 -0.9130094852 -0.6188125695
C  -1.9955792702 -0.3607735999  0.3812711046
C   0.5677169831  2.2361629553  0.0394037151
C  -4.1273088900  0.1101208081 -0.8338885966
C   3.1754150590 -1.3087682850 -0.2237184649
H  -0.3210627785  1.1506396969  1.6000080157
H   0.8505038575 -0.9595448933  1.2344148866
H   1.9523168320  0.3664265144  1.5395942227
H   1.3498225539 -0.8270657610 -1.2190868104
H   2.4070407034  0.5483322153 -0.9358886539
H  -0.9770212274  0.4717356615 -1.1811750948
H  -2.5058475164 -1.0809505498 -1.5727401106
H  -3.7260104753  1.0569971764 -1.1987515006
H  -4.6524483322  0.3017585875  0.1048038562
H  -4.8433044384 -0.2739866066 -1.5602506620
H  -4.0228556833 -2.0420650566  0.7160099487
H  -2.8224884566 -2.8351514915 -0.0035122842
H   0.3466161458  3.4250290449 -1.3847832589
H   4.6906658023 -2.2326798256 -1.2275212997
H   3.6766368337 -1.2404172861 -2.2338880913
30
Image 11  Energy = -779.1432007223
O  -0.0306812103  2.5699698537 -1.1263229989
O  -2.0822931711 -0.5396666809  1.5794849585
O   1.4152513425  2.9192942050  0.5426266181
O   3.4451411085 -1.7568194676  0.8684903240
N  -0.9825937930  0.3501121321 -0.1849489857
N  -3.5768620211 -2.1791485516 -0.1829853633
N   3.9004394444 -1.6180823750 -1.3327206548
C   0.0831294769  0.9212380175  0.6099309751
C   1.2590026178 -0.0444595717  0.8076516564
C   2.0091390412 -0.3627733445 -0.4757794333
C  -3.0157697959 -0.9134024763 -0.6182489907
C  -1.9936419658 -0.3600070408  0.3787070342
C   0.5651770292  2.2342033765  0.0384762627
C  -4.1266088167  0.1093665152 -0.8329375000
C   3.1743590793 -1.3079740350 -0.2250349202
H  -0.3235922027  1.1472025148  1.5980068344
H   0.8503361269 -0.9581830928  1.2379074682
H   1.9515667059  0.3701736124  1.5388837070
H   1.3485899088 -0.8252040824 -1.2163367744
H   2.4069898616  0.5487235063 -0.9354936624
H  -0.9758368320  0.4754150615 -1.1828405601
H  -2.5071033398 -1.0825265397 -1.5736387796
H  -3.7259145778  1.0564558032 -1.1974914526
H  -4.6512980817  0.3002898688  0.1057526359
H  -4.8423614021 -0.2753349246 -1.5589229440
H  -4.0256816741 -2.0414630149  0.7171169055
H  -2.8268343871 -2.8394340527 -0.0080050708
H   0.3496838823  3.4232355736 -1.3819327789
H   4.6889469448 -2.2314712483 -1.2264544045
H   3.6790205717 -1.2411296413 -2.2356401134
30
Image 12  Energy = -779.1432656642
O  -0.0302640145  2.5708863012 -1.1260826068
O  -2.0816708510 -0.5381942531  1.5771199585
O   1.4157623210  2.9183459765  0.5426162032
O   3.4438765977 -1.7559239936  0.8672846565
N  -0.9799903713  0.3484759945 -0.1855614344
N  -3.5768258922 -2.1783038442 -0.1807819874
N   3.8995374184 -1.6181942412 -1.3327857501
C   0.0834611365  0.9202980787  0.6091364684
C   1.2589358828 -0.0450384212  0.8084730913
C   2.0086977771 -0.3619880312 -0.4745988873
C  -3.0151920292 -0.9139148895 -0.6177030960
C  -1.9923416904 -0.3598067620  0.3772154387
C   0.5651854906  2.2352048024  0.0387315737
C  -4.1261626350  0.1089749894 -0.8323630097
C   3.1733183619 -1.3075494813 -0.2254365433
H  -0.3259351749  1.1450609743  1.5956820538
H   0.8510452515 -0.9583638520  1.2403487141
H   1.9503240121  0.3725993413  1.5381246271
H   1.3481393861 -0.8244279799 -1.2143344887
H   2.4072936898  0.5486628848 -0.9348145767
H  -0.9746601589  0.4777854393 -1.1820824419
H  -2.5077476687 -1.0832190212 -1.5735273309
H  -3.7262543341  1.0562855787 -1.1966843421
H  -4.6504438445  0.2994661541  0.1060019778
H  -4.8418616647 -0.2757328289 -1.5579449892
H  -4.0276464765 -2.0407712661  0.7180612232
H  -2.8293409539 -2.8424463165 -0.0109393022
H   0.3509881764  3.4232878803 -1.3823321736
H   4.6881551346 -2.2306159500 -1.2274533113
H   3.6813169943 -1.2422433621 -2.2360697271
30
Image 13  Energy = -779.1433472183
O  -0.0302720928  2.5725172562 -1.1256838897
O  -2.0792310682 -0.5337098982  1.5742585959
O   1.4165780256  2.9159328316  0.5421696231
O   3.4417674677 -1.7553622297  0.8666874636
N  -0.9743545473  0.3438543013 -0.1897483482
N  -3.5779513608 -2.1765899248 -0.1770222179
N   3.8970808553 -1.6184264692 -1.3344492578
C   0.0844651930  0.9187401567  0.6074934162
C   1.2589002785 -0.0447196182  0.8111958478
C   2.0079032952 -0.3606916659 -0.4719335946
C  -3.0140994075 -0.9151668356 -0.6168680096
C  -1.9885078558 -0.3588421697  0.3720953641
C   0.5664911858  2.2357314979  0.0401145036
C  -4.1247493916  0.1080780182 -0.8308011799
C   3.1708392231 -1.3059979018 -0.2278725006
H  -0.3321404752  1.1395239699  1.5912706383
H   0.8530103781 -0.9576807729  1.2467311574
H   1.9481427413  0.3795250241  1.5372836621
H   1.3458323233 -0.8222883911 -1.2099304403
H   2.4076784185  0.5494430401 -0.9329783721
H  -0.9717203459  0.4845126859 -1.1830450024
H  -2.5096435598 -1.0858305097 -1.5736206256
H  -3.7267236522  1.0559488794 -1.1945094050
H  -4.6482953152  0.2970485845  0.1076596536
H  -4.8404747656 -0.2773931007 -1.5554364013
H  -4.0318427952 -2.0392228522  0.7209410417
H  -2.8373462412 -2.8503019890 -0.0182345427
H   0.3553654329  3.4232567914 -1.3822006160
H   4.6868032035 -2.2293572340 -1.2280015163
H   3.6861947204 -1.2439315909 -2.2382650683
30
Image 14  Energy = -779.1434026186
O  -0.0293166846  2.5753396352 -1.1253371986
O  -2.0797261636 -0.5332366777  1.5719034912
O   1.4178970497  2.9146816088  0.5442430800
O   3.4387573483 -1.7534504391  0.8663822844
N  -0.9706224644  0.3408318771 -0.1911454598
N  -3.5792258377 -2.1766475041 -0.1756017999
N   3.8967783283 -1.6192754968 -1.3348639901
C   0.0850552749  0.9182904605  0.6070002909
C   1.2589361237 -0.0447848790  0.8126824200
C   2.0069453181 -0.3601634103 -0.4711583170
C  -3.0144240639 -0.9157641600 -0.6168962061
C  -1.9877136518 -0.3598626950  0.3714194182
C   0.5678216242  2.2364860415  0.0398684926
C  -4.1243193599  0.1079843206 -0.8301888767
C   3.1698903623 -1.3059936688 -0.2273794955
H  -0.3361252225  1.1376880743  1.5889395167
H   0.8556406480 -0.9585806869  1.2496336057
H   1.9468523766  0.3828040541  1.5376229063
H   1.3446766217 -0.8222605667 -1.2084993925
H   2.4080184270  0.5496058997 -0.9311850668
H  -0.9699340112  0.4876302832 -1.1833212760
H  -2.5100400430 -1.0869715703 -1.5729104501
H  -3.7273422269  1.0562553354 -1.1936205467
H  -4.6472210380  0.2961468260  0.1083147220
H  -4.8400002445 -0.2774784606 -1.5541595833
H  -4.0324438585 -2.0384030234  0.7222112905
H  -2.8407997711 -2.8540038895 -0.0206324369
H   0.3561430159  3.4252894606 -1.3859259467
H   4.6873265078 -2.2293813412 -1.2300262791
H   3.6882154836 -1.2441755336 -2.2400692162
30
Image 15  Energy = -779.1434704519
O  -0.0283731495  2.5780414809 -1.1244383884
O  -2.0786498116 -0.5310494589  1.5706159687
O   1.4192601983  2.9129658816  0.5459662104
O   3.4365034624 -1.7527104119  0.8666047784
N  -0.9665453668  0.3368340769 -0.1947651059
N  -3.5823681660 -2.1765907130 -0.1751343745
N   3.8960697338 -1.6203774891 -1.3362977221
C   0.0850422061  0.9178299371  0.6065528716
C   1.2596559767 -0.0435290828  0.8147747276
C   2.0061651098 -0.3596502698 -0.4705425279
C  -3.0147076338 -0.9166094236 -0.6172079325
C  -1.9863883455 -0.3609430039  0.3697090192
C   0.5696083747  2.2362798400  0.0395878894
C  -4.1235585735  0.1077224842 -0.8291181868
C   3.1690039423 -1.3059528974 -0.2275461873
H  -0.3411965571  1.1352108760  1.5871118239
H   0.8589020129 -0.9579769236  1.2537531651
H   1.9464607215  0.3879364327  1.5391430206
H   1.3421759139 -0.8215349499 -1.2068773916
H   2.4077393570  0.5504322755 -0.9288606749
H  -0.9680107503  0.4923518956 -1.1870404222
H  -2.5109040458 -1.0894857615 -1.5728728787
H  -3.7275843195  1.0566729600 -1.1922770803
H  -4.6458171325  0.2946051831  0.1102521434
H  -4.8393542826 -0.2783271781 -1.5525208046
H  -4.0324030218 -2.0377115992  0.7240326665
H  -2.8471548066 -2.8589614580 -0.0238869011
H   0.3582535076  3.4265008938 -1.3882997160
H   4.6879101519 -2.2298150233 -1.2303531114
H   3.6899651601 -1.2435587060 -2.2427649009
30
Image 16  Energy = -779.1435312319
O  -0.0258199825  2.5836034572 -1.1227765379
O  -2.0757382193 -0.5263756591  1.5668196893
O   1.4240972532  2.9090480696  0.5508720809
O   3.4324866020 -1.7518837983  0.8663328425
N  -0.9599729167  0.3269916962 -0.2075223338
N  -3.5903922997 -2.1778123463 -0.1764183087
N   3.8947398666 -1.6233015206 -1.3398147383
C   0.0839445384  0.9163134680  0.6048534196
C   1.2630155277 -0.0398675996  0.8204505982
C   2.0043787090 -0.3592958766 -0.4683344843
C  -3.0151132993 -0.9206102783 -0.6174816337
C  -1.9826635961 -0.3634168015  0.3658619260
C   0.5722117522  2.2358800455  0.0401523757
C  -4.1231181196  0.1082788697 -0.8264372750
C   3.1682948961 -1.3069929627 -0.2295684907
H  -0.3523803979  1.1317148067  1.5835466053
H   0.8682049693 -0.9544167615  1.2625679279
H   1.9468540926  0.3992968438  1.5433660430
H   1.3360172223 -0.8194934872 -1.2040151489
H   2.4063941900  0.5531489375 -0.9238362422
H  -0.9648428341  0.5015874281 -1.1932590408
H  -2.5126092911 -1.0962007772 -1.5737698507
H  -3.7278621012  1.0577012900 -1.1890808038
H  -4.6423365715  0.2911220266  0.1150332404
H  -4.8385659175 -0.2797584500 -1.5489241530
H  -4.0295507544 -2.0364826754  0.7285685520
H  -2.8640801602 -2.8678972898 -0.0303701061
H   0.3630155517  3.4298954142 -1.3938217899
H   4.6882034956 -2.2302774026 -1.2307709672
H   3.6928876662 -1.2418988296 -2.2449233938
30
Image 17  Energy = -779.1435829436
O  -0.0246792627  2.5849306819 -1.1221821434
O  -2.0737852359 -0.5246811247  1.5667807526
O   1.4249372629  2.9072128559  0.5516839251
O   3.4327533309 -1.7527541714  0.8655629417
N  -0.9577197942  0.3243937686 -0.2071865644
N  -3.5948222497 -2.1774319674 -0.1771136956
N   3.8942281024 -1.6245813146 -1.3394862364
C   0.0825953443  0.9157567107  0.6037876187
C   1.2641651078 -0.0379360698  0.8215803030
C   2.0046251014 -0.3591006510 -0.4682255275
C  -3.0152657035 -0.9215725176 -0.6183090222
C  -1.9823915618 -0.3647954492  0.3624177769
C   0.5730213400  2.2360065063  0.0409087448
C  -4.1225569484  0.1077686074 -0.8256579814
C   3.1680252109 -1.3073880073 -0.2302375634
H  -0.3550952625  1.1314387321  1.5823880346
H   0.8712487170 -0.9524202336  1.2652333590
H   1.9481497450  0.4026694707  1.5451605106
H   1.3340993435 -0.8182657499 -1.2031530017
H   2.4052915438  0.5538672075 -0.9225128094
H  -0.9650616931  0.5039659024 -1.1987520451
H  -2.5132948638 -1.0987100540 -1.5744787718
H  -3.7276088317  1.0580868054 -1.1880763441
H  -4.6414860200  0.2902308989  0.1170606805
H  -4.8387945396 -0.2799800459 -1.5479804106
H  -4.0273303659 -2.0364833074  0.7295006437
H  -2.8689225050 -2.8705576416 -0.0318357442
H   0.3644655370  3.4300120364 -1.3941476220
H   4.6882309050 -2.2306021756 -1.2301446530
H   3.6926781220 -1.2404798740 -2.2452851376
30
Image 18  Energy = -779.1436054788
O  -0.0249514406  2.5835802377 -1.1224248873
O  -2.0737686599 -0.5253802916  1.5668851134
O   1.4243119125  2.9076791479  0.5508381229
O   3.4343908044 -1.7537525983  0.8655349462
N  -0.9595099193  0.3262588971 -0.2064110320
N  -3.5939550163 -2.1774175156 -0.1776459229
N   3.8941887052 -1.6240325073 -1.3390321553
C   0.0825640266  0.9161087628  0.6042482598
C   1.2640260752 -0.0379800011  0.8205587613
C   2.0052120401 -0.3592309915 -0.4686228880
C  -3.0153126943 -0.9211786390 -0.6186442309
C  -1.9830497183 -0.3646828876  0.3633602110
C   0.5720502672  2.2359308553  0.0410481155
C  -4.1226568967  0.1076810432 -0.8260698304
C   3.1681833040 -1.3072754751 -0.2302968570
H  -0.3528317751  1.1326831740  1.5829246154
H   0.8700993293 -0.9522135598  1.2637824111
H   1.9487681393  0.4007546415  1.5446539459
H   1.3350529102 -0.8181685257 -1.2036494027
H   2.4051227778  0.5535542891 -0.9235691667
H  -0.9662867941  0.5017275380 -1.1974279252
H  -2.5131168729 -1.0980526336 -1.5747790097
H  -3.7273809725  1.0578683510 -1.1885023406
H  -4.6420192589  0.2908373794  0.1165340077
H  -4.8392495358 -0.2795431267 -1.5486156000
H  -4.0269828452 -2.0367620508  0.7290502833
H  -2.8667456268 -2.8685066026 -0.0305896913
H   0.3638139251  3.4292069071 -1.3925339681
H   4.6880933879 -2.2306279382 -1.2295926302
H   3.6916402990 -1.2404660458 -2.2437112355
