53

O         -0.88230       -0.13290        1.06570
O          3.32770        1.45690       -0.93930
O         -3.66000       -0.24280       -1.79950
O          5.18010       -1.83860        0.34330
O         -7.22300        0.40510        1.22880
O         -8.17070       -1.45060        0.34990
N          1.70940        0.29760        0.25220
N         -1.61770        1.21500       -0.67370
N          5.24420        0.44410        0.75310
N         -4.85890       -0.02710        0.17500
N          7.93350       -1.86200        0.18850
C          0.65680        0.40320       -0.73150
C         -2.95950        1.42260       -0.18030
C          3.89310        0.57230        1.24790
C         -0.67920        0.44450       -0.00040
C          2.97320        0.84040        0.06350
C          0.70220       -0.78660       -1.68200
C         -3.84400        0.30250       -0.71330
C         -3.48670        2.77610       -0.64020
C          3.80600        1.71360        2.25340
C         -5.82500       -1.06770       -0.09090
C          7.22680       -0.62220       -0.12330
C          5.78170       -0.76650        0.33680
C         -5.32470       -2.40740        0.42790
C          7.27950       -0.34780       -1.62090
C         -7.18260       -0.74180        0.50910
H          0.80060        1.33100       -1.29730
H         -2.93550        1.38770        0.91500
H          3.61050       -0.36960        1.73210
H          1.51250       -0.21050        1.11000
H         -1.38300        1.58970       -1.58860
H         -0.09450       -0.71980       -2.43040
H          1.66200       -0.83430       -2.20730
H          0.57060       -1.73150       -1.14220
H          5.79200        1.29230        0.63770
H         -3.52930        2.83740       -1.73380
H         -4.49890        2.95060       -0.26020
H         -2.84200        3.58710       -0.28510
H          2.78840        1.81130        2.64610
H          4.48450        1.54390        3.09620
H          4.07630        2.67160        1.79440
H         -5.96680       -1.12340       -1.17670
H         -4.92830        0.47170        1.05740
H          7.70950        0.20000        0.41710
H         -5.18430       -2.38170        1.51470
H         -6.03720       -3.20860        0.20520
H         -4.36330       -2.67200       -0.02540
H          6.80230       -1.15140       -2.19380
H          8.31320       -0.24670       -1.96890
H          6.75080        0.58100       -1.86270
H          8.90200       -1.79180       -0.12160
H          7.96780       -1.99120        1.19910
H         -8.11740        0.57880        1.59230
