111
NCAA cap-only conformer guess: phi=240.0000 psi=220.0000
C  -10.5368152288 -5.4930034300 -4.0388888467
C  -9.0002052389 -5.1754495977 -3.9225991105
O  -8.1740654844 -6.0341571990 -4.1124500032
H  -11.1941112660 -4.6250215965 -4.0905556267
H  -10.8945885743 -6.2070140485 -3.2970754808
H  -10.6892121582 -6.1182428568 -4.9186336024
P  -11.2772725249 -1.4037713029 -3.8187953543
P  -12.6443698563 -2.6800228179 -1.5601352477
C  -7.0670000000 -3.5070000000 -3.7450000000
N  -8.4910000000 -3.8960000000 -3.6930000000
C  -6.6140000000 -2.9510000000 -2.3810000000
N  -4.3829396323 -3.3124873729 -5.3759301545
O  -6.8873661975 -3.4933479480 -1.3287834703
C  -6.7630439100 -2.5367258621 -4.8933352878
N  -4.6502031709 -4.4755820083 -7.2496668651
O  -12.5831632992 -0.9924894510 -4.3574736364
C  -5.7050721743 -3.1297078883 -5.7674070157
O  -10.1824715740 -1.9432245611 -4.6915861805
C  -5.8298574965 -3.8477451139 -6.9189857328
N  -4.6814742935  4.2459402241 -2.7210689328
O  -11.4171126088 -2.4845114362 -2.6073555234
C  -3.8188448031 -4.1353837404 -6.3059818537
N  -20.8781954543  0.3436632096 -1.3237596365
O  -10.6897857859 -0.1112223457 -3.0005863107
C  -9.3427031438 -0.1623931940 -2.5733079691
N  -3.4561401018  5.9067670526 -3.9458527832
O  -9.9212233855  1.4665293039 -0.8977160413
C  -9.0446101538  1.2001817718 -1.9799625335
N  -19.2695416204  0.2513231131  0.4584998851
O  -7.2037791197  0.3856658714 -0.5478377211
C  -7.6180479651  1.3663923901 -1.4750460830
N  -2.3774693698  2.7068057962 -5.0433446722
O  -6.9263092637  2.5135660673 -3.5232860309
C  -6.6134691174  1.4652567697 -2.6260614022
N  -20.3818980162 -0.3225445669 -3.4910994136
O  -12.0445164793 -3.1508542092 -0.2662151905
C  -5.2081465305  1.6530426070 -2.0430046744
N  -17.6256701745 -0.9543217396 -2.4632151672
O  -5.0262678032  6.4758739671 -2.4411006679
C  -16.3092490146 -0.3993410610  0.8936831350
N  -17.1069604503 -0.5900783328 -0.3090077413
O  -13.7522027228 -3.4220314981 -2.2001153974
C  -4.4378198186  5.5770072611 -2.9849988437
N  -4.2433868403  2.0109492887 -3.0897826202
O  -15.7976539681 -1.4605167196  2.9876245772
C  -20.4596337754  0.5072970223 -0.0696603913
O  -13.8386526570 -2.9027784377  1.7492376776
C  -15.9393752182 -1.7073485379  1.6001611875
O  -1.9333373529  5.3925766535 -5.5448859151
C  -14.5889879058 -2.0108104759  0.9752796382
O  -15.1011433974  0.2299669111  0.5261294888
C  -2.7232225850  5.0446818639 -4.7077243046
O  -13.1465888642 -1.1367264150 -1.3419306947
C  -18.4253866151 -0.2350359854 -0.4500889944
C  -13.9855980492 -0.6064444499  0.8759502913
C  -3.0175186796  3.6009480721 -4.3908848370
C  -18.7144061368 -0.4711501055 -1.7897507087
C  -12.8663980920 -0.4557422025 -0.1344918461
C  -2.6755589762  1.3876557276 -4.7865761574
C  -1.9849281938  0.4050566980 -5.4980819288
C  -20.0042879729 -0.1489150543 -2.2137011187
C  -2.2492602921 -0.9300567391 -5.3261027663
C  -1.4485449566 -1.9366082391 -6.1008152303
C  -3.2837991850 -1.2908949387 -4.4233863224
C  -16.6816165066 -1.0083583010 -1.5569535075
C  -3.6858848394 -2.7421971925 -4.2325371742
C  -3.9388534903 -0.3415576035 -3.6750624142
C  -3.6325511866  1.0202064302 -3.8376291060
C  -4.0237476666  3.3269401612 -3.3613243708
H  -9.2054586624 -3.2264186441 -3.4306536113
H  -6.6351944706 -4.0789740187 -4.5763042203
H  -7.8521267653 -1.5380624596 -4.1253219467
H  -6.4853692148 -1.5674254624 -4.4722510722
H  -6.7238716492 -3.9736736157 -7.5078887164
H  -2.7924123460 -4.4540562804 -6.2236101075
H  -3.3447851813  6.8951880730 -4.1237199742
H  -1.2266691338  0.7477471937 -6.1894218131
H  -4.7173038467 -0.6599999430 -2.9913493874
H  -5.2080620055  2.4540391256 -1.3081179037
H  -4.8667070539  0.7502162629 -1.5487402411
H  -6.6364218614  0.5474989233 -3.2216839815
H  -6.8351191480  3.3462162988 -3.0403206627
H  -7.5883680213  2.3185244701 -0.9290359871
H  -7.0797822127 -0.4581591841 -1.0154808147
H  -16.8992236497  0.2415083524  1.5517950677
H  -9.2019480003  1.9403827318 -2.7742831537
H  -10.7854237218  1.1523034756 -1.1973977213
H  -21.1993329014  0.9079545282  0.6136742423
H  -16.6883932080 -2.4843161918  1.4230434079
H  -15.0593316124 -2.0178257542  3.2740072853
H  -9.2204131911 -0.9477023241 -1.8195523935
H  -8.7030283371 -0.3717213801 -3.4343355726
H  -14.7586657796 -2.4065886860 -0.0328160034
H  -13.0845959310 -3.1657207780  1.1592467517
H  -13.6035330732 -0.3005748274  1.8561047943
H  -12.7591579334  0.6047760869 -0.3767949332
H  -11.9436873215 -0.8226379279  0.3174863966
H  -21.2924834258 -0.0158533510 -3.7785278541
H  -19.7074679064 -0.6382488107 -4.1654573647
H  -15.6606973732 -1.3132788688 -1.7499935968
H  -1.1130613258 -2.7670800522 -5.4778221899
H  -0.5624959684 -1.4574371422 -6.5135198631
H  -2.0242112187 -2.3557519508 -6.9261369010
H  -2.8014548799 -3.3576535431 -4.0605978198
H  -4.3084008294 -2.8279409408 -3.3419874272
N  -5.8284964450 -1.9337069150 -2.3515051801
C  -4.9781066707 -1.5168873158 -1.1977055210
H  -5.5629374306 -1.6203364307 -3.2778433200
H  -5.5653983517 -1.7184939728 -0.3018577452
H  -4.0246769281 -2.0423328271 -1.1431276822
H  -4.7953857995 -0.4431006097 -1.2388782426
