%chk=MaDA_beta_resp.chk
%nproc=8
%mem=16000MB
#P HF/6-31G(d) Pop=MK IOp(6/33=2) SCF=Tight

MAPLE NCAA beta RESP

0 1
 C       -9.69218732      -5.83321731      -4.85988932
 C       -8.30171094      -5.51819374      -4.35501705
 O       -7.34170554      -6.25605014      -4.52671746
 H      -10.15081040      -4.95030283      -5.30917860
 H      -10.31254118      -6.12273775      -4.00964857
 H       -9.64580460      -6.65126096      -5.57374418
 P      -11.09021311      -1.48096845      -3.79524110
 P      -12.46588968      -2.16353239      -1.25387828
 C       -6.98429557      -3.77435416      -3.26930529
 N       -8.23774820      -4.35630471      -3.66241891
 C       -6.88915080      -3.63917781      -1.74138711
 N       -4.64850493      -3.10079460      -5.41967018
 O       -7.16500701      -4.58019136      -1.02950776
 C       -6.72585896      -2.50826988      -4.12158884
 N       -5.45916776      -3.85312937      -7.34273170
 O      -12.38529827      -1.28336323      -4.46086399
 C       -6.02236160      -2.89328818      -5.37565287
 O       -9.96928984      -2.26767220      -4.41475139
 C       -6.48698854      -3.35767498      -6.56948910
 N       -4.45603514       4.38674679      -2.92094500
 O      -11.22690480      -2.07692348      -2.28792466
 C       -4.38601392      -3.68721680      -6.62192175
 N      -20.88959327       0.30186270      -1.41451829
 O      -10.51291415       0.01805379      -3.45277388
 C       -9.13579708       0.15612693      -3.20805178
 N       -3.09639755       6.00695120      -4.05373234
 O       -9.70644057       0.99549731      -1.03849336
 C       -8.97307392       1.29160584      -2.22179227
 N      -19.28262057       0.29617214       0.36956047
 O       -7.10097369       0.36956383      -0.99572468
 C       -7.53072632       1.48608372      -1.76316512
 N       -2.23660782       2.78972272      -5.28246104
 O       -6.86370897       2.72747676      -3.74671779
 C       -6.52609235       1.65328670      -2.89257990
 N      -20.42107603      -0.51005219      -3.53398377
 O      -11.95232473      -2.84151552      -0.01905417
 C       -5.12739793       1.82616562      -2.29714478
 N      -17.63686441      -1.07487514      -2.47941303
 O       -4.63037761       6.61913978      -2.52941700
 C      -16.38532599      -0.48939125       0.89785824
 N      -17.13030813      -0.61604823      -0.34173799
 O      -13.70026995      -2.64190357      -1.92057599
 C       -4.11031080       5.70679844      -3.11928369
 N       -4.13071234       2.14291296      -3.33030878
 O      -16.09173326      -1.74392828       2.93480003
 C      -20.47064765       0.53314109      -0.16970138
 O      -13.81721738      -2.82439028       1.93121422
 C      -15.98749298      -1.83395670       1.52331873
 O       -1.57112239       5.45429340      -5.63746238
 C      -14.53712938      -1.95587010       1.09788322
 O      -15.19238905       0.23061579       0.64238434
 C       -2.41097318       5.12703292      -4.84068845
 O      -12.66144252      -0.56874105      -0.89079878
 C      -18.43914082      -0.23955137      -0.51342224
 C      -14.07685868      -0.50138911       1.16802138
 C       -2.81218331       3.69735513      -4.59406752
 C      -18.72374338      -0.53491702      -1.84181187
 C      -12.77725727      -0.15580755       0.46367684
 C       -2.59958000       1.48003803      -5.05365081
 C       -1.99178176       0.48934811      -5.82521946
 C      -20.01947571      -0.24319571      -2.27582639
 C       -2.29615712      -0.84182615      -5.67186976
 C       -1.60745454      -1.83886509      -6.56330638
 C       -3.24940780      -1.19183927      -4.68158230
 C      -16.70305920      -1.11012948      -1.55978292
 C       -3.67285754      -2.63658667      -4.44815582
 C       -3.83154159      -0.22055644      -3.89422998
 C       -3.53922897       1.13502227      -4.08002905
 C       -3.84393050       3.44906081      -3.57596827
 H       -9.02750885      -3.70505434      -3.73773687
 H       -6.22040461      -4.52898064      -3.49031072
 H       -7.69052515      -2.04871127      -4.35162539
 H       -6.12398188      -1.77936282      -3.57820984
 H       -7.51415900      -3.38625016      -6.89597029
 H       -3.38850857      -3.98490093      -6.90246094
 H       -2.89284088       6.99022375      -4.16647073
 H       -1.26486033       0.81812924      -6.55745980
 H       -4.51835929      -0.52572073      -3.12025054
 H       -5.12544229       2.65013088      -1.58966183
 H       -4.82265305       0.93156210      -1.76301879
 H       -6.53829326       0.76014276      -3.52585611
 H       -6.73984995       3.55270849      -3.25894369
 H       -7.49741609       2.39376344      -1.13706865
 H       -7.89675492       0.08940340      -0.51246308
 H      -17.03849441       0.05800783       1.58090975
 H       -9.33838370       2.22068312      -2.66927925
 H      -10.50223230       0.51142832      -1.32104967
 H      -21.20693820       0.97755698       0.49103501
 H      -16.61363954      -2.64631742       1.14436955
 H      -15.37161211      -2.29363254       3.27734651
 H       -8.72263220      -0.75839990      -2.77244981
 H       -8.61332462       0.38389604      -4.14249028
 H      -14.51540106      -2.29220484       0.05795064
 H      -13.01549489      -3.04758905       1.39504644
 H      -13.93764774      -0.23359504       2.22487147
 H      -12.66171687       0.93030174       0.46037675
 H      -11.97197752      -0.59824608       1.05612768
 H      -21.33124508      -0.20643938      -3.82697308
 H      -19.75230037      -0.83884982      -4.20677917
 H      -15.69652639      -1.48323529      -1.71595216
 H       -1.29812127      -2.73996598      -6.03291906
 H       -0.71534162      -1.38483871      -6.99349559
 H       -2.25508403      -2.14261523      -7.38698987
 H       -2.80971619      -3.30095428      -4.47883760
 H       -4.10730739      -2.72828216      -3.45239491
 N       -6.31832356      -2.49807479      -1.24119617
 C       -6.24827642      -2.34910747       0.20331678
 H       -6.48037705      -1.63249918      -1.74253692
 H       -7.24095605      -2.20236700       0.63968781
 H       -5.81462430      -3.25062677       0.63196108
 H       -5.62196733      -1.49040970       0.44177365

