%chk=MaDA_alpha_resp.chk
%nproc=8
%mem=16000MB
#P HF/6-31G(d) Pop=MK IOp(6/33=2) SCF=Tight

MAPLE NCAA alpha RESP

0 1
 C      -10.40549716      -5.55844743      -3.16808471
 C       -8.93830294      -5.24297977      -3.00218322
 O       -8.19252777      -5.92275497      -2.31104946
 H      -10.87415177      -4.98863320      -3.96828565
 H      -10.91172787      -5.29700481      -2.23601946
 H      -10.52566794      -6.62835706      -3.33791478
 P      -11.07217035      -1.39389407      -4.00363370
 P      -12.04921881      -2.24416606      -1.35119611
 C       -7.21580745      -3.56684187      -3.32663190
 N       -8.50674405      -4.12880814      -3.64115254
 C       -7.06653882      -3.14456816      -1.86342827
 N       -4.69865537      -3.16685748      -5.33782924
 O       -5.96677147      -3.22970176      -1.31915723
 C       -6.88479791      -2.41028908      -4.29539469
 N       -5.37636168      -4.06075555      -7.25493977
 O      -12.48123788      -1.29915686      -4.40188298
 C       -6.06195187      -2.91572598      -5.42920131
 O      -10.03287009      -2.10563717      -4.81597584
 C       -6.44074623      -3.45846777      -6.62162148
 N       -4.44919324       4.29638644      -2.73299569
 O      -10.89604498      -2.00313783      -2.48390490
 C       -4.36236830      -3.86948296      -6.45583817
 N      -20.75880612       0.18342531      -1.28815428
 O      -10.55721928       0.14520820      -3.75694809
 C       -9.18763740       0.36985976      -3.48885424
 N       -2.95308678       5.88211808      -3.72852758
 O      -10.02939480       1.54417815      -1.55949629
 C       -9.11499143       1.63652984      -2.64763542
 N      -19.07664662       0.12878861       0.42366101
 O       -7.55092571       1.01177768      -0.90467519
 C       -7.74320758       1.87629434      -2.00256405
 N       -2.08568473       2.64098272      -4.90860824
 O       -6.62358116       2.62508840      -4.01052446
 C       -6.56796664       1.68767842      -2.94923972
 N      -20.41283478      -0.63075234      -3.42623370
 O      -11.34139895      -2.66499169      -0.09395240
 C       -5.24090682       1.77341561      -2.17030148
 N      -17.60106029      -1.31141354      -2.48669105
 O       -4.66782162       6.53749627      -2.43105417
 C      -16.15905982      -0.70229399       0.80540163
 N      -16.99019706      -0.85494319      -0.37511972
 O      -13.15024950      -3.06275880      -1.90282396
 C       -4.08030587       5.60766304      -2.92181075
 N       -4.11730690       2.04586173      -3.08225299
 O      -15.75919965      -1.94013065       2.82584639
 C      -20.28028899       0.40263715      -0.06312565
 O      -13.39172255      -2.78734835       1.86864942
 C      -15.64355226      -2.01820967       1.41401025
 O       -1.27669907       5.29334374      -5.13604774
 C      -14.18320739      -2.02681012       0.98720801
 O      -15.03004742       0.07552818       0.45440562
 C       -2.20415018       4.98466760      -4.43570264
 O      -12.56074314      -0.69973347      -1.12717294
 C      -18.29360903      -0.44141167      -0.49259484
 C      -13.84624441      -0.53770671       0.98002698
 C       -2.66802087       3.56462457      -4.24067215
 C      -18.64715191      -0.73795097      -1.80289060
 C      -12.62552584      -0.13296510       0.17483035
 C       -2.52160886       1.34803690      -4.73105478
 C       -1.93063657       0.34353429      -5.50419632
 C      -19.94766002      -0.39275062      -2.18524314
 C       -2.31474338      -0.96993865      -5.40174744
 C       -1.66136748      -1.98691059      -6.29569120
 C       -3.32184544      -1.29988290      -4.45475401
 C      -16.63168939      -1.35840505      -1.60790164
 C       -3.79910168      -2.73574787      -4.27682040
 C       -3.88846996      -0.32392374      -3.66323475
 C       -3.52430603       1.02346641      -3.80954741
 C       -3.78451793       3.34288089      -3.31633029
 H       -9.18328221      -3.50171921      -4.09128486
 H       -6.46399488      -4.35504616      -3.42511878
 H       -7.82021577      -1.99159131      -4.67585374
 H       -6.37336910      -1.61607590      -3.74505846
 H       -7.43724100      -3.48247766      -7.03119394
 H       -3.36116127      -4.23603483      -6.61790487
 H       -2.72448974       6.86137439      -3.82956614
 H       -1.15830749       0.64476594      -6.20114751
 H       -4.62138034      -0.61437407      -2.92376924
 H       -5.26384516       2.57767928      -1.44283247
 H       -5.05014741       0.84945464      -1.63335339
 H       -6.61734842       0.70531076      -3.42560453
 H       -6.57629017       3.50965409      -3.62379155
 H       -7.71087615       2.92415794      -1.65491335
 H       -8.44846275       0.82772271      -0.58027410
 H      -16.78348453      -0.18762248       1.53974407
 H       -9.36597385       2.49768578      -3.27665572
 H      -10.75688036       0.97932272      -1.87283609
 H      -20.97342363       0.87122439       0.62679406
 H      -16.20178499      -2.87892979       1.03483918
 H      -14.99606669      -2.42250036       3.17528518
 H       -8.75648641      -0.47092431      -2.93083669
 H       -8.63843400       0.51900874      -4.42673187
 H      -14.12139627      -2.41956670      -0.03035329
 H      -12.55661633      -2.95131403       1.37855507
 H      -13.69630771      -0.20409106       2.01639165
 H      -12.64182661       0.95030889       0.03535864
 H      -11.73913339      -0.40428472       0.75248694
 H      -21.32176278      -0.28594743      -3.67496068
 H      -19.79063304      -0.98202022      -4.13165902
 H      -15.63601749      -1.73676307      -1.80014510
 H       -1.38920480      -2.90034112      -5.76530838
 H       -0.75156545      -1.56823135      -6.72283131
 H       -2.31786688      -2.26569980      -7.12132767
 H       -2.94345107      -3.41191195      -4.27204373
 H       -4.30646326      -2.84863680      -3.31576587
 N       -8.12629673      -2.55847079      -1.30240783
 C       -8.10791943      -2.17513165       0.09690639
 H       -9.02157453      -2.57472422      -1.77679005
 H       -7.69351486      -2.98494310       0.70263284
 H       -7.48138851      -1.29280450       0.23605628
 H       -9.13279786      -1.97434357       0.39708240

