22
Image 0  Energy = -383.8514444466
C  -0.6294876562 -1.3647062359  0.2034769206
C   1.5581961365 -0.3923452735 -0.2055307064
C  -1.1169629836  2.0733980075  0.8853752567
C   2.0638364197 -0.7193163219  1.1640311953
C   2.3976200828  0.3132115066 -1.2209840608
N   0.3220634864 -0.7312340279 -0.5122023654
N  -1.9130275484 -1.4525578079 -0.4126630874
O  -1.7920616765  1.7238119462 -0.3147268726
H  -1.9414120626  0.7724478202 -0.2806477977
H  -0.0049496151 -0.4498602299 -1.4317302095
H  -0.3200200611 -1.9722558959  1.0364475518
H  -0.1252522489  1.6020893707  0.9392225046
H  -2.6583485729 -1.4122047281  0.2719772131
H  -2.0443526671 -2.2968161092 -0.9552553727
H  -0.9811318128  3.1521658508  0.9012830208
H  -1.6803847061  1.7885585167  1.7791469822
H   2.9002863209 -0.0658477305  1.4139780243
H   1.8286325105  0.5406273950 -2.1237739441
H   2.4134919927 -1.7538544443  1.2736918423
H   1.2814949848 -0.5599266896  1.9076068323
H   2.7934444976  1.2547323638 -0.8269237414
H   3.2680246556 -0.2866168867 -1.5133023533
