22
Image 0  Energy = -383.7749599063
C  -0.8675000000 -1.1212000000  0.1451000000
C   1.2063000000  0.0888000000  0.0375000000
C  -0.8012000000  1.8039000000  0.7777000000
C   1.9270000000 -0.5238000000  1.2299000000
C   2.1735000000  0.5194000000 -1.0520000000
N   0.2436000000 -0.9006000000 -0.5570000000
N  -2.0080000000 -1.5937000000 -0.4191000000
O  -1.6073000000  1.4743000000 -0.2757000000
H  -1.9698000000  0.5875000000 -0.1411000000
H   0.0290000000 -0.6370000000 -1.5287000000
H  -0.8978000000 -0.8021000000  1.1842000000
H   0.5985000000  0.9809000000  0.3930000000
H  -2.6675000000 -1.9721000000  0.2647000000
H  -1.8829000000 -2.2545000000 -1.1927000000
H  -0.4288000000  2.8210000000  0.7145000000
H  -1.0181000000  1.4392000000  1.7832000000
H   2.6046000000  0.2089000000  1.6809000000
H   1.6503000000  1.0084000000 -1.8818000000
H   2.5096000000 -1.3982000000  0.9217000000
H   1.2101000000 -0.8363000000  1.9937000000
H   2.9111000000  1.2261000000 -0.6587000000
H   2.7050000000 -0.3554000000 -1.4408000000
22
Image 1  Energy = -383.7743522563
C  -0.8677332290 -1.1218458788  0.1443782769
C   1.2055446859  0.0895778439  0.0379792429
C  -0.8025403103  1.8037447492  0.7771417030
C   1.9271531072 -0.5237801465  1.2298886030
C   2.1736397578  0.5193909913 -1.0519178571
N   0.2432361053 -0.9014256914 -0.5570005756
N  -2.0073515946 -1.5929201955 -0.4188442532
O  -1.6065033548  1.4745774506 -0.2750384257
H  -1.9698504099  0.5873651784 -0.1411630591
H   0.0288429549 -0.6369070761 -1.5288533448
H  -0.8978322331 -0.8018285806  1.1843564221
H   0.5989105957  0.9808465011  0.3929773747
H  -2.6676651657 -1.9722168965  0.2648935840
H  -1.8828595098 -2.2547105776 -1.1928495039
H  -0.4286107982  2.8209331128  0.7144794740
H  -1.0175605308  1.4391237360  1.7831213130
H   2.6047017380  0.2089441616  1.6809653167
H   1.6503044295  1.0084762462 -1.8818979457
H   2.5096491980 -1.3982486583  0.9217083340
H   1.2100362400 -0.8362877603  1.9936929383
H   2.9111610649  1.2261506757 -0.6586954954
H   2.7050272587 -0.3554591852 -1.4408221226
22
Image 2  Energy = -383.7875978167
C  -0.8632004196 -1.0958791772  0.1581921695
C   1.2423846656  0.0518384638  0.0146921550
C  -0.7471234003  1.8017044882  0.7900997070
C   1.9228440123 -0.5271629757  1.2298701352
C   2.1716964073  0.5189927725 -1.0572758353
N   0.2524843296 -0.8604157105 -0.5484443087
N  -2.0194812579 -1.6183623257 -0.4214423690
O  -1.6313317935  1.4701574981 -0.2943808836
H  -1.9701252334  0.5907909303 -0.1369179931
H   0.0371263591 -0.6410770875 -1.5233445908
H  -0.8958970983 -0.8141521498  1.1854923399
H   0.5730388882  0.9841109910  0.3948472285
H  -2.6642882599 -1.9700178512  0.2586497717
H  -1.8844981837 -2.2494485794 -1.1904019385
H  -0.4368137747  2.8296144374  0.7149686662
H  -1.0457749528  1.4435339750  1.7875218437
H   2.5990034423  0.2063715831  1.6773725071
H   1.6486372223  1.0048879399 -1.8777082786
H   2.5073227623 -1.3960949254  0.9221926599
H   1.2119983971 -0.8371542162  1.9945888595
H   2.9074640674  1.2232049610 -0.6593607381
H   2.7042342775 -0.3519431470 -1.4407109553
22
Image 3  Energy = -383.7905472579
C  -0.8615615234 -1.0805739465  0.1589013568
C   1.2571814178  0.0347674758  0.0071747756
C  -0.7239368666  1.7920252686  0.7893905987
C   1.9237326117 -0.5312835363  1.2287118181
C   2.1758172232  0.5171009916 -1.0617430881
N   0.2515059806 -0.8383346527 -0.5437237929
N  -2.0142809388 -1.6234438256 -0.4196342943
O  -1.6323380673  1.4737729439 -0.2944934465
H  -1.9723172179  0.5908183045 -0.1342320969
H   0.0428361217 -0.6436468439 -1.5204183959
H  -0.8942784387 -0.8218397270  1.1905578904
H   0.5514221532  0.9846219735  0.3962398922
H  -2.6665340649 -1.9719606440  0.2593172897
H  -1.8845406094 -2.2503167768 -1.1932757771
H  -0.4417753716  2.8377471182  0.7156045580
H  -1.0619217264  1.4491391328  1.7860102545
H   2.5952558286  0.2048023495  1.6748966047
H   1.6453981303  1.0032536890 -1.8763660944
H   2.5073270846 -1.3969788526  0.9239890063
H   1.2114622670 -0.8377478895  1.9950759585
H   2.9052060435  1.2217076847 -0.6599411232
H   2.7060404676 -0.3501303552 -1.4435417311
22
Image 4  Energy = -383.7969376790
C  -0.8618093384 -1.0371531267  0.1618608444
C   1.2765784584  0.0171010083 -0.0009904942
C  -0.6624361146  1.7720251633  0.7783365149
C   1.9260820383 -0.5481242788  1.2281637259
C   2.1869510881  0.5088371921 -1.0730703776
N   0.2467059851 -0.7784149205 -0.5287796575
N  -1.9990742435 -1.6352441652 -0.4073838595
O  -1.6197975416  1.4743837262 -0.2790409445
H  -1.9755850862  0.6046574617 -0.1304327197
H   0.0587338893 -0.6500201553 -1.5211708389
H  -0.8864620375 -0.8464029638  1.2110899538
H   0.4703338351  0.9694460521  0.3992588969
H  -2.6643673111 -1.9755923601  0.2557081468
H  -1.8802960154 -2.2511093964 -1.1998987119
H  -0.4621638473  2.8457178565  0.7234291620
H  -1.1035501638  1.4740575274  1.7683172180
H   2.5862571944  0.2007785177  1.6680748562
H   1.6322661750  0.9979910498 -1.8739781359
H   2.5158187679 -1.4117317308  0.9342608482
H   1.2083282787 -0.8385805756  1.9920942215
H   2.9033984960  1.2211496097 -0.6621041519
H   2.7237880040 -0.3502716096 -1.4652443155
22
Image 5  Energy = -383.7798031864
C  -0.8711080463 -0.9702696833  0.1692801942
C   1.3215401026 -0.0074031765 -0.0070907046
C  -0.5413963429  1.7194725057  0.7609935512
C   1.9358885101 -0.5798748618  1.2226741258
C   2.2101240399  0.4915437092 -1.0947723344
N   0.2172663095 -0.6705019947 -0.5140218985
N  -1.9571053855 -1.6539842710 -0.3953124785
O  -1.5866052929  1.4915123029 -0.2610606321
H  -1.9852152180  0.6226149671 -0.1189638390
H   0.0915460308 -0.6644036648 -1.5197305719
H  -0.8671481738 -0.8934717851  1.2524370217
H   0.2703338351  0.9646116353  0.4212562578
H  -2.6605536304 -1.9847667548  0.2541741346
H  -1.8679012039 -2.2439900249 -1.2036733262
H  -0.4987380689  2.8546358952  0.7412768896
H  -1.1707569049  1.5296959814  1.7231466104
H   2.5693499582  0.1903920712  1.6564104361
H   1.6072605326  0.9861034779 -1.8680520121
H   2.5366525372 -1.4478154861  0.9597225730
H   1.1994332234 -0.8412831973  1.9858032895
H   2.9014113735  1.2210331366 -0.6699075952
H   2.7654222507 -0.3503508805 -1.5160895161
22
Image 6  Energy = -383.8030238312
C  -0.8664454416 -1.0255324233  0.1661080455
C   1.2884126327  0.0097121976 -0.0035200754
C  -0.6512626736  1.7652525911  0.7780533500
C   1.9335149654 -0.5607698532  1.2263163407
C   2.1981794930  0.5010734318 -1.0813778427
N   0.2253625851 -0.7470080000 -0.5287585300
N  -1.9799732548 -1.6363772733 -0.4039670265
O  -1.6006648818  1.4871972661 -0.2745191933
H  -1.9791963489  0.6116637243 -0.1245072972
H   0.0723792232 -0.6557662076 -1.5198836301
H  -0.8763642527 -0.8632702779  1.2263242247
H   0.3901951626  0.9770984226  0.4171091406
H  -2.6606749144 -1.9793879486  0.2560876880
H  -1.8715662658 -2.2468541542 -1.2004985984
H  -0.4691815248  2.8400792484  0.7308456500
H  -1.1151711594  1.4967896461  1.7417707526
H   2.5810921922  0.1952597086  1.6650278326
H   1.6236187649  0.9917698451 -1.8706388688
H   2.5264176865 -1.4295564566  0.9475304171
H   1.2040090433 -0.8404108810  1.9887689245
H   2.9032921871  1.2210245548 -0.6678250145
H   2.7437271433 -0.3484872379 -1.4899461501
22
Image 7  Energy = -383.8056074678
C  -0.8648712261 -1.0397728857  0.1663105933
C   1.2712033170  0.0166814469  0.0001153979
C  -0.6598593634  1.7607667518  0.7650369001
C   1.9354754213 -0.5645041778  1.2244360836
C   2.2001661759  0.4968712970 -1.0827944103
N   0.2253630833 -0.7486707622 -0.5224557996
N  -1.9862013853 -1.6341960193 -0.4025312640
O  -1.6012032931  1.4862346254 -0.2773108668
H  -1.9748513910  0.6213462095 -0.1237190423
H   0.0716568195 -0.6565991813 -1.5269549326
H  -0.8719984709 -0.8625284212  1.2269045532
H   0.3730467161  0.9901739786  0.4301942294
H  -2.6552044680 -1.9787308572  0.2539908125
H  -1.8655701527 -2.2447241676 -1.1992029052
H  -0.4630871147  2.8406863069  0.7329618891
H  -1.1103941623  1.4972163587  1.7447911074
H   2.5832646427  0.1934111984  1.6674435212
H   1.6244559194  0.9898482719 -1.8693670297
H   2.5298246806 -1.4347703825  0.9527038753
H   1.2043798289 -0.8411572384  1.9864406402
H   2.9047960151  1.2217463945 -0.6714810131
H   2.7493087267 -0.3458288236 -1.4970122169
22
Image 8  Energy = -383.8091565431
C  -0.8620170938 -1.0642959607  0.1746931021
C   1.2576276141  0.0274729026  0.0067780886
C  -0.6705980284  1.7572667570  0.7443936078
C   1.9373965827 -0.5706327742  1.2206497676
C   2.2006842083  0.4889816329 -1.0828603686
N   0.2140491870 -0.7429861602 -0.5236127750
N  -1.9864708494 -1.6268869486 -0.4085896747
O  -1.5972133289  1.4956693382 -0.2861252582
H  -1.9702318331  0.6341866763 -0.1194031430
H   0.0747399980 -0.6612092044 -1.5308850837
H  -0.8607744004 -0.8656895353  1.2292267115
H   0.3152487694  1.0159046355  0.4606516796
H  -2.6496909768 -1.9827264456  0.2561019522
H  -1.8522343866 -2.2393097970 -1.1952907976
H  -0.4539910461  2.8374925320  0.7385346524
H  -1.1036816447  1.5032971179  1.7424563467
H   2.5855107039  0.1864574919  1.6705261890
H   1.6245866270  0.9843021587 -1.8671904704
H   2.5390624965 -1.4499058003  0.9650453394
H   1.2051572282 -0.8439282779  1.9811891240
H   2.9068460665  1.2219135460 -0.6807097179
H   2.7656943238 -0.3418739660 -1.5170791898
22
Image 9  Energy = -383.8108483669
C  -0.8452708688 -1.0898708509  0.1743778154
C   1.2617907891  0.0251510120  0.0025403729
C  -0.6801583788  1.7694190469  0.7444718963
C   1.9388433619 -0.5761365833  1.2174887648
C   2.1998003055  0.4819258068 -1.0813948868
N   0.2002990898 -0.7281530129 -0.5135476621
N  -1.9969561697 -1.6158043336 -0.4061393880
O  -1.6021064092  1.5093525761 -0.3055631278
H  -1.9668368914  0.6448320277 -0.1149007768
H   0.0767628584 -0.6679021735 -1.5325109920
H  -0.8472446912 -0.8689934249  1.2349418521
H   0.2519384060  1.0362119607  0.4932453629
H  -2.6410833104 -1.9881316611  0.2529975074
H  -1.8360887897 -2.2385064199 -1.1955176827
H  -0.4463591709  2.8325229228  0.7429947632
H  -1.0967302182  1.5111703083  1.7315946289
H   2.5869899364  0.1755840227  1.6726992209
H   1.6250693445  0.9777568072 -1.8670623844
H   2.5453958995 -1.4619420903  0.9775084441
H   1.2055663222 -0.8492385494  1.9777873382
H   2.9059553525  1.2195100887 -0.6918718347
H   2.7801233424 -0.3352575594 -1.5356391875
22
Image 10  Energy = -383.8132259295
C  -0.8375374476 -1.1161860021  0.1871820746
C   1.2687667235  0.0160877133 -0.0030158981
C  -0.6967000031  1.7825556842  0.7442803245
C   1.9391604189 -0.5812102354  1.2162267566
C   2.1992999996  0.4765277427 -1.0839545702
N   0.1972657184 -0.7144632413 -0.5160551979
N  -1.9983442751 -1.6044447989 -0.4180127931
O  -1.6077513492  1.5207613718 -0.3188413326
H  -1.9641389263  0.6554916903 -0.1130321474
H   0.0776086114 -0.6745284241 -1.5279761670
H  -0.8352358956 -0.8722284839  1.2345347292
H   0.2057351746  1.0539782077  0.5213668085
H  -2.6378223551 -1.9967642026  0.2549246891
H  -1.8247384849 -2.2346677500 -1.1896872743
H  -0.4382205250  2.8332148655  0.7456016346
H  -1.0918936306  1.5160704382  1.7247059997
H   2.5892028649  0.1660743923  1.6745511611
H   1.6268025024  0.9720678464 -1.8682889721
H   2.5485324565 -1.4688890631  0.9871134199
H   1.2059496901 -0.8546671399  1.9757259012
H   2.9041854963  1.2168829784 -0.7005305550
H   2.7895732689 -0.3281636662 -1.5483185896
22
Image 11  Energy = -383.8087621688
C  -0.8016560232 -1.2088598580  0.2278427358
C   1.2984494533 -0.0219363685 -0.0263347991
C  -0.7448388574  1.8250836921  0.7384845643
C   1.9410673131 -0.6036521521  1.2107212655
C   2.1999224130  0.4543928792 -1.0951057521
N   0.1792033044 -0.6537734956 -0.5148031298
N  -2.0067601801 -1.5635639399 -0.4525429848
O  -1.6267741344  1.5658963399 -0.3678219962
H  -1.9546947632  0.6988126213 -0.1049115004
H   0.0836712676 -0.7009153992 -1.5140102295
H  -0.7874681191 -0.8889718750  1.2401910168
H   0.0057351746  1.1259810069  0.6330979969
H  -2.6209505992 -2.0280453856  0.2570830606
H  -1.7786792345 -2.2217947654 -1.1712203241
H  -0.4101709114  2.8369244780  0.7575256567
H  -1.0808931863  1.5399444375  1.6959058890
H   2.5961034391  0.1286815610  1.6805969342
H   1.6306824698  0.9491677816 -1.8724798848
H   2.5630162573 -1.4998067106  1.0266296082
H   1.2066434826 -0.8756743208  1.9669431789
H   2.8976101964  1.2070255553 -0.7346391635
H   2.8304809741 -0.3014161512 -1.6026522935
22
Image 12  Energy = -383.8184099612
C  -0.8161154814 -1.1574373118  0.2017417533
C   1.2974353990 -0.0266942290 -0.0215322606
C  -0.7371252967  1.8082416450  0.7332761614
C   1.9361715300 -0.5869121267  1.2181609137
C   2.2017661966  0.4743560873 -1.0960112604
N   0.1938143195 -0.7020066044 -0.5187452861
N  -1.9967213918 -1.5833115824 -0.4333217034
O  -1.6174946220  1.5469356701 -0.3268789001
H  -1.9676176999  0.6694786574 -0.1170684265
H   0.0763689550 -0.6854915018 -1.5115363187
H  -0.8171491797 -0.8789002767  1.2351001911
H   0.1501906433  1.0896911844  0.5683415378
H  -2.6309202596 -2.0107754542  0.2507904797
H  -1.8103180897 -2.2313665274 -1.1786421615
H  -0.4207714090  2.8471902315  0.7464495048
H  -1.0978099959  1.5205551364  1.7277871309
H   2.5938965425  0.1506424766  1.6761877024
H   1.6296547749  0.9637247244 -1.8753706011
H   2.5480537868 -1.4739369119  0.9987474260
H   1.2057057765 -0.8656640520  1.9741860123
H   2.9001814148  1.2122174794 -0.7111811943
H   2.7985040311 -0.3170367852 -1.5619807688
22
Image 13  Energy = -383.8216415336
C  -0.8119866070 -1.1727916887  0.2113052579
C   1.3021156067 -0.0502886595 -0.0342979525
C  -0.7391572161  1.8144471461  0.7406843827
C   1.9374439639 -0.5911479600  1.2185385931
C   2.2040964933  0.4708250410 -1.1008140959
N   0.2106626874 -0.6981653524 -0.5096147764
N  -1.9981751502 -1.5781273810 -0.4342531530
O  -1.6338110494  1.5504351039 -0.3297307952
H  -1.9699422586  0.6816369998 -0.1244846885
H   0.0729953454 -0.6884572963 -1.5132426373
H  -0.8116668568 -0.8829266645  1.2356714418
H   0.1353429852  1.1112609771  0.5853373809
H  -2.6249378751 -2.0121404488  0.2435290226
H  -1.8071079803 -2.2323150432 -1.1755735468
H  -0.4162062875  2.8525548465  0.7451933965
H  -1.1063646038  1.5250388502  1.7273772144
H   2.5960505318  0.1470357173  1.6763069854
H   1.6281450071  0.9625190990 -1.8810820363
H   2.5462750449 -1.4745872498  1.0023407712
H   1.2036959175 -0.8698157294  1.9744119373
H   2.9003553585  1.2128687772 -0.7122371369
H   2.8018768571 -0.3143591512 -1.5668656839
22
Image 14  Energy = -383.8255799591
C  -0.7879438453 -1.2120600185  0.2299324541
C   1.3282635690 -0.1073031425 -0.0610966625
C  -0.7525651321  1.8310097019  0.7496139510
C   1.9384025780 -0.5994572163  1.2208259477
C   2.2092225957  0.4656952025 -1.1138270837
N   0.2260466471 -0.6971508739 -0.4990931337
N  -1.9990874834 -1.5621564161 -0.4428629121
O  -1.6636163058  1.5763168471 -0.3332027322
H  -1.9810329227  0.7008943735 -0.1400768311
H   0.0668617132 -0.6963190844 -1.5059739364
H  -0.7976002251 -0.8926250824  1.2418469845
H   0.0935042964  1.1670017527  0.6313888729
H  -2.6117383614 -2.0180399445  0.2282680518
H  -1.7978840193 -2.2339406367 -1.1666731976
H  -0.4048762243  2.8650771319  0.7426386866
H  -1.1282517708  1.5372575371  1.7269246291
H   2.6009405461  0.1368069479  1.6758900014
H   1.6256004586  0.9574029566 -1.8936253486
H   2.5437924099 -1.4794074501  1.0122895499
H   1.1995974375 -0.8803241400  1.9733604288
H   2.8992456386  1.2126308845 -0.7162037086
H   2.8128182208 -0.3078093868 -1.5818442459
22
Image 15  Energy = -383.8304056385
C  -0.7602117160 -1.2612469485  0.2425239508
C   1.3690588268 -0.1717741675 -0.0862229171
C  -0.7690484535  1.8517392528  0.7623870875
C   1.9398668936 -0.6066941766  1.2253926109
C   2.2142984559  0.4674832046 -1.1276684444
N   0.2302715760 -0.7131932455 -0.4897264741
N  -1.9913462341 -1.5413663867 -0.4483994573
O  -1.6952381915  1.6105705101 -0.3190026061
H  -2.0001628406  0.7181013285 -0.1652009117
H   0.0562039132 -0.7010423749 -1.4967335972
H  -0.7879415875 -0.9010763068  1.2543914314
H   0.0816210861  1.2273636440  0.6701012421
H  -2.5975072785 -2.0198413541  0.2099607302
H  -1.7936162044 -2.2405699819 -1.1609923812
H  -0.4033420709  2.8758501769  0.7389509680
H  -1.1620883128  1.5568258402  1.7270179623
H   2.6042743030  0.1318156669  1.6720322217
H   1.6225072753  0.9522573188 -1.9071363848
H   2.5434621185 -1.4878334262  1.0214849613
H   1.1936809643 -0.8887683247  1.9702889736
H   2.8963459068  1.2118680475 -0.7151322913
H   2.8286113213 -0.3069683196 -1.5998170410
22
Image 16  Energy = -383.8345637858
C  -0.7247451004 -1.3158212877  0.2628857610
C   1.3993823001 -0.2441492401 -0.1137962381
C  -0.7945933201  1.8701959854  0.7658335530
C   1.9468233215 -0.6185470710  1.2281578775
C   2.2273033366  0.4588190380 -1.1466946906
N   0.2446776019 -0.7373001114 -0.4857060216
N  -1.9794268186 -1.5316904711 -0.4579159467
O  -1.7202418713  1.6558446807 -0.2837998126
H  -2.0263765249  0.7324490407 -0.1981498982
H   0.0408659350 -0.7019547082 -1.4787080886
H  -0.7829709891 -0.9123333760  1.2645360648
H   0.0950814473  1.2887377528  0.7018964164
H  -2.5816676354 -2.0133430192  0.1882110487
H  -1.7962767830 -2.2425004724 -1.1535373035
H  -0.4147990823  2.8948817647  0.7367731398
H  -1.2101030731  1.5862602623  1.7355303585
H   2.6052403913  0.1327827730  1.6643738929
H   1.6182248154  0.9464741354 -1.9195997129
H   2.5483383137 -1.5028603434  1.0358198704
H   1.1853067462 -0.8933161767  1.9627102994
H   2.8918081247  1.2118057298 -0.7088461315
H   2.8478485704 -0.3009348738 -1.6214749384
22
Image 17  Energy = -383.8372556641
C  -0.7101331191 -1.3474815773  0.2670908817
C   1.4161234999 -0.2613510630 -0.1211956432
C  -0.8069865716  1.8822569898  0.7714359187
C   1.9524975029 -0.6271905360  1.2242864115
C   2.2317502785  0.4508575335 -1.1512641901
N   0.2424382407 -0.7577300647 -0.4854855883
N  -1.9613834178 -1.5243505277 -0.4534384324
O  -1.7328796308  1.6635973946 -0.2649144631
H  -2.0346602823  0.7514566876 -0.2155676527
H   0.0307671504 -0.6981502136 -1.4693585651
H  -0.7851237729 -0.9173093907  1.2683837552
H   0.1159178874  1.3059348338  0.7072494825
H  -2.5797795699 -2.0052967439  0.1830249344
H  -1.7987547098 -2.2464889914 -1.1599921870
H  -0.4361324532  2.9055101797  0.7404001683
H  -1.2353848582  1.6103521611  1.7424208858
H   2.6011010901  0.1370160253  1.6556189427
H   1.6184266899  0.9394086208 -1.9182637086
H   2.5588853763 -1.5187770495  1.0503774604
H   1.1820403456 -0.8899509832  1.9518858509
H   2.8853546800  1.2074633706 -0.7045592062
H   2.8656153545 -0.2962766369 -1.6396356063
22
Image 18  Energy = -383.8398737097
C  -0.6983086661 -1.3802020774  0.2756332812
C   1.4202294797 -0.2744263633 -0.1260970187
C  -0.8139836703  1.8902160737  0.7803981361
C   1.9610811357 -0.6377791922  1.2169469896
C   2.2371308539  0.4405377400 -1.1553349366
N   0.2516293988 -0.7727771182 -0.4831211079
N  -1.9431918922 -1.5252411950 -0.4523593918
O  -1.7423098283  1.6782983744 -0.2547219449
H  -2.0424587029  0.7627937988 -0.2286888484
H   0.0190787259 -0.6933150751 -1.4623499327
H  -0.7867654830 -0.9237484584  1.2676188409
H   0.1293974813  1.3190869015  0.7103482246
H  -2.5799592285 -1.9942631542  0.1806727019
H  -1.8009333383 -2.2444135435 -1.1651503376
H  -0.4629585613  2.9192957316  0.7462820488
H  -1.2575806314  1.6381518087  1.7509661360
H   2.5951030743  0.1405284663  1.6450431743
H   1.6197321711  0.9297058652 -1.9131443352
H   2.5717413821 -1.5363710703  1.0699342252
H   1.1796949022 -0.8847458381  1.9375730648
H   2.8772196967  1.2006631667 -0.7015372942
H   2.8861114018 -0.2884948166 -1.6604122696
22
Image 19  Energy = -383.8422664484
C  -0.6562871523 -1.4613584005  0.3080265783
C   1.4453868226 -0.3116838073 -0.1392545597
C  -0.8285021178  1.9184775335  0.8074397252
C   1.9839111203 -0.6675757455  1.2014324987
C   2.2538956744  0.4050998546 -1.1660139586
N   0.2662306435 -0.8038257318 -0.4783096911
N  -1.9271792795 -1.5372263230 -0.4527642351
O  -1.7671040851  1.7037119947 -0.2469333870
H  -2.0507467754  0.7941403133 -0.2536615207
H  -0.0101940510 -0.6824592088 -1.4429613736
H  -0.7840749598 -0.9425416214  1.2547462869
H   0.1301272045  1.3510818280  0.7224834264
H  -2.5742306655 -1.9578295447  0.1695555184
H  -1.8001991753 -2.2347066083 -1.1757806545
H  -0.5293799936  2.9561175797  0.7646406745
H  -1.3000555764  1.7059011619  1.7730837267
H   2.5818398697  0.1437700713  1.6164068623
H   1.6192124008  0.9053119485 -1.9040690045
H   2.5983782944 -1.5707862121  1.1227035264
H   1.1771799061 -0.8733746119  1.8975160989
H   2.8604379749  1.1845697607 -0.6949030675
H   2.9310536073 -0.2613141922 -1.7048841737
22
Image 20  Energy = -383.8439524259
C  -0.6576770730 -1.4741884623  0.3010298761
C   1.4422971582 -0.3264694957 -0.1455172183
C  -0.8339203492  1.9233017850  0.8101012231
C   1.9895008406 -0.6716826187  1.1974162118
C   2.2558611853  0.4041121428 -1.1670083259
N   0.2809746981 -0.8057157216 -0.4698699137
N  -1.9083563568 -1.5312246022 -0.4517764708
O  -1.7614862948  1.7125216710 -0.2494050418
H  -2.0480723436  0.7893108806 -0.2528740144
H  -0.0177936406 -0.6793179425 -1.4402832945
H  -0.7809171755 -0.9465142463  1.2513040714
H   0.1134986699  1.3546901304  0.7238437472
H  -2.5864310100 -1.9536505174  0.1783220371
H  -1.7992406829 -2.2353379071 -1.1830426646
H  -0.5466847383  2.9689944170  0.7714190982
H  -1.3008534594  1.7201285443  1.7793842035
H   2.5804165774  0.1426629735  1.6084655509
H   1.6190392596  0.8968549640 -1.8998452796
H   2.6041082838 -1.5758583585  1.1368148438
H   1.1769635344 -0.8714124767  1.8870554783
H   2.8572119169  1.1785280980 -0.6945906646
H   2.9412606793 -0.2562332194 -1.7124441639
22
Image 21  Energy = -383.8445888565
C  -0.6653242478 -1.4574260665  0.2956158796
C   1.4415183949 -0.3189931950 -0.1414545996
C  -0.8316733376  1.9210508459  0.8064724366
C   1.9865002270 -0.6671174780  1.1984241559
C   2.2527167385  0.4087671719 -1.1643549690
N   0.2760595527 -0.7996579487 -0.4738420495
N  -1.9154280069 -1.5341042367 -0.4514101212
O  -1.7534374544  1.7040760210 -0.2575939099
H  -2.0409671955  0.7817789689 -0.2435466899
H  -0.0127351422 -0.6803589456 -1.4415597430
H  -0.7791029451 -0.9450690792  1.2493531487
H   0.1016737977  1.3448400706  0.7201828036
H  -2.5882709200 -1.9552626489  0.1806944029
H  -1.7987001541 -2.2342695086 -1.1815512001
H  -0.5397010757  2.9657050711  0.7713074365
H  -1.2876466838  1.7098902815  1.7772570316
H   2.5832982831  0.1412357540  1.6112322258
H   1.6183661411  0.8989193963 -1.9000867381
H   2.6001370305 -1.5686449490  1.1315275598
H   1.1780991433 -0.8730029762  1.8911235979
H   2.8604687181  1.1799971650 -0.6957663750
H   2.9338488175 -0.2588536802 -1.7035249680
22
Image 22  Energy = -383.8453708998
C  -0.6625373659 -1.4576988326  0.2906628556
C   1.4494103339 -0.3302816790 -0.1463455079
C  -0.8413565313  1.9301089272  0.8042796701
C   1.9882981872 -0.6679634620  1.1956313598
C   2.2533101617  0.4070612581 -1.1639129026
N   0.2764491123 -0.8030596679 -0.4747083408
N  -1.9189130110 -1.5389370415 -0.4497555205
O  -1.7444647411  1.7002366192 -0.2634305053
H  -2.0302355173  0.7758340239 -0.2354205353
H  -0.0153455855 -0.6766437069 -1.4383869583
H  -0.7739297888 -0.9489968596  1.2461317488
H   0.0814864155  1.3422442461  0.7198977786
H  -2.5904324138 -1.9441815288  0.1791657585
H  -1.8000861701 -2.2313031872 -1.1829081633
H  -0.5527764913  2.9770765492  0.7782715859
H  -1.2826413409  1.7168258774  1.7837115316
H   2.5868351489  0.1417121907  1.6053724044
H   1.6147884848  0.8931986205 -1.8992443355
H   2.6046127175 -1.5703777726  1.1419003312
H   1.1767455993 -0.8729625882  1.8850318077
H   2.8614981379  1.1780705513 -0.6936090688
H   2.9389843355 -0.2564625009 -1.7038356769
22
Image 23  Energy = -383.8454353483
C  -0.6566136085 -1.4716293482  0.2908059051
C   1.4666472451 -0.3577878406 -0.1565528136
C  -0.8580631443  1.9496816894  0.8095899870
C   1.9964556221 -0.6759076912  1.1910019461
C   2.2587679754  0.3995863114 -1.1680762318
N   0.2810242784 -0.8142655425 -0.4813776389
N  -1.9092637830 -1.5375776657 -0.4526800723
O  -1.7411353168  1.6940975600 -0.2707967637
H  -2.0136567672  0.7744699080 -0.2272746282
H  -0.0233850338 -0.6683203696 -1.4305673475
H  -0.7647509092 -0.9596636975  1.2416053323
H   0.0547160583  1.3477447419  0.7232842612
H  -2.5989575401 -1.9261919793  0.1797028986
H  -1.8051689303 -2.2286852981 -1.1870726167
H  -0.5830517871  3.0006703974  0.7906133170
H  -1.2861246656  1.7384970421  1.7952160807
H   2.5910929533  0.1435407689  1.5914381818
H   1.6087203448  0.8805931392 -1.8977498630
H   2.6150311054 -1.5776006289  1.1658232421
H   1.1732727187 -0.8715701359  1.8708427067
H   2.8600411036  1.1732448206 -0.6882827232
H   2.9541017488 -0.2494261339 -1.7109938645
22
Image 24  Energy = -383.8460904392
C  -0.6516512927 -1.4775940241  0.2902669473
C   1.4729363892 -0.3739914582 -0.1648652285
C  -0.8656474510  1.9582047227  0.8136509717
C   2.0007523907 -0.6816000425  1.1908838019
C   2.2631223385  0.3956271155 -1.1712183153
N   0.2886334112 -0.8223118567 -0.4803200968
N  -1.9096319215 -1.5350909493 -0.4520684993
O  -1.7429693532  1.6957012431 -0.2716245225
H  -2.0066761133  0.7688960697 -0.2234130583
H  -0.0278709835 -0.6627703686 -1.4316774841
H  -0.7596424541 -0.9658671034  1.2430254740
H   0.0469566275  1.3559966639  0.7272517676
H  -2.5986301491 -1.9151718124  0.1744830429
H  -1.8098840843 -2.2295684584 -1.1881651604
H  -0.5973997404  3.0121061441  0.7945657486
H  -1.2939657696  1.7491455411  1.7994259920
H   2.5938554056  0.1447185762  1.5842671438
H   1.6056022554  0.8746360530 -1.8984232455
H   2.6198978077 -1.5809354653  1.1771366842
H   1.1715683979 -0.8711556065  1.8653366832
H   2.8584297338  1.1713474333 -0.6852936567
H   2.9619142197 -0.2468223664 -1.7147257164
22
Image 25  Energy = -383.8463329921
C  -0.6482362084 -1.4830205452  0.2909730216
C   1.4781254714 -0.3839232881 -0.1692330634
C  -0.8702936231  1.9627236301  0.8170526766
C   2.0032489000 -0.6850773047  1.1910230806
C   2.2658360171  0.3928723813 -1.1738137689
N   0.2927300105 -0.8286890122 -0.4818215623
N  -1.9071160980 -1.5305729755 -0.4547694333
O  -1.7480370225  1.6979634722 -0.2683929614
H  -2.0037118269  0.7657699610 -0.2226241793
H  -0.0299870659 -0.6592332599 -1.4324509060
H  -0.7565562693 -0.9701600260  1.2463686098
H   0.0489120506  1.3652475935  0.7315142527
H  -2.5985310110 -1.9092990120  0.1711079732
H  -1.8144235098 -2.2306469001 -1.1872105003
H  -0.6056396640  3.0181655656  0.7950857576
H  -1.3044362574  1.7560899267  1.8006978366
H   2.5949665495  0.1450628032  1.5795805263
H   1.6046868627  0.8710162698 -1.8993563982
H   2.6233147052 -1.5842125133  1.1836878935
H   1.1708394123 -0.8708481031  1.8630442967
H   2.8561877056  1.1701543782 -0.6835128416
H   2.9678205338 -0.2458829854 -1.7184510491
22
Image 26  Energy = -383.8466792926
C  -0.6469514778 -1.4844632574  0.2859174383
C   1.4851114668 -0.4014261840 -0.1760765123
C  -0.8791750824  1.9717307354  0.8208882510
C   2.0069539398 -0.6903011809  1.1895970000
C   2.2699626124  0.3869059372 -1.1775186204
N   0.3042932838 -0.8375313519 -0.4880335121
N  -1.9051536373 -1.5176991369 -0.4610454863
O  -1.7605329341  1.6910137941 -0.2587939750
H  -1.9894577904  0.7568019727 -0.2149801823
H  -0.0291488860 -0.6522340159 -1.4345720845
H  -0.7461961331 -0.9820982549  1.2536365933
H   0.0524063301  1.3881360634  0.7429837252
H  -2.5995061273 -1.8934592742  0.1638761036
H  -1.8264233044 -2.2338037851 -1.1828678609
H  -0.6214570154  3.0281432674  0.7933458757
H  -1.3294636651  1.7658392631  1.8009309423
H   2.5986959038  0.1428661251  1.5692384014
H   1.6050398425  0.8624201394 -1.9021042777
H   2.6294067585 -1.5885124259  1.1964130232
H   1.1722732054 -0.8708112843  1.8622033669
H   2.8503196476  1.1673162992 -0.6814477905
H   2.9787027321 -0.2453333859 -1.7230912111
22
Image 27  Energy = -383.8469984388
C  -0.6448803972 -1.4831755381  0.2806741383
C   1.4973005048 -0.4118051530 -0.1802884251
C  -0.8888288223  1.9782173299  0.8266495637
C   2.0100266031 -0.6961838759  1.1880466284
C   2.2735545017  0.3799969429 -1.1801948344
N   0.3044697615 -0.8463971247 -0.4938942718
N  -1.9043451794 -1.5069845921 -0.4686538425
O  -1.7692500783  1.6886703492 -0.2509507934
H  -1.9759395399  0.7408910823 -0.2058127489
H  -0.0262263256 -0.6467415454 -1.4364167682
H  -0.7356321729 -0.9944737653  1.2566461873
H   0.0541150284  1.4091119123  0.7538971911
H  -2.6017833521 -1.8767584793  0.1591723636
H  -1.8368838515 -2.2350868015 -1.1783061614
H  -0.6366936553  3.0372233850  0.7906825938
H  -1.3504029141  1.7743971018  1.7991313851
H   2.6023767565  0.1404318847  1.5597229377
H   1.6064532089  0.8538665684 -1.9046240099
H   2.6341634892 -1.5913737263  1.2075862587
H   1.1754271806 -0.8704453431  1.8618045716
H   2.8447510672  1.1645195956 -0.6802170304
H   2.9879278682 -0.2444001396 -1.7261557784
22
Image 28  Energy = -383.8472034456
C  -0.6472299252 -1.4793745902  0.2767989686
C   1.4961229779 -0.4110663122 -0.1793779549
C  -0.8915878756  1.9795648564  0.8268856905
C   2.0102399793 -0.6958140917  1.1868339590
C   2.2733545017  0.3788840798 -1.1796367775
N   0.3041785157 -0.8436647642 -0.4951877989
N  -1.9052848168 -1.5064068642 -0.4705644279
O  -1.7687220808  1.6825471974 -0.2502787234
H  -1.9701168347  0.7369623431 -0.2013672755
H  -0.0232391160 -0.6470391525 -1.4363477271
H  -0.7323243561 -0.9979077662  1.2541762317
H   0.0514884339  1.4116063944  0.7561483403
H  -2.6043990907 -1.8711990899  0.1607761100
H  -1.8381266779 -2.2338119480 -1.1771191746
H  -0.6398842837  3.0379069488  0.7895735492
H  -1.3515023300  1.7741187193  1.7982593928
H   2.6035534415  0.1388531942  1.5582707738
H   1.6080230834  0.8514677702 -1.9049213128
H   2.6346194713 -1.5912298590  1.2088935839
H   1.1777256421 -0.8702872417  1.8628602148
H   2.8439249286  1.1638990426 -0.6810862844
H   2.9888861007 -0.2445088000 -1.7250902153
22
Image 29  Energy = -383.8475075079
C  -0.6511422991 -1.4736397643  0.2656556487
C   1.4956384485 -0.4112185860 -0.1785587086
C  -0.9005030778  1.9844800865  0.8281566026
C   2.0123981981 -0.6972221355  1.1842998773
C   2.2744950066  0.3741436363 -1.1790032571
N   0.3027154889 -0.8382184763 -0.4974667045
N  -1.9089484321 -1.5018933330 -0.4731307419
O  -1.7690305874  1.6672641256 -0.2471884322
H  -1.9535493974  0.7233204953 -0.1892248068
H  -0.0158669432 -0.6468245380 -1.4387091318
H  -0.7225830928 -1.0093273100  1.2480365602
H   0.0456518252  1.4227005589  0.7650193984
H  -2.6107967794 -1.8505095553  0.1632970477
H  -1.8427794294 -2.2325572733 -1.1760259621
H  -0.6536908680  3.0425535217  0.7860755120
H  -1.3592487384  1.7765844711  1.7983934755
H   2.6076744019  0.1354589222  1.5529370129
H   1.6123131278  0.8431922204 -1.9069498437
H   2.6371276369 -1.5928907018  1.2140485227
H   1.1842583117 -0.8692739082  1.8654506101
H   2.8410514481  1.1622660395 -0.6829061280
H   2.9945154541 -0.2448884236 -1.7237074660
22
Image 30  Energy = -383.8477027744
C  -0.6523731843 -1.4722578473  0.2556580792
C   1.4935487812 -0.4132505742 -0.1795584016
C  -0.9104961564  1.9888577101  0.8324739303
C   2.0172204417 -0.7019050074  1.1838306760
C   2.2792847275  0.3677780783 -1.1800746349
N   0.3040002599 -0.8322561725 -0.4984402133
N  -1.9128151893 -1.4975363680 -0.4804085208
O  -1.7710074087  1.6542394555 -0.2435598714
H  -1.9365007920  0.7014236731 -0.1761285724
H  -0.0084206167 -0.6460651136 -1.4466977464
H  -0.7117951502 -1.0251708857  1.2420458737
H   0.0417428608  1.4399848713  0.7785875396
H  -2.6188606934 -1.8213575764  0.1660411491
H  -1.8510061129 -2.2292806385 -1.1730661235
H  -0.6751907136  3.0505636980  0.7803533156
H  -1.3721656435  1.7827352290  1.8009379580
H   2.6139325357  0.1331609950  1.5468450112
H   1.6173516365  0.8325834084 -1.9117529571
H   2.6401615298 -1.5965398586  1.2187362635
H   1.1921027611 -0.8672752601  1.8697128967
H   2.8378254368  1.1613888519 -0.6847909357
H   3.0031604218 -0.2463205776 -1.7222457184
22
Image 31  Energy = -383.8479326206
C  -0.6519639753 -1.4752166707  0.2499487623
C   1.4953193267 -0.4132771975 -0.1789762239
C  -0.9160420072  1.9922379183  0.8349461483
C   2.0200274141 -0.7036585691  1.1842775189
C   2.2818229481  0.3650750212 -1.1810624351
N   0.3014891386 -0.8290616804 -0.5011665857
N  -1.9144112168 -1.4926802521 -0.4808160051
O  -1.7723392989  1.6435449439 -0.2416160204
H  -1.9283461331  0.6923133559 -0.1704477835
H  -0.0043476163 -0.6462596464 -1.4513595232
H  -0.7072493586 -1.0340199659  1.2395870581
H   0.0409452160  1.4493303693  0.7869777194
H  -2.6231516216 -1.8030178109  0.1670879873
H  -1.8560760599 -2.2300380324 -1.1741715071
H  -0.6893146429  3.0549833551  0.7768996545
H  -1.3793480466  1.7870948476  1.8043748626
H   2.6177998765  0.1323990464  1.5440416861
H   1.6205982430  0.8264522534 -1.9152758789
H   2.6421201703 -1.6001410864  1.2195915274
H   1.1964671450 -0.8657965677  1.8728271458
H   2.8367421208  1.1616094159 -0.6858450212
H   3.0089581284 -0.2483729463 -1.7213241394
22
Image 32  Energy = -383.8481849703
C  -0.6491108658 -1.4835678745  0.2436657365
C   1.4971502189 -0.4126679831 -0.1788282619
C  -0.9235570480  1.9957501731  0.8391739068
C   2.0240622621 -0.7054353859  1.1857800846
C   2.2861574798  0.3624852126 -1.1828129934
N   0.2998351289 -0.8253246090 -0.5048563512
N  -1.9140878158 -1.4869385582 -0.4824630283
O  -1.7727857770  1.6306655469 -0.2386180636
H  -1.9216153840  0.6796521099 -0.1654306969
H   0.0000875456 -0.6471249392 -1.4588753582
H  -0.7035415077 -1.0465834426  1.2376393409
H   0.0418329167  1.4621527716  0.7996046897
H  -2.6293068300 -1.7762577979  0.1684378759
H  -1.8652364625 -2.2304161950 -1.1751890880
H  -0.7115239347  3.0611912489  0.7714861379
H  -1.3885280755  1.7947886986  1.8108412344
H   2.6238070951  0.1320905482  1.5416468162
H   1.6255133944  0.8182614572 -1.9217106343
H   2.6442573421 -1.6062695368  1.2173205945
H   1.2022666220 -0.8632503966  1.8783562233
H   2.8365789953  1.1631330658 -0.6876336076
H   3.0174444726 -0.2528339896 -1.7190356715
22
Image 33  Energy = -383.8484575950
C  -0.6434839878 -1.4939696034  0.2380313592
C   1.4984272202 -0.4112890606 -0.1794469415
C  -0.9309078830  1.9989084766  0.8448108364
C   2.0277903289 -0.7064692184  1.1861082099
C   2.2915488461  0.3604566888 -1.1848735097
N   0.3024388919 -0.8244558993 -0.5087044853
N  -1.9120470341 -1.4819496319 -0.4841512287
O  -1.7715523924  1.6170939324 -0.2345710602
H  -1.9188696214  0.6672692088 -0.1625458990
H   0.0036977942 -0.6485311833 -1.4645464884
H  -0.7016092815 -1.0617106277  1.2361131587
H   0.0426036300  1.4767894485  0.8143388682
H  -2.6342518132 -1.7455168005  0.1674544146
H  -1.8788030707 -2.2303586501 -1.1749544198
H  -0.7383764499  3.0670151154  0.7655126984
H  -1.3973243966  1.8047433084  1.8181409188
H   2.6310829763  0.1310009826  1.5401589486
H   1.6320108922  0.8094210965 -1.9299830899
H   2.6446309605 -1.6116955913  1.2112319145
H   1.2088220631 -0.8601327911  1.8848677136
H   2.8378239640  1.1655402845 -0.6905969646
H   3.0260481638 -0.2586593427 -1.7138961361
22
Image 34  Energy = -383.8482655354
C  -0.6327928581 -1.5142751558  0.2196426757
C   1.5087808557 -0.4038337937 -0.1793770971
C  -0.9541069263  2.0078906005  0.8594065633
C   2.0353784694 -0.7061296519  1.1841548405
C   2.3037767937  0.3545455420 -1.1882168893
N   0.3053766026 -0.8290153769 -0.5184976209
N  -1.8979512442 -1.4671149560 -0.4990250016
O  -1.7662451818  1.5833358347 -0.2238489699
H  -1.9087388232  0.6270383323 -0.1494551742
H   0.0148802932 -0.6521620959 -1.4721304562
H  -0.6914937922 -1.1074578183  1.2284538926
H   0.0395518385  1.5189475403  0.8551506532
H  -2.6515683807 -1.6622014582  0.1692652623
H  -1.9191750213 -2.2275400726 -1.1692922091
H  -0.8111489763  3.0822364520  0.7502805716
H  -1.4211041431  1.8301853730  1.8342917456
H   2.6511916686  0.1221640068  1.5333493953
H   1.6530766687  0.7835776887 -1.9517439443
H   2.6428064692 -1.6211330619  1.1946343419
H   1.2298438961 -0.8518407296  1.8986274416
H   2.8409333227  1.1701252075 -0.7012677159
H   3.0484283124 -0.2738421989 -1.6959037426
22
Image 35  Energy = -383.8487919763
C  -0.6327850068 -1.5121967492  0.2257419877
C   1.5028124374 -0.4052304485 -0.1805908673
C  -0.9467648734  2.0051536882  0.8562416955
C   2.0327959665 -0.7044642842  1.1836609752
C   2.3014983639  0.3578261513 -1.1875757541
N   0.3126749630 -0.8312175245 -0.5139453443
N  -1.9018440513 -1.4716167277 -0.4917111666
O  -1.7657386134  1.5917300926 -0.2263129068
H  -1.9181109359  0.6419091631 -0.1567782199
H   0.0094905522 -0.6519620322 -1.4674924554
H  -0.6971747238 -1.0970006639  1.2319246883
H   0.0406114570  1.5078400917  0.8452882149
H  -2.6423484567 -1.6820290112  0.1641050199
H  -1.9127444986 -2.2293558572 -1.1704785145
H  -0.7948986609  3.0766135126  0.7545569640
H  -1.4131142123  1.8250043089  1.8311603557
H   2.6471403808  0.1236870564  1.5370651982
H   1.6491662064  0.7908221628 -1.9478924376
H   2.6405574563 -1.6172389049  1.1933237230
H   1.2240929037 -0.8534793974  1.8951767467
H   2.8425456656  1.1702896301 -0.7000206625
H   3.0418375111 -0.2715840657 -1.6969486101
22
Image 36  Energy = -383.8489148178
C  -0.6316761468 -1.5130467946  0.2256765473
C   1.5022460773 -0.4040187596 -0.1806266328
C  -0.9473433344  2.0052028714  0.8567134861
C   2.0325105145 -0.7032838272  1.1822159175
C   2.3022218118  0.3580831877 -1.1874689188
N   0.3164266278 -0.8344230655 -0.5131992774
N  -1.9009659591 -1.4716811230 -0.4928273358
O  -1.7644640509  1.5911251509 -0.2261423377
H  -1.9207298418  0.6416781782 -0.1570519183
H   0.0087669061 -0.6524904430 -1.4642816813
H  -0.6970910511 -1.1007062151  1.2316615736
H   0.0393591366  1.5098930374  0.8472019196
H  -2.6403585386 -1.6778117621  0.1621737584
H  -1.9169599823 -2.2290672808 -1.1687394144
H  -0.7985534946  3.0763208861  0.7545845797
H  -1.4133122528  1.8260317396  1.8315780440
H   2.6489519649  0.1219900954  1.5373828814
H   1.6514839084  0.7899011235 -1.9496420754
H   2.6382411839 -1.6154234866  1.1896471875
H   1.2249878457 -0.8529247875  1.8946978866
H   2.8440386458  1.1709333038 -0.7018118541
H   3.0419198611 -0.2727818350 -1.6932437233
22
Image 37  Energy = -383.8491645586
C  -0.6294369230 -1.5181609613  0.2216616047
C   1.5022882291 -0.4004342813 -0.1801128714
C  -0.9532680559  2.0071515819  0.8597417407
C   2.0337146835 -0.7009274105  1.1796625714
C   2.3054111138  0.3572032605 -1.1875101017
N   0.3224716340 -0.8400634462 -0.5122026880
N  -1.8977725343 -1.4674612894 -0.4976728274
O  -1.7627415279  1.5839661186 -0.2255777388
H  -1.9220890930  0.6352159669 -0.1534990049
H   0.0091177775 -0.6539502105 -1.4597983355
H  -0.6933325576 -1.1158823338  1.2299807107
H   0.0363682415  1.5206558948  0.8569229887
H  -2.6393120119 -1.6562649854  0.1600989485
H  -1.9303512911 -2.2294995109 -1.1653085486
H  -0.8155676964  3.0791069711  0.7528032796
H  -1.4187761888  1.8306003047  1.8343767584
H   2.6564671925  0.1175193824  1.5363957287
H   1.6595372112  0.7838177197 -1.9564592885
H   2.6340018380 -1.6138427691  1.1807407222
H   1.2294116626 -0.8505218384  1.8947304802
H   2.8472464652  1.1727993312 -0.7071352329
H   3.0463116711 -0.2775272788 -1.6833403484
22
Image 38  Energy = -383.8493524904
C  -0.6286921586 -1.5250511720  0.2192079976
C   1.5030692498 -0.3952461538 -0.1774012321
C  -0.9595674524  2.0099487430  0.8609153023
C   2.0350995101 -0.6972065726  1.1778482280
C   2.3074573741  0.3571259847 -1.1870293497
N   0.3238157511 -0.8440510104 -0.5119964294
N  -1.8987598788 -1.4635115107 -0.5023937823
O  -1.7623541882  1.5808733953 -0.2277828407
H  -1.9237860553  0.6323861383 -0.1481255505
H   0.0077023443 -0.6554185986 -1.4525661804
H  -0.6875473414 -1.1313858902  1.2299965067
H   0.0326674451  1.5287182560  0.8626249578
H  -2.6335060917 -1.6381428952  0.1577193676
H  -1.9408183091 -2.2312496133 -1.1613878904
H  -0.8255095625  3.0811201577  0.7538793680
H  -1.4251879024  1.8302948903  1.8345412969
H   2.6657749442  0.1141398600  1.5358991345
H   1.6679719602  0.7790240896 -1.9629042735
H   2.6299193185 -1.6126594707  1.1713123261
H   1.2302152967 -0.8481890263  1.8913811529
H   2.8512402248  1.1748872908 -0.7129577567
H   3.0504953692 -0.2829066716 -1.6722818499
22
Image 39  Energy = -383.8494824552
C  -0.6280724835 -1.5331129603  0.2134280294
C   1.5016266100 -0.3911245396 -0.1766927711
C  -0.9677944294  2.0131290549  0.8635107724
C   2.0380220091 -0.6951145237  1.1773242874
C   2.3110668592  0.3557289167 -1.1871512694
N   0.3265670319 -0.8448835828 -0.5097801532
N  -1.8952424915 -1.4576246701 -0.5090487996
O  -1.7623472782  1.5738178999 -0.2284097180
H  -1.9217942371  0.6251467894 -0.1410556445
H   0.0075604944 -0.6562741931 -1.4516428151
H  -0.6807153858 -1.1495417170  1.2292382866
H   0.0292802818  1.5403759040  0.8715905778
H  -2.6344096080 -1.6139617725  0.1593949459
H  -1.9527676609 -2.2327464876 -1.1582768646
H  -0.8413632801  3.0857866453  0.7530424488
H  -1.4346293825  1.8322713231  1.8361554190
H   2.6758658798  0.1111859051  1.5343213384
H   1.6768093611  0.7717406788 -1.9706052033
H   2.6276090306 -1.6142139842  1.1633469197
H   1.2329632651 -0.8451949669  1.8904218212
H   2.8542171030  1.1770640153 -0.7184095221
H   3.0572481727 -0.2889535012 -1.6622036560
22
Image 40  Energy = -383.8495665650
C  -0.6279450907 -1.5370214594  0.2111193359
C   1.5004938842 -0.3886054215 -0.1758619745
C  -0.9708612514  2.0145557005  0.8632941549
C   2.0399684318 -0.6946190494  1.1777891635
C   2.3126496922  0.3548597025 -1.1874772903
N   0.3249827676 -0.8423611761 -0.5084195184
N  -1.8943931420 -1.4554722922 -0.5102317281
O  -1.7632258867  1.5722667825 -0.2293041925
H  -1.9201747582  0.6249561919 -0.1370907058
H   0.0063669471 -0.6558409828 -1.4523389624
H  -0.6768352596 -1.1583517959  1.2294727320
H   0.0268445547  1.5440653746  0.8726740430
H  -2.6342115919 -1.6054352438  0.1610947695
H  -1.9557962661 -2.2343327540 -1.1572095374
H  -0.8441989857  3.0881293199  0.7544543241
H  -1.4404640901  1.8300501893  1.8350327764
H   2.6809385986  0.1109678704  1.5337478220
H   1.6805448017  0.7688986864 -1.9738331272
H   2.6272074568 -1.6159051035  1.1606750781
H   1.2321896586 -0.8436237996  1.8888566095
H   2.8554102678  1.1781724662 -0.7203866900
H   3.0602091232 -0.2918529690 -1.6575586747
22
Image 41  Energy = -383.8483318690
C  -0.6264805084 -1.5418670364  0.2078805459
C   1.4981526827 -0.3842099503 -0.1745572338
C  -0.9760487659  2.0172552011  0.8633297736
C   2.0425294710 -0.6938798673  1.1782681106
C   2.3149095383  0.3540207983 -1.1875684200
N   0.3222257932 -0.8348089445 -0.5078378918
N  -1.8936085209 -1.4553936705 -0.5097108004
O  -1.7644828999  1.5739311967 -0.2310936338
H  -1.9178237054  0.6255792013 -0.1308680080
H   0.0037023944 -0.6536540373 -1.4534762957
H  -0.6706882230 -1.1740998104  1.2301640451
H   0.0226089087  1.5478404727  0.8713262934
H  -2.6340847446 -1.5942040545  0.1643057146
H  -1.9587422224 -2.2358541277 -1.1544897216
H  -0.8454851533  3.0915706108  0.7585456478
H  -1.4507177608  1.8242330372  1.8302147153
H   2.6882590224  0.1104290923  1.5326850791
H   1.6864305556  0.7642454424 -1.9789996129
H   2.6268280671 -1.6193848909  1.1576943087
H   1.2306136991 -0.8405403630  1.8859414821
H   2.8565399856  1.1794304123 -0.7231170860
H   3.0650622417 -0.2971384826 -1.6501386166
22
Image 42  Energy = -383.8476149507
C  -0.6203813773 -1.5464072918  0.1992444183
C   1.4979026773 -0.3733477465 -0.1749464055
C  -0.9850956567  2.0218418534  0.8617317183
C   2.0435492670 -0.6968713026  1.1755616926
C   2.3199583808  0.3511635805 -1.1875142821
N   0.3181403187 -0.8256197918 -0.5056788441
N  -1.8904239399 -1.4569638952 -0.5048401302
O  -1.7661528741  1.5726277652 -0.2329399341
H  -1.9150172510  0.6319470982 -0.1226384478
H  -0.0010658452 -0.6468935729 -1.4547049520
H  -0.6605702436 -1.2064950054  1.2317350056
H   0.0144759536  1.5550144950  0.8700070160
H  -2.6342811909 -1.5725213352  0.1686155557
H  -1.9669215186 -2.2385808280 -1.1486039979
H  -0.8513948818  3.0973802076  0.7669231786
H  -1.4696646744  1.8154752545  1.8230814194
H   2.7017021892  0.1088403462  1.5307864271
H   1.6984700104  0.7541705992 -1.9894980467
H   2.6235999434 -1.6228998126  1.1520280107
H   1.2311631730 -0.8338100509  1.8827595398
H   2.8586978182  1.1821669860 -0.7281792782
H   3.0730095785 -0.3067173239 -1.6344313220
22
Image 43  Energy = -383.8477475577
C  -0.6203236354 -1.5446319067  0.2008143347
C   1.4971550309 -0.3747827658 -0.1749195714
C  -0.9837662685  2.0209708403  0.8621993591
C   2.0439715479 -0.6950698689  1.1749603124
C   2.3199507501  0.3517732634 -1.1882055568
N   0.3204232142 -0.8254291759 -0.5077690125
N  -1.8907555851 -1.4584112226 -0.5038724580
O  -1.7657355550  1.5754483557 -0.2334787126
H  -1.9162482457  0.6310169659 -0.1243181559
H  -0.0006878927 -0.6458617009 -1.4535133355
H  -0.6615008556 -1.2057873403  1.2314957646
H   0.0146508001  1.5538035262  0.8694870679
H  -2.6342209248 -1.5750279226  0.1681428328
H  -1.9664464429 -2.2381118733 -1.1482236213
H  -0.8510905211  3.0966768658  0.7671026533
H  -1.4681166336  1.8162873908  1.8231707502
H   2.6989267930  0.1069607009  1.5302406848
H   1.6980628513  0.7543412354 -1.9887959777
H   2.6232415641 -1.6225711916  1.1528184012
H   1.2316179363 -0.8340305380  1.8839370377
H   2.8583968575  1.1819899420 -0.7276717619
H   3.0721950704 -0.3060533477 -1.6351026943
22
Image 44  Energy = -383.8478406190
C  -0.6175776290 -1.5438643003  0.1992782880
C   1.4979204972 -0.3726136365 -0.1755049658
C  -0.9856718808  2.0218242556  0.8633123270
C   2.0441026085 -0.6936163518  1.1731118363
C   2.3217871710  0.3517926540 -1.1886915497
N   0.3219230330 -0.8237034572 -0.5098267481
N  -1.8897064565 -1.4606326764 -0.5018709945
O  -1.7656111044  1.5777514421 -0.2350143213
H  -1.9173412809  0.6311821623 -0.1246288235
H  -0.0013325089 -0.6414815098 -1.4521855283
H  -0.6592184923 -1.2168689263  1.2318775014
H   0.0125239604  1.5552685458  0.8697488830
H  -2.6347053600 -1.5694559105  0.1690871020
H  -1.9699857341 -2.2382520183 -1.1450727892
H  -0.8552755289  3.0975592775  0.7698293657
H  -1.4721074514  1.8158888447  1.8216230417
H   2.6995995997  0.1030802004  1.5285027785
H   1.7021598598  0.7504401939 -1.9921739534
H   2.6210243406 -1.6229948419  1.1514570702
H   1.2339745590 -0.8317694923  1.8850713036
H   2.8588073447  1.1827391208 -0.7290722954
H   3.0744103190 -0.3087733388 -1.6303592111
22
Image 45  Energy = -383.8479443572
C  -0.6126025593 -1.5444126431  0.1941638768
C   1.4980094040 -0.3675123263 -0.1768919462
C  -0.9910430875  2.0242882729  0.8646942209
C   2.0441720441 -0.6927650814  1.1698008267
C   2.3263802707  0.3512617816 -1.1897197437
N   0.3243758583 -0.8183582642 -0.5113486849
N  -1.8875495994 -1.4636037234 -0.4974671532
O  -1.7660903588  1.5807609625 -0.2384084214
H  -1.9186019411  0.6338348941 -0.1245628377
H  -0.0035940108 -0.6313128223 -1.4514119242
H  -0.6525204265 -1.2427397103  1.2335842439
H   0.0075639520  1.5589090631  0.8701625381
H  -2.6353647838 -1.5557749318  0.1722808940
H  -1.9776418540 -2.2402371712 -1.1385687247
H  -0.8639916977  3.1003896994  0.7764769363
H  -1.4826819309  1.8136415431  1.8182125946
H   2.7040180347  0.0969128939  1.5252434099
H   1.7117053676  0.7415211187 -2.0005516419
H   2.6162775581 -1.6246277426  1.1480941214
H   1.2382723135 -0.8263077518  1.8866073360
H   2.8601261585  1.1849773489 -0.7325453765
H   3.0804811494 -0.3153451677 -1.6193462832
22
Image 46  Energy = -383.8478111068
C  -0.6041572313 -1.5478692106  0.1849538434
C   1.5018354621 -0.3570784700 -0.1776984611
C  -1.0024463115  2.0286284221  0.8665985527
C   2.0447212006 -0.6917571811  1.1643754389
C   2.3358916531  0.3494976208 -1.1922787400
N   0.3214767453 -0.8077593607 -0.5166020404
N  -1.8842408307 -1.4676829349 -0.4910815696
O  -1.7673519772  1.5872375754 -0.2458518603
H  -1.9211552351  0.6399273591 -0.1264911315
H  -0.0074565199 -0.6087913366 -1.4492936477
H  -0.6368944008 -1.2958160974  1.2369482969
H  -0.0023210774  1.5659411831  0.8715791413
H  -2.6355740816 -1.5286456087  0.1805450146
H  -1.9927278884 -2.2458534508 -1.1247573235
H  -0.8819019907  3.1067251856  0.7902512545
H  -1.5037118519  1.8092548293  1.8128340623
H   2.7144339591  0.0864427458  1.5186906710
H   1.7313576964  0.7232956411 -2.0182598346
H   2.6065630986 -1.6293606548  1.1412750209
H   1.2459040142 -0.8150815196  1.8902617737
H   2.8632697633  1.1903984447 -0.7397421815
H   3.0941856594 -0.3281529256 -1.5977581193
22
Image 47  Energy = -383.8479608777
C  -0.6015225944 -1.5496685859  0.1798311196
C   1.5006322199 -0.3535233570 -0.1795875274
C  -1.0080663834  2.0300276840  0.8672235298
C   2.0448563157 -0.6922650551  1.1628678937
C   2.3406959674  0.3483482755 -1.1932811272
N   0.3222651661 -0.8024837623 -0.5155040868
N  -1.8837715963 -1.4689053775 -0.4882995128
O  -1.7680253153  1.5897516904 -0.2492968113
H  -1.9224700335  0.6440773561 -0.1291987181
H  -0.0097255346 -0.5967560341 -1.4498779728
H  -0.6286005177 -1.3206064667  1.2384442725
H  -0.0067884160  1.5689313058  0.8726420693
H  -2.6347307630 -1.5168254345  0.1847860166
H  -1.9995835893 -2.2494088148 -1.1180142546
H  -0.8904153247  3.1099274786  0.7966787151
H  -1.5127664021  1.8075799137  1.8111264885
H   2.7200288831  0.0827449187  1.5157769013
H   1.7405505874  0.7147312949 -2.0266877669
H   2.6018837562 -1.6321205038  1.1383370442
H   1.2492050267 -0.8097415702  1.8922589735
H   2.8648403392  1.1931727974 -0.7433942308
H   3.1012080645 -0.3334874918 -1.5883328958
22
Image 48  Energy = -383.8481667535
C  -0.5991492153 -1.5535590434  0.1711668964
C   1.4989184723 -0.3484082076 -0.1820836625
C  -1.0184073455  2.0322190318  0.8678827480
C   2.0454504684 -0.6938066142  1.1613099826
C   2.3493661231  0.3455247938 -1.1954228692
N   0.3203398867 -0.7926455017 -0.5140496239
N  -1.8843341230 -1.4697810328 -0.4845180638
O  -1.7692338378  1.5948984517 -0.2557369098
H  -1.9254228692  0.6527622846 -0.1377296227
H  -0.0134599221 -0.5727024358 -1.4499519749
H  -0.6115716671 -1.3658379495  1.2398930124
H  -0.0148868717  1.5737785746  0.8753376968
H  -2.6315345431 -1.4972886536  0.1935939728
H  -2.0116622735 -2.2574861606 -1.1049457466
H  -0.9060747014  3.1153927173  0.8083231777
H  -1.5276075871  1.8051253650  1.8096403131
H   2.7312020676  0.0779094880  1.5104252772
H   1.7576213542  0.6990137162 -2.0419095141
H   2.5931761724 -1.6384760274  1.1334947647
H   1.2541720945 -0.7999627420  1.8967263988
H   2.8677558938  1.1984951108 -0.7505112077
H   3.1150422773 -0.3416648909 -1.5724369996
22
Image 49  Energy = -383.8483269767
C  -0.5998247065 -1.5558494550  0.1650846336
C   1.4977893052 -0.3466584120 -0.1826763176
C  -1.0252541215  2.0341218791  0.8685543022
C   2.0466379145 -0.6947584445  1.1614806518
C   2.3544836200  0.3427270356 -1.1965215756
N   0.3170214720 -0.7858638985 -0.5127987804
N  -1.8860301640 -1.4696149881 -0.4836438576
O  -1.7697418096  1.5998276001 -0.2599958806
H  -1.9281337026  0.6582974550 -0.1472079213
H  -0.0158904481 -0.5553963668 -1.4482675757
H  -0.5983645883 -1.3953079420  1.2384168593
H  -0.0206140759  1.5768329834  0.8782316652
H  -2.6280181877 -1.4866217660  0.2005135880
H  -2.0194430245 -2.2638276778 -1.0951202151
H  -0.9165180792  3.1178358597  0.8153529787
H  -1.5352817243  1.8040583621  1.8100862782
H   2.7394888928  0.0762631439  1.5065683992
H   1.7693351523  0.6884940364 -2.0512270396
H   2.5874110557 -1.6440916858  1.1310676576
H   1.2562072906 -0.7935455584  1.9001913331
H   2.8692633128  1.2014672318 -0.7561883944
H   3.1251764641 -0.3448891167 -1.5634027780
22
Image 50  Energy = -383.8490281876
C  -0.6005657492 -1.5556205749  0.1518706368
C   1.4979584341 -0.3450347685 -0.1814649835
C  -1.0359975153  2.0361250048  0.8725916090
C   2.0501061235 -0.6944465999  1.1630830033
C   2.3610538527  0.3361235059 -1.1964955948
N   0.3127388995 -0.7743149258 -0.5109945740
N  -1.8912839062 -1.4700241778 -0.4821698568
O  -1.7708366602  1.6092337814 -0.2668050138
H  -1.9332576428  0.6682439543 -0.1688423108
H  -0.0211619094 -0.5262196248 -1.4404741632
H  -0.5748490930 -1.4435284150  1.2300926600
H  -0.0319968695  1.5831588337  0.8849542323
H  -2.6213706565 -1.4726671328  0.2126463408
H  -2.0335250741 -2.2748844328 -1.0769904210
H  -0.9332130314  3.1215713827  0.8247346461
H  -1.5449662171  1.8026237930  1.8116446159
H   2.7524863347  0.0719008168  1.4982284199
H   1.7889447269  0.6703581816 -2.0644033554
H   2.5775834534 -1.6536901712  1.1297212855
H   1.2595417413 -0.7827062478  1.9050185475
H   2.8695482142  1.2036224791 -0.7674132159
H   3.1427623790 -0.3463243746 -1.5500345688
22
Image 51  Energy = -383.8487201170
C  -0.6043723427 -1.5504216794  0.1395126699
C   1.5029745139 -0.3441922808 -0.1776762091
C  -1.0497289784  2.0459491371  0.8699793594
C   2.0517303823 -0.7007700177  1.1624988929
C   2.3674420876  0.3272384101 -1.1985793372
N   0.3113597619 -0.7634114356 -0.5078407635
N  -1.8903763127 -1.4710998459 -0.4839882677
O  -1.7695304949  1.6267387557 -0.2691873539
H  -1.9396126136  0.6749343410 -0.1987986109
H  -0.0287844771 -0.4940886165 -1.4314472210
H  -0.5498121735 -1.4906493901  1.2097840019
H  -0.0406570504  1.5887441864  0.8949688753
H  -2.6195809071 -1.4660913957  0.2311911881
H  -2.0514499075 -2.2874857422 -1.0572027176
H  -0.9479400723  3.1197496996  0.8309382007
H  -1.5542915892  1.7989740059  1.8200656409
H   2.7685497698  0.0684272438  1.4897626469
H   1.8056443262  0.6501735452 -2.0725973223
H   2.5669308698 -1.6600988716  1.1353789036
H   1.2634217927 -0.7704969025  1.9089939072
H   2.8667270806  1.2040710054 -0.7784579215
H   3.1610561296 -0.3426938199 -1.5388006343
22
Image 52  Energy = -383.8492295462
C  -0.6007948887 -1.5509762643  0.1420684825
C   1.5022627649 -0.3443912236 -0.1787747618
C  -1.0440441262  2.0400559224  0.8744798292
C   2.0523662896 -0.6956757385  1.1633043215
C   2.3648798967  0.3304049886 -1.1966941012
N   0.3110944047 -0.7670081030 -0.5109873302
N  -1.8940503198 -1.4713990617 -0.4812749393
O  -1.7712934530  1.6189600875 -0.2697192649
H  -1.9369366954  0.6744794238 -0.1888631605
H  -0.0259501539 -0.5056579320 -1.4322872163
H  -0.5584800790 -1.4748524940  1.2168927028
H  -0.0390100251  1.5877771846  0.8916039986
H  -2.6186078569 -1.4683761829  0.2229125459
H  -2.0455206611 -2.2828475784 -1.0636820024
H  -0.9427123275  3.1219892505  0.8283305632
H  -1.5504756500  1.8005733689  1.8155977688
H   2.7617618934  0.0675063298  1.4917869141
H   1.7997253239  0.6568637388 -2.0697717790
H   2.5709740795 -1.6586667112  1.1339010113
H   1.2622703717 -0.7746066180  1.9073554332
H   2.8671515343  1.2032710488 -0.7750156668
H   3.1550894869 -0.3439231172 -1.5426654248
22
Image 53  Energy = -383.8492604348
C  -0.5999743329 -1.5498699224  0.1404940073
C   1.5030611799 -0.3439517859 -0.1789230591
C  -1.0447917287  2.0399989321  0.8755050249
C   2.0526667322 -0.6953031700  1.1629570624
C   2.3656233341  0.3301115622 -1.1967829486
N   0.3116174839 -0.7660831746 -0.5121104756
N  -1.8943515156 -1.4722885628 -0.4803246930
O  -1.7718422175  1.6201978345 -0.2704304574
H  -1.9369393349  0.6752868477 -0.1904388600
H  -0.0264396699 -0.5033536992 -1.4314287868
H  -0.5570608568 -1.4790165849  1.2159438716
H  -0.0399631181  1.5886168667  0.8921923649
H  -2.6186862381 -1.4677031831  0.2238199279
H  -2.0473985734 -2.2833440730 -1.0622148156
H  -0.9435203917  3.1226127487  0.8286818879
H  -1.5518274322  1.8000738696  1.8153397948
H   2.7625389601  0.0657685842  1.4909544572
H   1.8002292343  0.6549710790 -2.0703670160
H   2.5704821111 -1.6590841720  1.1350574127
H   1.2630115977 -0.7733500390  1.9074904306
H   2.8667133219  1.2035155477 -0.7754269683
H   3.1565512662 -0.3443051824 -1.5414902451
22
Image 54  Energy = -383.8493242610
C  -0.5973633365 -1.5451927714  0.1348326881
C   1.5062143497 -0.3425509734 -0.1801524989
C  -1.0484406107  2.0413528277  0.8780699479
C   2.0534320585 -0.6955151339  1.1616240386
C   2.3689944850  0.3287038845 -1.1975054807
N   0.3133256202 -0.7628114887 -0.5147174487
N  -1.8957762358 -1.4752651433 -0.4765586704
O  -1.7739478955  1.6249785788 -0.2725690206
H  -1.9367732939  0.6796108304 -0.1979207081
H  -0.0286199718 -0.4926165574 -1.4297148096
H  -0.5504497045 -1.4966089970  1.2107867169
H  -0.0434882923  1.5917018539  0.8949229367
H  -2.6187304248 -1.4655525229  0.2281548885
H  -2.0553458085 -2.2862125094 -1.0562414197
H  -0.9467268338  3.1241818786  0.8303076838
H  -1.5577171685  1.7977700014  1.8151671392
H   2.7671105569  0.0597666231  1.4878973230
H   1.8020593758  0.6468559076 -2.0725623122
H   2.5683809501 -1.6609463574  1.1405030707
H   1.2657762592 -0.7677337369  1.9082254629
H   2.8648990707  1.2049820805 -0.7771245938
H   3.1628866629 -0.3453979354 -1.5369270462
22
Image 55  Energy = -383.8493620968
C  -0.5976215775 -1.5415076867  0.1315459130
C   1.5082132707 -0.3434427076 -0.1815616483
C  -1.0525750709  2.0416284826  0.8790956575
C   2.0547961119 -0.6966120106  1.1609311245
C   2.3725979642  0.3279633665 -1.1988153677
N   0.3125597473 -0.7589219718 -0.5190184051
N  -1.8971028374 -1.4776735270 -0.4746138370
O  -1.7756770073  1.6307378636 -0.2737901768
H  -1.9356519467  0.6833789196 -0.2041341995
H  -0.0289872871 -0.4821518435 -1.4298043699
H  -0.5431679236 -1.5135578189  1.2065565722
H  -0.0467783244  1.5941958767  0.8972993537
H  -2.6186269435 -1.4641064160  0.2336096314
H  -2.0621456081 -2.2890064883 -1.0510663626
H  -0.9489019856  3.1260943479  0.8323917335
H  -1.5638186174  1.7958475182  1.8142442954
H   2.7731085009  0.0552911033  1.4858107335
H   1.8026751922  0.6392152581 -2.0744528145
H   2.5670210563 -1.6641468040  1.1467652756
H   1.2672223912 -0.7614649911  1.9093691232
H   2.8634460543  1.2079765383 -0.7783998878
H   3.1691146415 -0.3462366632 -1.5334645020
22
Image 56  Energy = -383.8494001599
C  -0.5977471251 -1.5378294169  0.1275932713
C   1.5095789562 -0.3444813524 -0.1834216279
C  -1.0555827185  2.0432241084  0.8797862110
C   2.0558239769 -0.6978289371  1.1607580541
C   2.3751160384  0.3271336866 -1.1993522884
N   0.3124691954 -0.7567001551 -0.5196829996
N  -1.8991210514 -1.4791649898 -0.4724436816
O  -1.7773132526  1.6346873855 -0.2749055726
H  -1.9344959611  0.6869172089 -0.2091605946
H  -0.0294255595 -0.4734864157 -1.4314246956
H  -0.5369482105 -1.5270930149  1.2034526740
H  -0.0494460370  1.5958979916  0.8991749997
H  -2.6180950832 -1.4631959805  0.2377778869
H  -2.0673139559 -2.2916160957 -1.0472137048
H  -0.9505130014  3.1267724016  0.8343379490
H  -1.5688528699  1.7943230033  1.8135164785
H   2.7780333308  0.0517955153  1.4840344080
H   1.8031710327  0.6331978370 -2.0759149566
H   2.5657907909 -1.6668659897  1.1521070906
H   1.2684074303 -0.7561467585  1.9101360592
H   2.8620918975  1.2103787977 -0.7796575028
H   3.1740719659 -0.3464184691 -1.5309996516
22
Image 57  Energy = -383.8494266849
C  -0.5989501868 -1.5348401838  0.1258930946
C   1.5112157812 -0.3463381707 -0.1843445600
C  -1.0575789511  2.0451623058  0.8795933008
C   2.0566145699 -0.6994580383  1.1609604217
C   2.3762963416  0.3264688835 -1.1995923724
N   0.3109841749 -0.7552673100 -0.5204135802
N  -1.9013232848 -1.4796795665 -0.4715453060
O  -1.7785900616  1.6371377928 -0.2755948346
H  -1.9329553075  0.6897719589 -0.2120849188
H  -0.0285445141 -0.4677559421 -1.4334629057
H  -0.5318091289 -1.5367560977  1.2009948693
H  -0.0514156780  1.5965002629  0.9002569604
H  -2.6175193560 -1.4630165173  0.2412846642
H  -2.0701552762 -2.2935645583 -1.0449753897
H  -0.9511137666  3.1267595544  0.8363663790
H  -1.5727763845  1.7935042301  1.8125637435
H   2.7820576701  0.0498197644  1.4828484834
H   1.8033708641  0.6292488471 -2.0767438249
H   2.5647762828 -1.6693238371  1.1566096975
H   1.2689374287 -0.7516557839  1.9106184919
H   2.8608336595  1.2124590332 -0.7807810615
H   3.1773448978 -0.3456762613 -1.5299535735
22
Image 58  Energy = -383.8494525843
C  -0.6009945906 -1.5310210272  0.1242784541
C   1.5118536122 -0.3492442052 -0.1849744328
C  -1.0595172443  2.0463357125  0.8793711803
C   2.0577365648 -0.7010600757  1.1614295111
C   2.3769967833  0.3256980185 -1.1995512237
N   0.3105639705 -0.7535781290 -0.5208756640
N  -1.9038084029 -1.4798565081 -0.4709825887
O  -1.7796541469  1.6400672255 -0.2764378490
H  -1.9311090641  0.6919753056 -0.2142147302
H  -0.0267369162 -0.4630922424 -1.4353619543
H  -0.5262415570 -1.5464351134  1.1984712434
H  -0.0536765470  1.5966624796  0.9010312720
H  -2.6170985686 -1.4630974973  0.2450439360
H  -2.0721523327 -2.2953419842 -1.0430106344
H  -0.9513932640  3.1273303280  0.8389000218
H  -1.5766403214  1.7932193635  1.8110167468
H   2.7857373861  0.0477825875  1.4813526337
H   1.8038822480  0.6258006742 -2.0775250146
H   2.5633368669 -1.6721613633  1.1613676676
H   1.2693590005 -0.7467701222  1.9110325024
H   2.8590668962  1.2142300619 -0.7824100400
H   3.1801893953 -0.3439431199 -1.5294532870
22
Image 59  Energy = -383.8495009457
C  -0.6045614653 -1.5214437194  0.1199091325
C   1.5153230221 -0.3545317658 -0.1857034675
C  -1.0636446267  2.0483922922  0.8794242232
C   2.0599509625 -0.7038963702  1.1623989980
C   2.3779522525  0.3237493352 -1.1991762695
N   0.3084172883 -0.7507575218 -0.5223540207
N  -1.9091530609 -1.4801886290 -0.4693784577
O  -1.7818707713  1.6460192416 -0.2787206190
H  -1.9272215172  0.6968696459 -0.2187055324
H  -0.0223098537 -0.4541096331 -1.4379273341
H  -0.5141216353 -1.5679682825  1.1927824593
H  -0.0588938428  1.5967871589  0.9025720886
H  -2.6164984169 -1.4632550415  0.2527889409
H  -2.0762187374 -2.2987932890 -1.0384137836
H  -0.9521379147  3.1292285231  0.8446733531
H  -1.5849156990  1.7929662588  1.8075466539
H   2.7929457415  0.0427482887  1.4773696045
H   1.8055985514  0.6185972403 -2.0794425623
H   2.5595469137 -1.6784999113  1.1715794305
H   1.2706208438 -0.7360928063  1.9119917109
H   2.8546169395  1.2173638021 -0.7862844174
H   3.1862747812 -0.3396844346 -1.5284324211
22
Image 60  Energy = -383.8495820346
C  -0.6116189150 -1.5004819280  0.1156370720
C   1.5207936974 -0.3634639805 -0.1864823920
C  -1.0707281548  2.0533608244  0.8797658700
C   2.0630456621 -0.7092876136  1.1637749534
C   2.3792466707  0.3200348873 -1.1996395473
N   0.3093786357 -0.7457141028 -0.5256976465
N  -1.9186145979 -1.4808567175 -0.4657338548
O  -1.7855291770  1.6555747155 -0.2836797819
H  -1.9203381033  0.7065473850 -0.2266422147
H  -0.0129332799 -0.4406811678 -1.4408352059
H  -0.4917941850 -1.6096549030  1.1787327814
H  -0.0689262768  1.5958352852  0.9050168958
H  -2.6166207826 -1.4643974305  0.2657497098
H  -2.0828141331 -2.3036198670 -1.0290186656
H  -0.9536013304  3.1328315220  0.8560913798
H  -1.6003380990  1.7932602960  1.8016592923
H   2.8053149367  0.0327165704  1.4687149549
H   1.8093092539  0.6062563611 -2.0833105779
H   2.5504217917 -1.6905727628  1.1909667859
H   1.2735276536 -0.7158667617  1.9144657437
H   2.8447966384  1.2223079824 -0.7935534850
H   3.1977218018 -0.3306282010 -1.5274844490
22
Image 61  Energy = -383.8494008186
C  -0.6203742719 -1.4663608274  0.1076456855
C   1.5318280438 -0.3745405324 -0.1885807459
C  -1.0833050982  2.0589386751  0.8811230682
C   2.0675076848 -0.7170108910  1.1655105998
C   2.3838673806  0.3147214388 -1.2013666540
N   0.3089810237 -0.7392976760 -0.5307910627
N  -1.9308892963 -1.4818251248 -0.4579795116
O  -1.7901006875  1.6750979657 -0.2912302059
H  -1.9113807636  0.7193180624 -0.2411973368
H  -0.0001487976 -0.4180687027 -1.4447959228
H  -0.4568280479 -1.6787538191  1.1560748277
H  -0.0850688267  1.5956620187  0.9097925936
H  -2.6180223041 -1.4655548003  0.2854273226
H  -2.0953867283 -2.3118500027 -1.0128441882
H  -0.9572012797  3.1397627043  0.8728804769
H  -1.6245586147  1.7932490550  1.7933385112
H   2.8251569279  0.0155638535  1.4546572050
H   1.8146391502  0.5855343130 -2.0906246589
H   2.5350706820 -1.7089819931  1.2211656272
H   1.2788652222 -0.6842033106  1.9191061637
H   2.8295046112  1.2304079351 -0.8041028667
H   3.2175436182 -0.3183079285 -1.5247114786
22
Image 62  Energy = -383.8495385304
C  -0.6187090213 -1.4655239499  0.1138665460
C   1.5329904989 -0.3718987216 -0.1882333615
C  -1.0825710314  2.0575148103  0.8813735129
C   2.0660697946 -0.7158067248  1.1656151993
C   2.3844704529  0.3154469343 -1.2025460093
N   0.3108421112 -0.7409427772 -0.5309175497
N  -1.9284746896 -1.4805517169 -0.4567283136
O  -1.7884328880  1.6744888365 -0.2910716584
H  -1.9134165297  0.7183049778 -0.2407935141
H  -0.0003178990 -0.4229384091 -1.4424708015
H  -0.4591036412 -1.6779901593  1.1522085125
H  -0.0849935008  1.5952513641  0.9096498953
H  -2.6199690359 -1.4659389586  0.2820028506
H  -2.0939451327 -2.3102790018 -1.0125196434
H  -0.9577646777  3.1404456160  0.8719756561
H  -1.6228109245  1.7941137038  1.7947624897
H   2.8228127548  0.0149441442  1.4538534200
H   1.8147465034  0.5875638384 -2.0914368090
H   2.5324866638 -1.7076081747  1.2190916970
H   1.2797695808 -0.6856854354  1.9195356343
H   2.8288460458  1.2291074556 -0.8032846656
H   3.2171741909 -0.3185172450 -1.5254356404
22
Image 63  Energy = -383.8496910989
C  -0.6234817058 -1.4387751544  0.1159417463
C   1.5415478901 -0.3769038453 -0.1902480107
C  -1.0903743199  2.0619339156  0.8822384219
C   2.0669861942 -0.7200303229  1.1668713208
C   2.3886936787  0.3127138285 -1.2061446352
N   0.3142905368 -0.7387025115 -0.5329696195
N  -1.9341991816 -1.4795283956 -0.4492469450
O  -1.7899031397  1.6845860008 -0.2962611159
H  -1.9097944184  0.7295234914 -0.2514995710
H   0.0084785589 -0.4137064542 -1.4435094275
H  -0.4359901674 -1.7290471680  1.1316272219
H  -0.0964261282  1.5943480121  0.9132703796
H  -2.6240762421 -1.4673164627  0.2910408066
H  -2.1003214238 -2.3133732150 -0.9997220133
H  -0.9613532529  3.1449309426  0.8829627248
H  -1.6382998255  1.7950962322  1.7914071495
H   2.8349249650  0.0018398268  1.4427917915
H   1.8185800104  0.5752610875 -2.0979926679
H   2.5168742936 -1.7192916200  1.2382191019
H   1.2846988021 -0.6642277784  1.9239086076
H   2.8170877288  1.2341919236 -0.8093992766
H   3.2317567133 -0.3100219155 -1.5247886618
22
Image 64  Energy = -383.8498647001
C  -0.6329124863 -1.3950440680  0.1265986186
C   1.5529244585 -0.3863916172 -0.1960603396
C  -1.1050594697  2.0697655649  0.8850955678
C   2.0672152411 -0.7260254510  1.1684544144
C   2.3978124390  0.3094281252 -1.2148839371
N   0.3236233331 -0.7339944447 -0.5332302831
N  -1.9402832141 -1.4748247425 -0.4359711409
O  -1.7900253721  1.7043545793 -0.3048318955
H  -1.9081228194  0.7469257308 -0.2710498252
H   0.0214546541 -0.4040131332 -1.4468391315
H  -0.3955415548 -1.8215892436  1.0960179321
H  -0.1147850944  1.5931179304  0.9210635637
H  -2.6350035250 -1.4682591323  0.3023703791
H  -2.1066955019 -2.3158210412 -0.9760903854
H  -0.9692111738  3.1504062799  0.8991665035
H  -1.6619682825  1.7973697026  1.7872272742
H   2.8572901291 -0.0204332011  1.4249904303
H   1.8248958023  0.5555108099 -2.1107379290
H   2.4845738564 -1.7376876714  1.2673303924
H   1.2927541364 -0.6276189647  1.9325308125
H   2.7985043908  1.2451417474 -0.8179366663
H   3.2582595374 -0.2968173335 -1.5247172540
22
Image 65  Energy = -383.8498902175
C  -0.6265718812 -1.4124196318  0.1384445310
C   1.5461394333 -0.3790159520 -0.1972160383
C  -1.0976429272  2.0678406841  0.8854651932
C   2.0622519592 -0.7190177450  1.1667199371
C   2.3966375858  0.3141031251 -1.2170987215
N   0.3252423764 -0.7403578002 -0.5250972143
N  -1.9287576529 -1.4704230712 -0.4382514023
O  -1.7847207198  1.6903683585 -0.3006734583
H  -1.9189855110  0.7420118456 -0.2640165270
H   0.0125909887 -0.4284383916 -1.4446044601
H  -0.4145781661 -1.7895168481  1.1082981955
H  -0.1047272969  1.5926995942  0.9201373022
H  -2.6400304382 -1.4660440982  0.2838474745
H  -2.0920515609 -2.3061179106 -0.9827537222
H  -0.9693670184  3.1439974415  0.8869939353
H  -1.6449549768  1.7986543848  1.7951864416
H   2.8466894135 -0.0114911449  1.4331252522
H   1.8221382234  0.5701764547 -2.1089024757
H   2.4842476132 -1.7256857324  1.2453953279
H   1.2896314046 -0.6455538863  1.9316274813
H   2.8077788599  1.2421088098 -0.8096824115
H   3.2487398378 -0.3043780759 -1.5284474535
22
Image 66  Energy = -383.8502502131
C  -0.6283911077 -1.4058490871  0.1397755305
C   1.5525461522 -0.3834860428 -0.1970523080
C  -1.1007146466  2.0677966081  0.8855220721
C   2.0640975086 -0.7197457263  1.1670968337
C   2.3974373225  0.3127874291 -1.2162360982
N   0.3174102582 -0.7366668477 -0.5309230361
N  -1.9346378717 -1.4691228540 -0.4366534615
O  -1.7864606790  1.6974834810 -0.3028308046
H  -1.9175986413  0.7456479364 -0.2685020788
H   0.0159963529 -0.4238665127 -1.4450768206
H  -0.4023035247 -1.8121189221  1.1032729463
H  -0.1093317069  1.5938470343  0.9227692873
H  -2.6401670755 -1.4639444903  0.2886792758
H  -2.0925045073 -2.3084587330 -0.9787223041
H  -0.9706991294  3.1458530979  0.8907466042
H  -1.6517456652  1.7981666802  1.7929847758
H   2.8546471050 -0.0163349949  1.4304572215
H   1.8240560116  0.5638115224 -2.1110104494
H   2.4788978956 -1.7315454733  1.2527009813
H   1.2900557806 -0.6353007264  1.9320254933
H   2.8047831535  1.2452405654 -0.8129957581
H   3.2543265407 -0.3006935256 -1.5275307623
22
Image 67  Energy = -383.8505473003
C  -0.6332063103 -1.3885300721  0.1484730751
C   1.5569598158 -0.3897483934 -0.2010396604
C  -1.1076232923  2.0692085545  0.8870438900
C   2.0647200366 -0.7209178879  1.1679739157
C   2.4019487691  0.3117576911 -1.2192519511
N   0.3190047045 -0.7328594188 -0.5307682147
N  -1.9377776039 -1.4647065422 -0.4305471630
O  -1.7865028370  1.7093755261 -0.3068589097
H  -1.9191398159  0.7531244193 -0.2782262264
H   0.0202594036 -0.4220157607 -1.4479952656
H  -0.3805548167 -1.8597887326  1.0877950269
H  -0.1175698144  1.5946767968  0.9281663742
H  -2.6464594563 -1.4612860217  0.2927614206
H  -2.0911441888 -2.3091005300 -0.9679882796
H  -0.9750133047  3.1483697210  0.8966497486
H  -1.6621094413  1.7988119252  1.7912784124
H   2.8677317463 -0.0271115282  1.4236654245
H   1.8275248155  0.5542228502 -2.1171579539
H   2.4615188817 -1.7403978209  1.2643089255
H   1.2926785099 -0.6166120925  1.9348813055
H   2.7977200766  1.2512532925 -0.8172307931
H   3.2667336158 -0.2942255542 -1.5274360723
22
Image 68  Energy = -383.8507400617
C  -0.6330544371 -1.3880386953  0.1556251990
C   1.5558695846 -0.3900809274 -0.2028882863
C  -1.1073217597  2.0673289287  0.8875577262
C   2.0643023460 -0.7180435139  1.1676744187
C   2.4022767573  0.3126563998 -1.2191666067
N   0.3184828116 -0.7334641947 -0.5272737628
N  -1.9353012981 -1.4610060243 -0.4287806670
O  -1.7857961516  1.7105439510 -0.3074542569
H  -1.9242995939  0.7543900978 -0.2794276976
H   0.0170733436 -0.4308175832 -1.4486174556
H  -0.3759483465 -1.8706177452  1.0867565977
H  -0.1170831048  1.5958492639  0.9310794525
H  -2.6510717143 -1.4563276365  0.2885054705
H  -2.0823830075 -2.3061525974 -0.9671967595
H  -0.9766377902  3.1480934062  0.8942557828
H  -1.6608644029  1.7987171428  1.7928404797
H   2.8706078259 -0.0294160958  1.4244839562
H   1.8291694118  0.5548122213 -2.1181213438
H   2.4541920962 -1.7404929775  1.2608067977
H   1.2916655796 -0.6132655468  1.9333861908
H   2.7987684788  1.2514787423 -0.8175023285
H   3.2670528700 -0.2926461936 -1.5280458830
22
Image 69  Energy = -383.8509293108
C  -0.6367243869 -1.3714213058  0.1855553784
C   1.5569340417 -0.3936595275 -0.2065178468
C  -1.1129788157  2.0704659834  0.8891276255
C   2.0628749974 -0.7144666058  1.1654250126
C   2.4030482999  0.3125602068 -1.2218742651
N   0.3201524125 -0.7322063519 -0.5212548427
N  -1.9302573802 -1.4503374877 -0.4182891215
O  -1.7864306603  1.7164594053 -0.3122850574
H  -1.9396461337  0.7702539622 -0.2901910965
H   0.0095458465 -0.4558018700 -1.4478491070
H  -0.3435816492 -1.9417198453  1.0670109428
H  -0.1200071283  1.5989230184  0.9439413188
H  -2.6683398802 -1.4364278484  0.2797296391
H  -2.0540559422 -2.2965803203 -0.9568941815
H  -0.9839621222  3.1466189148  0.8932899234
H  -1.6676104833  1.7969412610  1.7944013821
H   2.8905875766 -0.0460549449  1.4210732626
H   1.8384418228  0.5479737333 -2.1236345691
H   2.4200037497 -1.7476371515  1.2613829524
H   1.2900261276 -0.5847897290  1.9274325442
H   2.7960392757  1.2550560209 -0.8230952433
H   3.2756399297 -0.2806490992 -1.5279877682
22
Image 70  Energy = -383.8510327117
C  -0.6315361313 -1.3847452855  0.1897988842
C   1.5502688952 -0.3864886300 -0.2037507308
C  -1.1088022990  2.0661270971  0.8869303329
C   2.0627327708 -0.7132042419  1.1639834954
C   2.3976620096  0.3132047256 -1.2172690207
N   0.3189124632 -0.7378740333 -0.5163739522
N  -1.9233038560 -1.4515605384 -0.4185425862
O  -1.7858149090  1.7157072905 -0.3080569446
H  -1.9452872433  0.7599786619 -0.2818631591
H  -0.0009183808 -0.4669218090 -1.4434774151
H  -0.3537553211 -1.9170204445  1.0720675818
H  -0.1123163218  1.6005123436  0.9430068138
H  -2.6655706146 -1.4277168053  0.2706924910
H  -2.0429041277 -2.2930702684 -0.9666237710
H  -0.9810694288  3.1459227615  0.8864814866
H  -1.6596807853  1.7943782056  1.7935562888
H   2.8847650247 -0.0428841358  1.4270887236
H   1.8371130520  0.5552412809 -2.1190929601
H   2.4272549993 -1.7415494530  1.2498667453
H   1.2849157459 -0.5906387370  1.9178385096
H   2.8033356705  1.2488710100 -0.8216071562
H   3.2636983317 -0.2827685990 -1.5261567369
22
Image 71  Energy = -383.8512197832
C  -0.6327978620 -1.3772798545  0.1844305329
C   1.5541268241 -0.3886525612 -0.2042039290
C  -1.1103167928  2.0679038250  0.8877620153
C   2.0639137845 -0.7150928116  1.1653415875
C   2.3996892193  0.3127456455 -1.2180984762
N   0.3177090305 -0.7369218914 -0.5183978794
N  -1.9258869551 -1.4533886580 -0.4181788583
O  -1.7875051919  1.7165188688 -0.3098306237
H  -1.9398344692  0.7639679304 -0.2842274979
H   0.0042838983 -0.4561396515 -1.4442154080
H  -0.3498029611 -1.9245775894  1.0671086422
H  -0.1172309269  1.6000821061  0.9416929710
H  -2.6632376260 -1.4321371230  0.2769998590
H  -2.0523467556 -2.2968795667 -0.9632433143
H  -0.9809502625  3.1477526517  0.8915857284
H  -1.6653015435  1.7947475848  1.7910486066
H   2.8861142092 -0.0454794608  1.4231365986
H   1.8358285748  0.5508338709 -2.1210227276
H   2.4285088816 -1.7456709266  1.2583521151
H   1.2869485716 -0.5870315391  1.9205556715
H   2.7992920962  1.2510188796 -0.8228451748
H   3.2684957754 -0.2828193270 -1.5252535393
22
Image 72  Energy = -383.8512739093
C  -0.6339686938 -1.3738268313  0.1862595626
C   1.5543470332 -0.3894996579 -0.2037197179
C  -1.1115191400  2.0694313139  0.8877299777
C   2.0641616940 -0.7164243290  1.1652063903
C   2.3995765842  0.3124871544 -1.2188376170
N   0.3196554285 -0.7358064906 -0.5191753241
N  -1.9250803412 -1.4541639096 -0.4171124209
O  -1.7886705253  1.7174490078 -0.3106592676
H  -1.9389225536  0.7664255749 -0.2850177785
H   0.0045054050 -0.4538568795 -1.4427778087
H  -0.3453299654 -1.9327346054  1.0616073238
H  -0.1190872517  1.6002856519  0.9418095024
H  -2.6627959121 -1.4307603404  0.2784577178
H  -2.0532744360 -2.2973474414 -0.9615206792
H  -0.9809616006  3.1484748374  0.8938446003
H  -1.6686001058  1.7940080710  1.7890635026
H   2.8883850663 -0.0486449347  1.4211983810
H   1.8355628776  0.5484123739 -2.1217263915
H   2.4270528086 -1.7478911006  1.2622121724
H   1.2868968963 -0.5821232741  1.9194164969
H   2.7977319213  1.2517980439 -0.8239191343
H   3.2700343245 -0.2821918330 -1.5238426116
22
Image 73  Energy = -383.8513366536
C  -0.6339967997 -1.3679661571  0.1925961192
C   1.5553540872 -0.3896984600 -0.2032726556
C  -1.1134835870  2.0714306049  0.8873451758
C   2.0641915724 -0.7180066509  1.1646453095
C   2.3986421149  0.3123019578 -1.2194221202
N   0.3206910836 -0.7356152534 -0.5178015710
N  -1.9219067749 -1.4543285558 -0.4142673551
O  -1.7905126691  1.7197353979 -0.3119063296
H  -1.9399486709  0.7700812048 -0.2855410504
H   0.0020131834 -0.4542317774 -1.4394547272
H  -0.3358456074 -1.9497632540  1.0513064997
H  -0.1212776025  1.6012265964  0.9428048375
H  -2.6628919717 -1.4245960035  0.2778089422
H  -2.0500354895 -2.2967092895 -0.9592659797
H  -0.9811537283  3.1495775066  0.8964823806
H  -1.6735305946  1.7920447745  1.7855576807
H   2.8932372031 -0.0553510595  1.4184570106
H   1.8351532250  0.5449657644 -2.1228812888
H   2.4222322008 -1.7511842946  1.2667998445
H   1.2855806296 -0.5720035813  1.9150677569
H   2.7960659195  1.2525558543 -0.8258188801
H   3.2711217868 -0.2809649223 -1.5207427769
22
Image 74  Energy = -383.8513928124
C  -0.6327010648 -1.3645063644  0.1991407528
C   1.5557906048 -0.3908742761 -0.2045961667
C  -1.1152688736  2.0723892896  0.8867335541
C   2.0644666509 -0.7188830013  1.1645419022
C   2.3982901163  0.3129468926 -1.2198805202
N   0.3225708750 -0.7337128760 -0.5148010098
N  -1.9174975934 -1.4534191240 -0.4121353271
O  -1.7921302703  1.7219236355 -0.3135136403
H  -1.9408203365  0.7724911446 -0.2837902627
H  -0.0017487009 -0.4534050021 -1.4354217441
H  -0.3263780843 -1.9644800908  1.0420317473
H  -0.1235733631  1.6021830429  0.9420162053
H  -2.6610675607 -1.4176133252  0.2751961778
H  -2.0467775159 -2.2967529127 -0.9574173286
H  -0.9809343334  3.1513258044  0.8992207921
H  -1.6779817942  1.7898688609  1.7815385919
H   2.8973525842 -0.0622226997  1.4157069673
H   1.8321272568  0.5421735303 -2.1240746044
H   2.4176906475 -1.7536079546  1.2710133764
H   1.2832568467 -0.5633471279  1.9103604929
H   2.7946763483  1.2536722785 -0.8268943600
H   3.2703570476 -0.2826493218 -1.5164787905
22
Image 75  Energy = -383.8513996000
C  -0.6295019206 -1.3623805390  0.2081215208
C   1.5601932560 -0.3924358651 -0.2046771418
C  -1.1178894613  2.0743982145  0.8850527659
C   2.0635407482 -0.7201781428  1.1634817704
C   2.3969359256  0.3135771713 -1.2219205232
N   0.3212700666 -0.7306412132 -0.5132065777
N  -1.9110999703 -1.4530253800 -0.4124177048
O  -1.7930160829  1.7253555518 -0.3152425673
H  -1.9419680961  0.7737167636 -0.2806299871
H  -0.0060752298 -0.4511426292 -1.4293301186
H  -0.3154535046 -1.9803169348  1.0313650791
H  -0.1261539173  1.6027007577  0.9397926970
H  -2.6586799921 -1.4091250028  0.2718400318
H  -2.0428505318 -2.2958465699 -0.9540892435
H  -0.9809445373  3.1526984910  0.9025597148
H  -1.6828976546  1.7873751034  1.7772751324
H   2.9026572405 -0.0693149057  1.4126155433
H   1.8280596492  0.5390765354 -2.1244636149
H   2.4115441317 -1.7553828790  1.2757815360
H   1.2805097584 -0.5547008830  1.9052908828
H   2.7929575108  1.2555257101 -0.8274449662
H   3.2685620810 -0.2864329632 -1.5112574200
22
Image 76  Energy = -383.8514396556
C  -0.6297113295 -1.3640580725  0.2043568180
C   1.5583151478 -0.3922382950 -0.2054200186
C  -1.1170349714  2.0735740685  0.8854001477
C   2.0637797137 -0.7195529040  1.1639725055
C   2.3975343812  0.3133704210 -1.2211441910
N   0.3220991932 -0.7314114328 -0.5122480134
N  -1.9129867218 -1.4527005779 -0.4124650420
O  -1.7923500668  1.7240652783 -0.3147168496
H  -1.9415223765  0.7727242628 -0.2808691211
H  -0.0050983018 -0.4506996088 -1.4316484910
H  -0.3194385874 -1.9735582348  1.0356242241
H  -0.1252712223  1.6022990205  0.9396625178
H  -2.6586136213 -1.4118697194  0.2721134111
H  -2.0441763254 -2.2965611448 -0.9552629426
H  -0.9809899579  3.1522241691  0.9014073575
H  -1.6808291628  1.7883088147  1.7788268881
H   2.9006174823 -0.0664736646  1.4137921195
H   1.8287019839  0.5404091488 -2.1240291117
H   2.4134810146 -1.7541904431  1.2739352477
H   1.2813259367 -0.5588088331  1.9071474933
H   2.7935205110  1.2549004342 -0.8269967590
H   3.2683467539 -0.2862522923 -1.5129413661
22
Image 77  Energy = -383.8514444466
C  -0.6294876562 -1.3647062359  0.2034769206
C   1.5581961365 -0.3923452735 -0.2055307064
C  -1.1169629836  2.0733980075  0.8853752567
C   2.0638364197 -0.7193163219  1.1640311953
C   2.3976200828  0.3132115066 -1.2209840608
N   0.3220634864 -0.7312340279 -0.5122023654
N  -1.9130275484 -1.4525578079 -0.4126630874
O  -1.7920616765  1.7238119462 -0.3147268726
H  -1.9414120626  0.7724478202 -0.2806477977
H  -0.0049496151 -0.4498602299 -1.4317302095
H  -0.3200200611 -1.9722558959  1.0364475518
H  -0.1252522489  1.6020893707  0.9392225046
H  -2.6583485729 -1.4122047281  0.2719772131
H  -2.0443526671 -2.2968161092 -0.9552553727
H  -0.9811318128  3.1521658508  0.9012830208
H  -1.6803847061  1.7885585167  1.7791469822
H   2.9002863209 -0.0658477305  1.4139780243
H   1.8286325105  0.5406273950 -2.1237739441
H   2.4134919927 -1.7538544443  1.2736918423
H   1.2814949848 -0.5599266896  1.9076068323
H   2.7934444976  1.2547323638 -0.8269237414
H   3.2680246556 -0.2866168867 -1.5133023533
