22
Image 0  Energy = -383.5281735479
C  -0.7781260000 -1.0675610000  0.3210590000
C   1.3025530000  0.0521200000 -0.0282990000
C  -0.9719930000  1.4562490000  0.8236570000
C   1.9812290000 -0.4184330000  1.2501750000
C   2.2640330000  0.4351680000 -1.1331070000
N   0.2911640000 -0.8768210000 -0.5003990000
N  -2.0191630000 -1.3720060000 -0.2331120000
O  -1.6647340000  1.6302230000 -0.4018370000
H  -2.2586320000  0.8701390000 -0.4758990000
H   0.0278490000 -0.6783120000 -1.4584950000
H  -0.6097590000 -1.3678560000  1.3411780000
H   0.6812640000  0.9183000000  0.2869410000
H  -2.5732630000 -2.0573610000  0.2574120000
H  -2.0524280000 -1.5045420000 -1.2338230000
H  -0.3689930000  2.3513920000  0.9917470000
H  -1.6396090000  1.2942150000  1.6746530000
H   2.7644490000  0.2914620000  1.5228460000
H   1.7251140000  0.7306950000 -2.0377940000
H   2.4355930000 -1.4060980000  1.1342150000
H   1.2730050000 -0.4472240000  2.0805790000
H   2.8503450000  1.2986970000 -0.8143220000
H   2.9600090000 -0.3688060000 -1.3889100000
22
Image 1  Energy = -383.5292433540
C  -0.7788470325 -1.0578435300  0.3220295927
C   1.3046338266  0.0514130734 -0.0285298754
C  -0.9795905331  1.4493897101  0.8249225408
C   1.9817324808 -0.4189914586  1.2489183066
C   2.2649762239  0.4341480460 -1.1335430251
N   0.2921716992 -0.8786231957 -0.5008733209
N  -2.0170230035 -1.3710667493 -0.2321390720
O  -1.6647874678  1.6299760147 -0.4014251025
H  -2.2583518675  0.8707545704 -0.4762128646
H   0.0275502072 -0.6779499032 -1.4580425123
H  -0.6096662233 -1.3683009844  1.3409795757
H   0.6825430434  0.9183669073  0.2859222305
H  -2.5728423663 -2.0566897011  0.2575499148
H  -2.0517562359 -1.5044585627 -1.2334716282
H  -0.3685339620  2.3499816215  0.9915746514
H  -1.6403187620  1.2955970053  1.6742955305
H   2.7643138002  0.2912053081  1.5227623626
H   1.7251996143  0.7305582981 -2.0375147936
H   2.4354758061 -1.4059710516  1.1342002215
H   1.2729090847 -0.4474107969  2.0803151796
H   2.8503562245  1.2983490069 -0.8143574705
H   2.9597624439 -0.3687936293 -1.3888954392
22
Image 2  Energy = -383.5301187463
C  -0.7795234707 -1.0483756423  0.3237964612
C   1.3060558699  0.0509723167 -0.0289069182
C  -0.9843202901  1.4441669727  0.8253227074
C   1.9821214586 -0.4194013421  1.2481690064
C   2.2657710930  0.4335052971 -1.1339216354
N   0.2933703853 -0.8800864362 -0.5011869981
N  -2.0154189633 -1.3702293694 -0.2315772858
O  -1.6652305734  1.6297572700 -0.4010577477
H  -2.2584275792  0.8711612121 -0.4768220350
H   0.0272826587 -0.6775534371 -1.4576793080
H  -0.6096085525 -1.3685212536  1.3404189721
H   0.6840838587  0.9181855525  0.2848008342
H  -2.5721645288 -2.0557904109  0.2577140825
H  -2.0509831315 -1.5042619272 -1.2328623995
H  -0.3689792787  2.3468133157  0.9912860350
H  -1.6422427685  1.2967037372  1.6749821604
H   2.7642104514  0.2909327508  1.5226653985
H   1.7253055724  0.7303859125 -2.0372330709
H   2.4354757191 -1.4060526654  1.1341491670
H   1.2729585430 -0.4475988225  2.0798282306
H   2.8504019702  1.2979601440 -0.8144249696
H   2.9597685562 -0.3690331737 -1.3889956829
22
Image 3  Energy = -383.5309524153
C  -0.7802511297 -1.0391380017  0.3257466876
C   1.3071616102  0.0506419539 -0.0293715798
C  -0.9878543170  1.4394916240  0.8253927335
C   1.9824678373 -0.4197337666  1.2476488395
C   2.2664857922  0.4330373134 -1.1342584962
N   0.2945669230 -0.8812926999 -0.5013263197
N  -2.0140495359 -1.3692949168 -0.2310762515
O  -1.6658672562  1.6296270059 -0.4007132889
H  -2.2587605844  0.8713961416 -0.4776188231
H   0.0270514833 -0.6771407965 -1.4573275060
H  -0.6095582807 -1.3685959162  1.3397845937
H   0.6857864401  0.9179140163  0.2836166145
H  -2.5713393641 -2.0547747039  0.2579293300
H  -2.0501180887 -1.5040054150 -1.2322087232
H  -0.3697281968  2.3428212690  0.9909648534
H  -1.6446662000  1.2976716590  1.6760227264
H   2.7641514404  0.2906668259  1.5225732669
H   1.7254194989  0.7301992268 -2.0369785545
H   2.4355370336 -1.4062410085  1.1340768188
H   1.2730582292 -0.4477923718  2.0792553808
H   2.8505035255  1.2975825450 -0.8145064375
H   2.9599101390 -0.3693999823 -1.3891608596
22
Image 4  Energy = -383.5317732090
C  -0.7810230929 -1.0301268272  0.3277447508
C   1.3081074474  0.0503634450 -0.0298730378
C  -0.9908747421  1.4349742666  0.8253488369
C   1.9828026057 -0.4200237975  1.2472345608
C   2.2671604700  0.4326511104 -1.1345729007
N   0.2956867612 -0.8822919689 -0.5013454246
N  -2.0128337307 -1.3682060062 -0.2305812145
O  -1.6666461985  1.6295491018 -0.4003761091
H  -2.2592714168  0.8715263560 -0.4785534830
H   0.0268625032 -0.6767223384 -1.4569478324
H  -0.6095151543 -1.3685428246  1.3391443326
H   0.6876065931  0.9176254448  0.2823888520
H  -2.5704108752 -2.0536863242  0.2582045962
H  -2.0491695379 -1.5037035608 -1.2315439698
H  -0.3705501674  2.3383615582  0.9906412968
H  -1.6472947094  1.2985483418  1.6771347621
H   2.7641382199  0.2904148939  1.5224924035
H   1.7255388014  0.7300067669 -2.0367588723
H   2.4356327652 -1.4064854281  1.1339906055
H   1.2731703927 -0.4479926609  2.0786535007
H   2.8506626134  1.2972311178 -0.8145950528
H   2.9601274510 -0.3698306641 -1.3893655961
22
Image 5  Energy = -383.5325887807
C  -0.7818245863 -1.0213374490  0.3297556706
C   1.3089659237  0.0501153882 -0.0303826935
C  -0.9936772564  1.4304810166  0.8252596337
C   1.9831395492 -0.4202890863  1.2468726527
C   2.2678170764  0.4323061213 -1.1348769065
N   0.2967096426 -0.8831216476 -0.5012776527
N  -2.0117503823 -1.3669495200 -0.2300810758
O  -1.6675403623  1.6294891513 -0.4000269475
H  -2.2599158606  0.8715926623 -0.4796009024
H   0.0267144683 -0.6763011445 -1.4565317617
H  -0.6094821845 -1.3683686457  1.3385180493
H   0.6895260758  0.9173568564  0.2811278742
H  -2.5693986892 -2.0525420728  0.2585371680
H  -2.0481441223 -1.5033635765 -1.2308723159
H  -0.3713501308  2.3335839698  0.9903274722
H  -1.6500094381  1.2993453190  1.6782120997
H   2.7641678269  0.2901777775  1.5224244096
H   1.7256641226  0.7298115803 -2.0365736404
H   2.4357492878 -1.4067598558  1.1338941652
H   1.2732815615 -0.4482000129  2.0780457639
H   2.8508748096  1.2969064611 -0.8146893668
H   2.9603896663 -0.3702932927 -1.3895966924
22
Image 6  Energy = -383.5334022189
C  -0.7826457610 -1.0127635359  0.3317683691
C   1.3097728473  0.0498906178 -0.0308859045
C  -0.9963971716  1.4259742414  0.8251418922
C   1.9834845751 -0.4205385219  1.2465400819
C   2.2684669903  0.4319847058 -1.1351769099
N   0.2976365951 -0.8838114188 -0.5011422180
N  -2.0107931988 -1.3655252331 -0.2295724577
O  -1.6685302015  1.6294241975 -0.3996515562
H  -2.2606700549  0.8716167829 -0.4807464142
H   0.0266031649 -0.6758774223 -1.4560819941
H  -0.6094620128 -1.3680780876  1.3379136740
H   0.6915374260  0.9171291825  0.2798401239
H  -2.5683146109 -2.0513503042  0.2589209031
H  -2.0470475024 -1.5029908680 -1.2301924553
H  -0.3720877213  2.3285576921  0.9900279771
H  -1.6527619340  1.3000609663  1.6792189641
H   2.7642361790  0.2899539578  1.5223691627
H   1.7257969530  0.7296145431 -2.0364199693
H   2.4358793908 -1.4070503183  1.1337892692
H   1.2733883265 -0.4484145028  2.0774412846
H   2.8511345570  1.2966047191 -0.8147899285
H   2.9606801626 -0.3707713940 -1.3898468891
22
Image 7  Energy = -383.5342154994
C  -0.7834806418 -1.0043970518  0.3337773415
C   1.3105476303  0.0496870251 -0.0313753793
C  -0.9990991170  1.4214493301  0.8249979726
C   1.9838401247 -0.4207763696  1.2462268606
C   2.2691158091  0.4316788258 -1.1354760099
N   0.2984752113 -0.8843849342 -0.5009510509
N  -2.0099585326 -1.3639370075 -0.2290535575
O  -1.6696013122  1.6293404392 -0.3992432587
H  -2.2615202763  0.8716101774 -0.4819798931
H   0.0265236707 -0.6754505610 -1.4556040120
H  -0.6094566839 -1.3676754015  1.3373355816
H   0.6936368312  0.9169555593  0.2785303512
H  -2.5671675480 -2.0501163879  0.2593492100
H  -2.0458847011 -1.5025899240 -1.2295020165
H  -0.3727459174  2.3233193566  0.9897441619
H  -1.6555319949  1.3006899999  1.6801467110
H   2.7643391702  0.2897411608  1.5223260138
H   1.7259387615  0.7294157772 -2.0362944998
H   2.4360191331 -1.4073490443  1.1336767784
H   1.2734911153 -0.4486360683  2.0768434592
H   2.8514367461  1.2963213131 -0.8148978254
H   2.9609895238 -0.3712562137 -1.3901119346
22
Image 8  Energy = -383.5350304358
C  -0.7843250789 -0.9962278440  0.3357784820
C   1.3113023269  0.0495038588 -0.0318479076
C  -1.0018137486  1.4169095475  0.8248278699
C   1.9842070713 -0.4210048129  1.2459284591
C   2.2697660615  0.4313843756 -1.1357757024
N   0.2992338101 -0.8848606449 -0.5007119940
N  -2.0092421591 -1.3621902344 -0.2285230016
O  -1.6707438102  1.6292301198 -0.3988019189
H  -2.2624575663  0.8715794184 -0.4832933611
H   0.0264712494 -0.6750198557 -1.4551031393
H  -0.6094678768 -1.3671644288  1.3367865752
H   0.6958208313  0.9168449359  0.2772026218
H  -2.5659651235 -2.0488443680  0.2598160491
H  -2.0446603250 -1.5021644121 -1.2287986261
H  -0.3733184894  2.3178915699  0.9894759878
H  -1.6583112336  1.3012272698  1.6809969691
H   2.7644732181  0.2895371983  1.5222943058
H   1.7260908102  0.7292151726 -2.0361939648
H   2.4361662296 -1.4076514242  1.1335571586
H   1.2735915975 -0.4488645453  2.0762534671
H   2.8517770201  1.2960520878 -0.8150141348
H   2.9613121870 -0.3717429830 -1.3903891903
22
Image 9  Energy = -383.5358488813
C  -0.7851760087 -0.9882437907  0.3377681771
C   1.3120451527  0.0493405214 -0.0323023827
C  -1.0045543271  1.4123564488  0.8246321208
C   1.9845854294 -0.4212249801  1.2456427316
C   2.2704191698  0.4310986749 -1.1360766733
N   0.2999196178 -0.8852524916 -0.5004305386
N  -2.0086387089 -1.3602911507 -0.2279794744
O  -1.6719509696  1.6290897651 -0.3983317030
H  -2.2634756464  0.8715283833 -0.4846801020
H   0.0264416540 -0.6745847824 -1.4545835693
H  -0.6094970499 -1.3665484144  1.3362683704
H   0.6980853287  0.9168034586  0.2758606599
H  -2.5647139649 -2.0475372457  0.2603161041
H  -2.0433785664 -1.5017171522 -1.2280800593
H  -0.3738044920  2.3122905597  0.9892229503
H  -1.6610963120  1.3016690737  1.6817749001
H   2.7646353160  0.2893401388  1.5222734846
H   1.7262539693  0.7290126154 -2.0361155797
H   2.4363193751 -1.4079546229  1.1334306787
H   1.2736917267 -0.4490996487  2.0756715793
H   2.8521517210  1.2957935287 -0.8151397698
H   2.9616445866 -0.3722288897 -1.3906768993
22
Image 10  Energy = -383.5366726671
C  -0.7860311031 -0.9804309368  0.3397439481
C   1.3127822381  0.0491961872 -0.0327387925
C  -1.0073245999  1.4077874533  0.8244117520
C   1.9849750207 -0.4214375074  1.2453683114
C   2.2710756886  0.4308197394 -1.1363793805
N   0.3005388693 -0.8855707263 -0.5001105613
N  -2.0081419728 -1.3582464504 -0.2274221174
O  -1.6732184113  1.6289183074 -0.3978389208
H  -2.2645695095  0.8714598591 -0.4861342450
H   0.0264310488 -0.6741449391 -1.4540486993
H  -0.6095455218 -1.3658299204  1.3357816854
H   0.7004253712  0.9168352572  0.2745079521
H  -2.5634198918 -2.0461972646  0.2608448562
H  -2.0420432986 -1.5012501737 -1.2273441318
H  -0.3742059533  2.3065288762  0.9889843917
H  -1.6638861927  1.3020133741  1.6824865879
H   2.7648229197  0.2891483637  1.5222631277
H   1.7264288907  0.7288080005 -2.0360568118
H   2.4364777670 -1.4082568034  1.1332975676
H   1.2737932601 -0.4493410134  2.0750978423
H   2.8525577902  1.2955427955 -0.8152754279
H   2.9619845922 -0.3727124781 -1.3909739273
22
Image 11  Energy = -383.5375037908
C  -0.7868885406 -0.9727737157  0.3417043437
C   1.3135180847  0.0490701250 -0.0331577021
C  -1.0101232477  1.4031960060  0.8241679476
C   1.9853755004 -0.4216428316  1.2451042449
C   2.2717360438  0.4305457802 -1.1366840068
N   0.3010967926 -0.8858227592 -0.4997552412
N  -2.0077454709 -1.3560631390 -0.2268502626
O  -1.6745430415  1.6287161668 -0.3973304177
H  -2.2657350725  0.8713759601 -0.4876506532
H   0.0264361419 -0.6737000846 -1.4535008313
H  -0.6096144716 -1.3650109441  1.3353265891
H   0.7028355632  0.9169427165  0.2731476895
H  -2.5620878826 -2.0448259464  0.2613984014
H  -2.0406580799 -1.5007648757 -1.2265888855
H  -0.3745266150  2.3006165709  0.9887596415
H  -1.6666807045  1.3022595604  1.6831377879
H   2.7650339194  0.2889605291  1.5222629231
H   1.7266159054  0.7286013082 -2.0360156377
H   2.4366409735 -1.4085567687  1.1331580365
H   1.2738977056 -0.4495881934  2.0745322097
H   2.8529926093  1.2952975288 -0.8154216346
H   2.9623308869 -0.3731929932 -1.3912795335
22
Image 12  Energy = -383.5383443027
C  -0.7877473007 -0.9652554545  0.3436491302
C   1.3142559875  0.0489616807 -0.0335600252
C  -1.0129462897  1.3985729063  0.8239016627
C   1.9857864132 -0.4218414124  1.2448498709
C   2.2724004066  0.4302752563 -1.1369908604
N   0.3015982378 -0.8860139056 -0.4993671760
N  -2.0074428144 -1.3537483893 -0.2262634556
O  -1.6759223244  1.6284845294 -0.3968125644
H  -2.2669689357  0.8712783783 -0.4892248285
H   0.0264540114 -0.6732500183 -1.4529417187
H  -0.6097049375 -1.3640929705  1.3349025934
H   0.7053103853  0.9171268151  0.2717827377
H  -2.5607220922 -2.0434241893  0.2619733706
H  -2.0392261463 -1.5002621323 -1.2258125562
H  -0.3747713910  2.2945614938  0.9885480109
H  -1.6694799130  1.3024080759  1.6837335316
H   2.7652666092  0.2887755963  1.5222726552
H   1.7268152344  0.7283925093 -2.0359901975
H   2.4368087408 -1.4088536793  1.1330122947
H   1.2740063795 -0.4498407017  2.0739745386
H   2.8534539817  1.2950558293 -0.8155787601
H   2.9626827596 -0.3736702167 -1.3915932449
22
Image 13  Energy = -383.5391963670
C  -0.7886067554 -0.9578585800  0.3455790070
C   1.3149981295  0.0488703955 -0.0339467070
C  -1.0157887395  1.3939073667  0.8236133946
C   1.9862075138 -0.4220335234  1.2446043926
C   2.2730692448  0.4300068412 -1.1373001271
N   0.3020475686 -0.8861480922 -0.4989485382
N  -2.0072278922 -1.3513091645 -0.2256616774
O  -1.6773539590  1.6282246919 -0.3962906774
H  -2.2682680994  0.8711687053 -0.4908528335
H   0.0264821200 -0.6727945419 -1.4523726173
H  -0.6098178106 -1.3630771465  1.3345089206
H   0.7078445003  0.9173874388  0.2704156348
H  -2.5593261163 -2.0419926511  0.2625669713
H  -2.0377504388 -1.4997424308 -1.2250135140
H  -0.3749458699  2.2883696590  0.9883487856
H  -1.6722837374  1.3024600279  1.6842779166
H   2.7655194930  0.2885926764  1.5222921581
H   1.7270268943  0.7281816114 -2.0359789900
H   2.4369809589 -1.4091470295  1.1328605706
H   1.2741202478 -0.4500980480  2.0734248359
H   2.8539399252  1.2948160045 -0.8157471068
H   2.9630398235 -0.3741442066 -1.3919147894
22
Image 14  Energy = -383.5400620382
C  -0.7894671046 -0.9505650949  0.3474953516
C   1.3157460218  0.0487960859 -0.0343188494
C  -1.0186453713  1.3891881150  0.8233030889
C   1.9866383929 -0.4222193918  1.2443672634
C   2.2737428014  0.4297393928 -1.1376120020
N   0.3024490075 -0.8862283320 -0.4985012512
N  -2.0070948525 -1.3487520379 -0.2250448679
O  -1.6788355180  1.6279378139 -0.3957688128
H  -2.2696299775  0.8710483938 -0.4925312483
H   0.0265182275 -0.6723334276 -1.4517944717
H  -0.6099538199 -1.3619643419  1.3341446588
H   0.7104330127  0.9177236224  0.2690485470
H  -2.5579030012 -2.0405317775  0.2631768446
H  -2.0362336364 -1.4992060350 -1.2241905201
H  -0.3750560437  2.2820453720  0.9881611994
H  -1.6750918880  1.3024168569  1.6847742448
H   2.7657913371  0.2884110558  1.5223213079
H   1.7272508432  0.7279686174 -2.0359806594
H   2.4371576280 -1.4094365316  1.1327030610
H   1.2742402085 -0.4503597402  2.0728830069
H   2.8544487665  1.2945766783 -0.8159268807
H   2.9634019678 -0.3746152900 -1.3922440000
22
Image 15  Energy = -383.5254110254
C  -0.7731376473 -1.0667732622  0.3136644812
C   1.3025795048  0.0480282946 -0.0293927955
C  -0.9634773626  1.4789868994  0.8317683175
C   1.9774584579 -0.4196679459  1.2474436754
C   2.2609534352  0.4339628741 -1.1316722032
N   0.3024087448 -0.8930880044 -0.5110605041
N  -1.9978293759 -1.4119887956 -0.2379897508
O  -1.6446863907  1.6365446564 -0.4074705169
H  -2.2360062240  0.8752206516 -0.4541289552
H   0.0238335787 -0.6813795023 -1.4641746274
H  -0.6051866079 -1.3941384781  1.3373630982
H   0.6545182903  0.9032816782  0.2953061762
H  -2.5888307816 -2.0712149882  0.2488205345
H  -2.0701101923 -1.5113519893 -1.2414444419
H  -0.3821289964  2.4167262916  0.9900213898
H  -1.6226755136  1.3141813246  1.6828608843
H   2.7579431474  0.2911992457  1.5205926973
H   1.7217947325  0.7321254642 -2.0337921406
H   2.4332792961 -1.4041998677  1.1363512923
H   1.2718033789 -0.4448626254  2.0819580398
H   2.8415917377  1.2981736903 -0.8114602510
H   2.9558117987 -0.3661256435 -1.3850994103
22
Image 16  Energy = -383.5259974517
C  -0.7728337258 -1.0620640101  0.3169834427
C   1.3030295234  0.0476550281 -0.0299723417
C  -0.9666342414  1.4775897032  0.8313763282
C   1.9778081403 -0.4199435475  1.2471104105
C   2.2614086987  0.4339746436 -1.1317712039
N   0.3016178929 -0.8931441263 -0.5099250766
N  -1.9984342525 -1.4108233958 -0.2384157205
O  -1.6451418919  1.6359098816 -0.4055744235
H  -2.2365112521  0.8754777297 -0.4553870245
H   0.0241509797 -0.6810608706 -1.4635121874
H  -0.6051932047 -1.3931193576  1.3348461936
H   0.6569249882  0.9031113851  0.2938217761
H  -2.5869823063 -2.0698995522  0.2493945835
H  -2.0686993166 -1.5108054627 -1.2405340674
H  -0.3834579433  2.4108469076  0.9896684712
H  -1.6244510394  1.3152576480  1.6828681220
H   2.7581174633  0.2911584029  1.5205023451
H   1.7217567474  0.7319317854 -2.0338250463
H   2.4334248183 -1.4047116590  1.1362659577
H   1.2717250846 -0.4451399863  2.0813409175
H   2.8420560918  1.2982146032 -0.8113938851
H   2.9562257550 -0.3667757815 -1.3854025822
22
Image 17  Energy = -383.5265193962
C  -0.7735094522 -1.0571918524  0.3188637248
C   1.3034588656  0.0472692853 -0.0304293229
C  -0.9697587725  1.4755997825  0.8311714313
C   1.9781671530 -0.4202104674  1.2467989838
C   2.2619213978  0.4338556943 -1.1319772316
N   0.3012760017 -0.8930551765 -0.5090036147
N  -1.9983205730 -1.4091394099 -0.2380785867
O  -1.6457287628  1.6355122160 -0.4041228624
H  -2.2371469088  0.8755462793 -0.4566431775
H   0.0243875408 -0.6807927458 -1.4627492048
H  -0.6050503309 -1.3924070258  1.3334123462
H   0.6593262980  0.9030274519  0.2923649944
H  -2.5853795776 -2.0688031875  0.2500438859
H  -2.0672928460 -1.5103519592 -1.2400264009
H  -0.3844112918  2.4054175000  0.9893775009
H  -1.6263837258  1.3162274562  1.6830260982
H   2.7582869156  0.2910923385  1.5204113148
H   1.7217554456  0.7317395077 -2.0338425367
H   2.4335660408 -1.4051883044  1.1361749533
H   1.2716642974 -0.4454193066  2.0807143559
H   2.8425087582  1.2982300208 -0.8113381954
H   2.9565705352 -0.3673181292 -1.3856834681
22
Image 18  Energy = -383.5270267744
C  -0.7743759216 -1.0522065534  0.3203253881
C   1.3039288922  0.0469192726 -0.0308025403
C  -0.9727209927  1.4731532507  0.8310795711
C   1.9785293088 -0.4204775907  1.2465103430
C   2.2624532062  0.4336752169 -1.1322258039
N   0.3011083773 -0.8929185061 -0.5082509813
N  -1.9981258726 -1.4072939525 -0.2376479781
O  -1.6465236810  1.6352336591 -0.4030390375
H  -2.2378518614  0.8755423135 -0.4579167233
H   0.0245883494 -0.6805392731 -1.4619766149
H  -0.6048756359 -1.3917929548  1.3324489925
H   0.6617058837  0.9030250386  0.2909427439
H  -2.5838617906 -2.0677625517  0.2507223312
H  -2.0658753065 -1.5099114720 -1.2395463730
H  -0.3851016116  2.4002602645  0.9891400555
H  -1.6284910941  1.3171134561  1.6833301271
H   2.7584563739  0.2910077669  1.5203210217
H   1.7217839827  0.7315477275 -2.0338550846
H   2.4337068492 -1.4056376288  1.1360799255
H   1.2716172774 -0.4456994652  2.0800856320
H   2.8429443455  1.2982058546 -0.8113000735
H   2.9568879317 -0.3678039040 -1.3859599309
22
Image 19  Energy = -383.5275337889
C  -0.7752575325 -1.0471409339  0.3216548832
C   1.3044512421  0.0466075699 -0.0311305242
C  -0.9755109306  1.4703419821  0.8310467706
C   1.9788940681 -0.4207453469  1.2462432439
C   2.2629920585  0.4334630974 -1.1324908212
N   0.3010291554 -0.8927566278 -0.5075930268
N  -1.9979563269 -1.4053648643 -0.2372069977
O  -1.6474994765  1.6350373111 -0.4022231748
H  -2.2386210954  0.8754901579 -0.4592197212
H   0.0247632378 -0.6802832580 -1.4612395127
H  -0.6047068615 -1.3911999983  1.3317318777
H   0.6640573529  0.9030957373  0.2895556316
H  -2.5823835558 -2.0667289620  0.2514111152
H  -2.0644501864 -1.5094694903 -1.2390546112
H  -0.3855998386  2.3952574287  0.9889460884
H  -1.6307524068  1.3179323235  1.6837462802
H   2.7586288347  0.2909078406  1.5202334705
H   1.7218376132  0.7313559418 -2.0338667303
H   2.4338496668 -1.4060656648  1.1359814600
H   1.2715805924 -0.4459799738  2.0794602643
H   2.8433651988  1.2981421461 -0.8112816641
H   2.9571961976 -0.3682564459 -1.3862393111
22
Image 20  Energy = -383.5129254194
C  -0.7494009656 -1.2384280123  0.2737704481
C   1.2829642654  0.0419562449 -0.0247689934
C  -0.9004520445  1.6253592584  0.8450992778
C   1.9653131553 -0.4183852571  1.2497661056
C   2.2432944282  0.4408123746 -1.1231011605
N   0.2919783175 -0.8997572265 -0.5200952896
N  -1.9867261387 -1.5036110575 -0.2598685673
O  -1.5912860120  1.6464874794 -0.4100015148
H  -2.1832315066  0.8832940996 -0.4009965250
H   0.0234210951 -0.6953081514 -1.4763246682
H  -0.5945607885 -1.4411194453  1.3247926551
H   0.5840712269  0.8786593351  0.3250362063
H  -2.6229656801 -2.1138646990  0.2322739001
H  -2.1124371089 -1.5271780179 -1.2661571164
H  -0.4039926368  2.5952574287  0.9907588393
H  -1.5491741616  1.3469528813  1.6784149413
H   2.7464415857  0.2960631677  1.5162432847
H   1.7116464712  0.7373529897 -2.0310252916
H   2.4280547328 -1.4010751491  1.1418618391
H   1.2659451689 -0.4386599706  2.0908196452
H   2.8246220912  1.3058919447 -0.8022347196
H   2.9463815091 -0.3570603035 -1.3757983432
22
Image 21  Energy = -383.5137994273
C  -0.7472782300 -1.2344352150  0.2783637287
C   1.2812235566  0.0420701141 -0.0244441408
C  -0.9072305157  1.6248638299  0.8427867522
C   1.9656744978 -0.4187990309  1.2494871352
C   2.2435492962  0.4408978214 -1.1230538073
N   0.2931665971 -0.9018262711 -0.5213528206
N  -1.9917486333 -1.5030858410 -0.2628732640
O  -1.5892698835  1.6461933665 -0.4062668852
H  -2.1825852062  0.8836715577 -0.4011098729
H   0.0235814324 -0.6951564108 -1.4756209858
H  -0.5943485320 -1.4414792492  1.3227439519
H   0.5878322676  0.8798291204  0.3239244801
H  -2.6207886132 -2.1134148651  0.2320827981
H  -2.1107726899 -1.5273913116 -1.2638174196
H  -0.4048612578  2.5924270644  0.9903197522
H  -1.5488447339  1.3483996082  1.6781590727
H   2.7462908247  0.2959684080  1.5159390657
H   1.7114822699  0.7371051395 -2.0308381431
H   2.4279997079 -1.4015417410  1.1418133463
H   1.2658943257 -0.4391218643  2.0901351027
H   2.8246693139  1.3057732487 -0.8020341878
H   2.9462712071 -0.3573075651 -1.3758787065
22
Image 22  Energy = -383.5144090591
C  -0.7480339713 -1.2309042987  0.2806133814
C   1.2797934672  0.0423356853 -0.0243300956
C  -0.9132483492  1.6256261203  0.8409761229
C   1.9658973026 -0.4191773255  1.2492425622
C   2.2436068249  0.4410068930 -1.1228619212
N   0.2951055489 -0.9038156320 -0.5223593259
N  -1.9938662955 -1.5011579971 -0.2631986009
O  -1.5877647200  1.6457454054 -0.4032273145
H  -2.1819689171  0.8839328051 -0.4013012189
H   0.0235841544 -0.6949667220 -1.4751693083
H  -0.5939195114 -1.4422075593  1.3221154436
H   0.5918679803  0.8807975698  0.3226398558
H  -2.6193685840 -2.1136272102  0.2320736091
H  -2.1094185578 -1.5278931044 -1.2633066917
H  -0.4056352839  2.5893508522  0.9897928947
H  -1.5489373649  1.3493229731  1.6783259913
H   2.7461827414  0.2958962088  1.5156422325
H   1.7113404734  0.7368600443 -2.0306647562
H   2.4279383587 -1.4019996855  1.1417096346
H   1.2658910185 -0.4396282096  2.0894894030
H   2.8247675029  1.3056975314 -0.8018376982
H   2.9460931864 -0.3575544306 -1.3758992487
22
Image 23  Energy = -383.5149445361
C  -0.7491436394 -1.2274679179  0.2822420221
C   1.2787189916  0.0426822858 -0.0242534030
C  -0.9187173408  1.6269012377  0.8397623624
C   1.9660563626 -0.4195143827  1.2489912094
C   2.2435866193  0.4411214021 -1.1226246561
N   0.2969324160 -0.9059286080 -0.5232080390
N  -1.9954724254 -1.4988314418 -0.2630293943
O  -1.5867262548  1.6452925377 -0.4009316034
H  -2.1814198288  0.8840653740 -0.4015339053
H   0.0235588971 -0.6947434299 -1.4748330391
H  -0.5934718647 -1.4430891709  1.3219367966
H   0.5960323906  0.8816706216  0.3212401718
H  -2.6181625270 -2.1140226321  0.2320821692
H  -2.1081275140 -1.5285082036 -1.2631607903
H  -0.4062350955  2.5863863290  0.9892322802
H  -1.5493240520  1.3499137742  1.6787516250
H   2.7460957467  0.2958270484  1.5153547167
H   1.7112161716  0.7366228137 -2.0304984587
H   2.4278675348 -1.4024383975  1.1415605746
H   1.2659034174 -0.4401628525  2.0888939504
H   2.8248933289  1.3056460264 -0.8016441501
H   2.9458456713 -0.3577824974 -1.3758654878
22
Image 24  Energy = -383.5154317228
C  -0.7502606655 -1.2241078581  0.2836527917
C   1.2779461262  0.0430120239 -0.0241997136
C  -0.9237830608  1.6283854394  0.8390244051
C   1.9661909608 -0.4198193605  1.2487381060
C   2.2435465785  0.4412354156 -1.1223847788
N   0.2985809717 -0.9080794212 -0.5239534185
N  -1.9969622058 -1.4963325590 -0.2627391425
O  -1.5860443799  1.6448947591 -0.3992404153
H  -2.1809588101  0.8840576191 -0.4017961885
H   0.0235298800 -0.6945038572 -1.4745489067
H  -0.5930464512 -1.4440548847  1.3219339523
H   0.6002358196  0.8824977626  0.3197585654
H  -2.6170361923 -2.1144752886  0.2320646114
H  -2.1068532699 -1.5291927465 -1.2630921741
H  -0.4066465588  2.5836553962  0.9886687011
H  -1.5499450138  1.3502676268  1.6793622341
H   2.7460228017  0.2957532286  1.5150788738
H   1.7111045865  0.7363959027 -2.0303360664
H   2.4277871567 -1.4028517813  1.1413724986
H   1.2659219981 -0.4407158426  2.0883433227
H   2.8250360610  1.3056088671 -0.8014556611
H   2.9455406732 -0.3579905241 -1.3757866446
22
Image 25  Energy = -383.5124070409
C  -0.7483703485 -1.2460985699  0.2718069581
C   1.2821567914  0.0417637234 -0.0245218142
C  -0.8973070123  1.6314328535  0.8456967920
C   1.9647727485 -0.4182805522  1.2499140424
C   2.2425179722  0.4410985415 -1.1227383607
N   0.2915561757 -0.8999516954 -0.5205496476
N  -1.9862113935 -1.5075357347 -0.2607424998
O  -1.5891168972  1.6469489041 -0.4103866006
H  -2.1810743851  0.8835959284 -0.3987030676
H   0.0233703458 -0.6959070827 -1.4769295037
H  -0.5941749016 -1.4430487417  1.3245369880
H   0.5807890458  0.8776700378  0.3264773742
H  -2.6246055974 -2.1157098327  0.2315263328
H  -2.1143675458 -1.5278536502 -1.2672447151
H  -0.4046928898  2.6032123293  0.9908494856
H  -1.5459530593  1.3480683329  1.6781875990
H   2.7459671729  0.2962695385  1.5160963821
H   1.7112500141  0.7375968700 -2.0309211381
H   2.4278296757 -1.4008649688  1.1420978696
H   1.2657226339 -0.4383545561  2.0912869552
H   2.8238832709  1.3062006309 -0.8018851578
H   2.9459651875 -0.3566123944 -1.3753893223
22
Image 26  Energy = -383.5133440281
C  -0.7459614549 -1.2421144529  0.2766050845
C   1.2802966935  0.0418555547 -0.0241842837
C  -0.9043030777  1.6308380579  0.8432348307
C   1.9651321722 -0.4186936311  1.2496359484
C   2.2427636187  0.4412022348 -1.1226782312
N   0.2927270309 -0.9021058063 -0.5218258872
N  -1.9915389726 -1.5070515491 -0.2639547317
O  -1.5869677940  1.6466743103 -0.4064740236
H  -2.1803563705  0.8840223250 -0.3987701457
H   0.0235347828 -0.6957536060 -1.4762238970
H  -0.5939859194 -1.4433998584  1.3223442707
H   0.5845920314  0.8789258489  0.3253955196
H  -2.6223641464 -2.1152520601  0.2312917141
H  -2.1126686408 -1.5280878913 -1.2647566610
H  -0.4055957325  2.6004023912  0.9903951067
H  -1.5454680058  1.3495893428  1.6778607394
H   2.7458028188  0.2961760415  1.5157835068
H   1.7110749898  0.7373453670 -2.0307243998
H   2.4277652740 -1.4013341643  1.1420511994
H   1.2656724164 -0.4388253781  2.0905982109
H   2.8239167715  1.3060804138 -0.8016776485
H   2.9458385206 -0.3568535787 -1.3754612706
22
Image 27  Energy = -383.5139820742
C  -0.7466839746 -1.2386559737  0.2789162076
C   1.2787562256  0.0421216427 -0.0240580135
C  -0.9104891150  1.6316079111  0.8412851285
C   1.9653470597 -0.4190738852  1.2493915017
C   2.2427986866  0.4413260400 -1.1224671704
N   0.2947351903 -0.9041437478 -0.5228839288
N  -1.9937379842 -1.5050855917 -0.2643049614
O  -1.5853466392  1.6462338092 -0.4032788477
H  -2.1796719063  0.8843229032 -0.3989212127
H   0.0235341250 -0.6955681923 -1.4757669599
H  -0.5935630525 -1.4441269771  1.3216708127
H   0.5886887020  0.8799533563  0.3241268983
H  -2.6209278254 -2.1154936248  0.2312533055
H  -2.1113057587 -1.5286196815 -1.2642184009
H  -0.4064109020  2.5973078391  0.9898452841
H  -1.5454297158  1.3505533641  1.6779856387
H   2.7456826855  0.2961074112  1.5154773022
H   1.7109227810  0.7370970327 -2.0305427470
H   2.4276936112 -1.4017935846  1.1419478961
H   1.2656709067 -0.4393428665  2.0899500946
H   2.8240033717  1.3060067504 -0.8014724590
H   2.9456405278 -0.3570940230 -1.3754704200
22
Image 28  Energy = -383.5145382945
C  -0.7477881286 -1.2353001964  0.2805575596
C   1.2775897764  0.0424871809 -0.0239649163
C  -0.9160949891  1.6329368584  0.8399657675
C   1.9654947228 -0.4194133775  1.2491385096
C   2.2427504922  0.4414546489 -1.1222075898
N   0.2966287706 -0.9063131059 -0.5237794522
N  -1.9953960337 -1.5027049898 -0.2641284813
O  -1.5842140427  1.6457821196 -0.4008654303
H  -2.1790576246  0.8844885386 -0.3991162569
H   0.0235031193 -0.6953486407 -1.4754313401
H  -0.5931172062 -1.4450111181  1.3214843545
H   0.5929253428  0.8808688710  0.3227336752
H  -2.6197152511 -2.1159252349  0.2312347482
H  -2.1100098363 -1.5292675141 -1.2640694010
H  -0.4070496712  2.5943198902  0.9892577840
H  -1.5456988822  1.3511657595  1.6783839309
H   2.7455836767  0.2960425693  1.5151798066
H   1.7107881685  0.7368571063 -2.0303689521
H   2.4276118788 -1.4022333153  1.1417978879
H   1.2656852474 -0.4398899693  2.0893544815
H   2.8241181210  1.3059588863 -0.8012692410
H   2.9453693477 -0.3573150552 -1.3754224958
22
Image 29  Energy = -383.5150416423
C  -0.7489026270 -1.2320236222  0.2819634614
C   1.2767420914  0.0428439021 -0.0238923299
C  -0.9212763795  1.6344962886  0.8391541427
C   1.9656164283 -0.4197202563  1.2488831014
C   2.2426806600  0.4415828451 -1.1219444857
N   0.2983356077 -0.9085260123 -0.5245679508
N  -1.9969326087 -1.5001456882 -0.2638257684
O  -1.5834553490  1.6453838617 -0.3990915033
H  -2.1785358322  0.8845067322 -0.3993424251
H   0.0234674866 -0.6951124310 -1.4751515054
H  -0.5926919990 -1.4459809972  1.3214887498
H   0.5972063766  0.8817277265  0.3212515726
H  -2.6185858568 -2.1164164431  0.2311908606
H  -2.1087314762 -1.5299864384 -1.2640034083
H  -0.4074946374  2.5915732327  0.9886657051
H  -1.5462120614  1.3515285667  1.6789770592
H   2.7454982486  0.2959730017  1.5148936375
H   1.7106661714  0.7366281493 -2.0301994667
H   2.4275200761 -1.4026472078  1.1416074390
H   1.2657056601 -0.4404561683  2.0888055940
H   2.8242496508  1.3059262211 -0.8010705489
H   2.9450373690 -0.3575153510 -1.3753269798
22
Image 30  Energy = -383.5145350965
C  -0.7552897271 -1.2095198924  0.2803790622
C   1.2871743033  0.0421127417 -0.0261123148
C  -0.9109716558  1.6110991451  0.8461800776
C   1.9673096897 -0.4192365217  1.2488911835
C   2.2463116397  0.4395941235 -1.1245505033
N   0.2939136087 -0.9004011878 -0.5187459042
N  -1.9862606010 -1.4934880669 -0.2569895523
O  -1.5984274818  1.6446811204 -0.4100675214
H  -2.1897955208  0.8815419580 -0.4082217762
H   0.0236601917 -0.6934235243 -1.4741465211
H  -0.5944346447 -1.4383642907  1.3252890139
H   0.5953703473  0.8797419376  0.3188096957
H  -2.6175704809 -2.1086384199  0.2352062605
H  -2.1062677023 -1.5251545012 -1.2640497698
H  -0.4026864227  2.5722070096  0.9905663509
H  -1.5628971543  1.3452238652  1.6814154707
H   2.7477965957  0.2952564139  1.5164537117
H   1.7127295449  0.7364898215 -2.0312006459
H   2.4289275296 -1.4023338497  1.1411541984
H   1.2663673295 -0.4397158942  2.0885743105
H   2.8269253575  1.3049059668 -0.8030540275
H   2.9480222972 -0.3589380075 -1.3773158145
22
Image 31  Energy = -383.5153861356
C  -0.7529594132 -1.2056170175  0.2848817088
C   1.2853144383  0.0422087106 -0.0257221967
C  -0.9180183232  1.6097446831  0.8438753714
C   1.9677314446 -0.4196442171  1.2486698410
C   2.2466499981  0.4396760875 -1.1245985428
N   0.2949355506 -0.9021650260 -0.5198278369
N  -1.9911447574 -1.4930401049 -0.2600908348
O  -1.5965429720  1.6445363349 -0.4063616755
H  -2.1893129751  0.8818150404 -0.4083993374
H   0.0238294635 -0.6932670991 -1.4734715418
H  -0.5943149540 -1.4386179538  1.3233369466
H   0.5991255256  0.8807971621  0.3176228149
H  -2.6154706912 -2.1080915275  0.2351122207
H  -2.1046158337 -1.5252520881 -1.2616233504
H  -0.4032170744  2.5698364926  0.9902638709
H  -1.5626890686  1.3466989237  1.6810090065
H   2.7477187174  0.2951432378  1.5162024208
H   1.7126262491  0.7362434614 -2.0310405890
H   2.4289153501 -1.4027887050  1.1411033202
H   1.2663266090 -0.4401534599  2.0878774652
H   2.8270350035  1.3047639656 -0.8029091624
H   2.9479847567 -0.3591869547 -1.3774449361
22
Image 32  Energy = -383.5159505482
C  -0.7535620688 -1.2020854183  0.2870493223
C   1.2839280381  0.0424201767 -0.0256015793
C  -0.9239607009  1.6099478092  0.8420911145
C   1.9679929881 -0.4200097396  1.2484653394
C   2.2467632386  0.4397548532 -1.1244651328
N   0.2966507268 -0.9038971955 -0.5206678679
N  -1.9931244346 -1.4911942953 -0.2604220201
O  -1.5952783783  1.6441301676 -0.4033910012
H  -2.1888192099  0.8820545387 -0.4086776635
H   0.0238474863 -0.6930732069 -1.4730228289
H  -0.5939623062 -1.4392802484  1.3227400579
H   0.6030694843  0.8817277207  0.3163099757
H  -2.6140874730 -2.1081817261  0.2351769816
H  -2.1032650613 -1.5256503324 -1.2610653516
H  -0.4038146183  2.5669149833  0.9898497841
H  -1.5630016513  1.3476472268  1.6810993014
H   2.7476807508  0.2950538818  1.5159557885
H   1.7125417871  0.7360032772 -2.0309040581
H   2.4288977426 -1.4032376156  1.1409993794
H   1.2663325666 -0.4406343178  2.0872293145
H   2.8271935555  1.3046670905 -0.8027657856
H   2.9478845811 -0.3594376829 -1.3775180834
22
Image 33  Energy = -383.5164402627
C  -0.7545618897 -1.1986170229  0.2886393751
C   1.2829603009  0.0426836830 -0.0255504670
C  -0.9292165114  1.6107747715  0.8409113859
C   1.9681848730 -0.4203325085  1.2482427074
C   2.2467948364  0.4398258823 -1.1242766926
N   0.2982609168 -0.9057538178 -0.5213677227
N  -1.9945887935 -1.4889683824 -0.2602480816
O  -1.5944911913  1.6437110175 -0.4011707733
H  -2.1883966760  0.8821754401 -0.4090051346
H   0.0238405254 -0.6928474708 -1.4726759283
H  -0.5935832581 -1.4401013423  1.3225468739
H   0.6070833519  0.8826132675  0.3149178734
H  -2.6129019352 -2.1084457944  0.2352549850
H  -2.1019753000 -1.5261605401 -1.2608735041
H  -0.4043172404  2.5639572565  0.9893890116
H  -1.5636355920  1.3482749698  1.6814669051
H   2.7476601938  0.2949672663  1.5157160281
H   1.7124730055  0.7357709586 -2.0307764153
H   2.4288702639 -1.4036675500  1.1408536144
H   1.2663521488 -0.4411418497  2.0866359584
H   2.8273756222  1.3045919046 -0.8026239628
H   2.9477193883 -0.3596701914 -1.3775410470
22
Image 34  Energy = -383.5168847316
C  -0.7555919588 -1.1952081096  0.2900388250
C   1.2823125038  0.0429193558 -0.0255379155
C  -0.9340168916  1.6118536655  0.8402030252
C   1.9683512156 -0.4206240304  1.2480107875
C   2.2468096472  0.4398900975 -1.1240848916
N   0.2997080113 -0.9076481995 -0.5219735681
N  -1.9959383159 -1.4865842732 -0.2599561348
O  -1.5940474177  1.6433535864 -0.3995438153
H  -2.1880676223  0.8821577860 -0.4093645968
H   0.0238308429 -0.6926056228 -1.4723755721
H  -0.5932208041 -1.4410054293  1.3225049122
H   0.6110990351  0.8834838709  0.3134705883
H  -2.6117881593 -2.1087639694  0.2353067825
H  -2.1007014292 -1.5267370143 -1.2607557429
H  -0.4046744729  2.5611501424  0.9889176344
H  -1.5645043424  1.3486798650  1.6820190650
H   2.7476501579  0.2948755577  1.5154854707
H   1.7124159179  0.7355474849 -2.0306517682
H   2.4288327425 -1.4040722933  1.1406727988
H   1.2663762955 -0.4416662585  2.0860886453
H   2.8275705733  1.3045274086 -0.8024861685
H   2.9475015075 -0.3598836742 -1.3775233712
22
Image 35  Energy = -383.5158319495
C  -0.7689423086 -1.1540566601  0.2914824120
C   1.2944075785  0.0386868282 -0.0295189890
C  -0.9338742798  1.6235496677  0.8594913767
C   1.9708323755 -0.4234533128  1.2462762022
C   2.2519511412  0.4364951239 -1.1275708349
N   0.3036852223 -0.9128504465 -0.5218878714
N  -1.9752968284 -1.5064518395 -0.2591521493
O  -1.6010670312  1.6444065899 -0.4120285269
H  -2.1887742284  0.8763523844 -0.4094745883
H   0.0232960490 -0.6921748504 -1.4722789204
H  -0.5869706144 -1.4639469115  1.3233649550
H   0.6117162488  0.8693873000  0.3037807946
H  -2.6143018447 -2.1103720230  0.2391397045
H  -2.1026131516 -1.5257916050 -1.2677935671
H  -0.4067822387  2.5826317886  0.9920859600
H  -1.5936032138  1.3610934239  1.6972033713
H   2.7478970968  0.2928791223  1.5152263182
H   1.7131518383  0.7351107014 -2.0298248297
H   2.4308183476 -1.4068193742  1.1409909793
H   1.2654033866 -0.4412809072  2.0814789495
H   2.8277984158  1.3027431318 -0.8024955091
H   2.9511752644 -0.3624980590 -1.3800300531
22
Image 36  Energy = -383.5171393735
C  -0.7648654035 -1.1529734389  0.2980098391
C   1.2916197826  0.0385974363 -0.0292193147
C  -0.9419457797  1.6224504725  0.8559327778
C   1.9712664144 -0.4237311050  1.2461769113
C   2.2520745849  0.4368912436 -1.1274059715
N   0.3036762654 -0.9139649596 -0.5222220699
N  -1.9814155428 -1.5059631797 -0.2631362914
O  -1.5991312443  1.6443506349 -0.4063278287
H  -2.1880254262  0.8770411627 -0.4097392529
H   0.0237119414 -0.6919779513 -1.4716420902
H  -0.5875729397 -1.4630886592  1.3195557595
H   0.6161479301  0.8711261830  0.3025180942
H  -2.6117101365 -2.1093333815  0.2388967639
H  -2.1007251131 -1.5258069328 -1.2644439370
H  -0.4078245732  2.5787127753  0.9917831256
H  -1.5924536135  1.3629541327  1.6954247361
H   2.7481233861  0.2928071217  1.5151246364
H   1.7131630946  0.7348298958 -2.0298689707
H   2.4308836206 -1.4073022694  1.1408926483
H   1.2653884597 -0.4418332230  2.0808864258
H   2.8282404090  1.3026760694 -0.8024734256
H   2.9512811095 -0.3628219536 -1.3802573816
22
Image 37  Energy = -383.5178229805
C  -0.7647478334 -1.1518521100  0.3004240496
C   1.2897889270  0.0385779210 -0.0291700521
C  -0.9484810267  1.6227706471  0.8532719365
C   1.9715052625 -0.4239786961  1.2460346873
C   2.2520122740  0.4370847404 -1.1271387590
N   0.3044190809 -0.9150932206 -0.5223048058
N  -1.9835878014 -1.5037003099 -0.2633089822
O  -1.5979557001  1.6441129411 -0.4019379941
H  -2.1873470042  0.8775724679 -0.4100770974
H   0.0238932826 -0.6917979325 -1.4710830602
H  -0.5876882876 -1.4631016691  1.3180702234
H   0.6204957495  0.8728540638  0.3012350154
H  -2.6101223759 -2.1091336724  0.2388939567
H  -2.0992225187 -1.5261350553 -1.2635578863
H  -0.4088524625  2.5745093896  0.9913788121
H  -1.5920247515  1.3642059011  1.6943711172
H   2.7483427234  0.2927412610  1.5150018416
H   1.7131980919  0.7345683721 -2.0299219249
H   2.4309245943 -1.4077434740  1.1407460963
H   1.2654215977 -0.4424212729  2.0803595344
H   2.8286925737  1.3026538676 -0.8024276672
H   2.9512428306 -0.3630540869 -1.3803938569
22
Image 38  Energy = -383.5183391511
C  -0.7652629491 -1.1505196623  0.3017975762
C   1.2886110859  0.0386177959 -0.0291490764
C  -0.9539736906  1.6235975113  0.8515105252
C   1.9716723732 -0.4242010988  1.2458516828
C   2.2519114896  0.4371736895 -1.1268768324
N   0.3051736886 -0.9163376552 -0.5224135629
N  -1.9851256645 -1.5010379264 -0.2628889763
O  -1.5974015102  1.6439046772 -0.3987826304
H  -2.1867900031  0.8779201141 -0.4104465572
H   0.0240193969 -0.6916233739 -1.4705469728
H  -0.5876723246 -1.4634481395  1.3173868408
H   0.6247231106  0.8745803301  0.2999498865
H  -2.6088202205 -2.1091815605  0.2389469121
H  -2.0977884257 -1.5265756060 -1.2631210297
H  -0.4097142536  2.5704859872  0.9909385802
H  -1.5920850835  1.3650747858  1.6937972149
H   2.7485379259  0.2926609090  1.5148648350
H   1.7132503863  0.7343197248 -2.0299664130
H   2.4309434601 -1.4081417657  1.1405645419
H   1.2654691380 -0.4430257964  2.0798904546
H   2.8291201826  1.3026253601 -0.8023719856
H   2.9511091149 -0.3632282272 -1.3804698283
22
Image 39  Energy = -383.5187656629
C  -0.7658767137 -1.1490645518  0.3028579622
C   1.2878734460  0.0386647724 -0.0291406657
C  -0.9587604055  1.6245764670  0.8504065542
C   1.9718185196 -0.4244098649  1.2456542349
C   2.2518310087  0.4372103427 -1.1266502778
N   0.3058824106 -0.9176184200 -0.5225440111
N  -1.9865690473 -1.4982419873 -0.2623833756
O  -1.5972787220  1.6437915229 -0.3965667453
H  -2.1863712130  0.8780765902 -0.4108373377
H   0.0241184140 -0.6914481337 -1.4700474256
H  -0.5876178669 -1.4639559240  1.3170404105
H   0.6288157527  0.8762943325  0.2986664377
H  -2.6076324334 -2.1093263876  0.2389977724
H  -2.0963757561 -1.5270848810 -1.2627846424
H  -0.4103639690  2.5667958592  0.9905000783
H  -1.5925105962  1.3656716487  1.6935761508
H   2.7487098451  0.2925618818  1.5147201846
H   1.7133132185  0.7340812487 -2.0299979627
H   2.4309450787 -1.4085009693  1.1403546747
H   1.2655231022 -0.4436372191  2.0794643743
H   2.8295165866  1.3025748227 -0.8023154043
H   2.9509165672 -0.3633710775 -1.3805058019
22
Image 40  Energy = -383.5159439199
C  -0.7686395670 -1.1529189040  0.2917888009
C   1.2943504860  0.0387922597 -0.0295789659
C  -0.9337677966  1.6211703425  0.8587676032
C   1.9707534288 -0.4233418339  1.2462508082
C   2.2518962934  0.4365189395 -1.1275095792
N   0.3038651766 -0.9127826484 -0.5218673897
N  -1.9752953705 -1.5053975252 -0.2588152163
O  -1.6011985537  1.6444617217 -0.4118358286
H  -2.1889739518  0.8766565094 -0.4097246119
H   0.0232080213 -0.6920597548 -1.4722488557
H  -0.5873134211 -1.4627585157  1.3232499531
H   0.6116230367  0.8697288421  0.3040620489
H  -2.6141406650 -2.1098958650  0.2389850036
H  -2.1024706457 -1.5257020955 -1.2673670423
H  -0.4070398993  2.5802815996  0.9918212681
H  -1.5931013931  1.3606643716  1.6969698756
H   2.7478603052  0.2928956582  1.5152438691
H   1.7131641479  0.7351028937 -2.0297841587
H   2.4307503115 -1.4066902972  1.1409598619
H   1.2655090853 -0.4412878995  2.0816017860
H   2.8277857463  1.3027039856 -0.8025506321
H   2.9510824432 -0.3625017177 -1.3799534239
22
Image 41  Energy = -383.5172073864
C  -0.7647118798 -1.1518303585  0.2981525541
C   1.2916193888  0.0387094494 -0.0292687697
C  -0.9417168117  1.6201355920  0.8553155685
C   1.9711925833 -0.4236224442  1.2461547625
C   2.2520344927  0.4369072363 -1.1273627993
N   0.3038315631 -0.9138508977 -0.5221821145
N  -1.9813558096 -1.5048994656 -0.2627585474
O  -1.5993375944  1.6443803598 -0.4062593102
H  -2.1882781627  0.8773041554 -0.4100297803
H   0.0236321863 -0.6918678651 -1.4715956470
H  -0.5878731764 -1.4619211905  1.3195587897
H   0.6160418494  0.8714234517  0.3027795496
H  -2.6115393239 -2.1088513347  0.2387782568
H  -2.1005671485 -1.5256939961 -1.2640553612
H  -0.4080174547  2.5763855551  0.9915314437
H  -1.5920403701  1.3624691174  1.6952400635
H   2.7480899831  0.2928294814  1.5151406333
H   1.7131718324  0.7348248568 -2.0298344561
H   2.4308177601 -1.4071780179  1.1408599898
H   1.2654858847 -0.4418353693  2.0810052305
H   2.8282344281  1.3026492451 -0.8025220614
H   2.9511929990 -0.3628274944 -1.3801828187
22
Image 42  Energy = -383.5178734743
C  -0.7646481519 -1.1507024330  0.3005117783
C   1.2898290314  0.0386935168 -0.0292101377
C  -0.9481710150  1.6204753125  0.8527410190
C   1.9714395795 -0.4238730271  1.2460171953
C   2.2519869408  0.4370982941 -1.1271100195
N   0.3045371687 -0.9149407125 -0.5222493518
N  -1.9835342069 -1.5026486084 -0.2629461798
O  -1.5982197093  1.6441258402 -0.4019665376
H  -2.1876497525  0.8777983523 -0.4104042329
H   0.0238245608 -0.6916896710 -1.4710280884
H  -0.5879641090 -1.4619353359  1.3181277815
H   0.6203777776  0.8731125871  0.3014792217
H  -2.6099346474 -2.1086398224  0.2388079731
H  -2.0990487942 -1.5259991248 -1.2631831151
H  -0.4089778782  2.5722198977  0.9911427178
H  -1.5916820212  1.3636807103  1.6942196882
H   2.7483124520  0.2927682540  1.5150171221
H   1.7132037036  0.7345656293 -2.0298926904
H   2.4308612894 -1.4076238454  1.1407126853
H   1.2655111116 -0.4424180736  2.0804735692
H   2.8286916146  1.3026355909 -0.8024721005
H   2.9511622720 -0.3630632639 -1.3803231194
22
Image 43  Energy = -383.5183797178
C  -0.7651955503 -1.1493667007  0.3018666293
C   1.2886801700  0.0387337517 -0.0291827739
C  -0.9536087016  1.6213023232  0.8510412762
C   1.9716154854 -0.4240984675  1.2458394567
C   2.2518997190  0.4371868795 -1.1268597409
N   0.3052575089 -0.9161488575 -0.5223423763
N  -1.9850812006 -1.4999993642 -0.2625438556
O  -1.5977087589  1.6439035306 -0.3988791511
H  -2.1871384323  0.8781139356 -0.4108078004
H   0.0239611154 -0.6915153533 -1.4704882625
H  -0.5879317250 -1.4622745273  1.3174716924
H   0.6245944402  0.8748043950  0.3001787518
H  -2.6086175598 -2.1086765129  0.2388915471
H  -2.0976019954 -1.5264178347 -1.2627601624
H  -0.4097755901  2.5682342339  0.9907190847
H  -1.5918018855  1.3645192952  1.6936697319
H   2.7485110628  0.2926919371  1.5148801452
H   1.7132534524  0.7343189394 -2.0299416671
H   2.4308831108 -1.4080267346  1.1405310133
H   1.2655514492 -0.4430171119  2.0799991593
H   2.8291236737  1.3026137408 -0.8024136897
H   2.9510374325 -0.3632414296 -1.3804038317
22
Image 44  Energy = -383.5188003593
C  -0.7658324307 -1.1479084690  0.3029216246
C   1.2879634028  0.0387793385 -0.0291699680
C  -0.9583574651  1.6222731527  0.8499792236
C   1.9717703441 -0.4243101063  1.2456470262
C   2.2518312357  0.4372237945 -1.1266427373
N   0.3059357799 -0.9173957471 -0.5224571829
N  -1.9865312202 -1.4972163360 -0.2620529302
O  -1.5976188143  1.6437766429 -0.3967075937
H  -2.1867605383  0.8782437463 -0.4112305804
H   0.0240695984 -0.6913395535 -1.4699872427
H  -0.5878651590 -1.4627715503  1.3171406728
H   0.6286779204  0.8764875615  0.2988815472
H  -2.6074169696 -2.1088106923  0.2389708115
H  -2.0961789272 -1.5269062979 -1.2624382389
H  -0.4103669903  2.5645760821  0.9902970660
H  -1.5922790297  1.3650928720  1.6934659003
H   2.7486866449  0.2925964921  1.5147361001
H   1.7133143523  0.7340821544 -2.0299770246
H   2.4308880099 -1.4083905378  1.1403215848
H   1.2655988257 -0.4436230693  2.0795675504
H   2.8295242939  1.3025686959 -0.8023553785
H   2.9508543569 -0.3633881061 -1.3804450546
22
Image 45  Energy = -383.5243268675
C  -0.8049016908 -0.9688955089  0.3473781168
C   1.3157968543  0.0371637163 -0.0380900754
C  -1.0394390331  1.5560174573  0.8632124680
C   1.9870616367 -0.4311625669  1.2405871977
C   2.2732215530  0.4276384830 -1.1373203712
N   0.3173936908 -0.9237467912 -0.5134495068
N  -1.9818733571 -1.4444564235 -0.2464638042
O  -1.6473869513  1.6345484719 -0.3941820277
H  -2.2270128166  0.8625285311 -0.4550053082
H   0.0262406874 -0.6796734693 -1.4567005985
H  -0.5861369813 -1.4657799640  1.3207826171
H   0.7115706015  0.8864922481  0.2519038502
H  -2.5760609268 -2.0799825238  0.2592322046
H  -2.0570143652 -1.5158249779 -1.2517179076
H  -0.3989786073  2.4440383951  0.9945452017
H  -1.6957917449  1.3624471351  1.7130301286
H   2.7608815444  0.2853126575  1.5175522997
H   1.7232972833  0.7278596324 -2.0326747602
H   2.4389628925 -1.4180972778  1.1354770054
H   1.2682985155 -0.4516240414  2.0630558265
H   2.8473897226  1.2942852639 -0.8095041309
H   2.9643891082 -0.3754480345 -1.3931828416
22
Image 46  Energy = -383.5263139207
C  -0.8010369114 -0.9718321531  0.3538708782
C   1.3142620679  0.0340605895 -0.0394604354
C  -1.0586274651  1.5553840663  0.8572440170
C   1.9877973502 -0.4316467196  1.2398367137
C   2.2735580811  0.4277475218 -1.1368256683
N   0.3158536918 -0.9247644384 -0.5097748286
N  -1.9880419251 -1.4301216312 -0.2442790924
O  -1.6484221364  1.6352540148 -0.3848984347
H  -2.2258794100  0.8633379550 -0.4570589851
H   0.0270191720 -0.6788161245 -1.4546118981
H  -0.5881332396 -1.4624562631  1.3147941385
H   0.7257030416  0.8966390038  0.2478788859
H  -2.5709401544 -2.0797006469  0.2595673334
H  -2.0507951635 -1.5175153038 -1.2490493212
H  -0.4016801606  2.4272561300  0.9933004327
H  -1.6978717829  1.3652846317  1.7110983334
H   2.7619503278  0.2847619587  1.5171985337
H   1.7238566816  0.7267967248 -2.0329402769
H   2.4391103772 -1.4195139793  1.1345282952
H   1.2686837676 -0.4541878430  2.0613127505
H   2.8494715934  1.2939037459 -0.8095880932
H   2.9640698091 -0.3762308299 -1.3936776974
22
Image 47  Energy = -383.5272302697
C  -0.7972053784 -0.9774343257  0.3540775366
C   1.3158477321  0.0322476460 -0.0401925405
C  -1.0582594690  1.5517616107  0.8575721866
C   1.9880593252 -0.4316620993  1.2396025999
C   2.2742412939  0.4271303284 -1.1373542896
N   0.3127327605 -0.9216416384 -0.5069138415
N  -1.9892224993 -1.4252066289 -0.2429634858
O  -1.6517176807  1.6364469390 -0.3864919452
H  -2.2263925852  0.8633297173 -0.4579390807
H   0.0272664093 -0.6787536277 -1.4537165394
H  -0.5896826795 -1.4590627520  1.3125531700
H   0.7260455989  0.9003793767  0.2481097426
H  -2.5697065667 -2.0788161235  0.2593365525
H  -2.0491716649 -1.5177084178 -1.2475511880
H  -0.4021162222  2.4231252682  0.9935135296
H  -1.6998971140  1.3656112939  1.7110798443
H   2.7623413701  0.2844836717  1.5172672001
H   1.7242327220  0.7265707244 -2.0330653078
H   2.4392304082 -1.4195932852  1.1342760871
H   1.2688704340 -0.4547018771  2.0611201825
H   2.8500579155  1.2935733594 -0.8097974669
H   2.9643535004 -0.3764387519 -1.3940573663
22
Image 48  Energy = -383.5278980224
C  -0.7948470077 -0.9816423000  0.3534420628
C   1.3165966178  0.0317720272 -0.0403365758
C  -1.0581917753  1.5478819083  0.8574450262
C   1.9883899208 -0.4318069660  1.2394155256
C   2.2748754230  0.4264631522 -1.1379014617
N   0.3106710006 -0.9187740412 -0.5050669717
N  -1.9902850063 -1.4205153550 -0.2415708336
O  -1.6545168222  1.6376351234 -0.3874327887
H  -2.2271094551  0.8631086863 -0.4589000978
H   0.0274030822 -0.6787584052 -1.4526619908
H  -0.5908151543 -1.4564112529  1.3116082679
H   0.7269264561  0.9031494678  0.2481055351
H  -2.5684231218 -2.0778647681  0.2590996358
H  -2.0475250401 -1.5178747654 -1.2460788351
H  -0.4024609347  2.4191993399  0.9937628799
H  -1.7018842311  1.3659718028  1.7109944954
H   2.7627126122  0.2842056834  1.5173170984
H   1.7246020547  0.7263422534 -2.0332057302
H   2.4393880673 -1.4196985691  1.1340667833
H   1.2690472335 -0.4551819163  2.0608897958
H   2.8505799044  1.2931679444 -0.8100011329
H   2.9647737837 -0.3767286416 -1.3945251103
22
Image 49  Energy = -383.5284535593
C  -0.7932496707 -0.9847832226  0.3526310348
C   1.3170655808  0.0319039091 -0.0402539685
C  -1.0582678294  1.5438664966  0.8571600369
C   1.9887102368 -0.4319688009  1.2392668328
C   2.2754297203  0.4258237087 -1.1383811638
N   0.3092778081 -0.9161855794 -0.5037596879
N  -1.9913837510 -1.4160757264 -0.2403405812
O  -1.6571113423  1.6386712382 -0.3880292133
H  -2.2278948208  0.8628670543 -0.4599272731
H   0.0274438017 -0.6787468921 -1.4516915670
H  -0.5917005235 -1.4541828722  1.3113695126
H   0.7280155717  0.9054567867  0.2480194931
H  -2.5671189587 -2.0768723821  0.2588930304
H  -2.0458800730 -1.5180075198 -1.2446037072
H  -0.4027669348  2.4153490197  0.9940289363
H  -1.7038327202  1.3663513987  1.7108355992
H   2.7630716757  0.2839235944  1.5173603993
H   1.7249671680  0.7261117253 -2.0333670381
H   2.4395723623 -1.4198364059  1.1338638728
H   1.2692280211 -0.4556403142  2.0606447244
H   2.8510615691  1.2927032190 -0.8102182473
H   2.9652707176 -0.3770880249 -1.3950354492
22
Image 50  Energy = -383.5246128063
C  -0.7751681519 -1.0997416151  0.3259361027
C   1.3005020107  0.0395650312 -0.0322361078
C  -1.0144961344  1.5875291469  0.8462614129
C   1.9811434104 -0.4262621393  1.2442168806
C   2.2628182776  0.4312974836 -1.1316288721
N   0.3054536901 -0.9123472284 -0.5127851306
N  -2.0045791993 -1.4336328923 -0.2455153387
O  -1.6357853637  1.6410909745 -0.3892739727
H  -2.2137383169  0.8685529829 -0.4390374460
H   0.0258568122 -0.6841082127 -1.4614586791
H  -0.5966168348 -1.4500031368  1.3215998263
H   0.6908846949  0.9118835032  0.2752416253
H  -2.5878864070 -2.0928657138  0.2469405479
H  -2.0667480290 -1.5252567021 -1.2502680069
H  -0.3972447356  2.4774960210  0.9947343775
H  -1.6468718839  1.3501964065  1.6917754769
H   2.7603164497  0.2871847363  1.5185950619
H   1.7231908890  0.7294236366 -2.0342953513
H   2.4362022865 -1.4121957910  1.1355852095
H   1.2697039937 -0.4516074040  2.0730765382
H   2.8446822645  1.2957931812 -0.8098122890
H   2.9582877491 -0.3683519332 -1.3891864501
22
Image 51  Energy = -383.5248811866
C  -0.7756737631 -1.0966294538  0.3243433428
C   1.3003025793  0.0408096687 -0.0318424642
C  -1.0166735626  1.5863551405  0.8473632147
C   1.9814179257 -0.4265334420  1.2439219270
C   2.2633540470  0.4310556870 -1.1320370330
N   0.3060076371 -0.9127673907 -0.5126585072
N  -2.0057716316 -1.4312099691 -0.2452894357
O  -1.6368423160  1.6415605150 -0.3901347555
H  -2.2139756820  0.8681803008 -0.4394443448
H   0.0256825732 -0.6839893318 -1.4606505141
H  -0.5962199653 -1.4510281267  1.3232856614
H   0.6935546456  0.9118823134  0.2741041166
H  -2.5867630301 -2.0924565800  0.2465527066
H  -2.0654051697 -1.5258327602 -1.2491327954
H  -0.3976363562  2.4754497726  0.9943974642
H  -1.6483564427  1.3504025925  1.6924569404
H   2.7603123327  0.2869705178  1.5184668700
H   1.7232303620  0.7292094489 -2.0342213457
H   2.4362123079 -1.4124056115  1.1353195473
H   1.2698514417 -0.4520448258  2.0727402951
H   2.8449217067  1.2955577307 -0.8097692068
H   2.9583778331 -0.3688958615 -1.3893062679
22
Image 52  Energy = -383.5250961291
C  -0.7761100119 -1.0940205185  0.3243734884
C   1.3005702657  0.0414598461 -0.0317318427
C  -1.0186696046  1.5852823678  0.8479168740
C   1.9816191886 -0.4267095688  1.2436816612
C   2.2637861825  0.4308452314 -1.1323024275
N   0.3065619643 -0.9130215771 -0.5126482408
N  -2.0067728675 -1.4286758210 -0.2450498794
O  -1.6378737034  1.6419073362 -0.3906249561
H  -2.2142306395  0.8678601025 -0.4399215811
H   0.0255538069 -0.6838314754 -1.4600056124
H  -0.5960356176 -1.4516336867  1.3238900620
H   0.6958892000  0.9122550398  0.2730974732
H  -2.5856934301 -2.0921056364  0.2462674411
H  -2.0641442927 -1.5264194662 -1.2482985993
H  -0.3980258867  2.4733559338  0.9941224687
H  -1.6500482320  1.3505619045  1.6932830305
H   2.7603440892  0.2867626116  1.5183618880
H   1.7232776870  0.7290065471 -2.0341863372
H   2.4362309627 -1.4126310399  1.1350126814
H   1.2700176141 -0.4524811943  2.0724054327
H   2.8451913039  1.2953252725 -0.8097590095
H   2.9584694957 -0.3694518746 -1.3894185977
22
Image 53  Energy = -383.5252971274
C  -0.7764726783 -1.0915940755  0.3248717178
C   1.3010266482  0.0417990378 -0.0317758519
C  -1.0205900849  1.5842401863  0.8482342433
C   1.9818132985 -0.4268626011  1.2434657510
C   2.2642028220  0.4306353329 -1.1325183086
N   0.3070196832 -0.9132019850 -0.5125157753
N  -2.0076512082 -1.4261153059 -0.2447023250
O  -1.6388953172  1.6421780863 -0.3908939838
H  -2.2145162357  0.8675543484 -0.4404538856
H   0.0254320109 -0.6836361529 -1.4594838601
H  -0.5959387491 -1.4520779258  1.3241141915
H   0.6980294461  0.9128159688  0.2721642134
H  -2.5846449273 -2.0917525970  0.2460207117
H  -2.0629077613 -1.5270028396 -1.2476387218
H  -0.3983959406  2.4712475648  0.9938901008
H  -1.6518167440  1.3507058635  1.6941120565
H   2.7604053468  0.2865622980  1.5182771647
H   1.7233345111  0.7288084619 -2.0341673827
H   2.4362519916 -1.4128502150  1.1346863420
H   1.2701801810 -0.4529121252  2.0720796216
H   2.8454847856  1.2950951685 -0.8097720865
H   2.9585563943 -0.3699961589 -1.3895285169
22
Image 54  Energy = -383.5254915368
C  -0.7767864690 -1.0892545213  0.3255287520
C   1.3015551707  0.0419756652 -0.0318913273
C  -1.0224568902  1.5831940664  0.8484560506
C   1.9820184019 -0.4270121119  1.2432637842
C   2.2646251237  0.4304129500 -1.1327237603
N   0.3073772017 -0.9133217515 -0.5122981158
N  -2.0084449483 -1.4235581327 -0.2443036548
O  -1.6399261568  1.6423964768 -0.3910317127
H  -2.2148348880  0.8672500640 -0.4410313950
H   0.0253175441 -0.6834210503 -1.4590177069
H  -0.5958875616 -1.4524397256  1.3241812151
H   0.7000443902  0.9134691148  0.2712753540
H  -2.5836076020 -2.0913828604  0.2458007015
H  -2.0616745767 -1.5275713111 -1.2470521407
H  -0.3987450097  2.4691346281  0.9936912333
H  -1.6536137710  1.3508469375  1.6948965520
H   2.7604915358  0.2863682130  1.5182096317
H   1.7234029674  0.7286121387 -2.0341551553
H   2.4362771584 -1.4130620283  1.1343503655
H   1.2703343100 -0.4533360909  2.0717611096
H   2.8457975079  1.2948654959 -0.8098024066
H   2.9586440334 -0.3705258302 -1.3896419584
22
Image 55  Energy = -383.5260700119
C  -0.7814178316 -1.0991166684  0.3393467537
C   1.3026608254  0.0417458493 -0.0332740238
C  -1.0957817526  1.6769045958  0.8635463360
C   1.9888667793 -0.4334039051  1.2397086391
C   2.2712305720  0.4241881235 -1.1352762543
N   0.3202424984 -0.9368018247 -0.5166896269
N  -2.0263343994 -1.4151737301 -0.2450568295
O  -1.6507600863  1.6530906073 -0.3771066787
H  -2.2000690009  0.8547721912 -0.4313590858
H   0.0241693591 -0.6827307501 -1.4541081575
H  -0.5922610858 -1.5182784930  1.3234628203
H   0.7653271996  0.9400517249  0.2427057807
H  -2.5788291088 -2.1089304449  0.2379788192
H  -2.0471152685 -1.5496856276 -1.2457451777
H  -0.4094695881  2.5128103704  0.9996947202
H  -1.7011591040  1.3778565546  1.7060778462
H   2.7678966014  0.2780575876  1.5187826623
H   1.7305929040  0.7234784458 -2.0363031012
H   2.4410278412 -1.4203325461  1.1290729041
H   1.2727507434 -0.4651851243  2.0625999888
H   2.8553080636  1.2865336580 -0.8130395257
H   2.9630319117 -0.3762097704 -1.3965528567
22
Image 56  Energy = -383.5264172784
C  -0.7805795766 -1.0996364301  0.3392083015
C   1.3061783928  0.0397362970 -0.0345302042
C  -1.0948213323  1.6765151633  0.8662497391
C   1.9887297090 -0.4332848764  1.2393632657
C   2.2719199805  0.4234904054 -1.1357243746
N   0.3181027163 -0.9349742910 -0.5142453836
N  -2.0256714565 -1.4123071102 -0.2438825448
O  -1.6531442468  1.6527670109 -0.3799156146
H  -2.1999426431  0.8550699025 -0.4314852887
H   0.0240112657 -0.6826563896 -1.4535445637
H  -0.5926002142 -1.5179632672  1.3218491322
H   0.7637711839  0.9418428292  0.2430931006
H  -2.5780538130 -2.1084238173  0.2374874412
H  -2.0459763518 -1.5505755506 -1.2454739932
H  -0.4109338714  2.5112712026  0.9995137386
H  -1.7022873588  1.3780961413  1.7065919271
H   2.7679276876  0.2778773643  1.5187678195
H   1.7305857748  0.7233523756 -2.0363794761
H   2.4409636206 -1.4203882137  1.1284535225
H   1.2729615107 -0.4655814510  2.0626824087
H   2.8556829095  1.2864004001 -0.8130386104
H   2.9630841835 -0.3769868722 -1.3965743915
22
Image 57  Energy = -383.5265937307
C  -0.7800273766 -1.0998834787  0.3392562833
C   1.3080456441  0.0391176097 -0.0350399415
C  -1.0947733526  1.6754934437  0.8671843432
C   1.9888816467 -0.4333796055  1.2391229893
C   2.2727340520  0.4228617823 -1.1363375534
N   0.3166527120 -0.9331319023 -0.5127400530
N  -2.0254338957 -1.4098339088 -0.2432381588
O  -1.6544496669  1.6530717522 -0.3811813051
H  -2.2002240905  0.8547951057 -0.4316561608
H   0.0238816436 -0.6826643168 -1.4527352826
H  -0.5928404752 -1.5177815122  1.3206756550
H   0.7629889842  0.9425893454  0.2431566944
H  -2.5771361251 -2.1077366257  0.2369957271
H  -2.0447942885 -1.5513267955 -1.2448312340
H  -0.4120309036  2.5102346427  0.9994541179
H  -1.7034859827  1.3783451088  1.7072275740
H   2.7679627227  0.2776898439  1.5187539106
H   1.7306087256  0.7231901134 -2.0364117919
H   2.4409260887 -1.4204308291  1.1279124359
H   1.2731345092 -0.4659435119  2.0626682733
H   2.8560155260  1.2861591515 -0.8130675285
H   2.9632719725 -0.3777945901 -1.3967030458
22
Image 58  Energy = -383.5267278244
C  -0.7796592556 -1.0999014857  0.3393421403
C   1.3091752059  0.0390504255 -0.0352649814
C  -1.0950410518  1.6742648561  0.8675334124
C   1.9891037131 -0.4335206848  1.2389485949
C   2.2735003598  0.4223140013 -1.1369203512
N   0.3156505756 -0.9313730453 -0.5116172562
N  -2.0254128467 -1.4075611949 -0.2427940704
O  -1.6554911798  1.6533858737 -0.3818440410
H  -2.2005552112  0.8544772761 -0.4318665097
H   0.0237232859 -0.6826639564 -1.4519500607
H  -0.5930075893 -1.5177090991  1.3198300069
H   0.7625685975  0.9429424253  0.2431000867
H  -2.5761768643 -2.1069695103  0.2365334990
H  -2.0435894175 -1.5520065689 -1.2441106933
H  -0.4129999149  2.5093564225  0.9994501543
H  -1.7046811522  1.3786169742  1.7078223915
H   2.7680220625  0.2775042685  1.5187506708
H   1.7306588152  0.7230073032 -2.0364436145
H   2.4409227138 -1.4205048877  1.1274020251
H   1.2733077098 -0.4662901317  2.0625906569
H   2.8563444134  1.2858561900 -0.8131322350
H   2.9635450993 -0.3786346295 -1.3968938757
22
Image 59  Energy = -383.5268442502
C  -0.7794011741 -1.0997374282  0.3394593270
C   1.3099525703  0.0392169494 -0.0353691844
C  -1.0954289414  1.6729728248  0.8676718570
C   1.9893347073 -0.4336603364  1.2388077397
C   2.2741871683  0.4218187796 -1.1374302686
N   0.3149241913 -0.9297325005 -0.5107008637
N  -2.0255041101 -1.4054043270 -0.2424537739
O  -1.6564553954  1.6536258006 -0.3822150561
H  -2.2008897440  0.8541848070 -0.4321135137
H   0.0235365065 -0.6826332789 -1.4512451074
H  -0.5931253984 -1.5177118851  1.3192115383
H   0.7623395992  0.9431541508  0.2430014927
H  -2.5752219790 -2.1061727155  0.2361169025
H  -2.0423741395 -1.5526398298 -1.2434031466
H  -0.4139231400  2.5085187238  0.9994736044
H  -1.7058571421  1.3789083958  1.7083438669
H   2.7681079923  0.2773227820  1.5187602718
H   1.7307333530  0.7228109733 -2.0364859444
H   2.4409454500 -1.4206073919  1.1269051727
H   1.2734852560 -0.4666286216  2.0624762916
H   2.8566845076  1.2855174684 -0.8132286512
H   2.9638579326 -0.3794825186 -1.3971166056
22
Image 60  Energy = -383.5251210869
C  -0.7658539705 -1.1781176339  0.3234141126
C   1.3020227666  0.0406066557 -0.0324268144
C  -1.0797444094  1.7337666469  0.8698624675
C   1.9847171772 -0.4326295821  1.2395940369
C   2.2683351115  0.4227988761 -1.1346549582
N   0.3134792350 -0.9319173145 -0.5150406946
N  -2.0313712352 -1.4241581413 -0.2490083092
O  -1.6392518780  1.6604227033 -0.3829200472
H  -2.1786017762  0.8564757943 -0.4087678496
H   0.0211223790 -0.6875702560 -1.4546217069
H  -0.5920419035 -1.5407143346  1.3172899999
H   0.7418344553  0.9454139802  0.2557325357
H  -2.5868261187 -2.1232021353  0.2226768419
H  -2.0535946724 -1.5671736099 -1.2474602513
H  -0.4252983879  2.5788484790  0.9991557481
H  -1.6761116272  1.3876221417  1.7054094336
H   2.7647911397  0.2776006267  1.5177759540
H   1.7284462070  0.7236781523 -2.0359729554
H   2.4385877012 -1.4183200074  1.1257291464
H   1.2736428573 -0.4673361700  2.0675174480
H   2.8521681076  1.2858573787 -0.8112459586
H   2.9594569400 -0.3783114168 -1.3935722368
22
Image 61  Energy = -383.5253360645
C  -0.7670862442 -1.1760087994  0.3226338785
C   1.3011907563  0.0420591320 -0.0318603041
C  -1.0837425958  1.7310646515  0.8693200789
C   1.9850315390 -0.4329094408  1.2395662940
C   2.2687184831  0.4226370527 -1.1349170612
N   0.3140219484 -0.9314246435 -0.5150887042
N  -2.0308472094 -1.4218067911 -0.2479522067
O  -1.6387171231  1.6608543989 -0.3817892446
H  -2.1787356510  0.8560378215 -0.4087622608
H   0.0208498109 -0.6875253469 -1.4540546202
H  -0.5915526155 -1.5419583944  1.3181639865
H   0.7430358212  0.9442164070  0.2549205924
H  -2.5862370713 -2.1229064783  0.2224923948
H  -2.0525050954 -1.5680977096 -1.2479850178
H  -0.4251695190  2.5799261523  0.9990975685
H  -1.6760329868  1.3883019404  1.7053479502
H   2.7648365915  0.2775091626  1.5177524354
H   1.7284627213  0.7234478999 -2.0359699168
H   2.4385755940 -1.4184904040  1.1252122903
H   1.2737655795 -0.4676872017  2.0673063765
H   2.8524689475  1.2855512295 -0.8113155191
H   2.9595764180 -0.3791498055 -1.3936530499
22
Image 62  Energy = -383.5254403727
C  -0.7675258923 -1.1740721878  0.3229710699
C   1.3010140906  0.0427890718 -0.0316126949
C  -1.0857885511  1.7300465877  0.8691521063
C   1.9852170723 -0.4330485823  1.2395068852
C   2.2689960328  0.4224534102 -1.1350491222
N   0.3143029655 -0.9310330365 -0.5150163908
N  -2.0309947355 -1.4198613313 -0.2477978930
O  -1.6389232388  1.6607072761 -0.3812979110
H  -2.1787296762  0.8559043912 -0.4088922843
H   0.0206056636 -0.6874128445 -1.4536609452
H  -0.5912093512 -1.5429418872  1.3183469480
H   0.7438844057  0.9436198236  0.2543060097
H  -2.5855031230 -2.1224213876  0.2222834863
H  -2.0513987919 -1.5688811690 -1.2479381136
H  -0.4258380312  2.5798751774  0.9989567991
H  -1.6765122566  1.3886730788  1.7057637529
H   2.7649069602  0.2774134508  1.5177480136
H   1.7284961670  0.7232255156 -2.0359915807
H   2.4385696535 -1.4186779662  1.1246640128
H   1.2739070063 -0.4680489198  2.0671213919
H   2.8528053268  1.2852657854 -0.8114063185
H   2.9596264022 -0.3799334232 -1.3936912812
22
Image 63  Energy = -383.5255279549
C  -0.7677711360 -1.1722179188  0.3235501485
C   1.3011334785  0.0431536207 -0.0315324506
C  -1.0872054630  1.7295315096  0.8691661383
C   1.9853699915 -0.4331487425  1.2394255587
C   2.2692554071  0.4222414021 -1.1351456200
N   0.3144538019 -0.9306859504 -0.5148306966
N  -2.0312718920 -1.4180712023 -0.2477856105
O  -1.6393035185  1.6605126277 -0.3810464503
H  -2.1787804349  0.8557224431 -0.4090747050
H   0.0203699458 -0.6872637784 -1.4533437086
H  -0.5909225874 -1.5438382162  1.3183142989
H   0.7445495110  0.9433436688  0.2537993469
H  -2.5847284758 -2.1218479367  0.2220629191
H  -2.0502799301 -1.5696150919 -1.2477796234
H  -0.4267205485  2.5795024865  0.9987963883
H  -1.6771735641  1.3889436345  1.7063020300
H   2.7649921742  0.2773136587  1.5177558060
H   1.7285449841  0.7230041026 -2.0360158411
H   2.4385611753 -1.4188508281  1.1241085549
H   1.2740482303 -0.4684129886  2.0669553469
H   2.8531606667  1.2849859467 -0.8115116399
H   2.9596262840 -0.3806616136 -1.3937042548
22
Image 64  Energy = -383.5256100741
C  -0.7679725973 -1.1704242893  0.3241817735
C   1.3013789401  0.0433440424 -0.0315307641
C  -1.0883861280  1.7291729540  0.8692713159
C   1.9855206374 -0.4332423528  1.2393317687
C   2.2695195754  0.4220066983 -1.1352405060
N   0.3145234204 -0.9303596556 -0.5145930834
N  -2.0315426754 -1.4163592113 -0.2477912304
O  -1.6397421226  1.6603374296 -0.3808946857
H  -2.1788873501  0.8554753921 -0.4092833432
H   0.0201441556 -0.6870957915 -1.4530505093
H  -0.5906680510 -1.5446905864  1.3181905067
H   0.7451206817  0.9432403319  0.2533541295
H  -2.5839515289 -2.1212308009  0.2218490615
H  -2.0491511757 -1.5703168308 -1.2475887190
H  -0.4276471120  2.5790436829  0.9986399369
H  -1.6779077141  1.3891753628  1.7068620064
H   2.7650877356  0.2772093450  1.5177717544
H   1.7286081432  0.7227808851 -2.0360359480
H   2.4385521685 -1.4190068008  1.1235560425
H   1.2741857417 -0.4687761036  2.0667992233
H   2.8535268150  1.2847037616 -0.8116277483
H   2.9595965399 -0.3813466292 -1.3937050456
22
Image 65  Energy = -383.5256092243
C  -0.7597739308 -1.2283459997  0.3218182544
C   1.3003315452  0.0433476101 -0.0316462268
C  -1.1299792688  1.8359459845  0.8848621440
C   1.9865071643 -0.4380040131  1.2359548939
C   2.2721414362  0.4157512938 -1.1366797258
N   0.3193625587 -0.9415223986 -0.5159698716
N  -2.0411786311 -1.4183495359 -0.2526267347
O  -1.6326111927  1.6742667257 -0.3735980359
H  -2.1458814935  0.8489716467 -0.3804581206
H   0.0149576185 -0.6907361826 -1.4486163007
H  -0.5842605691 -1.6169884412  1.3087299886
H   0.7643003811  0.9559018832  0.2440231538
H  -2.5847440304 -2.1429567631  0.2016807807
H  -2.0416204287 -1.6045045165 -1.2498001873
H  -0.4583941707  2.6735577088  0.9999827581
H  -1.6861352462  1.4246681822  1.7188192333
H   2.7657915604  0.2712830439  1.5163394059
H   1.7301603595  0.7185399874 -2.0361598857
H   2.4388311961 -1.4233033808  1.1143947260
H   1.2765470444 -0.4798841074  2.0636157216
H   2.8569846628  1.2774972177 -0.8114951253
H   2.9585719530 -0.3914948198 -1.3947045928
22
Image 66  Energy = -383.5257049811
C  -0.7598957598 -1.2265263643  0.3210124801
C   1.3006550893  0.0431855515 -0.0316230659
C  -1.1320125760  1.8343712423  0.8850807623
C   1.9866000180 -0.4380513376  1.2359464113
C   2.2721723114  0.4154286722 -1.1366432754
N   0.3186102242 -0.9409683518 -0.5151552548
N  -2.0405349743 -1.4176623284 -0.2527243409
O  -1.6328745617  1.6737146519 -0.3730280278
H  -2.1456196160  0.8492430910 -0.3804954112
H   0.0147096747 -0.6906188882 -1.4484222717
H  -0.5838926527 -1.6179762705  1.3087959945
H   0.7639137678  0.9557113109  0.2439004425
H  -2.5841167657 -2.1418263317  0.2018079748
H  -2.0404540815 -1.6047575061 -1.2495746336
H  -0.4593335835  2.6737521708  0.9999290326
H  -1.6856043492  1.4256098939  1.7184769341
H   2.7659778770  0.2712309060  1.5164352695
H   1.7303169906  0.7182887649 -2.0362377620
H   2.4388534155 -1.4234199927  1.1137731053
H   1.2766176743 -0.4802086318  2.0635659682
H   2.8574300584  1.2771458099 -0.8117144397
H   2.9583903377 -0.3920249376 -1.3946396398
22
Image 67  Energy = -383.5257714081
C  -0.7600538491 -1.2249691283  0.3211333442
C   1.3008458833  0.0431380608 -0.0315348079
C  -1.1330935364  1.8336198959  0.8851097016
C   1.9867319092 -0.4381236677  1.2359412325
C   2.2722376855  0.4151141196 -1.1366467711
N   0.3181176718 -0.9403297904 -0.5147926254
N  -2.0400156638 -1.4169488763 -0.2529578343
O  -1.6331544312  1.6733301669 -0.3726698098
H  -2.1455644878  0.8492215923 -0.3805888395
H   0.0145162623 -0.6905237779 -1.4481577558
H  -0.5836053333 -1.6187849294  1.3084389716
H   0.7635915851  0.9554965500  0.2437788543
H  -2.5835098330 -2.1407339938  0.2019775081
H  -2.0393181118 -1.6050141257 -1.2494145320
H  -0.4605697774  2.6735425679  0.9998518802
H  -1.6854994381  1.4262458838  1.7186011819
H   2.7661479098  0.2711601078  1.5165251901
H   1.7304736890  0.7180325024 -2.0363024114
H   2.4388749109 -1.4235167018  1.1131740947
H   1.2766898257 -0.4805319647  2.0635117619
H   2.8578522283  1.2767679024 -0.8119328072
H   2.9582134187 -0.3925512694 -1.3945792750
22
Image 68  Energy = -383.5258317369
C  -0.7602133750 -1.2234844357  0.3214968294
C   1.3009796735  0.0431466496 -0.0314539484
C  -1.1338439876  1.8331108136  0.8851108667
C   1.9868698844 -0.4382079399  1.2359341736
C   2.2723195733  0.4148179196 -1.1366594360
N   0.3177499836 -0.9397087653 -0.5144963839
N  -2.0395564557 -1.4162241897 -0.2531757365
O  -1.6334503260  1.6730358262 -0.3724450205
H  -2.1456095213  0.8490528783 -0.3807033277
H   0.0143224402 -0.6904084734 -1.4479317415
H  -0.5833420394 -1.6195478406  1.3079853350
H   0.7633105229  0.9552961935  0.2436692881
H  -2.5829335350 -2.1396642060  0.2021638773
H  -2.0381904623 -1.6052802147 -1.2493266684
H  -0.4618355299  2.6732720819  0.9997726250
H  -1.6855763526  1.4267499733  1.7189007005
H   2.7663084929  0.2710763126  1.5166115225
H   1.7306292010  0.7177733082 -2.0363604169
H   2.4388995836 -1.4236043176  1.1125923845
H   1.2767680702 -0.4808556554  2.0634550875
H   2.8582617336  1.2763741376 -0.8121521896
H   2.9580409450 -0.3930789332 -1.3945215683
22
Image 69  Energy = -383.5258890955
C  -0.7603664321 -1.2220266716  0.3219350845
C   1.3010901941  0.0431884287 -0.0313861130
C  -1.1344611448  1.8326703781  0.8851205805
C   1.9870051005 -0.4382949394  1.2359208319
C   2.2724095641  0.4145347513 -1.1366766223
N   0.3174490087 -0.9391206164 -0.5142157218
N  -2.0391329239 -1.4154924315 -0.2533770180
O  -1.6337697843  1.6727818792 -0.3723025744
H  -2.1457048302  0.8488097434 -0.3808289682
H   0.0141263144 -0.6902736044 -1.4477349222
H  -0.5830887565 -1.6202979659  1.3075172943
H   0.7630600213  0.9551226416  0.2435737633
H  -2.5823907063 -2.1386158086  0.2023629826
H  -2.0370668683 -1.6055513887 -1.2492802323
H  -0.4630612821  2.6730310910  0.9996976783
H  -1.6857509786  1.4271832090  1.7192734525
H   2.7664620397  0.2709815831  1.5166953352
H   1.7307837102  0.7175126329 -2.0364146249
H   2.4389282911 -1.4236869969  1.1120251428
H   1.2768523631 -0.4811801562  2.0633971493
H   2.8586646217  1.2759724420 -0.8123713234
H   2.9578709950 -0.3936070772 -1.3944649213
22
Image 70  Energy = -383.5257712416
C  -0.7578897306 -1.2398698744  0.3205151326
C   1.2999220678  0.0423509700 -0.0314165204
C  -1.1421126563  1.8663192146  0.8902644067
C   1.9867154914 -0.4397701812  1.2350455380
C   2.2723979748  0.4131324837 -1.1367539153
N   0.3184068233 -0.9424553533 -0.5150985567
N  -2.0385982960 -1.4236577447 -0.2566838716
O  -1.6280595317  1.6764706355 -0.3703024167
H  -2.1340988113  0.8475494034 -0.3704892830
H   0.0126812349 -0.6919178635 -1.4471708330
H  -0.5798995351 -1.6427938133  1.3030663776
H   0.7626062101  0.9541851186  0.2423682168
H  -2.5841259540 -2.1456762634  0.1970569697
H  -2.0372409415 -1.6146985545 -1.2518342417
H  -0.4734814793  2.7082855957  0.9999597395
H  -1.6845412159  1.4400762537  1.7234396346
H   2.7656996826  0.2697842162  1.5159175891
H   1.7303367730  0.7166241503 -2.0360547310
H   2.4387149883 -1.4249333918  1.1098522835
H   1.2769001642 -0.4835654771  2.0625816010
H   2.8584456667  1.2744627674 -0.8116565151
H   2.9571296903 -0.3962611060 -1.3941402740
22
Image 71  Energy = -383.5258427986
C  -0.7579285062 -1.2382857476  0.3203128592
C   1.3000018886  0.0422752849 -0.0313486155
C  -1.1435476056  1.8651072706  0.8900436371
C   1.9868019067 -0.4398372917  1.2350413724
C   2.2723627380  0.4128394950 -1.1366928074
N   0.3179606345 -0.9420434402 -0.5146626947
N  -2.0380398942 -1.4228066663 -0.2565727809
O  -1.6281910199  1.6762095372 -0.3696592816
H  -2.1339570335  0.8475912574 -0.3704974992
H   0.0124679373 -0.6917838878 -1.4470099688
H  -0.5796138479 -1.6436404207  1.3027914462
H   0.7622866083  0.9541937389  0.2423485350
H  -2.5837151142 -2.1447424978  0.1973911266
H  -2.0360502453 -1.6149766558 -1.2520520087
H  -0.4746516157  2.7081879841  0.9998755319
H  -1.6841722995  1.4408873003  1.7233770100
H   2.7658786452  0.2696881538  1.5160151993
H   1.7305275604  0.7163521499 -2.0361317627
H   2.4387566896 -1.4250055809  1.1092962686
H   1.2769761828 -0.4839093437  2.0625598490
H   2.8588645417  1.2740370206 -0.8118999256
H   2.9568904641 -0.3966964747 -1.3940591593
22
Image 72  Energy = -383.5259012437
C  -0.7579875644 -1.2368512149  0.3205856087
C   1.3000324478  0.0422914941 -0.0312544317
C  -1.1443631964  1.8644209541  0.8899059815
C   1.9869015832 -0.4399139794  1.2350363894
C   2.2723523298  0.4125564618 -1.1366560172
N   0.3176608148 -0.9415879368 -0.5144406939
N  -2.0376181821 -1.4220263806 -0.2567046665
O  -1.6284446140  1.6759509985 -0.3693161761
H  -2.1339096010  0.8475042840 -0.3705466577
H   0.0122797483 -0.6916540523 -1.4468265195
H  -0.5793588852 -1.6443985609  1.3023294792
H   0.7620160717  0.9541712166  0.2423271523
H  -2.5832781711 -2.1437777065  0.1977157262
H  -2.0348816541 -1.6152243728 -1.2521214112
H  -0.4759605117  2.7078871069  0.9997771426
H  -1.6840670453  1.4414931843  1.7235786457
H   2.7660423067  0.2695791737  1.5161063159
H   1.7307114027  0.7160801176 -2.0362034387
H   2.4387986769 -1.4250689230  1.1087552702
H   1.2770568165 -0.4842528015  2.0625357842
H   2.8592683500  1.2736027190 -0.8121371626
H   2.9566574932 -0.3971405957 -1.3939799926
22
Image 73  Energy = -383.5259555926
C  -0.7580711812 -1.2354654325  0.3209699116
C   1.3000507526  0.0423537066 -0.0311688603
C  -1.1449576763  1.8638897939  0.8898221618
C   1.9870008760 -0.4399938523  1.2350269193
C   2.2723585305  0.4122881838 -1.1366296581
N   0.3174331862 -0.9411386715 -0.5142448112
N  -2.0372494225 -1.4212841128 -0.2568765393
O  -1.6287436620  1.6757270348 -0.3691235908
H  -2.1339281241  0.8473207110 -0.3706148324
H   0.0120917405 -0.6915091372 -1.4466659792
H  -0.5791108058 -1.6451362376  1.3018379541
H   0.7617774906  0.9541458992  0.2423107060
H  -2.5828389308 -2.1427938625  0.1980237443
H  -2.0337250734 -1.6154673560 -1.2521559405
H  -0.4772492436  2.7075902042  0.9996786543
H  -1.6840919174  1.4419963923  1.7238901560
H   2.7661954370  0.2694607869  1.5161932762
H   1.7308886258  0.7158090372 -2.0362724833
H   2.4388419608 -1.4251273510  1.1082260760
H   1.2771430683 -0.4845963718  2.0625107333
H   2.8596636711  1.2731657671 -0.8123700913
H   2.9564293150 -0.3975939457 -1.3939011803
22
Image 74  Energy = -383.5260076635
C  -0.7581710350 -1.2341043397  0.3213846371
C   1.3000708719  0.0424426957 -0.0310935442
C  -1.1454569790  1.8634052798  0.8897711252
C   1.9870970284 -0.4400730251  1.2350108848
C   2.2723767676  0.4120310298 -1.1366118434
N   0.3172429584 -0.9407035397 -0.5140531249
N  -2.0369040677 -1.4205618243 -0.2570544206
O  -1.6290731535  1.6755224929 -0.3690119262
H  -2.1339871726  0.8470780001 -0.3706960647
H   0.0119045987 -0.6913502024 -1.4465201138
H  -0.5788658270 -1.6458679063  1.3013505965
H   0.7615633694  0.9541284195  0.2423007011
H  -2.5824104118 -2.1418044223  0.1983205350
H  -2.0325789972 -1.6157106070 -1.2521777312
H  -0.4784816652  2.7073455830  0.9995843235
H  -1.6841978398  1.4424356208  1.7242533829
H   2.7663403601  0.2693347397  1.5162773620
H   1.7310601848  0.7155395516 -2.0363399313
H   2.4388865227 -1.4251822384  1.1077069324
H   1.2772342701 -0.4849400351  2.0624850609
H   2.8600544832  1.2727305219 -0.8125987002
H   2.9562043495 -0.3980546088 -1.3938218137
22
Image 75  Energy = -383.5264111057
C  -0.7543760831 -1.2552325307  0.3236018001
C   1.2983690644  0.0398065828 -0.0307657854
C  -1.1788939700  1.9424631602  0.9026687132
C   1.9883374074 -0.4453748670  1.2324111671
C   2.2729720118  0.4046835854 -1.1367316762
N   0.3170253200 -0.9457171099 -0.5133603812
N  -2.0302063806 -1.4329509259 -0.2667668354
O  -1.6198743805  1.6818950009 -0.3596912670
H  -2.1054908494  0.8409292572 -0.3465240006
H   0.0063772468 -0.6932373057 -1.4429562232
H  -0.5671268348 -1.7149419876  1.2836954939
H   0.7623859245  0.9529634631  0.2363802565
H  -2.5812282687 -2.1476410431  0.1911287305
H  -2.0171290143 -1.6408978740 -1.2604191979
H  -0.5198879510  2.7918625778  0.9998998684
H  -1.6868268171  1.4839749453  1.7388668926
H   2.7671645763  0.2642030394  1.5155689657
H   1.7329239377  0.7095639907 -2.0365940566
H   2.4396872850 -1.4297946914  1.0959770606
H   1.2782644321 -0.4956981580  2.0590023756
H   2.8653476677  1.2629145717 -0.8140918083
H   2.9520945839 -0.4101323029 -1.3928335425
22
Image 76  Energy = -383.5264663352
C  -0.7543178208 -1.2542948121  0.3238811394
C   1.2984739276  0.0399100244 -0.0307852074
C  -1.1799304315  1.9410131706  0.9022915733
C   1.9883018354 -0.4454087273  1.2323521871
C   2.2729230797  0.4044510221 -1.1367331414
N   0.3169328753 -0.9454184622 -0.5130902386
N  -2.0298192302 -1.4323554777 -0.2668409239
O  -1.6200501933  1.6818772075 -0.3592933687
H  -2.1053046991  0.8409743775 -0.3463299974
H   0.0061899040 -0.6930330000 -1.4428508666
H  -0.5669830778 -1.7154099045  1.2828279409
H   0.7620228498  0.9532810765  0.2366582989
H  -2.5810442782 -2.1466975886  0.1914317013
H  -2.0160177392 -1.6410950154 -1.2602497405
H  -0.5209545099  2.7918252694  0.9997251358
H  -1.6864950737  1.4846745003  1.7388846313
H   2.7672425477  0.2639784323  1.5156406836
H   1.7330918204  0.7093026313 -2.0367050521
H   2.4397550646 -1.4297558858  1.0955921493
H   1.2784015401 -0.4960881710  2.0590843614
H   2.8656854173  1.2624371756 -0.8143044016
H   2.9518051006 -0.4105264641 -1.3927203136
22
Image 77  Energy = -383.5265121722
C  -0.7543021458 -1.2533430018  0.3241221840
C   1.2984933835  0.0401016449 -0.0307483533
C  -1.1804095386  1.9401245379  0.9020291212
C   1.9882911569 -0.4454540712  1.2323005579
C   2.2728953863  0.4042290935 -1.1367499898
N   0.3168609569 -0.9450965812 -0.5129194959
N  -2.0294602567 -1.4317669690 -0.2669016396
O  -1.6203573010  1.6817815417 -0.3591420180
H  -2.1051846962  0.8409321103 -0.3461971593
H   0.0060220882 -0.6928362374 -1.4427033767
H  -0.5668190192 -1.7159160513  1.2820721778
H   0.7617314183  0.9535197343  0.2369058556
H  -2.5808573676 -2.1457438835  0.1917228953
H  -2.0149223984 -1.6412995609 -1.2601051841
H  -0.5221724335  2.7915714546  0.9995397967
H  -1.6863740636  1.4851861903  1.7391024970
H   2.7673189378  0.2637603420  1.5157131861
H   1.7332515963  0.7090449919 -2.0368167569
H   2.4398201103 -1.4297183895  1.0952097409
H   1.2785348663 -0.4964723751  2.0591558303
H   2.8660237320  1.2619716856 -0.8145123592
H   2.9515244980 -0.4109348268 -1.3926109589
22
Image 78  Energy = -383.5265548023
C  -0.7543030123 -1.2523911246  0.3243522360
C   1.2984798429  0.0403240708 -0.0306909966
C  -1.1807002931  1.9394100852  0.9018354593
C   1.9882900937 -0.4455021589  1.2322540529
C   2.2728762072  0.4040189687 -1.1367695590
N   0.3168033217 -0.9447647563 -0.5127826520
N  -2.0291241033 -1.4311821294 -0.2669699841
O  -1.6207048135  1.6816890311 -0.3590975349
H  -2.1051245256  0.8408025618 -0.3460988434
H   0.0058622301 -0.6926337926 -1.4425534666
H  -0.5666415484 -1.7164428496  1.2813893322
H   0.7614832279  0.9537218556  0.2371356501
H  -2.5806743948 -2.1447891712  0.1920083483
H  -2.0138447422 -1.6415084937 -1.2599739565
H  -0.5233821835  2.7913129519  0.9993549082
H  -1.6863520222  1.4856089661  1.7393897387
H   2.7673958236  0.2635492685  1.5157872401
H   1.7334047776  0.7087913252 -2.0369295961
H   2.4398833445 -1.4296846542  1.0948273139
H   1.2786670310 -0.4968521110  2.0592189776
H   2.8663649318  1.2615191452 -0.8147172400
H   2.9512497167 -0.4113556092 -1.3925028756
22
Image 79  Energy = -383.5265953647
C  -0.7543105780 -1.2514465531  0.3245841370
C   1.2984560170  0.0405553400 -0.0306261439
C  -1.1809138577  1.9387582656  0.9016831645
C   1.9882941310 -0.4455503566  1.2322104870
C   2.2728622239  0.4038182565 -1.1367886011
N   0.3167532312 -0.9444279748 -0.5126601873
N  -2.0288057278 -1.4305990955 -0.2670483288
O  -1.6210758058  1.6815990339 -0.3591005515
H  -2.1051054358  0.8406143163 -0.3460270696
H   0.0057075999 -0.6924223040 -1.4424104664
H  -0.5664550310 -1.7169808919  1.2807582236
H   0.7612653824  0.9539057944  0.2373534065
H  -2.5804978255 -2.1438362746  0.1922895110
H  -2.0127850374 -1.6417213936 -1.2598538269
H  -0.5245462719  2.7911003286  0.9991743179
H  -1.6863910021  1.4859769693  1.7397028440
H   2.7674736528  0.2633449369  1.5158630127
H   1.7335524556  0.7085416504 -2.0370430224
H   2.4399448518 -1.4296545824  1.0944442453
H   1.2787983731 -0.4972279317  2.0592756231
H   2.8667095351  1.2610794410 -0.8149196887
H   2.9509780299 -0.4117855947 -1.3923945333
22
Image 80  Energy = -383.5273122312
C  -0.7483613296 -1.2737508641  0.3310346443
C   1.2943146097  0.0396931176 -0.0288986413
C  -1.2336475358  2.0485020373  0.9170713730
C   1.9897222602 -0.4540194729  1.2280862501
C   2.2721585438  0.3903292886 -1.1365623515
N   0.3156797448 -0.9482131968 -0.5107879690
N  -2.0138363116 -1.4455628557 -0.2838029255
O  -1.6102120088  1.6894291325 -0.3432086825
H  -2.0614553097  0.8294596753 -0.3074939769
H  -0.0044812827 -0.6922852901 -1.4363584517
H  -0.5458212022 -1.8282210515  1.2438357021
H   0.7566349557  0.9550751620  0.2333934538
H  -2.5786389169 -2.1395901978  0.1880603170
H  -1.9751445946 -1.6808958600 -1.2726893613
H  -0.6023122952  2.9194631096  0.9975681228
H  -1.6872425767  1.5545088122  1.7641644060
H   2.7699035446  0.2526081795  1.5161136530
H   1.7387662080  0.6960295200 -2.0393797253
H   2.4423694452 -1.4357151696  1.0721581516
H   1.2819336772 -0.5183943397  2.0555284153
H   2.8793774475  1.2397767286 -0.8203250010
H   2.9402022755 -0.4345847912 -1.3890405056
22
Image 81  Energy = -383.5273733399
C  -0.7480480499 -1.2739114699  0.3312948179
C   1.2944053845  0.0399154345 -0.0289122853
C  -1.2347152052  2.0466112547  0.9163458414
C   1.9896227350 -0.4540293023  1.2280025472
C   2.2722207334  0.3903016185 -1.1366655104
N   0.3156479922 -0.9479440341 -0.5104039025
N  -2.0133243846 -1.4451386807 -0.2835518222
O  -1.6101876707  1.6897697077 -0.3423476630
H  -2.0611470614  0.8297468623 -0.3070610871
H  -0.0046015026 -0.6919268461 -1.4361885735
H  -0.5458318322 -1.8278480464  1.2424502760
H   0.7566684121  0.9552329258  0.2337280915
H  -2.5787774208 -2.1386699935  0.1879074436
H  -1.9745242377 -1.6811827815 -1.2721065218
H  -0.6032636822  2.9193291034  0.9970289705
H  -1.6868692712  1.5550843027  1.7639799870
H   2.7698467908  0.2523659253  1.5161738407
H   1.7387791432  0.6958730329 -2.0395399121
H   2.4423732139 -1.4355495296  1.0719619754
H   1.2821395933 -0.5187965007  2.0556438928
H   2.8796417299  1.2394937127 -0.8204294803
H   2.9398539400 -0.4350850213 -1.3888440300
22
Image 82  Energy = -383.5274132364
C  -0.7478005915 -1.2738791671  0.3312766976
C   1.2944668282  0.0401405132 -0.0288857680
C  -1.2350990679  2.0455374182  0.9159808465
C   1.9895486126 -0.4540352031  1.2279314694
C   2.2722632461  0.3902388645 -1.1367643924
N   0.3156375375 -0.9476367562 -0.5101699948
N  -2.0128701674 -1.4446835818 -0.2833342181
O  -1.6103997003  1.6898485381 -0.3419879115
H  -2.0608806876  0.8299782122 -0.3067124472
H  -0.0047037046 -0.6915941624 -1.4359468666
H  -0.5457612706 -1.8276785719  1.2414275205
H   0.7567156972  0.9553909554  0.2340509083
H  -2.5789360155 -2.1377811508  0.1878079974
H  -1.9738972323 -1.6814645443 -1.2715844378
H  -0.6044203278  2.9188983414  0.9964979058
H  -1.6866968846  1.5554436849  1.7640122191
H   2.7698032054  0.2521425922  1.5162413281
H   1.7388009101  0.6957184876 -2.0396919306
H   2.4423850368 -1.4354098522  1.0717554828
H   1.2823292850 -0.5191888362  2.0557523893
H   2.8799174022  1.2392262295 -0.8205363052
H   2.9395072361 -0.4355703374 -1.3886535985
22
Image 83  Energy = -383.5274463776
C  -0.7475783195 -1.2737538759  0.3311774542
C   1.2945132382  0.0403629214 -0.0288407236
C  -1.2352590268  2.0447180070  0.9157626332
C   1.9894913544 -0.4540444039  1.2278728342
C   2.2722931421  0.3901615546 -1.1368506947
N   0.3156578312 -0.9473116524 -0.5100219191
N  -2.0124859694 -1.4442161619 -0.2831716161
O  -1.6106729232  1.6898939817 -0.3418397925
H  -2.0606873949  0.8300868984 -0.3064100107
H  -0.0047998480 -0.6912643946 -1.4357005396
H  -0.5456421726 -1.8276200134  1.2406119761
H   0.7567705156  0.9555536778  0.2343636238
H  -2.5790998242 -2.1369103982  0.1877513362
H  -1.9732731243 -1.6817400312 -1.2711146929
H  -0.6055724743  2.9184656695  0.9959871434
H  -1.6866193561  1.5557014923  1.7641345501
H   2.7697726399  0.2519374913  1.5163151231
H   1.7388294158  0.6955650637 -2.0398363089
H   2.4424030617 -1.4352902958  1.0715404366
H   1.2825067800 -0.5195724613  2.0558537390
H   2.8801981376  1.2389644615 -0.8206486418
H   2.9391636643 -0.4360458577 -1.3884690145
22
Image 84  Energy = -383.5274758564
C  -0.7473685250 -1.2735799174  0.3310674318
C   1.2945533630  0.0405826333 -0.0287863408
C  -1.2353295794  2.0439925024  0.9156093409
C   1.9894472324 -0.4540584962  1.2278247895
C   2.2723156998  0.3900779948 -1.1369236357
N   0.3157012985 -0.9469812473 -0.5099244040
N  -2.0121604012 -1.4437404581 -0.2830556285
O  -1.6109752866  1.6899293576 -0.3417896141
H  -2.0605495064  0.8301035963 -0.3061448040
H  -0.0048941247 -0.6909283832 -1.4354739140
H  -0.5454909515 -1.8276287293  1.2399289923
H   0.7568302579  0.9557218712  0.2346673434
H  -2.5792639587 -2.1360518079  0.1877291543
H  -1.9726560705 -1.6820113919 -1.2706959415
H  -0.6066716709  2.9181000079  0.9955006360
H  -1.6866004044  1.5558973581  1.7643020355
H   2.7697534482  0.2517484709  1.5163942630
H   1.7388635381  0.6954123389 -2.0399728420
H   2.4424262804 -1.4351873867  1.0713182197
H   1.2826742126 -0.5199481989  2.0559485120
H   2.8804814154  1.2387047624 -0.8207671506
H   2.9388230815 -0.4365132035 -1.3882895513
22
Image 85  Energy = -383.5275946741
C  -0.7423483477 -1.2951191359  0.3288812808
C   1.2912834310  0.0428808776 -0.0270252056
C  -1.2456981292  2.0762515551  0.9173600578
C   1.9884837095 -0.4557340884  1.2269484143
C   2.2707231277  0.3869178600 -1.1364565467
N   0.3156385389 -0.9466010443 -0.5101229819
N  -2.0090804141 -1.4472417815 -0.2875270543
O  -1.6059334380  1.6932380816 -0.3369763808
H  -2.0455123021  0.8281175681 -0.2911093705
H  -0.0083830112 -0.6901614172 -1.4339640516
H  -0.5398580846 -1.8576513773  1.2277428323
H   0.7516518718  0.9575615366  0.2383829853
H  -2.5820867137 -2.1339488672  0.1841679355
H  -1.9624338155 -1.6955955323 -1.2727829999
H  -0.6317850724  2.9608752471  0.9927263970
H  -1.6789208987  1.5737433874  1.7693429885
H   2.7696482460  0.2482986726  1.5167591124
H   1.7399386841  0.6917890456 -2.0412571743
H   2.4426176974 -1.4353536343  1.0645765531
H   1.2844244695 -0.5269952672  2.0569675443
H   2.8840936788  1.2322437888 -0.8224374290
H   2.9334462157 -0.4438737342 -1.3857299495
22
Image 86  Energy = -383.5276351007
C  -0.7422269023 -1.2939635617  0.3277674773
C   1.2913147445  0.0429153936 -0.0269707242
C  -1.2462219961  2.0750263103  0.9174282770
C   1.9884729542 -0.4557551937  1.2269420618
C   2.2707061038  0.3869079275 -1.1364455490
N   0.3155862456 -0.9465801997 -0.5098329869
N  -2.0085566046 -1.4469095549 -0.2873442503
O  -1.6061262022  1.6933446192 -0.3367719822
H  -2.0453098023  0.8282374961 -0.2908702532
H  -0.0084889002 -0.6897532500 -1.4338027965
H  -0.5394511502 -1.8582039961  1.2279156547
H   0.7519428482  0.9576109643  0.2385352845
H  -2.5823536872 -2.1331426253  0.1841481934
H  -1.9620680437 -1.6958561874 -1.2724685504
H  -0.6327888258  2.9605464357  0.9921171455
H  -1.6786481489  1.5741821335  1.7692588724
H   2.7696370666  0.2482041364  1.5168613391
H   1.7399432451  0.6916689147 -2.0413374665
H   2.4426165819 -1.4352899538  1.0643425817
H   1.2845557326 -0.5273388857  2.0570241250
H   2.8843681893  1.2320801388 -0.8225475119
H   2.9330059929 -0.4442893211 -1.3854819849
22
Image 87  Energy = -383.5276627570
C  -0.7420885882 -1.2932054951  0.3275219660
C   1.2913693123  0.0429667216 -0.0268931326
C  -1.2464220092  2.0742080565  0.9173906017
C   1.9884753946 -0.4557820236  1.2269408283
C   2.2706854116  0.3868712829 -1.1364394021
N   0.3156667199 -0.9464310918 -0.5098865756
N  -2.0081992033 -1.4465843350 -0.2873611016
O  -1.6063873444  1.6933760906 -0.3366630082
H  -2.0451542149  0.8282882223 -0.2906813371
H  -0.0085445993 -0.6893656994 -1.4336080718
H  -0.5391299506 -1.8584905979  1.2276952315
H   0.7522089418  0.9576726898  0.2386894078
H  -2.5825692946 -2.1323204051  0.1841649874
H  -1.9617208408 -1.6961027242 -1.2721769302
H  -0.6338435371  2.9601363711  0.9915438840
H  -1.6785337373  1.5744399580  1.7693876169
H   2.7696285931  0.2481137469  1.5169631732
H   1.7399516316  0.6915497412 -2.0414082835
H   2.4426228287 -1.4352363390  1.0641093316
H   1.2846796057 -0.5276774322  2.0570785232
H   2.8846372483  1.2319114655 -0.8226569973
H   2.9325770731 -0.4446964630 -1.3852437546
22
Image 88  Energy = -383.5276873862
C  -0.7419490053 -1.2925807491  0.3275158290
C   1.2914380683  0.0430309038 -0.0268291235
C  -1.2465135311  2.0735184704  0.9173295185
C   1.9884858103 -0.4558181734  1.2269423101
C   2.2706726156  0.3868286245 -1.1364295054
N   0.3157854691 -0.9462603027 -0.5099597717
N  -2.0079029491 -1.4462530621 -0.2873952365
O  -1.6066770233  1.6933865953 -0.3366097788
H  -2.0450413461  0.8282684897 -0.2905246243
H  -0.0086014031 -0.6889646918 -1.4334596181
H  -0.5388322813 -1.8586959338  1.2273664101
H   0.7524561566  0.9577459897  0.2388459536
H  -2.5827642527 -2.1314921525  0.1842014769
H  -1.9613729821 -1.6963511741 -1.2719422090
H  -0.6348631231  2.9597715663  0.9910011929
H  -1.6784919602  1.5746152218  1.7695954011
H   2.7696232992  0.2480274042  1.5170653987
H   1.7399622381  0.6914310213 -2.0414704357
H   2.4426364315 -1.4351920568  1.0638771002
H   1.2847974363 -0.5280109519  2.0571313113
H   2.8849016782  1.2317359197 -0.8227696199
H   2.9321600937 -0.4450992187 -1.3850150228
22
Image 89  Energy = -383.5277103858
C  -0.7418145266 -1.2920163545  0.3275850029
C   1.2915163970  0.0431062151 -0.0267740006
C  -1.2465582525  2.0728796383  0.9172679052
C   1.9885031981 -0.4558599727  1.2269445654
C   2.2706683532  0.3867824935 -1.1364186458
N   0.3159075124 -0.9460844282 -0.5100177837
N  -2.0076334647 -1.4459122405 -0.2874287531
O  -1.6069881005  1.6933801885 -0.3365898009
H  -2.0449609133  0.8281948772 -0.2903945816
H  -0.0086613294 -0.6885528525 -1.4333419872
H  -0.5385416544 -1.8588726747  1.2270104663
H   0.7526885687  0.9578286321  0.2390038067
H  -2.5829506686 -2.1306656054  0.1842561812
H  -1.9610215133 -1.6966000717 -1.2717477239
H  -0.6358332744  2.9594738094  0.9904858127
H  -1.6784925802  1.5747429978  1.7698348678
H   2.7696207863  0.2479438378  1.5171684128
H   1.7399752548  0.6913126146 -2.0415241717
H   2.4426571856 -1.4351568238  1.0636458937
H   1.2849100478 -0.5283396368  2.0571818315
H   2.8851634758  1.2315554450 -0.8228850321
H   2.9317549372 -0.4454983485 -1.3847953082
22
Image 90  Energy = -383.5279281671
C  -0.7359802452 -1.3092052256  0.3284285310
C   1.2886162828  0.0445879797 -0.0249023618
C  -1.2745052846  2.1284211838  0.9235707368
C   1.9885756280 -0.4602573688  1.2247622662
C   2.2696364201  0.3795259181 -1.1361965744
N   0.3158966109 -0.9464563521 -0.5090890647
N  -1.9984688801 -1.4512464281 -0.2960102941
O  -1.6018173797  1.6984808099 -0.3269664044
H  -2.0192317514  0.8227856206 -0.2663255169
H  -0.0149016149 -0.6858477625 -1.4292664849
H  -0.5261028400 -1.9193646557  1.2037249599
H   0.7498999650  0.9602562126  0.2403119880
H  -2.5847442229 -2.1232238258  0.1808213307
H  -1.9383321319 -1.7206164023 -1.2761602029
H  -0.6850970606  3.0303494454  0.9854827595
H  -1.6747616862  1.6123053701  1.7828122550
H   2.7705562146  0.2411688903  1.5180295311
H   1.7427777413  0.6837383717 -2.0436203434
H   2.4438645919 -1.4372904526  1.0500729362
H   1.2878512064 -0.5423888160  2.0565728270
H   2.8936598964  1.2185933728 -0.8265908114
H   2.9225182029 -0.4606739899 -1.3809949300
22
Image 91  Energy = -383.5279683746
C  -0.7356517743 -1.3093228724  0.3291077828
C   1.2888465963  0.0445131178 -0.0248892702
C  -1.2750814438  2.1270353946  0.9229480713
C   1.9886279227 -0.4603348350  1.2247955951
C   2.2697031515  0.3795274226 -1.1361808033
N   0.3159980883 -0.9463055318 -0.5090772522
N  -1.9981702589 -1.4511749862 -0.2961243440
O  -1.6018831664  1.6986946290 -0.3261229240
H  -2.0190019670  0.8230928203 -0.2661161020
H  -0.0149432780 -0.6853325567 -1.4291796085
H  -0.5259395361 -1.9187844749  1.2027299904
H   0.7502344330  0.9602654527  0.2404194821
H  -2.5849726918 -2.1223803282  0.1807384554
H  -1.9383351387 -1.7207819212 -1.2757801082
H  -0.6860232767  3.0299310922  0.9848058083
H  -1.6745311010  1.6126377849  1.7827914051
H   2.7705299139  0.2411412819  1.5181464367
H   1.7427443836  0.6836755854 -2.0436111501
H   2.4438706336 -1.4372417795  1.0499178546
H   1.2879531480 -0.5426786152  2.0565828454
H   2.8938591912  1.2184759176 -0.8266858823
H   2.9220758316 -0.4610107028 -1.3807491480
22
Image 92  Energy = -383.5279951505
C  -0.7354346476 -1.3091915333  0.3292763529
C   1.2890407247  0.0444800112 -0.0248627835
C  -1.2752980774  2.1261526384  0.9226967303
C   1.9886897900 -0.4604009498  1.2248226976
C   2.2697564790  0.3795157602 -1.1361699256
N   0.3160787767 -0.9461654570 -0.5090224267
N  -1.9978218644 -1.4510313731 -0.2960740560
O  -1.6020889110  1.6987323930 -0.3257328025
H  -2.0188210040  0.8233042924 -0.2659491891
H  -0.0149944759 -0.6848292414 -1.4290588767
H  -0.5256990496 -1.9184398036  1.2020830209
H   0.7505689814  0.9602704623  0.2405288067
H  -2.5852364609 -2.1215759527  0.1806913604
H  -1.9383011686 -1.7209733381 -1.2755159447
H  -0.6870230614  3.0293952349  0.9841485200
H  -1.6743963947  1.6128471654  1.7828754146
H   2.7705058864  0.2411106258  1.5182651685
H   1.7427165153  0.6836115828 -2.0435942023
H   2.4438938493 -1.4372161867  1.0497646785
H   1.2880457676 -0.5429641087  2.0565952066
H   2.8940665083  1.2183627432 -0.8267790919
H   2.9216614979 -0.4613530697 -1.3805215245
22
Image 93  Energy = -383.5280175980
C  -0.7352563491 -1.3089731648  0.3292929817
C   1.2892140122  0.0444717705 -0.0248215938
C  -1.2753886501  2.1254376981  0.9225796137
C   1.9887559215 -0.4604626927  1.2248467768
C   2.2698018305  0.3794937087 -1.1361598971
N   0.3161649750 -0.9460116016 -0.5090048491
N  -1.9974957545 -1.4508550745 -0.2960188469
O  -1.6023346250  1.6987427862 -0.3255424409
H  -2.0186978628  0.8234012269 -0.2658059883
H  -0.0150422998 -0.6843357666 -1.4289151540
H  -0.5254254100 -1.9181982587  1.2015954329
H   0.7508953515  0.9602807651  0.2406411431
H  -2.5855112413 -2.1207957966  0.1806809655
H  -1.9382483574 -1.7211660741 -1.2752928056
H  -0.6879929354  3.0289025663  0.9835189789
H  -1.6743185542  1.6129843932  1.7830206655
H   2.7704863230  0.2410790222  1.5183858890
H   1.7426922742  0.6835470647 -2.0435727051
H   2.4439301050 -1.4372059584  1.0496134223
H   1.2881328347 -0.5432456703  2.0566068441
H   2.8942779070  1.2182489364 -0.8268718954
H   2.9212701689 -0.4616979853 -1.3803094041
22
Image 94  Energy = -383.5280378288
C  -0.7350925169 -1.3087225161  0.3292644698
C   1.2893747255  0.0444801070 -0.0247724696
C  -1.2754238915  2.1247909920  0.9225131787
C   1.9888241945 -0.4605242052  1.2248693964
C   2.2698439102  0.3794644641 -1.1361481597
N   0.3162608131 -0.9458463183 -0.5090168825
N  -1.9972065541 -1.4506599020 -0.2959836794
O  -1.6026027107  1.6987400609 -0.3254499108
H  -2.0186171069  0.8234157282 -0.2656841640
H  -0.0150883581 -0.6838452155 -1.4287689197
H  -0.5251355911 -1.9180101375  1.2011948782
H   0.7512104227  0.9603002435  0.2407572643
H  -2.5857865873 -2.1200300795  0.1807003673
H  -1.9381829981 -1.7213566048 -1.2750967190
H  -0.6889122427  3.0284857266  0.9829191668
H  -1.6742807243  1.6130716279  1.7832041048
H   2.7704713628  0.2410469018  1.5185083362
H   1.7426706748  0.6834822412 -2.0435479656
H   2.4439767781 -1.4372063759  1.0494641040
H   1.2882162088 -0.5435235741  2.0566168356
H   2.8944916268  1.2181321528 -0.8269653408
H   2.9208982285 -0.4620434228 -1.3801107587
22
Image 95  Energy = -383.5282036575
C  -0.7286321079 -1.3248453928  0.3272027567
C   1.2883907104  0.0459395546 -0.0228572728
C  -1.2899624968  2.1514840936  0.9243619387
C   1.9888499869 -0.4630712758  1.2241081398
C   2.2691113978  0.3759274021 -1.1356113874
N   0.3174472170 -0.9449539590 -0.5092216932
N  -1.9914416456 -1.4516440473 -0.3003706400
O  -1.6005544205  1.7027815390 -0.3185202145
H  -2.0019787536  0.8217845445 -0.2494532935
H  -0.0190276314 -0.6782101405 -1.4256522759
H  -0.5162172196 -1.9491369822  1.1863079102
H   0.7520396324  0.9625986052  0.2438632711
H  -2.5906199315 -2.1109845412  0.1763409088
H  -1.9275832380 -1.7378032147 -1.2748206652
H  -0.7233527730  3.0675584649  0.9740209405
H  -1.6679050358  1.6333949848  1.7902489563
H   2.7703614733  0.2373717695  1.5200030658
H   1.7435148242  0.6791868291 -2.0444849245
H   2.4444673009 -1.4377373089  1.0408671392
H   1.2908062263 -0.5535929169  2.0571972505
H   2.9003909268  1.2107355675 -0.8294669102
H   2.9118053351 -0.4731416038 -1.3755957860
22
Image 96  Energy = -383.5282201295
C  -0.7286410493 -1.3242197256  0.3269376365
C   1.2885474594  0.0459250620 -0.0227981414
C  -1.2898409057  2.1510573265  0.9244455926
C   1.9889763194 -0.4631614120  1.2241471108
C   2.2691592336  0.3758475875 -1.1355613279
N   0.3175147766 -0.9448424089 -0.5092720855
N  -1.9911586722 -1.4515889728 -0.3004184796
O  -1.6009121929  1.7026144267 -0.3186912819
H  -2.0020385505  0.8215839615 -0.2495006431
H  -0.0190675094 -0.6776918009 -1.4255272864
H  -0.5158238316 -1.9491278900  1.1862695214
H   0.7522767631  0.9626102387  0.2439395887
H  -2.5909046988 -2.1102926299  0.1766188896
H  -1.9276243355 -1.7378796886 -1.2748800529
H  -0.7240806185  3.0673253857  0.9735717070
H  -1.6679205866  1.6333892701  1.7905234766
H   2.7703800435  0.2373717741  1.5201514396
H   1.7435068504  0.6791403219 -2.0443618334
H   2.4446009968 -1.4378283257  1.0407649433
H   1.2908323391 -0.5538077235  2.0571589767
H   2.9005847186  1.2106059601 -0.8295675038
H   2.9115432280 -0.4733887647 -1.3754830326
22
Image 97  Energy = -383.5282353881
C  -0.7286055880 -1.3237207448  0.3268856764
C   1.2886985970  0.0459181779 -0.0227341784
C  -1.2897578865  2.1505662785  0.9244468961
C   1.9890969161 -0.4632562903  1.2241841708
C   2.2692101044  0.3757754306 -1.1355111221
N   0.3176044092 -0.9447048767 -0.5093657832
N  -1.9909525592 -1.4515420981 -0.3005087068
O  -1.6012521740  1.7024812355 -0.3187832840
H  -2.0021127253  0.8213546811 -0.2495528646
H  -0.0191015970 -0.6771711828 -1.4254168794
H  -0.5154659968 -1.9490340125  1.1861234327
H   0.7525088424  0.9626234629  0.2440192614
H  -2.5911575368 -2.1095843806  0.1768864018
H  -1.9276641311 -1.7379567230 -1.2749288401
H  -0.7247661529  3.0671610858  0.9731404365
H  -1.6679425529  1.6333766329  1.7907874477
H   2.7703988272  0.2373661567  1.5202988346
H   1.7434965250  0.6790942308 -2.0442445782
H   2.4447354713 -1.4379121301  1.0406673158
H   1.2908628253 -0.5540226322  2.0571187410
H   2.9007795559  1.2104725906 -0.8296659176
H   2.9112966031 -0.4736429204 -1.3753792460
22
Image 98  Energy = -383.5282501165
C  -0.7285549105 -1.3232762177  0.3268925499
C   1.2888467838  0.0459172885 -0.0226720131
C  -1.2896794650  2.1500641580  0.9244227028
C   1.9892131266 -0.4633530119  1.2242189217
C   2.2692653452  0.3757071235 -1.1354616291
N   0.3176956735 -0.9445604878 -0.5094526052
N  -1.9907722966 -1.4514843649 -0.3005998202
O  -1.6015965163  1.7023423985 -0.3188432111
H  -2.0021921498  0.8211153579 -0.2496127095
H  -0.0191375334 -0.6766461731 -1.4253232205
H  -0.5151252092 -1.9489100074  1.1859431883
H   0.7527360234  0.9626398256  0.2441030766
H  -2.5913970433 -2.1088747282  0.1771481677
H  -1.9276991610 -1.7380394025 -1.2749766319
H  -0.7254305602  3.0670310656  0.9727241120
H  -1.6679706266  1.6333574778  1.7910369168
H   2.7704170037  0.2373545755  1.5204451514
H   1.7434846443  0.6790485477 -2.0441320029
H   2.4448711976 -1.4379907881  1.0405734011
H   1.2908964427 -0.5542377405  2.0570780047
H   2.9009768264  1.2103374899 -0.8297622098
H   2.9110621830 -0.4739004151 -1.3752829242
22
Image 99  Energy = -383.5282644901
C  -0.7284990335 -1.3228632164  0.3269144523
C   1.2889929846  0.0459212967 -0.0226111154
C  -1.2895967451  2.1495648761  0.9243900729
C   1.9893258679 -0.4634498688  1.2242512407
C   2.2693245183  0.3756401612 -1.1354143186
N   0.3177821065 -0.9444113157 -0.5095310575
N  -1.9906033356 -1.4514123814 -0.3006861536
O  -1.6019478906  1.7021941422 -0.3188864537
H  -2.0022765514  0.8208662778 -0.2496791773
H  -0.0191748359 -0.6761191212 -1.4252383943
H  -0.5147954540 -1.9487738285  1.1857527892
H   0.7529587257  0.9626597186  0.2441909332
H  -2.5916287359 -2.1081678978  0.1774060150
H  -1.9277290132 -1.7381274447 -1.2750214518
H  -0.7260812391  3.0669233199  0.9723208221
H  -1.6680040259  1.6333329175  1.7912711909
H   2.7704344838  0.2373372533  1.5205904843
H   1.7434720634  0.6790031689 -2.0440231224
H   2.4450082854 -1.4380654323  1.0404826138
H   1.2909324387 -0.5544530726  2.0570373381
H   2.9011770660  1.2102016140 -0.8298563252
H   2.9108380977 -0.4741591956 -1.3751931666
22
Image 100  Energy = -383.5284301349
C  -0.7265147559 -1.3200492736  0.3287700439
C   1.2902009501  0.0462144505 -0.0217103435
C  -1.2981973164  2.1556050816  0.9249097835
C   1.9905700821 -0.4656173956  1.2239158625
C   2.2697911455  0.3728848955 -1.1351201945
N   0.3185699428 -0.9427715733 -0.5094343559
N  -1.9851830751 -1.4512056989 -0.3034162550
O  -1.6046773241  1.7023306788 -0.3153800150
H  -1.9963870875  0.8179902005 -0.2440260912
H  -0.0212270148 -0.6698007048 -1.4228947600
H  -0.5082413323 -1.9627304902  1.1753916535
H   0.7554930821  0.9637976449  0.2451376399
H  -2.5941123109 -2.0972141589  0.1794231475
H  -1.9201716623 -1.7450315199 -1.2755670190
H  -0.7475147380  3.0805166576  0.9661068922
H  -1.6684037283  1.6441138016  1.7971041888
H   2.7710511775  0.2350413772  1.5223548543
H   1.7444204637  0.6761468373 -2.0439482527
H   2.4466244884 -1.4391921213  1.0355101019
H   1.2923214554 -0.5609235571  2.0564414243
H   2.9060572488  1.2048934203 -0.8321549603
H   2.9054401474 -0.4813565346 -1.3729460734
22
Image 101  Energy = -383.5284459848
C  -0.7264031607 -1.3201326522  0.3288323836
C   1.2903264601  0.0463184077 -0.0216200998
C  -1.2976796336  2.1557134709  0.9251687623
C   1.9906799746 -0.4657235891  1.2239358912
C   2.2699212801  0.3728120946 -1.1351072221
N   0.3186480656 -0.9424550026 -0.5095672565
N  -1.9852915318 -1.4510531704 -0.3034502520
O  -1.6052098987  1.7019443214 -0.3157863722
H  -1.9966093975  0.8174908263 -0.2441902363
H  -0.0212568836 -0.6692607246 -1.4227973679
H  -0.5079943661 -1.9623916388  1.1752566185
H   0.7556895923  0.9638117915  0.2452565212
H  -2.5942417477 -2.0965147498  0.1795864395
H  -1.9202343958 -1.7451523025 -1.2755647650
H  -0.7480516799  3.0805499482  0.9658252216
H  -1.6686302654  1.6438131283  1.7973578767
H   2.7710653002  0.2349930055  1.5224999520
H   1.7443912318  0.6761229718 -2.0438428182
H   2.4467956543 -1.4392635415  1.0354731318
H   1.2923703687 -0.5611140796  2.0563743567
H   2.9062650788  1.2047614635 -0.8322241666
H   2.9053597942 -0.4816279600 -1.3729493254
22
Image 102  Energy = -383.5284590880
C  -0.7263096505 -1.3201363719  0.3287547950
C   1.2904684228  0.0463940707 -0.0215487543
C  -1.2973802774  2.1554765099  0.9252380772
C   1.9907871864 -0.4658237098  1.2239523835
C   2.2700439148  0.3727379799 -1.1350916004
N   0.3186917467 -0.9421801891 -0.5096235657
N  -1.9852983891 -1.4508512020 -0.3034989057
O  -1.6056574511  1.7016922529 -0.3159486205
H  -1.9968284738  0.8169935418 -0.2443313002
H  -0.0213010526 -0.6687096327 -1.4227267580
H  -0.5077362632 -1.9621092213  1.1751859851
H   0.7558783893  0.9638493230  0.2453821211
H  -2.5944199778 -2.0958693555  0.1797796427
H  -1.9203012545 -1.7452728476 -1.2755441795
H  -0.7485109381  3.0807170353  0.9655497078
H  -1.6688033933  1.6435900409  1.7975276402
H   2.7710809098  0.2349419829  1.5226454349
H   1.7443677660  0.6760978121 -2.0437371498
H   2.4469656424 -1.4393326000  1.0354345937
H   1.2924174769 -0.5613063156  2.0563132209
H   2.9064799941  1.2046316803 -0.8322941618
H   2.9052755134 -0.4818887649 -1.3729513307
22
Image 103  Energy = -383.5284716435
C  -0.7262182266 -1.3201094387  0.3286442076
C   1.2906146420  0.0464564292 -0.0214820223
C  -1.2971441885  2.1551391874  0.9252445826
C   1.9908932341 -0.4659204130  1.2239675155
C   2.2701620869  0.3726618565 -1.1350760516
N   0.3187212763 -0.9419197168 -0.5096733654
N  -1.9852766675 -1.4506355176 -0.3035521979
O  -1.6060910902  1.7014507253 -0.3160148215
H  -1.9970276955  0.8165376963 -0.2444645002
H  -0.0213468925 -0.6681580548 -1.4226582680
H  -0.5074795456 -1.9618486529  1.1751354431
H   0.7560660261  0.9638986002  0.2455112012
H  -2.5946096961 -2.0952393571  0.1799793291
H  -1.9203701729 -1.7453943784 -1.2755161081
H  -0.7489656721  3.0808936787  0.9652784903
H  -1.6689509919  1.6434058087  1.7976517689
H   2.7710979535  0.2348888360  1.5227910697
H   1.7443492391  0.6760716804 -2.0436321148
H   2.4471345032 -1.4393990163  1.0353950990
H   1.2924635116 -0.5614995996  2.0562557738
H   2.9066993623  1.2045020477 -0.8323645539
H   2.9051888445 -0.4821403808 -1.3729532002
22
Image 104  Energy = -383.5284839625
C  -0.7261263104 -1.3200666458  0.3285282958
C   1.2907604514  0.0465117364 -0.0214174585
C  -1.2969289823  2.1547678524  0.9252259876
C   1.9909979484 -0.4660155243  1.2239824010
C   2.2702772364  0.3725851240 -1.1350602391
N   0.3187455704 -0.9416669051 -0.5097271929
N  -1.9852459104 -1.4504158317 -0.3036059078
O  -1.6065208016  1.7012083391 -0.3160360980
H  -1.9972129004  0.8161105999 -0.2445911086
H  -0.0213932229 -0.6676072234 -1.4225904958
H  -0.5072273015 -1.9615994738  1.1750918279
H   0.7562549710  0.9639545156  0.2456423516
H  -2.5948007268 -2.0946141938  0.1801792623
H  -1.9204402199 -1.7455173329 -1.2754841760
H  -0.7494325670  3.0810512895  0.9650100395
H  -1.6690830169  1.6432464206  1.7977465266
H   2.7711164676  0.2348340285  1.5229366930
H   1.7443349488  0.6760448183 -2.0435283515
H   2.4473023585 -1.4394628993  1.0353549182
H   1.2925090248 -0.5616936453  2.0562009702
H   2.9069218238  1.2043714349 -0.8324353940
H   2.9051009965 -0.4823844638 -1.3729555750
22
Image 105  Energy = -383.5285118248
C  -0.7259682472 -1.3190090001  0.3278728688
C   1.2910274743  0.0470589858 -0.0212296961
C  -1.2927381127  2.1453732372  0.9234775171
C   1.9909032843 -0.4655217391  1.2243341055
C   2.2702616065  0.3733878927 -1.1349897336
N   0.3188891836 -0.9406228579 -0.5099570657
N  -1.9858955454 -1.4486229784 -0.3025570826
O  -1.6080216751  1.7003497921 -0.3167659685
H  -2.0002492272  0.8164492097 -0.2469235788
H  -0.0209030576 -0.6663416692 -1.4228563782
H  -0.5080693057 -1.9534663281  1.1765443415
H   0.7564529414  0.9642878748  0.2468950014
H  -2.5956530327 -2.0926521482  0.1809132388
H  -1.9222554020 -1.7432723356 -1.2741854418
H  -0.7463158847  3.0722395650  0.9640197872
H  -1.6683031367  1.6384537315  1.7960833279
H   2.7709755351  0.2352668935  1.5232950854
H   1.7440648377  0.6766235462 -2.0434706251
H   2.4473701695 -1.4388584841  1.0364607565
H   1.2925980047 -0.5610337966  2.0567025805
H   2.9067814075  1.2052134419 -0.8324263184
H   2.9049579859 -0.4816608345 -1.3727694712
22
Image 106  Energy = -383.5285317095
C  -0.7260149911 -1.3185455603  0.3274146409
C   1.2911378498  0.0471400669 -0.0211500519
C  -1.2921409938  2.1455660687  0.9238670052
C   1.9910227177 -0.4656106769  1.2243535924
C   2.2703653802  0.3733023793 -1.1349630263
N   0.3189143997 -0.9403941548 -0.5100600708
N  -1.9858725627 -1.4483321628 -0.3025944994
O  -1.6086207065  1.6999087679 -0.3172991003
H  -2.0005299789  0.8158007642 -0.2471415785
H  -0.0209483214 -0.6658001266 -1.4227936862
H  -0.5077083852 -1.9536278493  1.1769645989
H   0.7566617676  0.9643381245  0.2469990573
H  -2.5958418989 -2.0920595002  0.1811695333
H  -1.9223124815 -1.7434298916 -1.2742804521
H  -0.7467749554  3.0724187201  0.9638230334
H  -1.6685756657  1.6381281468  1.7963098390
H   2.7710072569  0.2352284355  1.5234445884
H   1.7440631170  0.6765945853 -2.0433510678
H   2.4475486054 -1.4389591725  1.0363955887
H   1.2926263878 -0.5612175527  2.0566432196
H   2.9070184064  1.2050907549 -0.8325002675
H   2.9048848576 -0.4818981680 -1.3727836467
22
Image 107  Energy = -383.5285462101
C  -0.7259921783 -1.3182656535  0.3272807369
C   1.2912647978  0.0472016688 -0.0210795360
C  -1.2917844709  2.1453863987  0.9239757549
C   1.9911363471 -0.4657055991  1.2243722815
C   2.2704726514  0.3732219161 -1.1349335984
N   0.3189521887 -0.9401541871 -0.5101941537
N  -1.9858902678 -1.4480721616 -0.3027137538
O  -1.6091187046  1.6996140298 -0.3175088800
H  -2.0007941081  0.8151860577 -0.2473312653
H  -0.0209885878 -0.6652523597 -1.4227523139
H  -0.5074092902 -1.9536294589  1.1771654786
H   0.7568623549  0.9644010764  0.2471066478
H  -2.5960068747 -2.0914508347  0.1814162551
H  -1.9223808605 -1.7435740316 -1.2743294390
H  -0.7471660986  3.0727177768  0.9636294578
H  -1.6687929730  1.6378813371  1.7964614708
H   2.7710394653  0.2351870882  1.5235928212
H   1.7440630868  0.6765659083 -2.0432355850
H   2.4477218341 -1.4390477724  1.0363321606
H   1.2926583569 -0.5614029597  2.0565845817
H   2.9072542404  1.2049623779 -0.8325752715
H   2.9048088963 -0.4821286179 -1.3727966005
22
Image 108  Energy = -383.5285594447
C  -0.7259451868 -1.3180533536  0.3272376218
C   1.2913990805  0.0472537809 -0.0210188204
C  -1.2915031095  2.1450932091  0.9239924778
C   1.9912464780 -0.4658030797  1.2243897659
C   2.2705835496  0.3731450550 -1.1349037994
N   0.3189834873 -0.9399214219 -0.5103041358
N  -1.9859026665 -1.4478220950 -0.3028295970
O  -1.6095964223  1.6993326104 -0.3175901684
H  -2.0010279264  0.8146357449 -0.2475081350
H  -0.0210327208 -0.6646994732 -1.4227264753
H  -0.5071404882 -1.9535646997  1.1772709307
H   0.7570606887  0.9644698123  0.2472167012
H  -2.5961630934 -2.0908345114  0.1816517695
H  -1.9224510468 -1.7437174786 -1.2743643024
H  -0.7475638787  3.0730082029  0.9634349945
H  -1.6689789379  1.6376804381  1.7965641980
H   2.7710708572  0.2351419999  1.5237395914
H   1.7440651971  0.6765374366 -2.0431232009
H   2.4478917004 -1.4391282229  1.0362700922
H   1.2926925530 -0.5615896890  2.0565274536
H   2.9074904733  1.2048307550 -0.8326507137
H   2.9047312180 -0.4823530208 -1.3728089960
22
Image 109  Energy = -383.5285720485
C  -0.7258900229 -1.3178709669  0.3272188610
C   1.2915361147  0.0473007062 -0.0209632358
C  -1.2912500549  2.1447585170  0.9239739919
C   1.9913541668 -0.4659007678  1.2244059416
C   2.2706963806  0.3730702799 -1.1348754324
N   0.3190055312 -0.9396942148 -0.5103949045
N  -1.9859004422 -1.4475766008 -0.3029310405
O  -1.6100656288  1.6990536196 -0.3176116183
H  -2.0012405897  0.8141294698 -0.2476734094
H  -0.0210796359 -0.6641461503 -1.4227031749
H  -0.5068903137 -1.9534670898  1.1773261957
H   0.7572594033  0.9645409872  0.2473282717
H  -2.5963160503 -2.0902148715  0.1818785706
H  -1.9225204284 -1.7438612889 -1.2743877899
H  -0.7479841352  3.0732622772  0.9632377255
H  -1.6691436893  1.6375113520  1.7966331551
H   2.7711012255  0.2350931320  1.5238849908
H   1.7440698003  0.6765091606 -2.0430134116
H   2.4480592089 -1.4392028801  1.0362090739
H   1.2927283163 -0.5617775717  2.0564718573
H   2.9077277916  1.2046972075 -0.8327260038
H   2.9046528561 -0.4825723056 -1.3728213623
22
Image 110  Energy = -383.5286838875
C  -0.7244501938 -1.3174571894  0.3279041036
C   1.2922664849  0.0481423159 -0.0202587321
C  -1.2948347264  2.1503497944  0.9247552092
C   1.9921731369 -0.4674431862  1.2240334413
C   2.2715145020  0.3710547501 -1.1348316569
N   0.3190225349 -0.9374555013 -0.5105781698
N  -1.9835621011 -1.4452630052 -0.3050119587
O  -1.6136739140  1.6975342491 -0.3155229418
H  -1.9986039922  0.8090780698 -0.2447401783
H  -0.0226652050 -0.6589644042 -1.4216258004
H  -0.5027064996 -1.9638445699  1.1725053049
H   0.7588366381  0.9658887998  0.2485423273
H  -2.5975234035 -2.0824352372  0.1831993826
H  -1.9172314958 -1.7494454633 -1.2744888628
H  -0.7615853858  3.0860752999  0.9604880193
H  -1.6707731567  1.6433147497  1.7993924018
H   2.7716618843  0.2330778196  1.5252578859
H   1.7449185954  0.6745586182 -2.0430223294
H   2.4495537575 -1.4399355250  1.0328109904
H   1.2938159690 -0.5663533076  2.0559965042
H   2.9118215785  1.2008070988 -0.8342810316
H   2.9019348447 -0.4876421456 -1.3720566261
22
Image 111  Energy = -383.5286976828
C  -0.7242990703 -1.3176995453  0.3281631379
C   1.2924476916  0.0481619517 -0.0202210589
C  -1.2946989720  2.1498242512  0.9245681145
C   1.9922890082 -0.4675547679  1.2240530387
C   2.2716676141  0.3709748464 -1.1348148211
N   0.3190132710 -0.9371974110 -0.5106299915
N  -1.9835576737 -1.4451622974 -0.3050653836
O  -1.6140695219  1.6973110069 -0.3152988090
H  -1.9986909818  0.8088531744 -0.2447915080
H  -0.0227180890 -0.6584170587 -1.4215350758
H  -0.5026085231 -1.9633382073  1.1721338962
H   0.7590615294  0.9659539505  0.2486463411
H  -2.5976323246 -2.0817603045  0.1833194767
H  -1.9173749932 -1.7495472209 -1.2743646391
H  -0.7621818554  3.0860148675  0.9602329202
H  -1.6708252249  1.6433067433  1.7993091056
H   2.7716890073  0.2330303601  1.5253993067
H   1.7449418085  0.6745481850 -2.0429020432
H   2.4497107251 -1.4399946800  1.0327677670
H   1.2938527598 -0.5665290831  2.0559293825
H   2.9120412222  1.2006626850 -0.8343593714
H   2.9018524472 -0.4877994161 -1.3720725017
22
Image 112  Energy = -383.5287098265
C  -0.7241993066 -1.3177758859  0.3281456660
C   1.2926146359  0.0481835998 -0.0201801446
C  -1.2945251368  2.1493520297  0.9244516482
C   1.9924023760 -0.4676573832  1.2240692143
C   2.2718039184  0.3709030608 -1.1347973280
N   0.3189947040 -0.9369636716 -0.5106255495
N  -1.9834809841 -1.4450091492 -0.3050670998
O  -1.6144672235  1.6971023483 -0.3151729683
H  -1.9987979103  0.8085793491 -0.2448359117
H  -0.0227853658 -0.6578709963 -1.4214444610
H  -0.5024691883 -1.9629683897  1.1719332251
H   0.7592935064  0.9660173265  0.2487511727
H  -2.5977873690 -2.0811303204  0.1834661528
H  -1.9175074992 -1.7496608571 -1.2742676471
H  -0.7627812285  3.0859484440  0.9599767340
H  -1.6708896766  1.6432832634  1.7992479712
H   2.7717158068  0.2329788425  1.5255403679
H   1.7449675083  0.6745375170 -2.0427853781
H   2.4498701225 -1.4400573843  1.0327245559
H   1.2938888266 -0.5667060089  2.0558653753
H   2.9122678266  1.2005232160 -0.8344348508
H   2.9017815118 -0.4879669202 -1.3720934604
22
Image 113  Energy = -383.5287215585
C  -0.7241133289 -1.3177852920  0.3280516488
C   1.2927727155  0.0482073306 -0.0201315964
C  -1.2943354711  2.1488981394  0.9243602913
C   1.9925134405 -0.4677550368  1.2240840326
C   2.2719303862  0.3708330139 -1.1347795133
N   0.3189824864 -0.9367309553 -0.5106348369
N  -1.9833980263 -1.4448372557 -0.3050702579
O  -1.6148658872  1.6969011829 -0.3150976882
H  -1.9989149417  0.8082808844 -0.2448757348
H  -0.0228538777 -0.6573307127 -1.4213447047
H  -0.5023145050 -1.9626580487  1.1718043452
H   0.7595294366  0.9660806302  0.2488571231
H  -2.5979578226 -2.0805188352  0.1836272714
H  -1.9176347433 -1.7497771253 -1.2741783557
H  -0.7633746408  3.0858919667  0.9597220383
H  -1.6709643891  1.6432475381  1.7992063328
H   2.7717430571  0.2329245252  1.5256810523
H   1.7449944446  0.6745273200 -2.0426734877
H   2.4500304787 -1.4401209392  1.0326815255
H   1.2939250015 -0.5668839292  2.0558033288
H   2.9124986954  1.2003865682 -0.8345077283
H   2.9017173478 -0.4881389391 -1.3721178039
22
Image 114  Energy = -383.5287331984
C  -0.7240300702 -1.3177613550  0.3279386828
C   1.2929253819  0.0482327958 -0.0200789685
C  -1.2941380298  2.1484507706  0.9242772141
C   1.9926221237 -0.4678505258  1.2240985103
C   2.2720513692  0.3707637917 -1.1347608112
N   0.3189795910 -0.9364980378 -0.5106601570
N  -1.9833242361 -1.4446565265 -0.3050811822
O  -1.6152658013  1.6967025135 -0.3150509827
H  -1.9990370405  0.8079697774 -0.2449127008
H  -0.0229230344 -0.6567936060 -1.4212431977
H  -0.5021535829 -1.9623790387  1.1717108885
H   0.7597675055  0.9661450427  0.2489646077
H  -2.5981333471 -2.0799163804  0.1837969848
H  -1.9177584974 -1.7498948242 -1.2740946396
H  -0.7639608166  3.0858478427  0.9594696436
H  -1.6710473518  1.6432024162  1.7991798332
H   2.7717710240  0.2328681224  1.5258212815
H   1.7450221728  0.6745177150 -2.0425662880
H   2.4501910498 -1.4401840314  1.0326387295
H   1.2939615904 -0.5670627526  2.0557430065
H   2.9127322933  1.2002512341 -0.8345786070
H   2.9016575629 -0.4883129130 -1.3721445697
22
Image 115  Energy = -383.5289648320
C  -0.7215049774 -1.3168992364  0.3262849080
C   1.2951034124  0.0497783885 -0.0186483528
C  -1.2906312189  2.1404260309  0.9229627085
C   1.9941289347 -0.4694188163  1.2244442435
C   2.2735228347  0.3694890713 -1.1342829701
N   0.3196687819 -0.9318327856 -0.5118223541
N  -1.9815750116 -1.4393665719 -0.3060843625
O  -1.6231895908  1.6930891325 -0.3144163362
H  -2.0004934017  0.8015284136 -0.2448886541
H  -0.0242410876 -0.6461099972 -1.4197958214
H  -0.4972330253 -1.9608047578  1.1689731783
H   0.7637004587  0.9681940569  0.2524530340
H  -2.6023684273 -2.0658626211  0.1865545587
H  -1.9169797106 -1.7539011742 -1.2722732992
H  -0.7776632070  3.0879121727  0.9527249995
H  -1.6713458270  1.6420900471  1.8003814531
H   2.7721296320  0.2314686927  1.5286670071
H   1.7453056531  0.6734157246 -2.0414239032
H   2.4527022978 -1.4406980893  1.0303560733
H   1.2953616485 -0.5720167805  2.0555819640
H   2.9178425916  1.1969682213 -0.8364840453
H   2.8976691015 -0.4938070884 -1.3707967521
22
Image 116  Energy = -383.5289760427
C  -0.7214926310 -1.3167038585  0.3261682799
C   1.2952336659  0.0498074016 -0.0185968898
C  -1.2902959452  2.1401892638  0.9228784013
C   1.9942375789 -0.4695177423  1.2244554771
C   2.2736524243  0.3694105742 -1.1342558375
N   0.3196568161 -0.9316061969 -0.5118863529
N  -1.9815610033 -1.4392227980 -0.3061225050
O  -1.6236413721  1.6928136055 -0.3144587540
H  -2.0006489068  0.8011325779 -0.2449500739
H  -0.0243232841 -0.6455923423 -1.4196952744
H  -0.4971087730 -1.9606849199  1.1690180811
H   0.7639298056  0.9682762819  0.2525460892
H  -2.6024774654 -2.0652775836  0.1867764710
H  -1.9171131440 -1.7540046992 -1.2722309785
H  -0.7782533209  3.0878345714  0.9525935598
H  -1.6714735938  1.6420234810  1.8003399017
H   2.7721746548  0.2313967601  1.5288037062
H   1.7453717747  0.6734182128 -2.0413146377
H   2.4528817055 -1.4407742570  1.0303162472
H   1.2953857321 -0.5721758780  2.0555127381
H   2.9180938051  1.1968141113 -0.8365523879
H   2.8976813397 -0.4939145321 -1.3708779867
22
Image 117  Energy = -383.5289869422
C  -0.7214690387 -1.3165388007  0.3261045678
C   1.2953687761  0.0498349105 -0.0185488282
C  -1.2900358940  2.1398283061  0.9227783689
C   1.9943432483 -0.4696174810  1.2244663361
C   2.2737794182  0.3693376830 -1.1342296042
N   0.3196497963 -0.9313826066 -0.5119437054
N  -1.9815378603 -1.4390610070 -0.3061718086
O  -1.6240698794  1.6925763614 -0.3144723210
H  -2.0008038057  0.8007357930 -0.2449996109
H  -0.0244085841 -0.6450715172 -1.4196083508
H  -0.4969952414 -1.9605384090  1.1690253399
H   0.7641601519  0.9683583434  0.2526402875
H  -2.6025980489 -2.0647074004  0.1870063385
H  -1.9172464748 -1.7541111460 -1.2721900948
H  -0.7788060396  3.0878264650  0.9524551265
H  -1.6715874863  1.6419756238  1.8002802241
H   2.7722188440  0.2313231570  1.5289390411
H   1.7454373895  0.6734216935 -2.0412100379
H   2.4530579784 -1.4408463218  1.0302770243
H   1.2954115491 -0.5723368207  2.0554455105
H   2.9183460863  1.1966622147 -0.8366178319
H   2.8976949793 -0.4940270076 -1.3709586956
