22
Image 0  Energy = -383.5289869422
C  -0.7214690387 -1.3165388007  0.3261045678
C   1.2953687761  0.0498349105 -0.0185488282
C  -1.2900358940  2.1398283061  0.9227783689
C   1.9943432483 -0.4696174810  1.2244663361
C   2.2737794182  0.3693376830 -1.1342296042
N   0.3196497963 -0.9313826066 -0.5119437054
N  -1.9815378603 -1.4390610070 -0.3061718086
O  -1.6240698794  1.6925763614 -0.3144723210
H  -2.0008038057  0.8007357930 -0.2449996109
H  -0.0244085841 -0.6450715172 -1.4196083508
H  -0.4969952414 -1.9605384090  1.1690253399
H   0.7641601519  0.9683583434  0.2526402875
H  -2.6025980489 -2.0647074004  0.1870063385
H  -1.9172464748 -1.7541111460 -1.2721900948
H  -0.7788060396  3.0878264650  0.9524551265
H  -1.6715874863  1.6419756238  1.8002802241
H   2.7722188440  0.2313231570  1.5289390411
H   1.7454373895  0.6734216935 -2.0412100379
H   2.4530579784 -1.4408463218  1.0302770243
H   1.2954115491 -0.5723368207  2.0554455105
H   2.9183460863  1.1966622147 -0.8366178319
H   2.8976949793 -0.4940270076 -1.3709586956
