22
Image 0  Energy = -383.5300759760
C  -0.7359480379 -1.2247018207  0.3510591710
C   1.3193354485  0.0692429808 -0.0116134005
C  -1.2504114054  1.9585427191  0.8943157404
C   2.0142108839 -0.4574742359  1.2302426103
C   2.2865949805  0.3726405344 -1.1402218867
N   0.3244270437 -0.8990027279 -0.4862930740
N  -1.9888175738 -1.3455720657 -0.2977954800
O  -1.7299222832  1.6529436088 -0.3367587618
H  -2.1171466126  0.7604196881 -0.3112215631
H   0.0005820762 -0.6355815229 -1.4080982739
H  -0.5454459963 -1.8324956716  1.2276080641
H   0.7963583990  0.9934989521  0.2606172177
H  -2.6225025187 -1.9632414444  0.1893221595
H  -1.9070233463 -1.6704771416 -1.2587636271
H  -0.7233237321  2.8975496883  0.9585462307
H  -1.6534913737  1.4665811926  1.7656768278
H   2.7904651856  0.2371809943  1.5524516312
H   1.7442744753  0.6672275458 -2.0422090533
H   2.4708208796 -1.4284451980  1.0296558876
H   1.3049867014 -0.5678937481  2.0515139476
H   2.9334632096  1.2050352790 -0.8631035972
H   2.9084166874 -0.4923399157 -1.3764649681
