22
Image 0  Energy = -383.5281735566
C  -0.7781260000 -1.0675610000  0.3210590000
C   1.3025530000  0.0521200000 -0.0282990000
C  -0.9719930000  1.4562490000  0.8236570000
C   1.9812290000 -0.4184330000  1.2501750000
C   2.2640330000  0.4351680000 -1.1331070000
N   0.2911640000 -0.8768210000 -0.5003990000
N  -2.0191630000 -1.3720060000 -0.2331120000
O  -1.6647340000  1.6302230000 -0.4018370000
H  -2.2586320000  0.8701390000 -0.4758990000
H   0.0278490000 -0.6783120000 -1.4584950000
H  -0.6097590000 -1.3678560000  1.3411780000
H   0.6812640000  0.9183000000  0.2869410000
H  -2.5732630000 -2.0573610000  0.2574120000
H  -2.0524280000 -1.5045420000 -1.2338230000
H  -0.3689930000  2.3513920000  0.9917470000
H  -1.6396090000  1.2942150000  1.6746530000
H   2.7644490000  0.2914620000  1.5228460000
H   1.7251140000  0.7306950000 -2.0377940000
H   2.4355930000 -1.4060980000  1.1342150000
H   1.2730050000 -0.4472240000  2.0805790000
H   2.8503450000  1.2986970000 -0.8143220000
H   2.9600090000 -0.3688060000 -1.3889100000
22
Image 1  Energy = -383.5292433584
C  -0.7788470342 -1.0578435328  0.3220295885
C   1.3046338263  0.0514130722 -0.0285298764
C  -0.9795905335  1.4493897138  0.8249225390
C   1.9817324812 -0.4189914572  1.2489183066
C   2.2649762242  0.4341480462 -1.1335430263
N   0.2921716979 -0.8786231967 -0.5008733209
N  -2.0170230007 -1.3710667497 -0.2321390718
O  -1.6647874665  1.6299760146 -0.4014251014
H  -2.2583518673  0.8707545704 -0.4762128640
H   0.0275502075 -0.6779499031 -1.4580425123
H  -0.6096662236 -1.3683009833  1.3409795766
H   0.6825430408  0.9183669080  0.2859222317
H  -2.5728423668 -2.0566897009  0.2575499157
H  -2.0517562359 -1.5044585619 -1.2334716294
H  -0.3685339623  2.3499816210  0.9915746513
H  -1.6403187612  1.2955970045  1.6742955306
H   2.7643138001  0.2912053079  1.5227623630
H   1.7251996143  0.7305582979 -2.0375147937
H   2.4354758058 -1.4059710519  1.1342002217
H   1.2729090851 -0.4474107974  2.0803151800
H   2.8503562248  1.2983490070 -0.8143574700
H   2.9597624439 -0.3687936291 -1.3888954390
22
Image 2  Energy = -383.5301187507
C  -0.7795234673 -1.0483756395  0.3237964605
C   1.3060558693  0.0509723151 -0.0289069210
C  -0.9843202897  1.4441669671  0.8253227092
C   1.9821214587 -0.4194013413  1.2481690064
C   2.2657710942  0.4335052957 -1.1339216369
N   0.2933703846 -0.8800864391 -0.5011869981
N  -2.0154189630 -1.3702293702 -0.2315772888
O  -1.6652305742  1.6297572740 -0.4010577508
H  -2.2584275804  0.8711612106 -0.4768220347
H   0.0272826583 -0.6775534368 -1.4576793082
H  -0.6096085530 -1.3685212536  1.3404189713
H   0.6840838546  0.9181855552  0.2848008371
H  -2.5721645296 -2.0557904112  0.2577140836
H  -2.0509831319 -1.5042619271 -1.2328624002
H  -0.3689792792  2.3468133159  0.9912860350
H  -1.6422427677  1.2967037387  1.6749821605
H   2.7642104516  0.2909327510  1.5226653995
H   1.7253055720  0.7303859127 -2.0372330712
H   2.4354757190 -1.4060526660  1.1341491677
H   1.2729585442 -0.4475988230  2.0798282309
H   2.8504019706  1.2979601445 -0.8144249692
H   2.9597685566 -0.3690331736 -1.3889956828
22
Image 3  Energy = -383.5309524197
C  -0.7802511261 -1.0391380073  0.3257466813
C   1.3071616103  0.0506419528 -0.0293715804
C  -0.9878543184  1.4394916286  0.8253927328
C   1.9824678362 -0.4197337663  1.2476488404
C   2.2664857927  0.4330373143 -1.1342584982
N   0.2945669142 -0.8812927019 -0.5013263166
N  -2.0140495311 -1.3692949174 -0.2310762520
O  -1.6658672549  1.6296270077 -0.4007132902
H  -2.2587605859  0.8713961402 -0.4776188233
H   0.0270514837 -0.6771407968 -1.4573275069
H  -0.6095582818 -1.3685959158  1.3397845943
H   0.6857864389  0.9179140189  0.2836166157
H  -2.5713393665 -2.0547747041  0.2579293319
H  -2.0501180891 -1.5040054147 -1.2322087257
H  -0.3697281976  2.3428212683  0.9909648531
H  -1.6446661973  1.2976716580  1.6760227279
H   2.7641514407  0.2906668263  1.5225732676
H   1.7254194989  0.7301992267 -2.0369785546
H   2.4355370334 -1.4062410091  1.1340768190
H   1.2730582309 -0.4477923724  2.0792553811
H   2.8505035263  1.2975825455 -0.8145064371
H   2.9599101389 -0.3693999822 -1.3891608591
22
Image 4  Energy = -383.5317732134
C  -0.7810231111 -1.0301268402  0.3277447514
C   1.3081074490  0.0503634438 -0.0298730394
C  -0.9908747363  1.4349742652  0.8253488376
C   1.9828026056 -0.4200237969  1.2472345617
C   2.2671604725  0.4326511115 -1.1345729034
N   0.2956867730 -0.8822919627 -0.5013454387
N  -2.0128337329 -1.3682060104 -0.2305812088
O  -1.6666461996  1.6295491027 -0.4003761123
H  -2.2592714183  0.8715263556 -0.4785534829
H   0.0268625028 -0.6767223403 -1.4569478312
H  -0.6095151570 -1.3685428227  1.3391443335
H   0.6876065893  0.9176254468  0.2823888543
H  -2.5704108775 -2.0536863224  0.2582046000
H  -2.0491695291 -1.5037035577 -1.2315439719
H  -0.3705501704  2.3383615579  0.9906412960
H  -1.6472947067  1.2985483439  1.6771347634
H   2.7641382194  0.2904148937  1.5224924041
H   1.7255388012  0.7300067670 -2.0367588721
H   2.4356327651 -1.4064854286  1.1339906061
H   1.2731703943 -0.4479926614  2.0786535006
H   2.8506626135  1.2972311177 -0.8145950524
H   2.9601274505 -0.3698306635 -1.3893655952
22
Image 5  Energy = -383.5325887719
C  -0.7818246051 -1.0213374676  0.3297556634
C   1.3089659439  0.0501153970 -0.0303826968
C  -0.9936772524  1.4304810180  0.8252596344
C   1.9831395491 -0.4202890858  1.2468726536
C   2.2678170813  0.4323061259 -1.1348769069
N   0.2967096370 -0.8831216528 -0.5012776592
N  -2.0117503859 -1.3669495246 -0.2300810674
O  -1.6675403620  1.6294891531 -0.4000269525
H  -2.2599158608  0.8715926619 -0.4796009020
H   0.0267144673 -0.6763011455 -1.4565317609
H  -0.6094821868 -1.3683686417  1.3385180503
H   0.6895260720  0.9173568589  0.2811278760
H  -2.5693986911 -2.0525420708  0.2585371712
H  -2.0481441128 -1.5033635734 -1.2308723181
H  -0.3713501346  2.3335839686  0.9903274716
H  -1.6500094336  1.2993453201  1.6782121027
H   2.7641678265  0.2901777771  1.5224244103
H   1.7256641224  0.7298115803 -2.0365736403
H   2.4357492874 -1.4067598555  1.1338941657
H   1.2732815633 -0.4482000134  2.0780457639
H   2.8508748105  1.2969064617 -0.8146893670
H   2.9603896655 -0.3702932924 -1.3895966914
22
Image 6  Energy = -383.5334022320
C  -0.7826457797 -1.0127635453  0.3317683530
C   1.3097728880  0.0498906210 -0.0308858968
C  -0.9963971844  1.4259742219  0.8251418887
C   1.9834845697 -0.4205385166  1.2465400686
C   2.2684669770  0.4319847156 -1.1351768535
N   0.2976365945 -0.8838114238 -0.5011422282
N  -2.0107932024 -1.3655252397 -0.2295724451
O  -1.6685301972  1.6294242011 -0.3996515584
H  -2.2606700539  0.8716167827 -0.4807464119
H   0.0266031589 -0.6758774272 -1.4560819942
H  -0.6094620139 -1.3680780854  1.3379136731
H   0.6915374226  0.9171291865  0.2798401238
H  -2.5683146140 -2.0513503017  0.2589209064
H  -2.0470474916 -1.5029908646 -1.2301924574
H  -0.3720877131  2.3285577119  0.9900279776
H  -1.6527619293  1.3000609663  1.6792189661
H   2.7642361769  0.2899539592  1.5223691619
H   1.7257969414  0.7296145501 -2.0364199931
H   2.4358793882 -1.4070503179  1.1337892676
H   1.2733883283 -0.4484145029  2.0774412846
H   2.8511345562  1.2966047206 -0.8147899315
H   2.9606801779 -0.3707714117 -1.3898468996
22
Image 7  Energy = -383.5342155081
C  -0.7834806599 -1.0043970564  0.3337773352
C   1.3105476721  0.0496870288 -0.0313753744
C  -0.9990991317  1.4214493031  0.8249979695
C   1.9838401192 -0.4207763644  1.2462268477
C   2.2691157681  0.4316788160 -1.1354759835
N   0.2984752105 -0.8843849402 -0.5009510609
N  -2.0099585282 -1.3639370097 -0.2290535508
O  -1.6696013080  1.6293404453 -0.3992432611
H  -2.2615202767  0.8716101762 -0.4819798912
H   0.0265236647 -0.6754505649 -1.4556040127
H  -0.6094566844 -1.3676754001  1.3373355807
H   0.6936368281  0.9169555636  0.2785303514
H  -2.5671675509 -2.0501163860  0.2593492119
H  -2.0458846999 -1.5025899242 -1.2295020200
H  -0.3727459083  2.3233193773  0.9897441623
H  -1.6555319899  1.3006900008  1.6801467122
H   2.7643391685  0.2897411625  1.5223260131
H   1.7259387629  0.7294157780 -2.0362944975
H   2.4360191304 -1.4073490436  1.1336767767
H   1.2734911172 -0.4486360684  2.0768434589
H   2.8514367600  1.2963213375 -0.8148978221
H   2.9609895397 -0.3712562305 -1.3901119448
22
Image 8  Energy = -383.5350304533
C  -0.7843250884 -0.9962278533  0.3357784699
C   1.3113022840  0.0495038884 -0.0318479070
C  -1.0018137435  1.4169095405  0.8248278694
C   1.9842070775 -0.4210048119  1.2459284555
C   2.2697661148  0.4313843941 -1.1357756495
N   0.2992338036 -0.8848606342 -0.5007120255
N  -2.0092421521 -1.3621902378 -0.2285229924
O  -1.6707438045  1.6292301250 -0.3988019196
H  -2.2624575668  0.8715794174 -0.4832933597
H   0.0264712550 -0.6750198667 -1.4551031058
H  -0.6094678785 -1.3671644252  1.3367865759
H   0.6958208536  0.9168449011  0.2772026134
H  -2.5659651263 -2.0488443651  0.2598160508
H  -2.0446603241 -1.5021644125 -1.2287986300
H  -0.3733184971  2.3178915730  0.9894759840
H  -1.6583112286  1.3012272712  1.6809969702
H   2.7644732167  0.2895372000  1.5222943050
H   1.7260907920  0.7292151768 -2.0361939810
H   2.4361662280 -1.4076514243  1.1335571588
H   1.2735915987 -0.4488645448  2.0762534656
H   2.8517770056  1.2960520680 -0.8150141484
H   2.9613121862 -0.3717429805 -1.3903891972
22
Image 9  Energy = -383.5358488857
C  -0.7851760372 -0.9882437944  0.3377681733
C   1.3120451027  0.0493405147 -0.0323023979
C  -1.0045543227  1.4123564339  0.8246321255
C   1.9845854368 -0.4212249755  1.2456427277
C   2.2704191987  0.4310987061 -1.1360766615
N   0.2999196706 -0.8852524717 -0.5004305423
N  -2.0086387118 -1.3602911545 -0.2279794627
O  -1.6719509667  1.6290897713 -0.3983317077
H  -2.2634756464  0.8715283828 -0.4846801006
H   0.0264416470 -0.6745847865 -1.4545835667
H  -0.6094970492 -1.3665484127  1.3362683692
H   0.6980853404  0.9168034405  0.2758606567
H  -2.5647139674 -2.0475372423  0.2603161055
H  -2.0433785650 -1.5017171531 -1.2280800619
H  -0.3738044999  2.3122905641  0.9892229472
H  -1.6610963084  1.3016690784  1.6817749006
H   2.7646353149  0.2893401400  1.5222734844
H   1.7262539786  0.7290126037 -2.0361155477
H   2.4363193731 -1.4079546224  1.1334306778
H   1.2736917280 -0.4490996483  2.0756715778
H   2.8521517047  1.2957935098 -0.8151397850
H   2.9616445842 -0.3722288863 -1.3906769082
22
Image 10  Energy = -383.5366726759
C  -0.7860311302 -0.9804309359  0.3397439459
C   1.3127822013  0.0491961905 -0.0327388002
C  -1.0073245917  1.4077874515  0.8244117178
C   1.9849750290 -0.4214375025  1.2453683064
C   2.2710757168  0.4308197717 -1.1363793674
N   0.3005389062 -0.8855707201 -0.5001105725
N  -2.0081419770 -1.3582464565 -0.2274221061
O  -1.6732184007  1.6289183059 -0.3978389063
H  -2.2645695087  0.8714598608 -0.4861342433
H   0.0264310423 -0.6741449433 -1.4540486973
H  -0.6095455224 -1.3658299199  1.3357816852
H   0.7004253871  0.9168352449  0.2745079476
H  -2.5634198939 -2.0461972604  0.2608448573
H  -2.0420432977 -1.5012501746 -1.2273441346
H  -0.3742059526  2.3065288774  0.9889843870
H  -1.6638862098  1.3020133701  1.6824866084
H   2.7648229182  0.2891483648  1.5222631276
H   1.7264289002  0.7288079891 -2.0360567793
H   2.4364777652 -1.4082568032  1.1332975670
H   1.2737932605 -0.4493410129  2.0750978406
H   2.8525577737  1.2955427767 -0.8152754436
H   2.9619845889 -0.3727124747 -1.3909739354
22
Image 11  Energy = -383.5375038040
C  -0.7868885752 -0.9727737139  0.3417043499
C   1.3135180793  0.0490701338 -0.0331576986
C  -1.0101232477  1.4031959995  0.8241679567
C   1.9853755064 -0.4216428265  1.2451042449
C   2.2717360442  0.4305457943 -1.1366840048
N   0.3010968079 -0.8858227610 -0.4997552627
N  -2.0077454669 -1.3560631446 -0.2268502564
O  -1.6745430397  1.6287161688 -0.3973304180
H  -2.2657350716  0.8713759611 -0.4876506512
H   0.0264361355 -0.6737000891 -1.4535008303
H  -0.6096144732 -1.3650109436  1.3353265884
H   0.7028355782  0.9169427021  0.2731476809
H  -2.5620878841 -2.0448259432  0.2613984040
H  -2.0406580802 -1.5007648763 -1.2265888884
H  -0.3745266109  2.3006165748  0.9887596324
H  -1.6666807088  1.3022595569  1.6831377854
H   2.7650339170  0.2889605307  1.5222629207
H   1.7266159152  0.7286012982 -2.0360156074
H   2.4366409713 -1.4085567678  1.1331580355
H   1.2738977061 -0.4495881936  2.0745322091
H   2.8529926143  1.2952975289 -0.8154216457
H   2.9623308868 -0.3731929862 -1.3912795374
22
Image 12  Energy = -383.5383443027
C  -0.7877473100 -0.9652554499  0.3436491169
C   1.3142560017  0.0489616747 -0.0335600330
C  -1.0129462946  1.3985728980  0.8239016718
C   1.9857864169 -0.4218414094  1.2448498711
C   2.2724004307  0.4302752540 -1.1369908103
N   0.3015982285 -0.8860139101 -0.4993671726
N  -2.0074428104 -1.3537483947 -0.2262634450
O  -1.6759223221  1.6284845316 -0.3968125643
H  -2.2669689351  0.8712783794 -0.4892248265
H   0.0264540067 -0.6732500204 -1.4529417185
H  -0.6097049432 -1.3640929716  1.3349025940
H   0.7053103864  0.9171268143  0.2717827356
H  -2.5607220937 -2.0434241861  0.2619733729
H  -2.0392261458 -1.5002621327 -1.2258125596
H  -0.3747713850  2.2945614950  0.9885480005
H  -1.6694799180  1.3024080725  1.6837335298
H   2.7652666062  0.2887755980  1.5222726522
H   1.7268152201  0.7283925175 -2.0359902183
H   2.4368087382 -1.4088536779  1.1330122938
H   1.2740063797 -0.4498407022  2.0739745384
H   2.8534539869  1.2950558309 -0.8155787723
H   2.9626827607 -0.3736702103 -1.3915932494
22
Image 13  Energy = -383.5391963626
C  -0.7886067691 -0.9578585782  0.3455789924
C   1.3149981315  0.0488703850 -0.0339466983
C  -1.0157887454  1.3939073584  0.8236134021
C   1.9862075166 -0.4220335214  1.2446043941
C   2.2730692830  0.4300068434 -1.1373000997
N   0.3020475608 -0.8861480953 -0.4989485356
N  -2.0072278861 -1.3513091708 -0.2256616675
O  -1.6773539558  1.6282246934 -0.3962906773
H  -2.2682680981  0.8711687061 -0.4908528308
H   0.0264821151 -0.6727945441 -1.4523726178
H  -0.6098178150 -1.3630771464  1.3345089224
H   0.7078444990  0.9173874384  0.2704156346
H  -2.5593261171 -2.0419926471  0.2625669734
H  -2.0377504387 -1.4997424313 -1.2250135165
H  -0.3749458634  2.2883696606  0.9883487757
H  -1.6722837417  1.3024600230  1.6842779150
H   2.7655194905  0.2885926784  1.5222921552
H   1.7270268789  0.7281816207 -2.0359790100
H   2.4369809570 -1.4091470283  1.1328605694
H   1.2741202477 -0.4500980480  2.0734248359
H   2.8539399299  1.2948160056 -0.8157471180
H   2.9630398252 -0.3741442008 -1.3919147912
22
Image 14  Energy = -383.5400620382
C  -0.7894671182 -0.9505650982  0.3474953316
C   1.3157460429  0.0487960770 -0.0343188465
C  -1.0186453736  1.3891881071  0.8233030962
C   1.9866383909 -0.4222193887  1.2443672670
C   2.2737427242  0.4297393768 -1.1376120202
N   0.3024490069 -0.8862283341 -0.4985012502
N  -2.0070948449 -1.3487520482 -0.2250448971
O  -1.6788355146  1.6279378154 -0.3957688134
H  -2.2696299771  0.8710483940 -0.4925312461
H   0.0265182216 -0.6723334298 -1.4517944731
H  -0.6099538247 -1.3619643409  1.3341446616
H   0.7104330144  0.9177236249  0.2690485483
H  -2.5579030033 -2.0405317756  0.2631768492
H  -2.0362336358 -1.4992060293 -1.2241904856
H  -0.3750560372  2.2820453745  0.9881611895
H  -1.6750918923  1.3024168525  1.6847742440
H   2.7657913348  0.2884110582  1.5223213048
H   1.7272508636  0.7279686146 -2.0359806400
H   2.4371576262 -1.4094365310  1.1327030598
H   1.2742402089 -0.4503597409  2.0728830085
H   2.8544488038  1.2945767209 -0.8159268750
H   2.9634019894 -0.3746153003 -1.3922440060
22
Image 15  Energy = -383.5254110297
C  -0.7731378196 -1.0667724613  0.3136647544
C   1.3025789278  0.0480283385 -0.0293931875
C  -0.9634772050  1.4789867870  0.8317679506
C   1.9774585610 -0.4196679504  1.2474435207
C   2.2609534172  0.4339633553 -1.1316718179
N   0.3024096062 -0.8930881295 -0.5110608192
N  -1.9978291019 -1.4119893455 -0.2379898092
O  -1.6446861157  1.6365447916 -0.4074704900
H  -2.2360059064  0.8752207406 -0.4541286648
H   0.0238334584 -0.6813795654 -1.4641746426
H  -0.6051864798 -1.3941389054  1.3373629481
H   0.6545182645  0.9032812040  0.2953061083
H  -2.5888309294 -2.0712150849  0.2488204256
H  -2.0701104096 -1.5113520890 -1.2414445234
H  -0.3821292317  2.4167270444  0.9900213659
H  -1.6226757373  1.3141816770  1.6828614058
H   2.7579430510  0.2911992258  1.5205926885
H   1.7217948199  0.7321252924 -2.0337915853
H   2.4332792637 -1.4041998699  1.1363513217
H   1.2718033630 -0.4448625873  2.0819579739
H   2.8415913368  1.2981733899 -0.8114603725
H   2.9558118689 -0.3661258338 -1.3850995446
22
Image 16  Energy = -383.5259974780
C  -0.7728337481 -1.0620632692  0.3169836074
C   1.3030292208  0.0476550516 -0.0299726016
C  -0.9666342011  1.4775896586  0.8313761849
C   1.9778081273 -0.4199434975  1.2471102577
C   2.2614086956  0.4339748016 -1.1317709030
N   0.3016184033 -0.8931443514 -0.5099252760
N  -1.9984339873 -1.4108239375 -0.2384157688
O  -1.6451416567  1.6359099942 -0.4055744213
H  -2.2365109312  0.8754778338 -0.4553867505
H   0.0241508868 -0.6810609245 -1.4635122212
H  -0.6051930864 -1.3931197591  1.3348460325
H   0.6569249352  0.9031109846  0.2938217146
H  -2.5869824121 -2.0698996198  0.2493944703
H  -2.0686995222 -1.5108055534 -1.2405341469
H  -0.3834581811  2.4108475608  0.9896684282
H  -1.6244511308  1.3152580092  1.6828684672
H   2.7581173680  0.2911583856  1.5205023240
H   1.7217567907  0.7319316622 -2.0338245987
H   2.4334247950 -1.4047116826  1.1362659743
H   1.2717251058 -0.4451399538  2.0813408161
H   2.8420558073  1.2982144758 -0.8113939293
H   2.9562257215 -0.3667758458 -1.3854026558
22
Image 17  Energy = -383.5265193831
C  -0.7735094447 -1.0571911860  0.3188638697
C   1.3034587675  0.0472692878 -0.0304295144
C  -0.9697587197  1.4755998339  0.8311713868
C   1.9781671181 -0.4202104379  1.2467988343
C   2.2619213670  0.4338557865 -1.1319769739
N   0.3012763195 -0.8930554380 -0.5090037807
N  -1.9983202847 -1.4091398974 -0.2380786962
O  -1.6457285650  1.6355123091 -0.4041228758
H  -2.2371465984  0.8755463864 -0.4566429261
H   0.0243874650 -0.6807927952 -1.4627492539
H  -0.6050502173 -1.3924074017  1.3334121735
H   0.6593262093  0.9030271177  0.2923649402
H  -2.5853796905 -2.0688032761  0.2500438030
H  -2.0672930353 -1.5103520380 -1.2400264369
H  -0.3844115517  2.4054180289  0.9893774494
H  -1.6263837749  1.3162278172  1.6830263721
H   2.7582868184  0.2910923245  1.5204112841
H   1.7217554605  0.7317394123 -2.0338421435
H   2.4335660056 -1.4051882992  1.1361749603
H   1.2716643199 -0.4454192743  2.0807142613
H   2.8425085232  1.2982299534 -0.8113382089
H   2.9565705088 -0.3673181910 -1.3856835203
22
Image 18  Energy = -383.5270267612
C  -0.7743759199 -1.0522059639  0.3203254800
C   1.3039287838  0.0469192473 -0.0308026799
C  -0.9727209432  1.4731533531  0.8310795342
C   1.9785292502 -0.4204775974  1.2465101716
C   2.2624531738  0.4336752192 -1.1322255879
N   0.3011086177 -0.8929187498 -0.5082511445
N  -1.9981255431 -1.4072943945 -0.2376480695
O  -1.6465234695  1.6352337601 -0.4030390208
H  -2.2378515712  0.8755424040 -0.4579164853
H   0.0245882930 -0.6805393267 -1.4619766427
H  -0.6048755260 -1.3917933176  1.3324488337
H   0.6617058044  0.9030247387  0.2909426855
H  -2.5838618943 -2.0677626380  0.2507222458
H  -2.0658754947 -1.5099115540 -1.2395464009
H  -0.3851018775  2.4002607388  0.9891399937
H  -1.6284911286  1.3171138078  1.6833303701
H   2.7584563223  0.2910077880  1.5203210066
H   1.7217839764  0.7315476577 -2.0338547470
H   2.4337068157 -1.4056376213  1.1360799304
H   1.2716172804 -0.4456994359  2.0800855589
H   2.8429441581  1.2982058529 -0.8113000603
H   2.9568878919 -0.3678039466 -1.3859599651
22
Image 19  Energy = -383.5275337626
C  -0.7752575168 -1.0471404231  0.3216549210
C   1.3044511619  0.0466075272 -0.0311306087
C  -0.9755108981  1.4703421142  0.8310467775
C   1.9788940172 -0.4207453457  1.2462431004
C   2.2629921417  0.4334630452 -1.1324905892
N   0.3010293142 -0.8927568585 -0.5075931524
N  -1.9979560030 -1.4053652592 -0.2372070261
O  -1.6474992969  1.6350373860 -0.4022231636
H  -2.2386208025  0.8754902641 -0.4592194968
H   0.0247631854 -0.6802833136 -1.4612395491
H  -0.6047067509 -1.3912003460  1.3317317302
H   0.6640572740  0.9030954588  0.2895555715
H  -2.5823836724 -2.0667290668  0.2514110554
H  -2.0644503621 -1.5094695713 -1.2390547061
H  -0.3856000920  2.3952578700  0.9889460296
H  -1.6307524119  1.3179326696  1.6837464760
H   2.7586287882  0.2909078635  1.5202334476
H   1.7218375522  0.7313559008 -2.0338664913
H   2.4338496319 -1.4060656563  1.1359814569
H   1.2715805876 -0.4459799482  2.0794601888
H   2.8433650301  1.2981421662 -0.8112816389
H   2.9571961217 -0.3682564518 -1.3862393286
22
Image 20  Energy = -383.5129253230
C  -0.7494005663 -1.2384318465  0.2737697457
C   1.2829643113  0.0419562104 -0.0247686539
C  -0.9004517737  1.6253613599  0.8450994886
C   1.9653131492 -0.4183852066  1.2497660427
C   2.2432944109  0.4408119527 -1.1231007792
N   0.2919767425 -0.8997567401 -0.5200949922
N  -1.9867266787 -1.5036106962 -0.2598689101
O  -1.5912858481  1.6464873647 -0.4100011712
H  -2.1832313602  0.8832941308 -0.4009964173
H   0.0234213520 -0.6953084134 -1.4763245613
H  -0.5945606802 -1.4411191779  1.3247924447
H   0.5840712503  0.8786597213  0.3250362164
H  -2.6229657132 -2.1138650713  0.2322741105
H  -2.1124371665 -1.5271780613 -1.2661572271
H  -0.4039923648  2.5952578700  0.9907588940
H  -1.5491730977  1.3469527524  1.6784139990
H   2.7464416777  0.2960633503  1.5162432960
H   1.7116462323  0.7373530456 -2.0310252607
H   2.4280546067 -1.4010750097  1.1418617686
H   1.2659450638 -0.4386599548  2.0908197301
H   2.8246222043  1.3058925741 -0.8022344913
H   2.9463812297 -0.3570600841 -1.3757982832
22
Image 21  Energy = -383.5137993309
C  -0.7472779036 -1.2344390008  0.2783631060
C   1.2812233637  0.0420700599 -0.0244438211
C  -0.9072303278  1.6248656713  0.8427867497
C   1.9656744286 -0.4187989741  1.2494872159
C   2.2435492105  0.4408976858 -1.1230534922
N   0.2931655059 -0.9018257277 -0.5213525836
N  -1.9917493884 -1.5030856118 -0.2628733798
O  -1.5892696109  1.6461933372 -0.4062665474
H  -2.1825850612  0.8836715426 -0.4011097085
H   0.0235816141 -0.6951566571 -1.4756209823
H  -0.5943484366 -1.4414790174  1.3227437886
H   0.5878323143  0.8798294801  0.3239245049
H  -2.6207885656 -2.1134151364  0.2320828587
H  -2.1107727671 -1.5273913922 -1.2638176107
H  -0.4048608923  2.5924278252  0.9903198314
H  -1.5488437363  1.3483994457  1.6781582999
H   2.7462908971  0.2959685702  1.5159390680
H   1.7114820808  0.7371051575 -2.0308380264
H   2.4279996002 -1.4015416260  1.1418132711
H   1.2658942898 -0.4391218451  2.0901351094
H   2.8246693454  1.3057737300 -0.8020339994
H   2.9462710184 -0.3573074458 -1.3758786666
22
Image 22  Energy = -383.5144089715
C  -0.7480336451 -1.2309080323  0.2806127774
C   1.2797931220  0.0423356250 -0.0243297881
C  -0.9132481869  1.6256278785  0.8409760087
C   1.9658972683 -0.4191772378  1.2492426643
C   2.2436068186  0.4410069076 -1.1228616211
N   0.2951047488 -0.9038150998 -0.5223591508
N  -1.9938671291 -1.5011577834 -0.2631986649
O  -1.5877643971  1.6457453975 -0.4032270023
H  -2.1819687454  0.8839327869 -0.4013010132
H   0.0235842826 -0.6949669580 -1.4751693799
H  -0.5939194289 -1.4422073603  1.3221153589
H   0.5918680284  0.8807979323  0.3226399035
H  -2.6193685494 -2.1136274793  0.2320736019
H  -2.1094186539 -1.5278932231 -1.2633068879
H  -0.4056348832  2.5893517859  0.9897929774
H  -1.5489364079  1.3493227735  1.6783253420
H   2.7461827713  0.2958963309  1.5156422199
H   1.7113402912  0.7368600550 -2.0306646169
H   2.4279382722 -1.4019995940  1.1417095603
H   1.2658909701 -0.4396281899  2.0894894396
H   2.8247674392  1.3056978764 -0.8018375497
H   2.9460929931 -0.3575543203 -1.3758991976
22
Image 23  Energy = -383.5149444923
C  -0.7491433234 -1.2274716069  0.2822414205
C   1.2787186263  0.0426822733 -0.0242531423
C  -0.9187172227  1.6269029288  0.8397622318
C   1.9660562932 -0.4195142963  1.2489913190
C   2.2435865330  0.4411214463 -1.1226243818
N   0.2969317904 -0.9059281270 -0.5232079780
N  -1.9954732390 -1.4988311769 -0.2630294483
O  -1.5867259162  1.6452925326 -0.4009313566
H  -2.1814196206  0.8840653676 -0.4015336630
H   0.0235590038 -0.6947436633 -1.4748331221
H  -0.5934717869 -1.4430890019  1.3219367935
H   0.5960324452  0.8816709868  0.3212402394
H  -2.6181625534 -2.1140229489  0.2320821341
H  -2.1081276416 -1.5285083632 -1.2631609933
H  -0.4062346651  2.5863874102  0.9892323569
H  -1.5493230990  1.3499135465  1.6787510582
H   2.7460957706  0.2958271692  1.5153547063
H   1.7112160104  0.7366228073 -2.0304982739
H   2.4278674629 -1.4024383292  1.1415605053
H   1.2659033812 -0.4401628356  2.0888939997
H   2.8248932537  1.3056463385 -0.8016440021
H   2.9458454758 -0.3577823862 -1.3758654195
22
Image 24  Energy = -383.5154316352
C  -0.7502602908 -1.2241114858  0.2836521738
C   1.2779457651  0.0430120462 -0.0241994679
C  -0.9237829735  1.6283871030  0.8390242607
C   1.9661908528 -0.4198192672  1.2487381785
C   2.2435463889  0.4412355165 -1.1223844847
N   0.2985804583 -0.9080790126 -0.5239533825
N  -1.9969629701 -1.4963322163 -0.2627392458
O  -1.5860440034  1.6448947666 -0.3992402011
H  -2.1809585796  0.8840576086 -0.4017959100
H   0.0235299567 -0.6945040806 -1.4745490348
H  -0.5930463908 -1.4440547367  1.3219339979
H   0.6002358760  0.8824981246  0.3197586493
H  -2.6170363057 -2.1144756795  0.2320645675
H  -2.1068534250 -1.5291929480 -1.2630923440
H  -0.4066461194  2.5836565812  0.9886687660
H  -1.5499440573  1.3502673763  1.6793617213
H   2.7460228193  0.2957533479  1.5150788627
H   1.7111044413  0.7363958925 -2.0303358633
H   2.4277871015 -1.4028517348  1.1413724287
H   1.2659219562 -0.4407158255  2.0883434033
H   2.8250359696  1.3056091510 -0.8014555169
H   2.9455405102 -0.3579904538 -1.3757865767
22
Image 25  Energy = -383.5158831399
C  -0.7513363683 -1.2208304992  0.2849546548
C   1.2774167434  0.0432730969 -0.0241753906
C  -0.9285354176  1.6299482002  0.8386290834
C   1.9663204157 -0.4201030589  1.2484911773
C   2.2435153104  0.4413457877 -1.1221615985
N   0.3000697144 -0.9101985819 -0.5246082854
N  -1.9984135739 -1.4937392463 -0.2623988276
O  -1.5856359075  1.6445596186 -0.3980028723
H  -2.1805835979  0.8839226560 -0.4020848265
H   0.0235019160 -0.6942584321 -1.4742871004
H  -0.5926531868 -1.4450761058  1.3220086515
H   0.6044230218  0.8833048079  0.3182183058
H  -2.6159444621 -2.1149395182  0.2320076473
H  -2.1055837306 -1.5299286841 -1.2630315264
H  -0.4068839085  2.5811851172  0.9881194693
H  -1.5507623775  1.3504440526  1.6801116494
H   2.7459623893  0.2956726456  1.5148165451
H   1.7110022210  0.7361804007 -2.0301760328
H   2.4276997230 -1.4032392412  1.1411513338
H   1.2659434366 -0.4412803848  2.0878300088
H   2.8251901960  1.3055808960 -0.8012734521
H   2.9451944219 -0.3581834526 -1.3756736311
22
Image 26  Energy = -383.5163069312
C  -0.7523689169 -1.2176287363  0.2861892234
C   1.2770835693  0.0434467682 -0.0241849479
C  -0.9330340279  1.6315274032  0.8384734637
C   1.9664542914 -0.4203740176  1.2482548778
C   2.2435072964  0.4414486205 -1.1219645469
N   0.3014214618 -0.9122468594 -0.5251798059
N  -1.9998407664 -1.4910884795 -0.2620285971
O  -1.5854425061  1.6442782568 -0.3970943096
H  -2.1802849806  0.8836804495 -0.4023996721
H   0.0234764898 -0.6940127272 -1.4740296883
H  -0.5922945008 -1.4461381435  1.3221156494
H   0.6085591664  0.8841042112  0.3166365632
H  -2.6148688978 -2.1153948851  0.2319096808
H  -2.1043138119 -1.5307046460 -1.2629549067
H  -0.4069732304  2.5789598423  0.9875932793
H  -1.5517476031  1.3504861876  1.6809641726
H   2.7459147123  0.2955848701  1.5145689636
H   1.7109070935  0.7359767084 -2.0300186353
H   2.4276090761 -1.4036036478  1.1409028678
H   1.2659665868 -0.4418517768  2.0873470493
H   2.8253530492  1.3055583721 -0.8010982892
H   2.9448234275 -0.3583676965 -1.3755374102
22
Image 27  Energy = -383.5167082268
C  -0.7533611978 -1.2145038369  0.2873751632
C   1.2769076966  0.0435327196 -0.0242279900
C  -0.9373202160  1.6330988625  0.8384849822
C   1.9665968470 -0.4206378754  1.2480309980
C   2.2435282684  0.4415404800 -1.1217970698
N   0.3026528550 -0.9142029086 -0.5256746134
N  -2.0012475609 -1.4884008646 -0.2616382001
O  -1.5854209243  1.6440393459 -0.3964190600
H  -2.1800519293  0.8833499547 -0.4027397158
H   0.0234544580 -0.6937704870 -1.4737662808
H  -0.5919702320 -1.4472317140  1.3222314911
H   0.6126223326  0.8849028817  0.3150268565
H  -2.6138012588 -2.1158323163  0.2317729908
H  -2.1030412612 -1.5315129964 -1.2628527722
H  -0.4069414755  2.5769533013  0.9870940110
H  -1.5528723103  1.3504261243  1.6818878621
H   2.7458802884  0.2954903464  1.5143367122
H   1.7108178543  0.7357846297 -2.0298637488
H   2.4275190649 -1.4039490449  1.1406321462
H   1.2659908827 -0.4424266484  2.0868889950
H   2.8255228309  1.3055392933 -0.8009300931
H   2.9444419642 -0.3585491727 -1.3753876822
22
Image 28  Energy = -383.5170903648
C  -0.7543166707 -1.2114526663  0.2885228193
C   1.2768584980  0.0435394242 -0.0243017413
C  -0.9414237970  1.6346511415  0.8386151053
C   1.9667499432 -0.4208982756  1.2478195978
C   2.2435803600  0.4416182466 -1.1216599606
N   0.3037767584 -0.9160569079 -0.5260986805
N  -2.0026334728 -1.4856901820 -0.2612334462
O  -1.5855397622  1.6438330944 -0.3959072992
H  -2.1798744788  0.8829473138 -0.4031036425
H   0.0234360528 -0.6935337060 -1.4734911747
H  -0.5916793155 -1.4483505923  1.3223433502
H   0.6165984896  0.8857038345  0.3133999087
H  -2.6127375191 -2.1162468997  0.2316013664
H  -2.1017647278 -1.5323475729 -1.2627214972
H  -0.4068144527  2.5751350169  0.9866227574
H  -1.5541118318  1.3502892506  1.6828560341
H   2.7458593550  0.2953893580  1.5141199179
H   1.7107338386  0.7356036619 -2.0297117671
H   2.4274331978 -1.4042796710  1.1403436500
H   1.2660161909 -0.4430026010  2.0864513084
H   2.8256983497  1.3055216271 -0.8007688407
H   2.9440619705 -0.3587328204 -1.3752327817
22
Image 29  Energy = -383.5174555183
C  -0.7552383113 -1.2084722291  0.2896377705
C   1.2769118946  0.0434787057 -0.0244021186
C  -0.9453667616  1.6361785488  0.8388314507
C   1.9669139321 -0.4211575228  1.2476197150
C   2.2436636696  0.4416793608 -1.1215524758
N   0.3048029430 -0.9178050413 -0.5264572023
N  -2.0039971308 -1.4829666423 -0.2608182230
O  -1.5857754291  1.6436523419 -0.3955089133
H  -2.1797441986  0.8824855372 -0.4034895706
H   0.0234211183 -0.6933035140 -1.4732017072
H  -0.5914202602 -1.4494901263  1.3224443573
H   0.6204785675  0.8865083417  0.3117645042
H  -2.6116756223 -2.1166357408  0.2313989962
H  -2.1004833687 -1.5332031737 -1.2625604024
H  -0.4066148464  2.5734764377  0.9861792537
H  -1.5554446432  1.3500957944  1.6838468723
H   2.7458520502  0.2952821839  1.5139184663
H   1.7106547842  0.7354331166 -2.0295631997
H   2.4273544204 -1.4045993670  1.1400412023
H   1.2660425103 -0.4435779048  2.0860303553
H   2.8258786780  1.3055034144 -0.8006145560
H   2.9436929799 -0.3589224468 -1.3750795905
22
Image 30  Energy = -383.5178052687
C  -0.7561284316 -1.2055599876  0.2907235639
C   1.2770487650  0.0433628928 -0.0245247414
C  -0.9491650955  1.6376779009  0.8391119879
C   1.9670885760 -0.4214169588  1.2474299666
C   2.2437769574  0.4417217794 -1.1214733665
N   0.3057392751 -0.9194466386 -0.5267546472
N  -2.0053369675 -1.4802383545 -0.2603955945
O  -1.5861102673  1.6434918229 -0.3951884932
H  -2.1796538098  0.8819753912 -0.4038951938
H   0.0234092122 -0.6930804897 -1.4728972307
H  -0.5911915116 -1.4506464827  1.3225307625
H   0.6242567532  0.8873168042  0.3101279624
H  -2.6106145881 -2.1169969969  0.2311701131
H  -2.0991966713 -1.5340752375 -1.2623702299
H  -0.4063620804  2.5719522711  0.9857626438
H  -1.5568526879  1.3498619058  1.6848434600
H   2.7458582107  0.2951689185  1.5137320328
H   1.7105808545  0.7352720900 -2.0294183139
H   2.4272850487 -1.4049113383  1.1397280326
H   1.2660699017 -0.4441512921  2.0856232061
H   2.8260631711  1.3054828717 -0.8004672906
H   2.9433423596 -0.3591207964 -1.3749336432
22
Image 31  Energy = -383.5181404703
C  -0.7569890511 -1.2027139476  0.2917823604
C   1.2772538271  0.0432036435 -0.0246653678
C  -0.9528310059  1.6391463275  0.8394412471
C   1.9672733975 -0.4216772389  1.2472491066
C   2.2439188000  0.4417441368 -1.1214208293
N   0.3065920335 -0.9209827275 -0.5269950488
N  -2.0066509944 -1.4775118862 -0.2599682544
O  -1.5865303218  1.6433482866 -0.3949210542
H  -2.1795974485  0.8814253599 -0.4043179808
H   0.0233997589 -0.6928649332 -1.4725781368
H  -0.5909914885 -1.4518163183  1.3226007356
H   0.6279294776  0.8881291908  0.3084964584
H  -2.6095542590 -2.1173295716  0.2309189395
H  -2.0979043784 -1.5349596666 -1.2621523457
H  -0.4060722607  2.5705412762  0.9853718801
H  -1.5583209462  1.3496005772  1.6858329761
H   2.7458774238  0.2950494851  1.5135601520
H   1.7105122838  0.7351196568 -2.0292775089
H   2.4272268013 -1.4052181300  1.1394068146
H   1.2660985261 -0.4447218324  2.0852273863
H   2.8262511785  1.3054581395 -0.8003272228
H   2.9430156201 -0.3593297524 -1.3747993190
22
Image 32  Energy = -383.5184619422
C  -0.7578217587 -1.1999324728  0.2928156762
C   1.2775147590  0.0430111773 -0.0248201456
C  -0.9563737574  1.6405812233  0.8398079673
C   1.9674677508 -0.4219387450  1.2470757194
C   2.2440872920  0.4417454272 -1.1213931498
N   0.3073667488 -0.9224151175 -0.5271821173
N  -2.0079377733 -1.4747932381 -0.2595381488
O  -1.5870246263  1.6432195715 -0.3946891482
H  -2.1795701723  0.8808424710 -0.4047553395
H   0.0233921076 -0.6926569535 -1.4722454037
H  -0.5908186883 -1.4529966354  1.3226535994
H   0.6314947611  0.8889452934  0.3068752425
H  -2.6084945750 -2.1176323861  0.2306492490
H  -2.0966063766 -1.5358527283 -1.2619086339
H  -0.4057586941  2.5692256196  0.9850058868
H  -1.5598371729  1.3493222294  1.6868061337
H   2.7459092533  0.2949238042  1.5134023373
H   1.7104495000  0.7349748126 -2.0291409595
H   2.4271808576 -1.4055215793  1.1390797718
H   1.2661284873 -0.4452888374  2.0848409580
H   2.8264422912  1.3054275982 -0.8001945352
H   2.9427167627 -0.3595504591 -1.3746799716
22
Image 33  Energy = -383.5187702803
C  -0.7586280025 -1.1972142694  0.2938248866
C   1.2778216418  0.0427943106 -0.0249856984
C  -0.9598008342  1.6419798789  0.8402035448
C   1.9676707483 -0.4222015528  1.2469086738
C   2.2442805438  0.4417250559 -1.1213885022
N   0.3080682968 -0.9237461721 -0.5273194494
N  -2.0091957980 -1.4720875585 -0.2591072990
O  -1.5875843844  1.6431042169 -0.3944806333
H  -2.1795677435  0.8802326615 -0.4052047057
H   0.0233855860 -0.6924565281 -1.4719003768
H  -0.5906716747 -1.4541846771  1.3226893589
H   0.6349518596  0.8897648223  0.3052687800
H  -2.6074358815 -2.1179047259  0.2303646515
H  -2.0953027255 -1.5367510193 -1.2616409645
H  -0.4054321454  2.5679906525  0.9846636742
H  -1.5613913920  1.3490352033  1.6877564562
H   2.7459532595  0.2947918138  1.5132580793
H   1.7103929424  0.7348365611 -2.0290088807
H   2.4271480142 -1.4058230838  1.1387486916
H   1.2661599638 -0.4458518021  2.0844622651
H   2.8266362058  1.3053897957 -0.8000694405
H   2.9424484952 -0.3597835084 -1.3745781256
22
Image 34  Energy = -383.5190659753
C  -0.7594089816 -1.1945581837  0.2948112800
C   1.2781661946  0.0425605114 -0.0251591123
C  -0.9631183450  1.6433398850  0.8406210402
C   1.9678817723 -0.4224655519  1.2467468455
C   2.2444965638  0.4416828642 -1.1214051186
N   0.3087013035 -0.9249785823 -0.5274102630
N  -2.0104238223 -1.4693994333 -0.2586774939
O  -1.5882021227  1.6430013975 -0.3942868412
H  -2.1795867203  0.8796007828 -0.4056636686
H   0.0233794836 -0.6922634786 -1.4715446898
H  -0.5905490770 -1.4553779033  1.3227084031
H   0.6383010730  0.8905873566  0.3036808276
H  -2.6063786886 -2.1181460441  0.2300684834
H  -2.0939936024 -1.5376514371 -1.2613513215
H  -0.4051014597  2.5668240610  0.9843442787
H  -1.5629755257  1.3487461657  1.6886796075
H   2.7460088529  0.2946533831  1.5131268389
H   1.7103430888  0.7347039193 -2.0288814011
H   2.4271286399 -1.4061235291  1.1384150413
H   1.2661930466 -0.4464103707  2.0840900480
H   2.8268326995  1.3053433863 -0.7999521781
H   2.9422126023 -0.3600291239 -1.3744956185
22
Image 35  Energy = -383.5193495571
C  -0.7601656788 -1.1919630783  0.2957760948
C   1.2785415078  0.0423159652 -0.0253379523
C  -0.9663316213  1.6446589460  0.8410549650
C   1.9680999674 -0.4227304336  1.2465894877
C   2.2447336155  0.4416188853 -1.1214413810
N   0.3092700244 -0.9261152461 -0.5274579643
N  -2.0116209549 -1.4667330561 -0.2582502420
O  -1.5888715942  1.6429105905 -0.3941018988
H  -2.1796242055  0.8789509259 -0.4061299933
H   0.0233731905 -0.6920776087 -1.4711797659
H  -0.5904495897 -1.4565740120  1.3227114705
H   0.6415434509  0.8914124747  0.3021145617
H  -2.6053235643 -2.1183558437  0.2297636953
H  -2.0926792908 -1.5385511794 -1.2610417233
H  -0.4047736795  2.5657157126  0.9840468361
H  -1.5645829425  1.3484604192  1.6895728577
H   2.7460755147  0.2945084075  1.5130080968
H   1.7103003838  0.7345759375 -2.0287586345
H   2.4271229253 -1.4064235719  1.1380799663
H   1.2662279265 -0.4469642808  2.0837231633
H   2.8270316506  1.3052872355 -0.7998429749
H   2.9420099377 -0.3602871155 -1.3744336756
22
Image 36  Energy = -383.5196215034
C  -0.7608990260 -1.1894277940  0.2967204741
C   1.2789416206  0.0420659003 -0.0255202210
C  -0.9694455228  1.6459350636  0.8415006492
C   1.9683247830 -0.4229960330  1.2464358372
C   2.2449898133  0.4415334742 -1.1214956908
N   0.3097786934 -0.9271593191 -0.5274655539
N  -2.0127863890 -1.4640920478 -0.2578270446
O  -1.5895874139  1.6428313535 -0.3939216069
H  -2.1796776801  0.8782866643 -0.4066016438
H   0.0233660636 -0.6918985751 -1.4708072411
H  -0.5903719452 -1.4577709323  1.3226995468
H   0.6446808114  0.8922396146  0.3005725831
H  -2.6042712929 -2.1185338874  0.2294530462
H  -2.0913601558 -1.5394477159 -1.2607140703
H  -0.4044544469  2.5646571456  0.9837705257
H  -1.5662081934  1.3481821525  1.6904346598
H   2.7461526977  0.2943568446  1.5129013399
H   1.7102652733  0.7344516904 -2.0286406417
H   2.4271307059 -1.4067234257  1.1377443913
H   1.2662646756 -0.4475133597  2.0833607897
H   2.8272330779  1.3052204300 -0.7997420427
H   2.9418408237 -0.3605571698 -1.3743930964
22
Image 37  Energy = -383.5198823311
C  -0.7616098546 -1.1869511034  0.2976457757
C   1.2793617147  0.0418145460 -0.0257043123
C  -0.9724644822  1.6471666053  0.8419542063
C   1.9685553846 -0.4232620475  1.2462853368
C   2.2452634470  0.4414271762 -1.1215665547
N   0.3102313210 -0.9281141282 -0.5274362012
N  -2.0139196495 -1.4614797090 -0.2574091468
O  -1.5903448457  1.6427634200 -0.3937430955
H  -2.1797451032  0.8776109559 -0.4070768124
H   0.0233575636 -0.6917260205 -1.4704285179
H  -0.5903149374 -1.4589667903  1.3226736384
H   0.6477154266  0.8930682756  0.2990570642
H  -2.6032226218 -2.1186799615  0.2291389306
H  -2.0900366442 -1.5403387983 -1.2603702743
H  -0.4041482132  2.5636412931  0.9835145634
H  -1.5678468343  1.3479146173  1.6912643794
H   2.7462399701  0.2941987396  1.5128061031
H   1.7102381471  0.7343303222 -2.0285274792
H   2.4271517130 -1.4070232101  1.1374090172
H   1.2663034581 -0.4480575107  2.0830021907
H   2.8274370103  1.3051421556 -0.7996495869
H   2.9417050051 -0.3608387537 -1.3743742392
22
Image 38  Energy = -383.5201325878
C  -0.7622990064 -1.1845316617  0.2985531230
C   1.2797975343  0.0415653639 -0.0258888980
C  -0.9753926738  1.6483523703  0.8424122995
C   1.9687911832 -0.4235281024  1.2461374530
C   2.2455530260  0.4413005993 -1.1216525014
N   0.3106317834 -0.9289831622 -0.5273728501
N  -2.0150202417 -1.4588988060 -0.2569977547
O  -1.5911397339  1.6427064864 -0.3935643852
H  -2.1798247032  0.8769263978 -0.4075538964
H   0.0233471872 -0.6915595187 -1.4700449143
H  -0.5902773803 -1.4601599460  1.3226349261
H   0.6506500266  0.8938978800  0.2975697407
H  -2.6021784648 -2.1187940959  0.2288235653
H  -2.0887092529 -1.5412224278 -1.2600120839
H  -0.4038584940  2.5626621535  0.9832781972
H  -1.5694951978  1.3476603002  1.6920620395
H   2.7463368366  0.2940340879  1.5127219104
H   1.7102192801  0.7342110535 -2.0284192862
H   2.4271855323 -1.4073228432  1.1370743712
H   1.2663443345 -0.4485966853  2.0826468616
H   2.8276435902  1.3050518560 -0.7995657655
H   2.9416018080 -0.3611312265 -1.3743771644
22
Image 39  Energy = -383.5242467985
C  -0.7766743848 -1.1319786962  0.3183232580
C   1.2930316728  0.0343891977 -0.0308605426
C  -1.0363288948  1.6733875247  0.8549718900
C   1.9749950882 -0.4299156941  1.2430334128
C   2.2541719489  0.4366059710 -1.1253267660
N   0.3148395299 -0.9419416593 -0.5222972880
N  -2.0387657117 -1.3991189493 -0.2473484435
O  -1.6145015592  1.6423600178 -0.3905686291
H  -2.1833690710  0.8589898822 -0.4195807309
H   0.0231160772 -0.6881727748 -1.4601490384
H  -0.5912773939 -1.4888366500  1.3204559468
H   0.7119035129  0.9138037120  0.2637730332
H  -2.5775507800 -2.1190485411  0.2204920941
H  -2.0567923875 -1.5622996719 -1.2498435683
H  -0.3967055108  2.5447100173  0.9794498278
H  -1.6109211056  1.3414949284  1.7089293949
H   2.7495348348  0.2896160668  1.5117361888
H   1.7103161180  0.7317938616 -2.0262158922
H   2.4290271169 -1.4143334235  1.1289339256
H   1.2674477410 -0.4610495762  2.0747131884
H   2.8327600882  1.3022103551 -0.7982034393
H   2.9416500247 -0.3690258468 -1.3759528576
22
Image 40  Energy = -383.5243663347
C  -0.7765754800 -1.1312014050  0.3194681742
C   1.2930726022  0.0348349129 -0.0307981965
C  -1.0375404254  1.6736699839  0.8548584421
C   1.9752926238 -0.4301463277  1.2428765203
C   2.2546861596  0.4360213082 -1.1256338177
N   0.3143226052 -0.9409403632 -0.5216654616
N  -2.0392808129 -1.3985833406 -0.2481256761
O  -1.6156266851  1.6424116531 -0.3896993982
H  -2.1834241813  0.8585860118 -0.4198703425
H   0.0229903938 -0.6881090262 -1.4598340647
H  -0.5917307771 -1.4894858026  1.3197430836
H   0.7126539802  0.9144497479  0.2632101219
H  -2.5764548858 -2.1178229083  0.2202867995
H  -2.0554241954 -1.5623955297 -1.2484084651
H  -0.3976120544  2.5434307877  0.9795986509
H  -1.6121786041  1.3419721583  1.7087082772
H   2.7498211014  0.2892886281  1.5118743508
H   1.7105422985  0.7316306536 -2.0262298181
H   2.4293684104 -1.4146701075  1.1287141133
H   1.2675617902 -0.4614518175  2.0743407914
H   2.8330345277  1.3017233054 -0.7983566090
H   2.9424085629 -0.3695724707 -1.3765925131
22
Image 41  Energy = -383.5244674800
C  -0.7768151497 -1.1303369810  0.3200885113
C   1.2932435169  0.0351704912 -0.0307954237
C  -1.0388363870  1.6737346939  0.8549043889
C   1.9755718306 -0.4303605808  1.2427182380
C   2.2551648616  0.4354517313 -1.1259142679
N   0.3138679562 -0.9399758318 -0.5210364814
N  -2.0393236889 -1.3976698389 -0.2482098904
O  -1.6167530397  1.6425497513 -0.3890560891
H  -2.1835316459  0.8581103248 -0.4201383894
H   0.0228443590 -0.6880390890 -1.4595086564
H  -0.5921205805 -1.4902435569  1.3193553570
H   0.7133830844  0.9151646711  0.2626897302
H  -2.5755864224 -2.1168296922  0.2201945301
H  -2.0540863502 -1.5626115304 -1.2476161127
H  -0.3983708926  2.5423614196  0.9797568442
H  -1.6134367378  1.3424319940  1.7085281421
H   2.7501070853  0.2889610346  1.5120139431
H   1.7107811783  0.7314575174 -2.0262540046
H   2.4296877330 -1.4149754370  1.1284791785
H   1.2676777821 -0.4618559096  2.0739860500
H   2.8333266234  1.3012351210 -0.7985200678
H   2.9431118388 -0.3700902503 -1.3772005693
22
Image 42  Energy = -383.5245629565
C  -0.7770818863 -1.1294198863  0.3206154668
C   1.2934741322  0.0354573687 -0.0308091636
C  -1.0401150702  1.6736906782  0.8550126984
C   1.9758437577 -0.4305652654  1.2425611308
C   2.2556260871  0.4348948662 -1.1261855468
N   0.3134419760 -0.9390559283 -0.5204618180
N  -2.0392545885 -1.3966227507 -0.2481431225
O  -1.6179043526  1.6427157588 -0.3885662934
H  -2.1836646917  0.8576117206 -0.4203974536
H   0.0226941693 -0.6879612543 -1.4591795718
H  -0.5924841784 -1.4910275101  1.3190817815
H   0.7141140531  0.9159055683  0.2621977250
H  -2.5748377521 -2.1159508222  0.2201766501
H  -2.0527694868 -1.5628604777 -1.2470545540
H  -0.3990487881  2.5414100906  0.9799234711
H  -1.6147322840  1.3428622742  1.7084214885
H   2.7503921129  0.2886334276  1.5121543682
H   1.7110302263  0.7312751159 -2.0262861680
H   2.4299888547 -1.4152544902  1.1282329311
H   1.2677935833 -0.4622601682  2.0736447643
H   2.8336331048  1.3007448675 -0.7986915121
H   2.9437679776 -0.3705831294 -1.3777823083
22
Image 43  Energy = -383.5246550816
C  -0.7773186302 -1.1284630448  0.3211357669
C   1.2937354710  0.0357184485 -0.0308317250
C  -1.0413565066  1.6735785385  0.8551423072
C   1.9761110475 -0.4307627684  1.2424072960
C   2.2560759244  0.4343524552 -1.1264513836
N   0.3130445003 -0.9381782088 -0.5199282003
N  -2.0391711750 -1.3955308404 -0.2480471029
O  -1.6190732790  1.6428941350 -0.3881769305
H  -2.1838175239  0.8571020727 -0.4206534728
H   0.0225394289 -0.6878722269 -1.4588579467
H  -0.5928290464 -1.4918166605  1.3188683624
H   0.7148549753  0.9166533341  0.2617272278
H  -2.5741600204 -2.1151279517  0.2202034914
H  -2.0514691387 -1.5631180471 -1.2466014100
H  -0.3996766500  2.5405339638  0.9800964860
H  -1.6160669472  1.3432658846  1.7083825795
H   2.7506762403  0.2883062850  1.5122954575
H   1.7112874663  0.7310843663 -2.0263258016
H   2.4302748911 -1.4155121555  1.1279771498
H   1.2679090705 -0.4626637585  2.0733144783
H   2.8339527319  1.3002528431 -0.7988702195
H   2.9443841264 -0.3710566110 -1.3783414468
22
Image 44  Energy = -383.5255541744
C  -0.7790542167 -1.1185306124  0.3278655969
C   1.2976864532  0.0377202331 -0.0314027218
C  -1.0534405751  1.6736970806  0.8572547210
C   1.9793682260 -0.4331569511  1.2409028207
C   2.2617833429  0.4280700027 -1.1299862918
N   0.3070454848 -0.9270796574 -0.5127217911
N  -2.0401458109 -1.3833032924 -0.2484215810
O  -1.6333755466  1.6447010834 -0.3835012309
H  -2.1859390633  0.8506794036 -0.4242135141
H   0.0211117443 -0.6871125802 -1.4548678177
H  -0.5972114428 -1.5009713865  1.3150347783
H   0.7222252276  0.9248731793  0.2555514124
H  -2.5651933135 -2.1052788555  0.2190022207
H  -2.0367304291 -1.5665700352 -1.2386978183
H  -0.4058493075  2.5322013854  0.9821851076
H  -1.6320610625  1.3469313053  1.7076457737
H   2.7539669507  0.2846959740  1.5139949143
H   1.7138971319  0.7293548266 -2.0266568870
H   2.4337014560 -1.4185782489  1.1250467140
H   1.2691337437 -0.4671398833  2.0697636570
H   2.8372945444  1.2950979932 -0.8006894192
H   2.9516934135 -0.3766609176 -1.3846236909
22
Image 45  Energy = -383.5256738858
C  -0.7799413259 -1.1170865984  0.3277208682
C   1.2978067215  0.0381693807 -0.0313592866
C  -1.0549430174  1.6725161311  0.8573096139
C   1.9795828879 -0.4332741401  1.2407741209
C   2.2619996880  0.4277269258 -1.1301084236
N   0.3074700477 -0.9267074785 -0.5128639882
N  -2.0391242280 -1.3812584356 -0.2470274960
O  -1.6343689922  1.6450800270 -0.3837055135
H  -2.1862200403  0.8501331860 -0.4243333084
H   0.0208362047 -0.6869032487 -1.4546366304
H  -0.5972479518 -1.5019504350  1.3158846996
H   0.7233492174  0.9254063805  0.2552838023
H  -2.5655284042 -2.1052976880  0.2196849830
H  -2.0355984323 -1.5670638987 -1.2402555200
H  -0.4060557616  2.5320461742  0.9824110290
H  -1.6334505174  1.3472724206  1.7080629740
H   2.7542426239  0.2843645748  1.5141437963
H   1.7142753265  0.7290392001 -2.0267858812
H   2.4338439902 -1.4186254361  1.1247248935
H   1.2692672977 -0.4675339585  2.0695095322
H   2.8377681730  1.2945367659 -0.8009721152
H   2.9519434461 -0.3769498019 -1.3849971987
22
Image 46  Energy = -383.5257570389
C  -0.7800704709 -1.1157032392  0.3282587677
C   1.2980333431  0.0384955468 -0.0313690909
C  -1.0560628507  1.6717133279  0.8573616204
C   1.9797795268 -0.4333670811  1.2406458920
C   2.2622491272  0.4273954131 -1.1302384256
N   0.3076599081 -0.9263970907 -0.5128353294
N  -2.0389302239 -1.3799593483 -0.2467556415
O  -1.6354766374  1.6452986565 -0.3838581384
H  -2.1864680471  0.8496897842 -0.4245072866
H   0.0205799883 -0.6866544211 -1.4544815805
H  -0.5973521359 -1.5027363255  1.3162967346
H   0.7243954989  0.9260119104  0.2550433484
H  -2.5655380122 -2.1048850715  0.2201581469
H  -2.0344672623 -1.5673279890 -1.2407892329
H  -0.4064854328  2.5315680004  0.9826101382
H  -1.6349173557  1.3475832574  1.7085035075
H   2.7545214086  0.2840414862  1.5142954073
H   1.7146406194  0.7287321111 -2.0269254438
H   2.4339883422 -1.4186870783  1.1243909361
H   1.2693996251 -0.4679243905  2.0692648076
H   2.8382544035  1.2939993571 -0.8012531119
H   2.9521735937 -0.3772467699 -1.3853510747
22
Image 47  Energy = -383.5258345100
C  -0.7800781755 -1.1143669472  0.3288997352
C   1.2983151507  0.0387481735 -0.0314145000
C  -1.0570712024  1.6710402519  0.8574212093
C   1.9799744533 -0.4334531342  1.2405189233
C   2.2625247097  0.4270690712 -1.1303842002
N   0.3077605131 -0.9260810953 -0.5127044635
N  -2.0389138541 -1.3789226247 -0.2467188908
O  -1.6365852430  1.6454761844 -0.3839335451
H  -2.1867306680  0.8492586236 -0.4247138037
H   0.0203321034 -0.6863916433 -1.4543316266
H  -0.5974684224 -1.5034491255  1.3165644260
H   0.7253929701  0.9266437679  0.2548144775
H  -2.5654149198 -2.1042799261  0.2205163840
H  -2.0333425942 -1.5675260735 -1.2409971168
H  -0.4070057384  2.5309525236  0.9827942143
H  -1.6363851119  1.3478983864  1.7089009524
H   2.7548015815  0.2837258819  1.5144488021
H   1.7149966315  0.7284319178 -2.0270710885
H   2.4341322677 -1.4187548874  1.1240497272
H   1.2695288478 -0.4683100128  2.0690279621
H   2.8387519201  1.2934837675 -0.8015319266
H   2.9523917377 -0.3775530328 -1.3856907011
22
Image 48  Energy = -383.5259096023
C  -0.7800972321 -1.1130727270  0.3295383950
C   1.2986234360  0.0389619766 -0.0314762908
C  -1.0580428838  1.6704146639  0.8574937885
C   1.9801729578 -0.4335384705  1.2403935872
C   2.2628204367  0.4267461443 -1.1305463845
N   0.3078085034 -0.9257453881 -0.5125200214
N  -2.0389048242 -1.3779912009 -0.2467333252
O  -1.6376817127  1.6456318239 -0.3839463659
H  -2.1870091236  0.8488306691 -0.4249431032
H   0.0200935029 -0.6861241828 -1.4541622374
H  -0.5975865101 -1.5041161011  1.3167562839
H   0.7263589170  0.9272789107  0.2545899337
H  -2.5652348731 -2.1035813860  0.2208115022
H  -2.0322281781 -1.5676995213 -1.2410628508
H  -0.4075685181  2.5302668029  0.9829694919
H  -1.6378379059  1.3482236973  1.7092486808
H   2.7550825179  0.2834171147  1.5146034373
H   1.7153454761  0.7281377159 -2.0272212998
H   2.4342757168 -1.4188266689  1.1237039390
H   1.2696550693 -0.4686904498  2.0687966932
H   2.8392588177  1.2929866634 -0.8018088926
H   2.9526033663 -0.3778700381 -1.3860200098
22
Image 49  Energy = -383.5263593415
C  -0.7817042426 -1.1053183430  0.3337150080
C   1.3011796603  0.0389914374 -0.0321267859
C  -1.0671184449  1.6726279027  0.8592842104
C   1.9818349011 -0.4348949869  1.2396148098
C   2.2655828765  0.4241593319 -1.1321257965
N   0.3059113850 -0.9228771168 -0.5094389734
N  -2.0414186721 -1.3691247390 -0.2464399157
O  -1.6446775959  1.6461671032 -0.3819490277
H  -2.1880855731  0.8451163585 -0.4272437987
H   0.0195820523 -0.6855469864 -1.4519337635
H  -0.5992281867 -1.5095809691  1.3150145749
H   0.7339192466  0.9318217270  0.2496612037
H  -2.5599058278 -2.0998582693  0.2195613308
H  -2.0244214901 -1.5705541064 -1.2369808793
H  -0.4092824892  2.5256906263  0.9833807493
H  -1.6469107219  1.3490163702  1.7103145131
H   2.7565156111  0.2817899966  1.5151325135
H   1.7162711605  0.7273336663 -2.0271784128
H   2.4356332590 -1.4204834233  1.1219801583
H   1.2701757980 -0.4712835826  2.0669098440
H   2.8408961903  1.2909633966 -0.8023481671
H   2.9551580581 -0.3805153503 -1.3883384503
22
Image 50  Energy = -383.5264358269
C  -0.7820190620 -1.1041117346  0.3340814931
C   1.3014000357  0.0393152005 -0.0321466272
C  -1.0680876673  1.6715583128  0.8593161149
C   1.9820265125 -0.4349532413  1.2394956230
C   2.2658195056  0.4238604800 -1.1322705034
N   0.3061364339 -0.9224767017 -0.5094088310
N  -2.0408213436 -1.3680671691 -0.2460753191
O  -1.6457477325  1.6463533940 -0.3820867304
H  -2.1883859693  0.8447507209 -0.4274088937
H   0.0192989379 -0.6852563690 -1.4517538300
H  -0.5993069262 -1.5101915255  1.3154135924
H   0.7348090055  0.9323457395  0.2495850673
H  -2.5600816099 -2.0993051679  0.2200867958
H  -2.0233705379 -1.5707077778 -1.2375626655
H  -0.4098116458  2.5251757420  0.9836045615
H  -1.6482988806  1.3494037624  1.7106689921
H   2.7568076083  0.2814706153  1.5153066482
H   1.7166784580  0.7269981890 -2.0273667739
H   2.4357554341 -1.4204925561  1.1216246236
H   1.2703140879 -0.4716438628  2.0667001638
H   2.8414631134  1.2904204931 -0.8026780251
H   2.9553291973 -0.3808064991 -1.3886605333
22
Image 51  Energy = -383.5265063763
C  -0.7820530587 -1.1029274924  0.3346259158
C   1.3016662335  0.0395836660 -0.0321874953
C  -1.0689198501  1.6706372396  0.8593429923
C   1.9822147560 -0.4350060803  1.2393772092
C   2.2660819679  0.4235672677 -1.1324245208
N   0.3062352441 -0.9220962621 -0.5092763159
N  -2.0405220117 -1.3673102975 -0.2460367836
O  -1.6468226121  1.6464998816 -0.3821560097
H  -2.1887048357  0.8443933009 -0.4276096979
H   0.0190296933 -0.6849484294 -1.4515867170
H  -0.5994065332 -1.5107176910  1.3156514825
H   0.7356600776  0.9328948980  0.2495140813
H  -2.5601178940 -2.0985564425  0.2205002760
H  -2.0223278350 -1.5707816531 -1.2377893056
H  -0.4104321582  2.5245169185  0.9838126545
H  -1.6497073844  1.3497833098  1.7110048835
H   2.7571006855  0.2811602595  1.5154814586
H   1.7170732497  0.7266724720 -2.0275625440
H   2.4358796757 -1.4205131988  1.1212634255
H   1.2704500917 -0.4719991183  2.0664951905
H   2.8420370527  1.2898987224 -0.8030052228
H   2.9554923985 -0.3811112254 -1.3889700151
22
Image 52  Energy = -383.5265753354
C  -0.7820417285 -1.1017686164  0.3351897343
C   1.3019557532  0.0398192907 -0.0322392223
C  -1.0697099416  1.6697696123  0.8593791505
C   1.9824057098 -0.4350593302  1.2392604766
C   2.2663627401  0.4232766235 -1.1325904281
N   0.3062785106 -0.9217063282 -0.5090936663
N  -2.0402806463 -1.3666538738 -0.2460714594
O  -1.6478858325  1.6466263773 -0.3821683828
H  -2.1890423046  0.8440346906 -0.4278353805
H   0.0187713854 -0.6846342686 -1.4514049778
H  -0.5995082190 -1.5111981031  1.3158198792
H   0.7364853646  0.9334496681  0.2494423316
H  -2.5600982038 -2.0977251566  0.2208555643
H  -2.0212951359 -1.5708322047 -1.2378796843
H  -0.4110899471  2.5237877315  0.9840112540
H  -1.6511105151  1.3501659805  1.7113032638
H   2.7573938440  0.2808577283  1.5156563416
H   1.7174586466  0.7263550681 -2.0277626215
H   2.4360052160 -1.4205418275  1.1208988275
H   1.2705837183 -0.4723491218  2.0662936169
H   2.8426169155  1.2893956829 -0.8033298753
H   2.9556516219 -0.3814295773 -1.3892698004
22
Image 53  Energy = -383.5266435542
C  -0.7820352320 -1.1006327229  0.3357428930
C   1.3022565965  0.0400368208 -0.0322951277
C  -1.0704852843  1.6689213608  0.8594267793
C   1.9826010603 -0.4351150326  1.2391459048
C   2.2666570409  0.4229880049 -1.1327669237
N   0.3062890828 -0.9213012755 -0.5088823994
N  -2.0400374182 -1.3660341089 -0.2461193565
O  -1.6489384809  1.6467359120 -0.3821377647
H  -2.1893946706  0.8436765824 -0.4280804444
H   0.0185228605 -0.6843167803 -1.4512036529
H  -0.5996079691 -1.5116437232  1.3159454937
H   0.7372925127  0.9340008464  0.2493674254
H  -2.5600532867 -2.0968534193  0.2211763998
H  -2.0202728061 -1.5708753255 -1.2379020999
H  -0.4117635219  2.5230173056  0.9842037187
H  -1.6525046563  1.3505523931  1.7115670113
H   2.7576866211  0.2805620974  1.5158309526
H   1.7178365146  0.7260450175 -2.0279656745
H   2.4361320006 -1.4205770867  1.1205321354
H   1.2707154881 -0.4726939319  2.0660942027
H   2.8432013660  1.2889084434 -0.8036526633
H   2.9558091326 -0.3817613310 -1.3895618659
22
Image 54  Energy = -383.5271712771
C  -0.7819721871 -1.0934171901  0.3403439331
C   1.3046083909  0.0420543692 -0.0326255384
C  -1.0761374766  1.6631997535  0.8598148722
C   1.9844306480 -0.4358480344  1.2381748231
C   2.2696663915  0.4198034799 -1.1346839651
N   0.3044509972 -0.9153510599 -0.5056850460
N  -2.0378914533 -1.3619120621 -0.2473975326
O  -1.6581495605  1.6476273104 -0.3804999060
H  -2.1919297285  0.8406756402 -0.4301401430
H   0.0166963752 -0.6822935169 -1.4491772519
H  -0.6013954231 -1.5152822581  1.3151512589
H   0.7418842050  0.9386568974  0.2484953625
H  -2.5580772427 -2.0884990737  0.2228452433
H  -2.0114377840 -1.5710318137 -1.2353470845
H  -0.4179387587  2.5163268711  0.9859966227
H  -1.6634836763  1.3541319490  1.7121160581
H   2.7601940959  0.2780296239  1.5173581902
H   1.7207649481  0.7238320267 -2.0293712541
H   2.4377241674 -1.4213749442  1.1178326577
H   1.2717863023 -0.4754735850  2.0642482367
H   2.8474651817  1.2848085359 -0.8061189870
H   2.9586485302 -0.3850228662 -1.3928656070
22
Image 55  Energy = -383.5272500668
C  -0.7823697188 -1.0921039908  0.3403256202
C   1.3049104882  0.0422639732 -0.0326540173
C  -1.0771302415  1.6619823555  0.8599538335
C   1.9846433279 -0.4359116890  1.2380808050
C   2.2699416006  0.4195892870 -1.1348556033
N   0.3046107145 -0.9150526582 -0.5055983537
N  -2.0371675922 -1.3607143213 -0.2465625289
O  -1.6590441939  1.6477683537 -0.3804856552
H  -2.1924396404  0.8402338411 -0.4304550579
H   0.0164765985 -0.6819329417 -1.4488483763
H  -0.6013497614 -1.5157032435  1.3155852106
H   0.7427880070  0.9391066847  0.2484047254
H  -2.5583504198 -2.0879390388  0.2232638792
H  -2.0104966687 -1.5712941006 -1.2361511580
H  -0.4183797613  2.5157164694  0.9861722790
H  -1.6648495944  1.3544840948  1.7123637580
H   2.7604733251  0.2777779634  1.5175230317
H   1.7211262379  0.7235379840 -2.0296079394
H   2.4378148996 -1.4213937200  1.1174406539
H   1.2719141290 -0.4757875142  2.0640740906
H   2.8481005105  1.2843960535 -0.8064553453
H   2.9586846951 -0.3853837887 -1.3930489069
22
Image 56  Energy = -383.5273187850
C  -0.7824079702 -1.0908627737  0.3407477369
C   1.3052291506  0.0424534472 -0.0326910280
C  -1.0779276033  1.6609355337  0.8600694888
C   1.9848523053 -0.4359686648  1.2379886477
C   2.2702281825  0.4193740622 -1.1350306901
N   0.3046991536 -0.9147552749 -0.5054639744
N  -2.0368323701 -1.3598742338 -0.2464035887
O  -1.6600197312  1.6477956698 -0.3804555875
H  -2.1929123636  0.8398790795 -0.4307922866
H   0.0162671396 -0.6815535414 -1.4485664749
H  -0.6013426610 -1.5159919274  1.3157729869
H   0.7436588229  0.9395675787  0.2483174500
H  -2.5584760909 -2.0871949818  0.2236081603
H  -2.0095748021 -1.5714137116 -1.2363831200
H  -0.4189236694  2.5149433290  0.9863401285
H  -1.6662626769  1.3548161418  1.7126373232
H   2.7607528419  0.2775295690  1.5176876324
H   1.7214828999  0.7232505028 -2.0298422803
H   2.4379124840 -1.4214258540  1.1170492115
H   1.2720437986 -0.4760975838  2.0638982227
H   2.8487338813  1.2839899097 -0.8067922025
H   2.9587262180 -0.3857562231 -1.3932308126
22
Image 57  Energy = -383.5273861626
C  -0.7823858430 -1.0896577879  0.3412451240
C   1.3055590104  0.0426285936 -0.0327391721
C  -1.0786706088  1.6599413127  0.8601747970
C   1.9850624855 -0.4360245023  1.2378969049
C   2.2705244124  0.4191566999 -1.1352095958
N   0.3047631527 -0.9144389276 -0.5052801026
N  -2.0365935656 -1.3591630346 -0.2463896838
O  -1.6610015019  1.6477937508 -0.3803919855
H  -2.1933867323  0.8395407438 -0.4311432428
H   0.0160604716 -0.6811645980 -1.4482997328
H  -0.6013440937 -1.5162281939  1.3158858169
H   0.7445033663  0.9400313263  0.2482305278
H  -2.5585323870 -2.0863577107  0.2239012077
H  -2.0086604488 -1.5714917109 -1.2364347079
H  -0.4195068040  2.5140944154  0.9865034722
H  -1.6676802422  1.3551459459  1.7128972735
H   2.7610323664  0.2772842536  1.5178520249
H   1.7218359243  0.7229688333 -2.0300736847
H   2.4380149525 -1.4214666047  1.1166593865
H   1.2721742835 -0.4764036855  2.0637218124
H   2.8493656802  1.2835897169 -0.8071297897
H   2.9587730620 -0.3861387827 -1.3934117076
22
Image 58  Energy = -383.5274532161
C  -0.7823681028 -1.0884791574  0.3417459458
C   1.3058950526  0.0427977079 -0.0327915487
C  -1.0793976758  1.6589608563  0.8602785261
C   1.9852758058 -0.4360810823  1.2378048753
C   2.2708285417  0.4189362701 -1.1353930925
N   0.3048102232 -0.9141006907 -0.5050689841
N  -2.0363671760 -1.3584999753 -0.2464073004
O  -1.6619787678  1.6477785529 -0.3803019670
H  -2.1938677946  0.8392075213 -0.4315039745
H   0.0158584337 -0.6807710813 -1.4480315096
H  -0.6013482422 -1.5164307576  1.3159643898
H   0.7453269069  0.9404932454  0.2481425707
H  -2.5585554258 -2.0854737753  0.2241651967
H  -2.0077522915 -1.5715542824 -1.2364098270
H  -0.4201063386  2.5132007389  0.9866643707
H  -1.6690921689  1.3554771726  1.7131365225
H   2.7613119089  0.2770417993  1.5180162117
H   1.7221861234  0.7226923604 -2.0303019840
H   2.4381214254 -1.4215137726  1.1162717724
H   1.2723053186 -0.4767058576  2.0635447996
H   2.8499959199  1.2831947059 -0.8074680151
H   2.9588252656 -0.3865304438 -1.3935920367
22
Image 59  Energy = -383.5272716075
C  -0.7826139787 -1.0911829625  0.3412418497
C   1.3052282573  0.0420183798 -0.0328238725
C  -1.0785709712  1.6638648188  0.8602785412
C   1.9847374082 -0.4361463659  1.2379888908
C   2.2701260046  0.4192463425 -1.1349142258
N   0.3044777358 -0.9151735172 -0.5054100253
N  -2.0385558728 -1.3588927032 -0.2467719920
O  -1.6598582741  1.6480566094 -0.3807673168
H  -2.1919441382  0.8396505701 -0.4304260154
H   0.0165008864 -0.6822924407 -1.4488971816
H  -0.6017424943 -1.5173216919  1.3154800114
H   0.7441128722  0.9398208425  0.2471712782
H  -2.5570937526 -2.0885727084  0.2228759008
H  -2.0095586858 -1.5720370329 -1.2355337017
H  -0.4177677335  2.5162447968  0.9861043239
H  -1.6657016693  1.3540544682  1.7129497522
H   2.7604805333  0.2776013345  1.5174408531
H   1.7209802020  0.7236001645 -2.0292623528
H   2.4379635120 -1.4216497306  1.1174697578
H   1.2718877770 -0.4761568012  2.0638233117
H   2.8476801743  1.2842547367 -0.8061568922
H   2.9591391513 -0.3853470576 -1.3933959536
22
Image 60  Energy = -383.5273401724
C  -0.7827960684 -1.0900022484  0.3414558040
C   1.3055009472  0.0422315088 -0.0328504509
C  -1.0794455883  1.6627673582  0.8603557205
C   1.9849494137 -0.4362008909  1.2378968599
C   2.2704256632  0.4190387726 -1.1351043795
N   0.3045336850 -0.9148476453 -0.5052383201
N  -2.0380223845 -1.3581220263 -0.2463546467
O  -1.6607339338  1.6481252018 -0.3805765238
H  -2.1924410598  0.8392770591 -0.4307603782
H   0.0162846042 -0.6819191663 -1.4485681762
H  -0.6017366108 -1.5175984473  1.3156714967
H   0.7449637868  0.9402425882  0.2471158702
H  -2.5572347896 -2.0877509303  0.2231862091
H  -2.0086380019 -1.5721541043 -1.2358732074
H  -0.4183849656  2.5154441696  0.9862690997
H  -1.6670163796  1.3544570842  1.7130990676
H   2.7607653077  0.2773534052  1.5176133654
H   1.7213397520  0.7233051475 -2.0295183969
H   2.4380579806 -1.4216735409  1.1170724586
H   1.2720145656 -0.4764625947  2.0636536417
H   2.8483390590  1.2838541209 -0.8064979821
H   2.9591819602 -0.3857247695 -1.3935821889
22
Image 61  Energy = -383.5274063409
C  -0.7828149082 -1.0888631698  0.3418859631
C   1.3057995573  0.0424213723 -0.0328873792
C  -1.0801989883  1.6617517264  0.8604469863
C   1.9851580281 -0.4362514659  1.2378057114
C   2.2707255171  0.4188283097 -1.1352930969
N   0.3045649359 -0.9145096712 -0.5050423997
N  -2.0376576421 -1.3574904930 -0.2462847621
O  -1.6616768369  1.6481200052 -0.3804210656
H  -2.1929152770  0.8389588720 -0.4311070619
H   0.0160738711 -0.6815345175 -1.4482661046
H  -0.6017463521 -1.5178026330  1.3157476284
H   0.7457836090  0.9406794754  0.2470634023
H  -2.5573204371 -2.0868654852  0.2234759237
H  -2.0077320610 -1.5722031076 -1.2359315113
H  -0.4190413573  2.5145637438  0.9864313800
H  -1.6683669232  1.3548392018  1.7132754299
H   2.7610495759  0.2771085278  1.5177850071
H   1.7216972103  0.7230163289 -2.0297705849
H   2.4381576364 -1.4217073261  1.1166761644
H   1.2721437267 -0.4767648107  2.0634824411
H   2.8489944768  1.2834579662 -0.8068404156
H   2.9592295796 -0.3861127981 -1.3937667126
22
Image 62  Energy = -383.5274722904
C  -0.7828037989 -1.0877441708  0.3423516154
C   1.3061128179  0.0425996357 -0.0329317318
C  -1.0809132277  1.6607542408  0.8605420612
C   1.9853681998 -0.4363024095  1.2377146067
C   2.2710290979  0.4186143148 -1.1354826700
N   0.3045881262 -0.9141533260 -0.5048201224
N  -2.0373400540 -1.3569077038 -0.2462893534
O  -1.6626321994  1.6480971973 -0.3802722053
H  -2.1933940022  0.8386487247 -0.4314624110
H   0.0158658602 -0.6811429305 -1.4479738597
H  -0.6017583088 -1.5179731924  1.3157907007
H   0.7465800570  0.9411215748  0.2470108238
H  -2.5573763522 -2.0859422021  0.2237445603
H  -2.0068329457 -1.5722334377 -1.2359016739
H  -0.4197053444  2.5136475219  0.9865927441
H  -1.6697295486  1.3552118174  1.7134563680
H   2.7613330360  0.2768663693  1.5179557816
H   1.7220526628  0.7227330551 -2.0300185818
H   2.4382611875 -1.4217478290  1.1162819179
H   1.2722740938 -0.4770633230  2.0633104324
H   2.8496462761  1.2830653495 -0.8071842867
H   2.9592813071 -0.3865092234 -1.3939497748
22
Image 63  Energy = -383.5275383099
C  -0.7827924692 -1.0866391865  0.3428170560
C   1.3064344294  0.0427740684 -0.0329783670
C  -1.0816122953  1.6597546238  0.8606395523
C   1.9855815185 -0.4363548984  1.2376233095
C   2.2713371967  0.4183965172 -1.1356742137
N   0.3046047329 -0.9137787779 -0.5045833284
N  -2.0370327925 -1.3563399926 -0.2463093074
O  -1.6635892848  1.6480670151 -0.3801243270
H  -2.1938809610  0.8383391704 -0.4318247591
H   0.0156619771 -0.6807469300 -1.4476821781
H  -0.6017699816 -1.5181191491  1.3158201107
H   0.7473580075  0.9415639537  0.2469568583
H  -2.5574166516 -2.0849987156  0.2239997861
H  -2.0059395078 -1.5722577039 -1.2358344777
H  -0.4203669772  2.5127094522  0.9867540661
H  -1.6710970167  1.3555783478  1.7136352944
H   2.7616157754  0.2766266819  1.5181257176
H   1.7224063437  0.7224547855 -2.0302624143
H   2.4383681402 -1.4217936632  1.1158901844
H   1.2724053813 -0.4773581811  2.0631375508
H   2.8502945113  1.2826756198 -0.8075295085
H   2.9593368624 -0.3869129838 -1.3941316629
22
Image 64  Energy = -383.5269414177
C  -0.7839331877 -1.0956829407  0.3405240935
C   1.3038217173  0.0403433333 -0.0330564192
C  -1.0794651363  1.6754760277  0.8603985625
C   1.9835993481 -0.4363027518  1.2383405924
C   2.2687232032  0.4199210344 -1.1340759820
N   0.3043449879 -0.9186249536 -0.5065062342
N  -2.0424635695 -1.3572463929 -0.2456273594
O  -1.6566968953  1.6497466185 -0.3810386794
H  -2.1872387428  0.8395051022 -0.4277348310
H   0.0171116308 -0.6859628215 -1.4502720595
H  -0.6032082166 -1.5227166643  1.3154034582
H   0.7449323025  0.9389053721  0.2440688934
H  -2.5544688844 -2.0961959862  0.2204160306
H  -2.0116461235 -1.5739728792 -1.2360405879
H  -0.4135939191  2.5258084490  0.9850449314
H  -1.6595390972  1.3515153745  1.7128292373
H   2.7591026511  0.2781636207  1.5165586018
H   1.7188095945  0.7249013615 -2.0275909147
H   2.4374770479 -1.4215272150  1.1192492702
H   1.2709936998 -0.4759159010  2.0643524919
H   2.8435074979  1.2859100732 -0.8033384890
H   2.9597369693 -0.3824078472 -1.3934396539
22
Image 65  Energy = -383.5270062807
C  -0.7838152495 -1.0946881635  0.3409035621
C   1.3041761381  0.0404608328 -0.0331159279
C  -1.0800305296  1.6747423922  0.8605776353
C   1.9837813881 -0.4363369255  1.2382325208
C   2.2690209647  0.4197104154 -1.1342791107
N   0.3042787097 -0.9182765433 -0.5061727439
N  -2.0421542870 -1.3572051102 -0.2457995873
O  -1.6576168521  1.6497269011 -0.3808303272
H  -2.1876615099  0.8392537844 -0.4280322042
H   0.0168656861 -0.6856020301 -1.4499284913
H  -0.6032209084 -1.5229321246  1.3153610370
H   0.7455883843  0.9394292471  0.2441518010
H  -2.5544864650 -2.0949855540  0.2205940761
H  -2.0107356617 -1.5738583880 -1.2357938584
H  -0.4146127263  2.5247457137  0.9851751225
H  -1.6607314983  1.3520278195  1.7128950386
H   2.7593839505  0.2779235688  1.5167464733
H   1.7191805459  0.7245974768 -2.0278978884
H   2.4375754448 -1.4215793932  1.1188258864
H   1.2711156882 -0.4762176768  2.0641880955
H   2.8442089346  1.2855238175 -0.8036921527
H   2.9597967305 -0.3828200466 -1.3936440053
22
Image 66  Energy = -383.5270695841
C  -0.7837964906 -1.0937286939  0.3413008211
C   1.3044950056  0.0406249596 -0.0331577225
C  -1.0806735316  1.6738936240  0.8607015363
C   1.9839810058 -0.4363848516  1.2381316711
C   2.2693284673  0.4194927346 -1.1344894811
N   0.3042537642 -0.9178954004 -0.5058866292
N  -2.0417078267 -1.3569814279 -0.2458989397
O  -1.6585191366  1.6497213044 -0.3806220679
H  -2.1880978100  0.8389890199 -0.4283290959
H   0.0166285436 -0.6852417318 -1.4495763073
H  -0.6032295487 -1.5231285239  1.3153177866
H   0.7462541062  0.9399129896  0.2442173881
H  -2.5545765303 -2.0938935435  0.2208308357
H  -2.0098385634 -1.5737829685 -1.2356564791
H  -0.4155334797  2.5237858098  0.9853203390
H  -1.6619444705  1.3525213333  1.7129925424
H   2.7596611650  0.2776839877  1.5169311162
H   1.7195509435  0.7242984012 -2.0281950974
H   2.4376747668 -1.4216304064  1.1184080312
H   1.2712380938 -0.4765154263  2.0640198312
H   2.8449003022  1.2851345278 -0.8040487219
H   2.9598581013 -0.3832357039 -1.3938464051
22
Image 67  Energy = -383.5271324101
C  -0.7837872957 -1.0927803081  0.3417082603
C   1.3048000731  0.0408118935 -0.0331927088
C  -1.0813342042  1.6729915331  0.8608014399
C   1.9841884058 -0.4364384900  1.2380347935
C   2.2696397373  0.4192728404 -1.1347003834
N   0.3042425505 -0.9174972442 -0.5056079208
N  -2.0412388406 -1.3566833401 -0.2459681960
O  -1.6594247128  1.6497118216 -0.3804282359
H  -2.1885426472  0.8387216225 -0.4286303536
H   0.0163968139 -0.6848764199 -1.4492297127
H  -0.6032356902 -1.5233085923  1.3152773869
H   0.7469203387  0.9403754304  0.2442718157
H  -2.5546903127 -2.0928455659  0.2210861516
H  -2.0089490120 -1.5737269810 -1.2355658267
H  -0.4163973680  2.5228737729  0.9854739164
H  -1.6631814405  1.3529953853  1.7131174288
H   2.7599363504  0.2774456080  1.5171136626
H   1.7199207693  0.7240039680 -2.0284843351
H   2.4377763814 -1.4216837475  1.1179940942
H   1.2713620773 -0.4768098936  2.0638486447
H   2.8455836577  1.2847433481 -0.8044085330
H   2.9599212441 -0.3836566272 -1.3940464370
22
Image 68  Energy = -383.5271950082
C  -0.7837704336 -1.0918360147  0.3421206617
C   1.3051016398  0.0410101378 -0.0332243618
C  -1.0819939840  1.6720594462  0.8608914384
C   1.9844001441 -0.4364946049  1.2379398643
C   2.2699523237  0.4190512141 -1.1349100577
N   0.3042372947 -0.9170861151 -0.5053305306
N  -2.0407765129 -1.3563457958 -0.2460251666
O  -1.6603360340  1.6496964954 -0.3802493554
H  -2.1889966410  0.8384515963 -0.4289378029
H   0.0161702036 -0.6845055917 -1.4488889619
H  -0.6032389876 -1.5234737901  1.3152426227
H   0.7475827264  0.9408255517  0.2443181290
H  -2.5548117066 -2.0918173976  0.2213471350
H  -2.0080655427 -1.5736825930 -1.2354948534
H  -0.4172234208  2.5219848702  0.9856323726
H  -1.6644390956  1.3534525962  1.7132619045
H   2.7602104750  0.2772086957  1.5172946862
H   1.7202899477  0.7237140160 -2.0287666258
H   2.4378804802 -1.4217400863  1.1175834156
H   1.2714877622 -0.4771014305  2.0636753856
H   2.8462605717  1.2843515416 -0.8047712296
H   2.9599856652 -0.3840827278 -1.3942437189
22
Image 69  Energy = -383.5258608784
C  -0.7845381098 -1.1234221761  0.3376699065
C   1.2974831773  0.0358998006 -0.0337027990
C  -1.0750844785  1.7203236096  0.8594949093
C   1.9783106065 -0.4355400166  1.2393955513
C   2.2631131098  0.4220317763 -1.1320915744
N   0.3025889977 -0.9288392203 -0.5086809588
N  -2.0465378839 -1.3711949408 -0.2471433777
O  -1.6475233691  1.6596062731 -0.3797902987
H  -2.1662158780  0.8408818362 -0.4123141761
H   0.0149153630 -0.7015146531 -1.4540854787
H  -0.6110377971 -1.5491116597  1.3140514952
H   0.7417706189  0.9366167357  0.2414367268
H  -2.5519673003 -2.1164427412  0.2137717847
H  -2.0173337101 -1.5741466082 -1.2392821829
H  -0.4148653797  2.5703039689  0.9827188735
H  -1.6313463103  1.3505384535  1.7087264012
H   2.7553418977  0.2781747816  1.5157881871
H   1.7141386636  0.7265685228 -2.0259685971
H   2.4352826298 -1.4189400570  1.1230566113
H   1.2677027557 -0.4763892556  2.0671630951
H   2.8326948453  1.2887795465 -0.7950064951
H   2.9630140238 -0.3705442079 -1.3967425589
22
Image 70  Energy = -383.5259166030
C  -0.7844585740 -1.1225837277  0.3378963855
C   1.2978322417  0.0361619423 -0.0336541111
C  -1.0762680716  1.7194436681  0.8599342891
C   1.9785991842 -0.4357210668  1.2393178262
C   2.2635131402  0.4218399001 -1.1323614353
N   0.3026956701 -0.9285624749 -0.5082308772
N  -2.0460643058 -1.3708122322 -0.2471102230
O  -1.6481622232  1.6595213107 -0.3796994929
H  -2.1666424417  0.8406721638 -0.4125741153
H   0.0147579165 -0.7011791109 -1.4535044779
H  -0.6107008574 -1.5494278406  1.3139308964
H   0.7421995919  0.9370598052  0.2415292803
H  -2.5523721326 -2.1155569872  0.2138512517
H  -2.0165901253 -1.5742913369 -1.2394251338
H  -0.4156847612  2.5699727318  0.9827712544
H  -1.6321540396  1.3511635801  1.7088646522
H   2.7554801324  0.2780614641  1.5159343974
H   1.7144498806  0.7263780191 -2.0262961306
H   2.4353760773 -1.4192060876  1.1225668985
H   1.2677937496 -0.4766370056  2.0669369338
H   2.8333473402  1.2885474907 -0.7954247679
H   2.9629590813 -0.3712044380 -1.3967882543
22
Image 71  Energy = -383.5259695807
C  -0.7843666424 -1.1217835318  0.3382422462
C   1.2981698153  0.0364300059 -0.0336065812
C  -1.0771680845  1.7188009734  0.8601782488
C   1.9788801791 -0.4358824895  1.2392356406
C   2.2638790447  0.4216528953 -1.1326136234
N   0.3028230232 -0.9282593595 -0.5078429089
N  -2.0456508107 -1.3704634605 -0.2471899174
O  -1.6488327810  1.6593993146 -0.3795763746
H  -2.1670807815  0.8404602729 -0.4128543356
H   0.0146090860 -0.7008387032 -1.4529455913
H  -0.6103807737 -1.5497190158  1.3137872159
H   0.7426433608  0.9374820776  0.2416150090
H  -2.5527416305 -2.1146466981  0.2139300210
H  -2.0158491424 -1.5744158523 -1.2394816768
H  -0.4165800948  2.5695168684  0.9828294427
H  -1.6331173706  1.3516915902  1.7091712816
H   2.7556284266  0.2779380072  1.5160846376
H   1.7147729661  0.7261802466 -2.0266042962
H   2.4354706168 -1.4194577480  1.1220846317
H   1.2678913107 -0.4768894626  2.0667095783
H   2.8339970842  1.2883004657 -0.7958499897
H   2.9629096731 -0.3718566279 -1.3968376142
22
Image 72  Energy = -383.5260216604
C  -0.7842783909 -1.1210050529  0.3386140495
C   1.2985002626  0.0366970929 -0.0335658206
C  -1.0779695250  1.7182231926  0.8603599209
C   1.9791549742 -0.4360299569  1.2391490603
C   2.2642253493  0.4214662394 -1.1328498816
N   0.3029566785 -0.9279408751 -0.5074737905
N  -2.0452619722 -1.3701223522 -0.2472937933
O  -1.6495157854  1.6592727804 -0.3794481594
H  -2.1675314995  0.8402348413 -0.4131416365
H   0.0144635097 -0.7004899581 -1.4524165044
H  -0.6100720404 -1.5500019783  1.3136539930
H   0.7430977769  0.9378909431  0.2416961811
H  -2.5530869728 -2.1137211209  0.2140070574
H  -2.0151072219 -1.5745351422 -1.2395112996
H  -0.4174806137  2.5690339286  0.9828928641
H  -1.6341427292  1.3521799490  1.7095302146
H   2.7557865953  0.2778063021  1.5162386136
H   1.7151035264  0.7259771972 -2.0268979446
H   2.4355652459 -1.4196939432  1.1216091672
H   1.2679943176 -0.4771458159  2.0664821303
H   2.8346443423  1.2880407622 -0.7962810730
H   2.9628606490 -0.3724972633 -1.3968883024
22
Image 73  Energy = -383.5260730785
C  -0.7841942862 -1.1202436302  0.3389907518
C   1.2988253930  0.0369612975 -0.0335302569
C  -1.0787299563  1.7176592437  0.8605223543
C   1.9794250311 -0.4361662515  1.2390586445
C   2.2645591657  0.4212776919 -1.1330734834
N   0.3030881649 -0.9276112628 -0.5071174615
N  -2.0448850679 -1.3697779364 -0.2474028861
O  -1.6502079633  1.6591458827 -0.3793219185
H  -2.1679910617  0.8399983438 -0.4134317907
H   0.0143212632 -0.7001333370 -1.4519133613
H  -0.6097736120 -1.5502796800  1.3135361525
H   0.7435602732  0.9382903057  0.2417738020
H  -2.5534148037 -2.1127873785  0.2140847455
H  -2.0143640716 -1.5746531017 -1.2395291222
H  -0.4183677574  2.5685499041  0.9829609033
H  -1.6351985876  1.3526481454  1.7099027002
H   2.7559539678  0.2776674512  1.5163958675
H   1.7154391315  0.7257699965 -2.0271797313
H   2.4356597361 -1.4199150882  1.1211399540
H   1.2681018897 -0.4774053827  2.0662551250
H   2.8352894013  1.2877703320 -0.7967166414
H   2.9628102233 -0.3731257755 -1.3969393058
22
Image 74  Energy = -383.5254736673
C  -0.7842247908 -1.1427072334  0.3381122542
C   1.2948999109  0.0339499168 -0.0337175053
C  -1.0823110637  1.7606665431  0.8620863781
C   1.9761235202 -0.4367546861  1.2396629954
C   2.2611039015  0.4231435436 -1.1325478789
N   0.3039734541 -0.9386430488 -0.5069989894
N  -2.0469740890 -1.3809884719 -0.2492279921
O  -1.6434190816  1.6672861719 -0.3777175717
H  -2.1499639001  0.8402775514 -0.3998841290
H   0.0116010972 -0.7132379701 -1.4511299643
H  -0.6133382423 -1.5789230678  1.3110740512
H   0.7445313224  0.9382146246  0.2394308913
H  -2.5549482483 -2.1283175628  0.2068818545
H  -2.0164011981 -1.5766515570 -1.2441896112
H  -0.4251816948  2.6123872279  0.9800808509
H  -1.6119913285  1.3547991206  1.7095370207
H   2.7524226732  0.2776218057  1.5163149894
H   1.7125195945  0.7265026381 -2.0277394041
H   2.4335335289 -1.4195580668  1.1212439367
H   1.2652693445 -0.4794065315  2.0674813243
H   2.8288581986  1.2901962798 -0.7914124384
H   2.9638231581 -0.3662177051 -1.3988759322
22
Image 75  Energy = -383.5255209412
C  -0.7840213984 -1.1422791025  0.3385782359
C   1.2952047171  0.0342751076 -0.0336415903
C  -1.0830828420  1.7602167150  0.8623157587
C   1.9764226809 -0.4368953983  1.2395442127
C   2.2613963852  0.4228884724 -1.1327175320
N   0.3040387393 -0.9380778970 -0.5065552489
N  -2.0466512812 -1.3807220477 -0.2496073766
O  -1.6440589180  1.6670174792 -0.3776397887
H  -2.1503746995  0.8401299678 -0.4001382982
H   0.0115818225 -0.7128619773 -1.4506804385
H  -0.6129186048 -1.5791862542  1.3108277837
H   0.7446551334  0.9384878445  0.2395208705
H  -2.5552692959 -2.1273242347  0.2067890771
H  -2.0157692177 -1.5768292051 -1.2439432810
H  -0.4260787035  2.6121840690  0.9801294428
H  -1.6128198033  1.3553057384  1.7099201078
H   2.7525679483  0.2775030475  1.5164821645
H   1.7128667906  0.7263575142 -2.0278897704
H   2.4336583826 -1.4198417939  1.1207961133
H   1.2654023126 -0.4796562204  2.0671867677
H   2.8294037802  1.2899124205 -0.7919590335
H   2.9637521387 -0.3669647224 -1.3988530477
22
Image 76  Energy = -383.5255667299
C  -0.7838818358 -1.1418250247  0.3389180848
C   1.2954957525  0.0345913339 -0.0335637606
C  -1.0837960931  1.7598135416  0.8624846783
C   1.9767187843 -0.4370313479  1.2394254109
C   2.2616875710  0.4226336713 -1.1328807632
N   0.3041033665 -0.9375325260 -0.5061453171
N  -2.0462832560 -1.3804005163 -0.2497885348
O  -1.6446595663  1.6668102957 -0.3775351011
H  -2.1508261003  0.8399125764 -0.4003931771
H   0.0115621316 -0.7124827289 -1.4502357951
H  -0.6125037455 -1.5794826407  1.3106644481
H   0.7448041162  0.9387680339  0.2396142059
H  -2.5555964352 -2.1263457519  0.2067086212
H  -2.0151220789 -1.5770361693 -1.2438517066
H  -0.4269814093  2.6119605061  0.9801775226
H  -1.6136920483  1.3557811702  1.7103340728
H   2.7527251864  0.2773779709  1.5166522069
H   1.7132094300  0.7262044325 -2.0280441971
H   2.4337785214 -1.4200993936  1.1203515860
H   1.2655354650 -0.4799100927  2.0669002935
H   2.8299574187  1.2896240148 -0.7924999968
H   2.9636708940 -0.3676918327 -1.3988276504
22
Image 77  Energy = -383.5256117082
C  -0.7837526598 -1.1413652146  0.3392321841
C   1.2957762217  0.0348996621 -0.0334853781
C  -1.0844800649  1.7594233423  0.8626402456
C   1.9770095405 -0.4371602484  1.2393084515
C   2.2619736610  0.4223815800 -1.1330383369
N   0.3041659608 -0.9370069183 -0.5057697943
N  -2.0459105834 -1.3800489270 -0.2499257202
O  -1.6452564115  1.6666190997 -0.3774262579
H  -2.1512891144  0.8396720384 -0.4006458966
H   0.0115425322 -0.7120982406 -1.4498052694
H  -0.6120992693 -1.5797886669  1.3105349099
H   0.7449757883  0.9390545753  0.2397106553
H  -2.5559265639 -2.1253838888  0.2066489005
H  -2.0144668357 -1.5772491746 -1.2438088760
H  -0.4278764893  2.6117344002  0.9802264639
H  -1.6145869128  1.3562407741  1.7107505284
H   2.7528929977  0.2772468573  1.5168243010
H   1.7135484892  0.7260435532 -2.0282010460
H   2.4338957788 -1.4203356924  1.1199098120
H   1.2656695275 -0.4801677962  2.0666210844
H   2.8305181959  1.2893311534 -0.7930352002
H   2.9635822835 -0.3684027450 -1.3988006288
22
Image 78  Energy = -383.5256560513
C  -0.7836226534 -1.1409052088  0.3395407996
C   1.2960483823  0.0352003685 -0.0334088436
C  -1.0851470651  1.7590349246  0.8627930332
C   1.9772944769 -0.4372818070  1.2391938870
C   2.2622537369  0.4221331632 -1.1331907526
N   0.3042280084 -0.9364993778 -0.5054197787
N  -2.0455456153 -1.3796807200 -0.2500527072
O  -1.6458565271  1.6664326309 -0.3773163157
H  -2.1517559020  0.8394208012 -0.4008954271
H   0.0115216791 -0.7117074420 -1.4493932261
H  -0.6117059816 -1.5800979086  1.3104251443
H   0.7451677730  0.9393467819  0.2398097428
H  -2.5562548857 -2.1244321952  0.2066068669
H  -2.0138054159 -1.5774623112 -1.2437855193
H  -0.4287604168  2.6115106089  0.9802766538
H  -1.6154967795  1.3566899375  1.7111607088
H   2.7530701088  0.2771101171  1.5169978949
H   1.7138842877  0.7258753460 -2.0283595017
H   2.4340111341 -1.4205536971  1.1194705307
H   1.2658046171 -0.4804289000  2.0663489866
H   2.8310852798  1.2890340972 -0.7935646454
H   2.9634878321 -0.3690996855 -1.3987724005
22
Image 79  Energy = -383.5258405556
C  -0.7820383482 -1.1564126091  0.3452818563
C   1.2966951520  0.0366138683 -0.0328549768
C  -1.1035250996  1.8019095737  0.8677844343
C   1.9782678608 -0.4401968692  1.2378746436
C   2.2637579222  0.4196531843 -1.1359753611
N   0.3058385466 -0.9408451383 -0.4985281543
N  -2.0414036201 -1.3858102090 -0.2543793144
O  -1.6510479094  1.6740771558 -0.3727121392
H  -2.1377636677  0.8348843061 -0.3892857589
H   0.0065246064 -0.7210514793 -1.4407782448
H  -0.6112974557 -1.6211518597  1.3053945125
H   0.7530629082  0.9460828642  0.2377125588
H  -2.5622618166 -2.1255896976  0.1983406149
H  -2.0020940016 -1.5828100355 -1.2481972642
H  -0.4531073766  2.6574840856  0.9782931329
H  -1.6059172395  1.3680061955  1.7164300669
H   2.7524811460  0.2738900797  1.5201092860
H   1.7166601302  0.7230812025 -2.0326430718
H   2.4336913006 -1.4237573891  1.1115715385
H   1.2647265234 -0.4880709895  2.0631398889
H   2.8340887852  1.2859262896 -0.7957172386
H   2.9645672443 -0.3722733080 -1.4023957682
22
Image 80  Energy = -383.5258792079
C  -0.7818007982 -1.1563468601  0.3456918479
C   1.2968920260  0.0368618346 -0.0327759148
C  -1.1039764088  1.8015707619  0.8678176267
C   1.9785319916 -0.4402277237  1.2377586287
C   2.2639079810  0.4193642401 -1.1359891394
N   0.3058213147 -0.9402099006 -0.4983861431
N  -2.0411219852 -1.3852721568 -0.2545514368
O  -1.6516248528  1.6737032445 -0.3726626434
H  -2.1381995794  0.8347103910 -0.3894523629
H   0.0066605073 -0.7205279964 -1.4406708879
H  -0.6108908854 -1.6213522498  1.3052747967
H   0.7530481371  0.9462218139  0.2378488160
H  -2.5625663275 -2.1246884514  0.1983091814
H  -2.0015319152 -1.5831128545 -1.2481821144
H  -0.4538625239  2.6575468006  0.9783449140
H  -1.6067834961  1.3683166912  1.7168978839
H   2.7527445997  0.2737087612  1.5203109305
H   1.7169791881  0.7229091744 -2.0326306398
H   2.4338157739 -1.4238047417  1.1112024108
H   1.2649154909 -0.4883468283  2.0628753082
H   2.8345990783  1.2855558343 -0.7963328646
H   2.9643482747 -0.3729405639 -1.4022329560
22
Image 81  Energy = -383.5259168220
C  -0.7815792853 -1.1562265498  0.3459466976
C   1.2970746181  0.0371152042 -0.0326934705
C  -1.1044449292  1.8012227837  0.8678991411
C   1.9787895661 -0.4402594842  1.2376473724
C   2.2640681395  0.4190859381 -1.1360119759
N   0.3058014430 -0.9396151085 -0.4982147823
N  -2.0408543536 -1.3847667126 -0.2546670996
O  -1.6521487857  1.6734157991 -0.3725981281
H  -2.1386751287  0.8344560856 -0.3896131344
H   0.0067806996 -0.7200024107 -1.4405615553
H  -0.6104794122 -1.6215907857  1.3052262400
H   0.7530567226  0.9463737263  0.2379882326
H  -2.5628551604 -2.1237617719  0.1982710793
H  -2.0009570857 -1.5834115220 -1.2481736810
H  -0.4546335653  2.6575827674  0.9783860700
H  -1.6076246294  1.3686493428  1.7173062153
H   2.7530101840  0.2735300735  1.5205095345
H   1.7172834959  0.7227318926 -2.0326355143
H   2.4339444629 -1.4238540482  1.1108312438
H   1.2650992404 -0.4886219836  2.0626251661
H   2.8351191911  1.2851926500 -0.7969298874
H   2.9641301625 -0.3736066650 -1.4020725210
22
Image 82  Energy = -383.5259538447
C  -0.7813697493 -1.1560853986  0.3461533953
C   1.2972500585  0.0373714051 -0.0326066273
C  -1.1049143738  1.8008792456  0.8680039892
C   1.9790416975 -0.4402914592  1.2375414939
C   2.2642326013  0.4188165928 -1.1360425609
N   0.3057877039 -0.9390488702 -0.4980542412
N  -2.0405937664 -1.3842747133 -0.2547794869
O  -1.6526587073  1.6731513013 -0.3725222576
H  -2.1391576643  0.8341794950 -0.3897689349
H   0.0068922157 -0.7194778365 -1.4404433904
H  -0.6100717516 -1.6218402808  1.3051963056
H   0.7530851037  0.9465389744  0.2381306158
H  -2.5631385372 -2.1228295016  0.1982404878
H  -2.0003764667 -1.5837033413 -1.2481563727
H  -0.4554163699  2.6575953999  0.9784220384
H  -1.6084551313  1.3689919015  1.7176785664
H   2.7532766784  0.2733531038  1.5207049076
H   1.7175757516  0.7225493883 -2.0326547710
H   2.4340762991 -1.4239039572  1.1104582812
H   1.2652789704 -0.4888965413  2.0623880423
H   2.8356478423  1.2848356377 -0.7975096795
H   2.9639131853 -0.3742713236 -1.4019145581
22
Image 83  Energy = -383.5259903635
C  -0.7811685188 -1.1559333965  0.3463406468
C   1.2974214149  0.0376284636 -0.0325182999
C  -1.1053833287  1.8005403876  0.8681187646
C   1.9792889703 -0.4403239565  1.2374410162
C   2.2643994643  0.4185556266 -1.1360789987
N   0.3057823412 -0.9385069283 -0.4979054807
N  -2.0403385872 -1.3837907283 -0.2548942041
O  -1.6531640902  1.6728935909 -0.3724357645
H  -2.1396385436  0.8338959697 -0.3899196536
H   0.0069957532 -0.7189535750 -1.4403202235
H  -0.6096706431 -1.6220924354  1.3051688937
H   0.7531311318  0.9467168628  0.2382755966
H  -2.5634187888 -2.1218958823  0.1982195936
H  -1.9997922071 -1.5839893757 -1.2481328726
H  -0.4562058168  2.6575907790  0.9784552481
H  -1.6092809279  1.3693389413  1.7180263287
H   2.7535433858  0.2731773999  1.5208970762
H   1.7178577297  0.7223618618 -2.0326862716
H   2.4342105076 -1.4239534808  1.1100838626
H   1.2654555867 -0.4891705374  2.0621628737
H   2.8361837302  1.2844835168 -0.7980739023
H   2.9636970252 -0.3749338817 -1.4017589856
22
Image 84  Energy = -383.5266071142
C  -0.7780128527 -1.1633539244  0.3553920050
C   1.3010368102  0.0425415526 -0.0312159742
C  -1.1285500244  1.8292500180  0.8735797212
C   1.9838119485 -0.4435832124  1.2347461023
C   2.2689765294  0.4119121683 -1.1396435050
N   0.3058563697 -0.9326049349 -0.4889130280
N  -2.0333505580 -1.3800422471 -0.2595689563
O  -1.6673997997  1.6764029206 -0.3667929851
H  -2.1347032566  0.8257232669 -0.3834653095
H   0.0035213878 -0.7200378113 -1.4308330666
H  -0.6058178873 -1.6598341265  1.3001704130
H   0.7619908437  0.9562596079  0.2371006313
H  -2.5699370885 -2.1092806158  0.1916968514
H  -1.9797189886 -1.5921217726 -1.2503288358
H  -0.4867941925  2.6915769038  0.9780569156
H  -1.6158981812  1.3836714666  1.7264735045
H   2.7570690871  0.2675232994  1.5261729224
H   1.7244868894  0.7173134231 -2.0368084568
H   2.4362998186 -1.4278095247  1.0984969502
H   1.2670270992 -0.4996302387  2.0559668757
H   2.8460373955  1.2762979920 -0.8071299950
H   2.9639738480 -0.3865352278 -1.4046874452
22
Image 85  Energy = -383.5266392084
C  -0.7777705828 -1.1633824325  0.3554615773
C   1.3011532812  0.0427159703 -0.0311420564
C  -1.1290041128  1.8287491737  0.8737561677
C   1.9839905928 -0.4435366731  1.2347188853
C   2.2690631958  0.4117589495 -1.1396213906
N   0.3059086091 -0.9323381391 -0.4889912605
N  -2.0332087596 -1.3795928347 -0.2596829208
O  -1.6678121430  1.6760430017 -0.3667230513
H  -2.1351083963  0.8255340099 -0.3834551911
H   0.0036412184 -0.7193686388 -1.4309267633
H  -0.6054507044 -1.6599212223  1.3000630640
H   0.7621388564  0.9564022102  0.2373271450
H  -2.5702129094 -2.1083389099  0.1917777822
H  -1.9792185341 -1.5923960506 -1.2502755199
H  -0.4875219061  2.6916731749  0.9780422328
H  -1.6165844660  1.3839956270  1.7266040083
H   2.7573943160  0.2673240131  1.5263466292
H   1.7246495401  0.7170535071 -2.0368612308
H   2.4364338554 -1.4276689664  1.0981502323
H   1.2672175345 -0.4999011628  2.0558931021
H   2.8466362323  1.2759427221 -0.8076038821
H   2.9635704815 -0.3871083469 -1.4043922252
22
Image 86  Energy = -383.5266706761
C  -0.7775512238 -1.1633864720  0.3554771332
C   1.3012670036  0.0428966515 -0.0310632728
C  -1.1293776113  1.8283505653  0.8738587759
C   1.9841676888 -0.4434956917  1.2346889754
C   2.2691471224  0.4116065539 -1.1396082543
N   0.3059704466 -0.9320603689 -0.4890718002
N  -2.0330408901 -1.3791367232 -0.2597869432
O  -1.6681971243  1.6757270161 -0.3666276379
H  -2.1355401622  0.8252909074 -0.3834507758
H   0.0037553467 -0.7187084591 -1.4309910273
H  -0.6050831946 -1.6600227384  1.2999757096
H   0.7622854998  0.9565492859  0.2375489326
H  -2.5704960491 -2.1074081569  0.1918670256
H  -1.9787223169 -1.5926705536 -1.2502238279
H  -0.4882870938  2.6917070724  0.9780275307
H  -1.6173104269  1.3842839726  1.7267864894
H   2.7577128382  0.2671318774  1.5265169830
H   1.7248098641  0.7167943987 -2.0369148141
H   2.4365740953 -1.4275458397  1.0978039957
H   1.2674062624 -0.5001681314  2.0558257424
H   2.8472331160  1.2755945671 -0.8080661368
H   2.9631820085 -0.3876907511 -1.4041074708
22
Image 87  Energy = -383.5267017496
C  -0.7773376592 -1.1633766179  0.3554742002
C   1.3013800887  0.0430825402 -0.0309822412
C  -1.1297267019  1.8279857674  0.8739437691
C   1.9843441226 -0.4434608436  1.2346580663
C   2.2692327820  0.4114539889 -1.1396007057
N   0.3060403253 -0.9317752850 -0.4891512963
N  -2.0328654153 -1.3786827644 -0.2598912106
O  -1.6685768801  1.6754246305 -0.3665285541
H  -2.1359779402  0.8250285420 -0.3834475601
H   0.0038637007 -0.7180546339 -1.4310360568
H  -0.6047188882 -1.6601286287  1.2998900350
H   0.7624309128  0.9567016315  0.2377667989
H  -2.5707804622 -2.1064810432  0.1919614557
H  -1.9782309594 -1.5929442029 -1.2501713727
H  -0.4890604497  2.6917195899  0.9780142340
H  -1.6180483687  1.3845602793  1.7269808708
H   2.7580243519  0.2669457611  1.5266837683
H   1.7249672431  0.7165365387 -2.0369704215
H   2.4367190535 -1.4274369888  1.0974584252
H   1.2675942074 -0.5004314915  2.0557635117
H   2.8478268475  1.2752512921 -0.8085183653
H   2.9628052883 -0.3882790798 -1.4038320192
22
Image 88  Energy = -383.5267325601
C  -0.7771254470 -1.1633566647  0.3554639584
C   1.3014940216  0.0432726476 -0.0309002817
C  -1.1300693583  1.8276335675  0.8740248506
C   1.9845204306 -0.4434320958  1.2346269641
C   2.2693219657  0.4113008495 -1.1395973492
N   0.3061166474 -0.9314851027 -0.4892274327
N  -2.0326870073 -1.3782328200 -0.2599971927
O  -1.6689570802  1.6751269200 -0.3664301304
H  -2.1364154560  0.8247575653 -0.3834441956
H   0.0039662481 -0.7174056989 -1.4310671234
H  -0.6043587499 -1.6602357279  1.2998006625
H   0.7625753812  0.9568594756  0.2379811556
H  -2.5710642701 -2.1055554841  0.1920600083
H  -1.9777446445 -1.5932170665 -1.2501188495
H  -0.4898328320  2.6917236070  0.9780028496
H  -1.6187902761  1.3848313793  1.7271759682
H   2.7583288592  0.2667648071  1.5268469793
H   1.7251218800  0.7162799651 -2.0370280645
H   2.4368676466 -1.4273400768  1.0971136797
H   1.2677819609 -0.5006915748  2.0557055267
H   2.8484169650  1.2749116464 -0.8089616487
H   2.9624383169 -0.3888711352 -1.4035650029
22
Image 89  Energy = -383.5274382204
C  -0.7691464972 -1.1858066582  0.3616390293
C   1.3037721704  0.0499733942 -0.0279702417
C  -1.1551043477  1.8672950993  0.8808431086
C   1.9895241525 -0.4455517947  1.2322479337
C   2.2724063140  0.4043677128 -1.1420877382
N   0.3083182414 -0.9269246573 -0.4829546289
N  -2.0220162318 -1.3780915995 -0.2677792412
O  -1.6828544666  1.6768367427 -0.3590968705
H  -2.1299428814  0.8147189886 -0.3693812863
H   0.0011746716 -0.7137242815 -1.4232627126
H  -0.5955480817 -1.7090240964  1.2925942784
H   0.7693937767  0.9663932056  0.2426108810
H  -2.5858889013 -2.0856994075  0.1846790805
H  -1.9547730675 -1.6047395843 -1.2551547545
H  -0.5359154866  2.7480569517  0.9760065608
H  -1.6218362536  1.4048157201  1.7368736600
H   2.7647952507  0.2588045529  1.5346500793
H   1.7325018882  0.7075787091 -2.0426332233
H   2.4397943185 -1.4281306807  1.0807741446
H   1.2709492588 -0.5149239365  2.0503292339
H   2.8645999303  1.2631005647 -0.8227566483
H   2.9557008752 -0.4056863132 -1.4017051805
22
Image 90  Energy = -383.5274657278
C  -0.7689389820 -1.1855769872  0.3612636568
C   1.3038909057  0.0500913764 -0.0278804806
C  -1.1555866202  1.8669668088  0.8807045777
C   1.9896703266 -0.4455841527  1.2322690539
C   2.2724706673  0.4042870250 -1.1420775159
N   0.3084704318 -0.9267748054 -0.4830487774
N  -2.0219870943 -1.3776258964 -0.2677047096
O  -1.6829708398  1.6766087740 -0.3587956503
H  -2.1302168201  0.8144668496 -0.3691961323
H   0.0012851075 -0.7130335047 -1.4232157799
H  -0.5951762777 -1.7090850195  1.2923194262
H   0.7695497054  0.9665402042  0.2427190880
H  -2.5859912441 -2.0847794870  0.1847097768
H  -1.9545097763 -1.6051388404 -1.2550312054
H  -0.5367878591  2.7478730619  0.9759188905
H  -1.6223174666  1.4050949370  1.7369076183
H   2.7649947100  0.2587008496  1.5347215851
H   1.7324968588  0.7073319713 -2.0426246099
H   2.4400111335 -1.4280993925  1.0804935500
H   1.2711679175 -0.5151272581  2.0504154560
H   2.8650773620  1.2628146330 -0.8230097736
H   2.9553024873 -0.4063125147 -1.4013925816
22
Image 91  Energy = -383.5274920086
C  -0.7687441138 -1.1854015078  0.3610420169
C   1.3040111751  0.0502217574 -0.0277851813
C  -1.1559970303  1.8666740970  0.8806777925
C   1.9898201203 -0.4456182962  1.2322869741
C   2.2725446131  0.4041787431 -1.1420628585
N   0.3086383312 -0.9266046119 -0.4831894867
N  -2.0219099702 -1.3771134544 -0.2677648219
O  -1.6831712465  1.6763202945 -0.3586284647
H  -2.1304791558  0.8142369855 -0.3690208235
H   0.0013959675 -0.7123460716 -1.4231780168
H  -0.5948165797 -1.7091137202  1.2919960547
H   0.7697042512  0.9666828863  0.2428288757
H  -2.5861319179 -2.0839166580  0.1847958585
H  -1.9542607000 -1.6055207530 -1.2548733929
H  -0.5376350421  2.7477135404  0.9758370469
H  -1.6228221635  1.4053487761  1.7369647687
H   2.7651915412  0.2585982288  1.5347925515
H   1.7324952001  0.7070889562 -2.0426178317
H   2.4402247113 -1.4280674745  1.0802172958
H   1.2713888557 -0.5153309809  2.0504971369
H   2.8655525151  1.2625303574 -0.8232617561
H   2.9549052732 -0.4069224632 -1.4010882755
22
Image 92  Energy = -383.5275176848
C  -0.7685517844 -1.1852401806  0.3608644412
C   1.3041332303  0.0503564411 -0.0276914195
C  -1.1563782534  1.8663913329  0.8806846889
C   1.9899716650 -0.4456532564  1.2323021949
C   2.2726240591  0.4040587310 -1.1420443573
N   0.3088080073 -0.9264248040 -0.4833274212
N  -2.0218223518 -1.3765965668 -0.2678506470
O  -1.6834015316  1.6760237827 -0.3585195985
H  -2.1307477640  0.8139933521 -0.3688545274
H   0.0015011424 -0.7116582299 -1.4231553363
H  -0.5944632357 -1.7091369294  1.2916677330
H   0.7698569912  0.9668244921  0.2429402989
H  -2.5862806104 -2.0830650432  0.1849022438
H  -1.9540150924 -1.6058961718 -1.2547266833
H  -0.5384525280  2.7475859355  0.9757618624
H  -1.6233477030  1.4055801026  1.7370458289
H   2.7653862593  0.2584967586  1.5348632615
H   1.7324985416  0.7068479122 -2.0426098689
H   2.4404356589 -1.4280359021  1.0799447570
H   1.2716119051 -0.5155351104  2.0505748829
H   2.8660245836  1.2622447579 -0.8235138934
H   2.9545134475 -0.4075227730 -1.4007929795
22
Image 93  Energy = -383.5275429580
C  -0.7683609656 -1.1850832803  0.3607047189
C   1.3042570148  0.0504931089 -0.0275989702
C  -1.1567440093  1.8661125606  0.8807029079
C   1.9901244722 -0.4456882243  1.2323151166
C   2.2727069905  0.4039323614 -1.1420236757
N   0.3089740046 -0.9262370203 -0.4834602365
N  -2.0217305037 -1.3760844405 -0.2679437058
O  -1.6836478673  1.6757267285 -0.3584408124
H  -2.1310233504  0.8137341208 -0.3686970044
H   0.0016013961 -0.7109708640 -1.4231415746
H  -0.5941147219 -1.7091611283  1.2913450371
H   0.7700081907  0.9669659778  0.2430531597
H  -2.5864312320 -2.0822154545  0.1850210564
H  -1.9537710484 -1.6062665377 -1.2545944892
H  -0.5392435468  2.7474863034  0.9756930038
H  -1.6238900311  1.4057933493  1.7371450881
H   2.7655791541  0.2583964088  1.5349337991
H   1.7325073930  0.7066081802 -2.0425996277
H   2.4406443784 -1.4280051878  1.0796755434
H   1.2718367633 -0.5157395870  2.0506490103
H   2.8664936589  1.2619572555 -0.8237662167
H   2.9541284958 -0.4081160000 -1.4005066682
22
Image 94  Energy = -383.5279891355
C  -0.7619657552 -1.2012604878  0.3630056023
C   1.3058823370  0.0550881859 -0.0251762021
C  -1.1747085671  1.8938242370  0.8853169508
C   1.9936730358 -0.4471787982  1.2310697221
C   2.2745003053  0.3997119032 -1.1433705287
N   0.3120441750 -0.9246336480 -0.4804229704
N  -2.0143766624 -1.3758135385 -0.2736294084
O  -1.6918868241  1.6757145257 -0.3531667549
H  -2.1267044505  0.8065976291 -0.3574189419
H   0.0001232349 -0.7060987778 -1.4177820742
H  -0.5861911955 -1.7423979463  1.2848472688
H   0.7749322863  0.9732840960  0.2471000691
H  -2.5980092721 -2.0666667158  0.1801345805
H  -1.9390157219 -1.6154504343 -1.2580466300
H  -0.5737501886  2.7875463195  0.9734809670
H  -1.6252468328  1.4200626101  1.7438877149
H   2.7701113542  0.2531260292  1.5401922650
H   1.7368561038  0.6999041697 -2.0465159100
H   2.4430959549 -1.4282444897  1.0676885794
H   1.2746550939 -0.5257961493  2.0479803031
H   2.8789180923  1.2536503660 -0.8334668597
H   2.9469677310 -0.4213307056 -1.3972421889
22
Image 95  Energy = -383.5280135501
C  -0.7617937068 -1.2010426882  0.3627993697
C   1.3060346124  0.0551561264 -0.0250909475
C  -1.1751281152  1.8935322465  0.8852097070
C   1.9938276246 -0.4472634426  1.2310969210
C   2.2746167587  0.3995513780 -1.1433181725
N   0.3121604032 -0.9243885464 -0.4805126304
N  -2.0143620182 -1.3753909667 -0.2735981315
O  -1.6920542190  1.6754404437 -0.3530280598
H  -2.1268316514  0.8063862379 -0.3571718141
H   0.0002279833 -0.7054004387 -1.4177692031
H  -0.5858945382 -1.7423359727  1.2843106132
H   0.7750114266  0.9733829565  0.2471247749
H  -2.5978982818 -2.0657368022  0.1801724879
H  -1.9389489462 -1.6158753299 -1.2578545724
H  -0.5745814432  2.7873424377  0.9733849019
H  -1.6256398097  1.4202801000  1.7439200862
H   2.7702307752  0.2530589461  1.5402072767
H   1.7368066525  0.6996914911 -2.0463986622
H   2.4433391819 -1.4282325654  1.0675064719
H   1.2749287951 -0.5259712152  2.0480871161
H   2.8792392567  1.2533292326 -0.8336278281
H   2.9466134941 -0.4218752496 -1.3969841511
22
Image 96  Energy = -383.5280369132
C  -0.7616413744 -1.2008176849  0.3625953903
C   1.3061766275  0.0552375469 -0.0249970861
C  -1.1755067287  1.8932588808  0.8851577541
C   1.9939805034 -0.4473386076  1.2311193236
C   2.2747145199  0.3993832421 -1.1432685672
N   0.3122748946 -0.9241421000 -0.4806289502
N  -2.0142694694 -1.3748948172 -0.2736593907
O  -1.6922516657  1.6751637719 -0.3529582288
H  -2.1269756432  0.8061458790 -0.3569397838
H   0.0003306235 -0.7047051915 -1.4177569764
H  -0.5855932053 -1.7422940354  1.2838188280
H   0.7751012772  0.9734757225  0.2471536237
H  -2.5978596382 -2.0648907942  0.1802820216
H  -1.9388837797 -1.6162871214 -1.2576591460
H  -0.5753825808  2.7871739741  0.9732935756
H  -1.6260554446  1.4204730111  1.7439733427
H   2.7703546789  0.2529938746  1.5402243798
H   1.7367648266  0.6994786600 -2.0462817982
H   2.4435822693 -1.4282258900  1.0673260167
H   1.2751989383 -0.5261486689  2.0481930825
H   2.8795714956  1.2530188214 -0.8337850639
H   2.9462731081 -0.4224200941 -1.3967367925
22
Image 97  Energy = -383.5280597156
C  -0.7614885223 -1.2005856935  0.3623943434
C   1.3063112041  0.0553240691 -0.0249014002
C  -1.1758630514  1.8929939513  0.8851267133
C   1.9941320343 -0.4474082283  1.2311387017
C   2.2748042444  0.3992124448 -1.1432180973
N   0.3123899409 -0.9238952641 -0.4807535366
N  -2.0141677928 -1.3743835663 -0.2737435123
O  -1.6924655223  1.6748877410 -0.3529207458
H  -2.1271332578  0.8058818402 -0.3567223560
H   0.0004289238 -0.7040106023 -1.4177519165
H  -0.5852912410 -1.7422663046  1.2833595216
H   0.7751982736  0.9735671598  0.2471875009
H  -2.5978468096 -2.0640699897  0.1804226267
H  -1.9388139888 -1.6166917208 -1.2574853653
H  -0.5761550562  2.7870391908  0.9732077321
H  -1.6264903037  1.4206453943  1.7440440180
H   2.7704825601  0.2529307918  1.5402433348
H   1.7367285650  0.6992662827 -2.0461673438
H   2.4438239786 -1.4282215536  1.0671470788
H   1.2754663630 -0.5263280524  2.0482976747
H   2.8799104861  1.2527136013 -0.8339408383
H   2.9459432050 -0.4229631113 -1.3964985785
22
Image 98  Energy = -383.5280820667
C  -0.7613337465 -1.2003502161  0.3621994161
C   1.3064409746  0.0554128259 -0.0248059091
C  -1.1762049150  1.8927343983  0.8851052625
C   1.9942826706 -0.4474742070  1.2311562066
C   2.2748908594  0.3990407661 -1.1431665390
N   0.3125051206 -0.9236479025 -0.4808831158
N  -2.0140701415 -1.3738726589 -0.2738368473
O  -1.6926912949  1.6746103708 -0.3528995036
H  -2.1273009963  0.8056004613 -0.3565188063
H   0.0005229436 -0.7033164619 -1.4177537264
H  -0.5849901626 -1.7422485929  1.2829247139
H   0.7753006236  0.9736591982  0.2472265416
H  -2.5978471179 -2.0632589783  0.1805825206
H  -1.9387392841 -1.6170898587 -1.2573324881
H  -0.5769028176  2.7869327103  0.9731270896
H  -1.6269405836  1.4208014877  1.7441268854
H   2.7706137380  0.2528694228  1.5402638018
H   1.7366971900  0.6990545628 -2.0460556523
H   2.4440637188 -1.4282180923  1.0669695707
H   1.2757315739 -0.5265090475  2.0484005501
H   2.8802541362  1.2524110997 -0.8340960076
H   2.9456217425 -0.4235029077 -1.3962684064
22
Image 99  Energy = -383.5287977416
C  -0.7516872274 -1.2174111498  0.3611740617
C   1.3102754891  0.0612198319 -0.0204202580
C  -1.2046206518  1.9268726788  0.8901652010
C   2.0007122112 -0.4506480263  1.2301803722
C   2.2780472838  0.3913575397 -1.1433178974
N   0.3179590074 -0.9191239696 -0.4798286123
N  -2.0064810855 -1.3638828638 -0.2814218705
O  -1.7042842204  1.6699768176 -0.3459999489
H  -2.1228543980  0.7925609668 -0.3383559229
H   0.0011675020 -0.6867618060 -1.4120759984
H  -0.5706712712 -1.7829312085  1.2665128902
H   0.7832156708  0.9822802977  0.2508135629
H  -2.6091663897 -2.0334643630  0.1754580500
H  -1.9213564255 -1.6362561147 -1.2578390651
H  -0.6289388136  2.8356619695  0.9682341956
H  -1.6332382975  1.4391888516  1.7534679852
H   2.7774533125  0.2459834272  1.5462313230
H   1.7399470713  0.6882264998 -2.0475255693
H   2.4509965263 -1.4285038801  1.0506491964
H   1.2834217230 -0.5413750932  2.0472104070
H   2.8986496327  1.2381677680 -0.8469777972
H   2.9313570840 -0.4475000997 -1.3878686360
22
Image 100  Energy = -383.5288193875
C  -0.7516227755 -1.2169631793  0.3607895738
C   1.3103692270  0.0612561313 -0.0203239903
C  -1.2051827534  1.9261707609  0.8903586712
C   2.0008318406 -0.4506984137  1.2301807130
C   2.2781300549  0.3910977573 -1.1432565741
N   0.3179092441 -0.9187751449 -0.4799327519
N  -2.0059165576 -1.3635196781 -0.2818579031
O  -1.7045011965  1.6698057290 -0.3460532244
H  -2.1229142363  0.7922098092 -0.3381943196
H   0.0011572662 -0.6861096762 -1.4120960582
H  -0.5704748946 -1.7829672149  1.2662001131
H   0.7832523692  0.9823047890  0.2509054980
H  -2.6093266948 -2.0328986021  0.1760231431
H  -1.9214765228 -1.6364442927 -1.2576801269
H  -0.6294888426  2.8358012061  0.9681741203
H  -1.6334357554  1.4394661109  1.7532879036
H   2.7775632944  0.2459755148  1.5462231152
H   1.7399512115  0.6880365753 -2.0473618166
H   2.4512442514 -1.4285209933  1.0505948186
H   1.2836990408 -0.5415501171  2.0473261427
H   2.8989228311  1.2378392187 -0.8470174975
H   2.9312133320 -0.4478782156 -1.3878238794
22
Image 101  Energy = -383.5288377038
C  -0.7515064201 -1.2165677439  0.3605476723
C   1.3104595874  0.0612945297 -0.0202352205
C  -1.2055114018  1.9257845963  0.8903745990
C   2.0009593686 -0.4507561015  1.2301896916
C   2.2782171221  0.3908644388 -1.1431894981
N   0.3179097036 -0.9184204336 -0.4800711494
N  -2.0056249128 -1.3632976419 -0.2820596273
O  -1.7047555413  1.6695654603 -0.3460714213
H  -2.1229718065  0.7918806564 -0.3380654354
H   0.0011495849 -0.6854554400 -1.4121244865
H  -0.5702945547 -1.7829604498  1.2658252875
H   0.7832998985  0.9823328972  0.2509986830
H  -2.6093453031 -2.0321685543  0.1764703424
H  -1.9215674523 -1.6366703650 -1.2576633274
H  -0.6301255052  2.8357875612  0.9681200440
H  -1.6337432555  1.4396255345  1.7532730504
H   2.7776706391  0.2459651966  1.5462130508
H   1.7399556520  0.6878486112 -2.0472059448
H   2.4514875202 -1.4285320162  1.0505393423
H   1.2839722970 -0.5417245645  2.0474406277
H   2.8991941278  1.2375053985 -0.8470603987
H   2.9310743857 -0.4482634943 -1.3877802110
22
Image 102  Energy = -383.5288554639
C  -0.7513871120 -1.2162009659  0.3603621605
C   1.3105531147  0.0613368688 -0.0201520356
C  -1.2057709426  1.9254880789  0.8903412114
C   2.0010898796 -0.4508171843  1.2302035548
C   2.2783080710  0.3906461452 -1.1431215049
N   0.3179292642 -0.9180735619 -0.4802183925
N  -2.0054084047 -1.3630977904 -0.2822103708
O  -1.7050197268  1.6693123139 -0.3460803359
H  -2.1230356569  0.7915456866 -0.3379516956
H   0.0011409607 -0.6847981915 -1.4121623749
H  -0.5701153299 -1.7829390359  1.2654360604
H   0.7833573692  0.9823650001  0.2510935749
H  -2.6093355944 -2.0314071654  0.1768887948
H  -1.9216491523 -1.6369081424 -1.2576805215
H  -0.6307761401  2.8357432330  0.9680673691
H  -1.6340887499  1.4397439507  1.7533091490
H   2.7777766987  0.2459533115  1.5462018723
H   1.7399612879  0.6876629679 -2.0470565194
H   2.4517278972 -1.4285401410  1.0504824989
H   1.2842418906 -0.5418986334  2.0475541100
H   2.8994673217  1.2371720017 -0.8471047795
H   2.9309367846 -0.4486506708 -1.3877361527
22
Image 103  Energy = -383.5288729303
C  -0.7512729974 -1.2158509498  0.3601991791
C   1.3106505878  0.0613822302 -0.0200724089
C  -1.2060073952  1.9252188510  0.8902963527
C   2.0012215861 -0.4508796433  1.2302200046
C   2.2784025039  0.3904374239 -1.1430550331
N   0.3179558894 -0.9177373990 -0.4803671698
N  -2.0052205822 -1.3628954193 -0.2823489001
O  -1.7052886895  1.6690561973 -0.3460868784
H  -2.1231051315  0.7912031357 -0.3378480655
H   0.0011310759 -0.6841386600 -1.4122062848
H  -0.5699335383 -1.7829133353  1.2650489192
H   0.7834241622  0.9824010598  0.2511901211
H  -2.6093230185 -2.0306432936  0.1772975223
H  -1.9217259688 -1.6371512758 -1.2577057053
H  -0.6314222912  2.8356995401  0.9680148315
H  -1.6344505489  1.4398445779  1.7533618423
H   2.7778821750  0.2459402195  1.5461901584
H   1.7399686803  0.6874798151 -2.0469126303
H   2.4519660680 -1.4285467843  1.0504242400
H   1.2845079071 -0.5420723567  2.0476667026
H   2.8997440656  1.2368415468 -0.8471499474
H   2.9307991904 -0.4490374047 -1.3876911780
22
Image 104  Energy = -383.5291365530
C  -0.7445342528 -1.2363909973  0.3577221382
C   1.3115564458  0.0638387488 -0.0167284099
C  -1.2280896777  1.9677496075  0.8944639241
C   2.0045707568 -0.4536565519  1.2298858435
C   2.2792253041  0.3844384779 -1.1422440250
N   0.3212150783 -0.9171086350 -0.4804601740
N  -1.9999060757 -1.3601570939 -0.2898378871
O  -1.7111370103  1.6686242831 -0.3410848405
H  -2.1110766658  0.7802857006 -0.3185199432
H   0.0003585259 -0.6759773056 -1.4089036498
H  -0.5616155023 -1.8241732890  1.2507230493
H   0.7886538581  0.9879080115  0.2525360296
H  -2.6167688724 -2.0150664257  0.1732996053
H  -1.9123900103 -1.6523181614 -1.2599498365
H  -0.6717703211  2.8904401016  0.9630629332
H  -1.6284617754  1.4533083922  1.7591355353
H   2.7811979619  0.2414320583  1.5498461211
H   1.7405318985  0.6799377666 -2.0464332291
H   2.4571672748 -1.4287385833  1.0401136255
H   1.2898817046 -0.5538842093  2.0480754444
H   2.9093921627  1.2265301232 -0.8528588074
H   2.9219023965 -0.4633842628 -1.3833776508
22
Image 105  Energy = -383.5291729799
C  -0.7443472456 -1.2359204996  0.3575009010
C   1.3117085997  0.0637444720 -0.0167082755
C  -1.2291544184  1.9664093997  0.8944330522
C   2.0047037894 -0.4537540012  1.2299337861
C   2.2793526829  0.3842779114 -1.1421835551
N   0.3210842184 -0.9168173871 -0.4803520571
N  -1.9997365062 -1.3603889046 -0.2895618679
O  -1.7111811587  1.6683067413 -0.3405540633
H  -2.1107847051  0.7805447384 -0.3183785947
H   0.0002998161 -0.6753299258 -1.4089438471
H  -0.5614701148 -1.8239741548  1.2500624382
H   0.7885897579  0.9878681331  0.2526967555
H  -2.6166288470 -2.0141365746  0.1736062507
H  -1.9125939010 -1.6524952057 -1.2601379185
H  -0.6725924248  2.8902254004  0.9629358693
H  -1.6281421727  1.4541084956  1.7585598376
H   2.7812599897  0.2414518091  1.5498118957
H   1.7405598369  0.6798083109 -2.0462891631
H   2.4573844803 -1.4287357747  1.0401167005
H   1.2901375956 -0.5540375683  2.0481685505
H   2.9096254242  1.2262107481 -0.8528735627
H   2.9218285049 -0.4637284078 -1.3833773354
22
Image 106  Energy = -383.5291970834
C  -0.7442528320 -1.2354807770  0.3573585406
C   1.3118321441  0.0637013221 -0.0166475295
C  -1.2296972949  1.9657326023  0.8943053217
C   2.0048393404 -0.4538396802  1.2299720137
C   2.2794719950  0.3840930944 -1.1421346532
N   0.3210088373 -0.9164940020 -0.4804080169
N  -1.9994448246 -1.3604754040 -0.2895570340
O  -1.7112817910  1.6680515756 -0.3402577000
H  -2.1106059906  0.7805881587 -0.3182732067
H   0.0002590855 -0.6747038663 -1.4089305833
H  -0.5613028661 -1.8238000657  1.2494632078
H   0.7885584294  0.9878055464  0.2528494283
H  -2.6166074922 -2.0133576882  0.1740179713
H  -1.9128112425 -1.6526441065 -1.2602037125
H  -0.6735385848  2.8897787559  0.9628101302
H  -1.6280503650  1.4546260169  1.7583479792
H   2.7813237017  0.2414693874  1.5497786681
H   1.7405902738  0.6796812810 -2.0461501231
H   2.4576072287 -1.4287441555  1.0401191957
H   1.2903845267 -0.5541913631  2.0482653319
H   2.9098688278  1.2259047203 -0.8528829021
H   2.9217520929 -0.4640635959 -1.3833765258
22
Image 107  Energy = -383.5292176646
C  -0.7441814413 -1.2350440007  0.3572230286
C   1.3119430429  0.0636808419 -0.0165783546
C  -1.2300545093  1.9652601825  0.8941734138
C   2.0049721148 -0.4539207864  1.2300053041
C   2.2795867520  0.3839054151 -1.1420857408
N   0.3209688461 -0.9161705001 -0.4805023844
N  -1.9991644390 -1.3605087878 -0.2896172706
O  -1.7114119386  1.6678410263 -0.3401037603
H  -2.1104911038  0.7805067140 -0.3181854950
H   0.0002178706 -0.6740792655 -1.4089186523
H  -0.5611207384 -1.8236526362  1.2489207086
H   0.7885489541  0.9877382621  0.2529990899
H  -2.6166163574 -2.0126224290  0.1744532169
H  -1.9130226566 -1.6527940728 -1.2602490610
H  -0.6744704207  2.8893399443  0.9626878850
H  -1.6280649941  1.4550101552  1.7582950883
H   2.7813899590  0.2414860415  1.5497468097
H   1.7406225407  0.6795560809 -2.0460162985
H   2.4578329181 -1.4287587130  1.0401204406
H   1.2906258814 -0.5543452875  2.0483640213
H   2.9101182804  1.2256048140 -0.8528911224
H   2.9216746376 -0.4643952430 -1.3833750655
22
Image 108  Energy = -383.5292364104
C  -0.7441167639 -1.2346112751  0.3570887879
C   1.3120497077  0.0636722914 -0.0165080484
C  -1.2303336265  1.9648553419  0.8940535157
C   2.0051020584 -0.4539993055  1.2300358008
C   2.2796991912  0.3837205817 -1.1420352951
N   0.3209502452 -0.9158538148 -0.4806126427
N  -1.9989160585 -1.3605105894 -0.2896982622
O  -1.7115657210  1.6676483878 -0.3400362770
H  -2.1104134599  0.7803541450 -0.3181117775
H   0.0001748886 -0.6734529512 -1.4089145832
H  -0.5609285287 -1.8235244034  1.2484213600
H   0.7885558321  0.9876733862  0.2531474691
H  -2.6166358248 -2.0119066479  0.1748932636
H  -1.9132257896 -1.6529504727 -1.2602930089
H  -0.6753566643  2.8889644272  0.9625700816
H  -1.6281423099  1.4553158788  1.7583244065
H   2.7814582742  0.2415016051  1.5497161972
H   1.7406566901  0.6794325349 -2.0458870912
H   2.4580600357 -1.4287768297  1.0401202357
H   1.2908629642 -0.5544991736  2.0484635795
H   2.9103722216  1.2253087808 -0.8528994409
H   2.9215958354 -0.4647241409 -1.3833724690
22
Image 109  Energy = -383.5292457328
C  -0.7457266184 -1.2244763046  0.3583629083
C   1.3128659661  0.0643162372 -0.0172936170
C  -1.2231698386  1.9445782476  0.8929750362
C   2.0051533915 -0.4529507540  1.2298169580
C   2.2803185613  0.3849236430 -1.1425263895
N   0.3204179341 -0.9135729013 -0.4807143615
N  -2.0004601015 -1.3562362262 -0.2874196293
O  -1.7124555973  1.6656915519 -0.3422977252
H  -2.1195817944  0.7822410771 -0.3266044835
H   0.0015362078 -0.6723910294 -1.4099142790
H  -0.5618131658 -1.8063609331  1.2538076516
H   0.7877657449  0.9870148781  0.2530208384
H  -2.6145716337 -2.0119751254  0.1765297095
H  -1.9132803318 -1.6491622203 -1.2578293601
H  -0.6625179031  2.8643974056  0.9648452917
H  -1.6379147478  1.4502524480  1.7580736715
H   2.7819537718  0.2421846479  1.5491872986
H   1.7413153075  0.6809038064 -2.0462875031
H   2.4570826687 -1.4286449601  1.0418846189
H   1.2900309255 -0.5511307575  2.0477332467
H   2.9101111311  1.2274204170 -0.8536516516
H   2.9228435631 -0.4633852469 -1.3832324877
22
Image 110  Energy = -383.5292623932
C  -0.7456509933 -1.2240664211  0.3582181537
C   1.3129826690  0.0643287892 -0.0172386255
C  -1.2233975962  1.9442694636  0.8928663286
C   2.0052737908 -0.4530283866  1.2298522926
C   2.2804693413  0.3847476416 -1.1424767333
N   0.3204217646 -0.9132815345 -0.4808265551
N  -2.0002624474 -1.3563266635 -0.2875695115
O  -1.7127006532  1.6654515737 -0.3422156027
H  -2.1195618588  0.7819594049 -0.3265641423
H   0.0014509948 -0.6717592842 -1.4099327155
H  -0.5616763361 -1.8062796506  1.2533854476
H   0.7878540519  0.9870321833  0.2531710660
H  -2.6145491502 -2.0111925526  0.1769827445
H  -1.9134606103 -1.6492897071 -1.2578463193
H  -0.6632036788  2.8642680652  0.9647767729
H  -1.6381766119  1.4503915823  1.7580886954
H   2.7820303612  0.2421960700  1.5491539069
H   1.7413455362  0.6807449709 -2.0461795943
H   2.4573031156 -1.4286510509  1.0418708128
H   1.2902780528 -0.5512924864  2.0478499880
H   2.9103728614  1.2270822243 -0.8536440572
H   2.9227608364 -0.4636663300 -1.3832566108
22
Image 111  Energy = -383.5292785367
C  -0.7455933202 -1.2236726299  0.3580819092
C   1.3130990287  0.0643471851 -0.0171793457
C  -1.2236004920  1.9439764667  0.8927889694
C   2.0053947412 -0.4531012602  1.2298834428
C   2.2805997742  0.3845740790 -1.1424321406
N   0.3204324212 -0.9129910667 -0.4809603896
N  -2.0000500232 -1.3563508848 -0.2876999671
O  -1.7129570864  1.6652189608 -0.3421765837
H  -2.1195554933  0.7816530496 -0.3265287793
H   0.0013705017 -0.6711284984 -1.4099460811
H  -0.5615335635 -1.8062021018  1.2529807831
H   0.7879537043  0.9870481906  0.2533179693
H  -2.6145569644 -2.0104494222  0.1774461832
H  -1.9136349554 -1.6494378514 -1.2578949562
H  -0.6638730787  2.8641593193  0.9647071329
H  -1.6384545988  1.4505112038  1.7581198287
H   2.7821072654  0.2422052665  1.5491216888
H   1.7413819283  0.6805889662 -2.0460704405
H   2.4575243595 -1.4286606004  1.0418556157
H   1.2905204609 -0.5514536321  2.0479666058
H   2.9106451000  1.2267578714 -0.8536354752
H   2.9226837312 -0.4639547099 -1.3832802298
22
Image 112  Energy = -383.5292942333
C  -0.7455363265 -1.2232908009  0.3579508928
C   1.3132142268  0.0643679845 -0.0171195817
C  -1.2237902549  1.9436905286  0.8927241468
C   2.0055156445 -0.4531721191  1.2299120372
C   2.2807221265  0.3844038197 -1.1423887032
N   0.3204460758 -0.9127051801 -0.4810992514
N  -1.9998489062 -1.3563381413 -0.2878213298
O  -1.7132202886  1.6649898208 -0.3421586623
H  -2.1195582446  0.7813313532 -0.3264986242
H   0.0012921087 -0.6704964463 -1.4099608817
H  -0.5613857623 -1.8061278766  1.2525919145
H   0.7880626718  0.9870650139  0.2534623855
H  -2.6145781978 -2.0097262682  0.1779084471
H  -1.9138037270 -1.6495992281 -1.2579560684
H  -0.6645261837  2.8640712140  0.9646373498
H  -1.6387458581  1.4506148841  1.7581631339
H   2.7821848845  0.2422127715  1.5490907218
H   1.7414218741  0.6804366814 -2.0459630444
H   2.4577456835 -1.4286720551  1.0418391041
H   1.2907592733 -0.5516139583  2.0480819176
H   2.9109238145  1.2264425518 -0.8536277151
H   2.9226088062 -0.4642466480 -1.3833024493
22
Image 113  Energy = -383.5293096189
C  -0.7454775586 -1.2229200688  0.3578237065
C   1.3133287643  0.0643896390 -0.0170603766
C  -1.2239718567  1.9434088574  0.8926653057
C   2.0056363227 -0.4532420883  1.2299387278
C   2.2808415652  0.3842369321 -1.1423455288
N   0.3204612184 -0.9124240096 -0.4812398657
N  -1.9996641614 -1.3562999092 -0.2879385179
O  -1.7134884588  1.6647613770 -0.3421515450
H  -2.1195674531  0.7809998501 -0.3264736574
H   0.0012152819 -0.6698630759 -1.4099773714
H  -0.5612335801 -1.8060563824  1.2522172198
H   0.7881795565  0.9870836407  0.2536047335
H  -2.6146068256 -2.0090159394  0.1783655175
H  -1.9139676584 -1.6497702041 -1.2580201945
H  -0.6651649863  2.8640007166  0.9645676549
H  -1.6390478435  1.4507057747  1.7582146417
H   2.7822633527  0.2422188177  1.5490610062
H   1.7414645466  0.6802883153 -2.0458581607
H   2.4579667271 -1.4286846831  1.0418213343
H   1.2909949989 -0.5517733903  2.0481954498
H   2.9112070287  1.2261339341 -0.8536214756
H   2.9225344596 -0.4645402025 -1.3833228656
22
Image 114  Energy = -383.5300641214
C  -0.7359044073 -1.2249340304  0.3510823813
C   1.3191790316  0.0692407379 -0.0116411142
C  -1.2504750894  1.9586123928  0.8942595291
C   2.0141120059 -0.4573802707  1.2302370971
C   2.2864254574  0.3727120799 -1.1401916214
N   0.3244176999 -0.8991762830 -0.4860741178
N  -1.9886306471 -1.3456456688 -0.2978647983
O  -1.7295630431  1.6531139268 -0.3366516367
H  -2.1171527104  0.7608709401 -0.3110306947
H   0.0007213558 -0.6361285173 -1.4082706452
H  -0.5456184169 -1.8325868988  1.2277527090
H   0.7960017436  0.9934609554  0.2604820431
H  -2.6224675202 -1.9637826711  0.1890668735
H  -1.9067593917 -1.6702529746 -1.2587082468
H  -0.7228393664  2.8975372519  0.9586670360
H  -1.6530945025  1.4667071220  1.7655252531
H   2.7904333889  0.2371631574  1.5524918462
H   1.7441091419  0.6672494061 -2.0422263135
H   2.4706378921 -1.4283804632  1.0296367370
H   1.3048369293 -0.5677764196  2.0514559127
H   2.9331281092  1.2052313392 -0.8631533793
H   2.9084054318 -0.4922174207 -1.3763790467
22
Image 115  Energy = -383.5300759760
C  -0.7359480379 -1.2247018207  0.3510591710
C   1.3193354485  0.0692429808 -0.0116134005
C  -1.2504114054  1.9585427191  0.8943157404
C   2.0142108839 -0.4574742359  1.2302426103
C   2.2865949805  0.3726405344 -1.1402218867
N   0.3244270437 -0.8990027279 -0.4862930740
N  -1.9888175738 -1.3455720657 -0.2977954800
O  -1.7299222832  1.6529436088 -0.3367587618
H  -2.1171466126  0.7604196881 -0.3112215631
H   0.0005820762 -0.6355815229 -1.4080982739
H  -0.5454459963 -1.8324956716  1.2276080641
H   0.7963583990  0.9934989521  0.2606172177
H  -2.6225025187 -1.9632414444  0.1893221595
H  -1.9070233463 -1.6704771416 -1.2587636271
H  -0.7233237321  2.8975496883  0.9585462307
H  -1.6534913737  1.4665811926  1.7656768278
H   2.7904651856  0.2371809943  1.5524516312
H   1.7442744753  0.6672275458 -2.0422090533
H   2.4708208796 -1.4284451980  1.0296558876
H   1.3049867014 -0.5678937481  2.0515139476
H   2.9334632096  1.2050352790 -0.8631035972
H   2.9084166874 -0.4923399157 -1.3764649681
