7
Image 0  Energy = -29.6080208635
C   0.8610134075  0.7723450845 -0.1710386117
H   0.6611466482  1.5334567329 -0.9375500670
O   0.5520571847  0.9899324114  1.1198913581
C   1.3421949067 -0.5683304308 -0.1804800549
H   0.8306100679 -0.2645389735  1.0595189039
H   1.0203001256 -1.3462302802 -0.8842089142
H   2.3247320025 -0.7018274986  0.2944608867
7
Image 1  Energy = -29.6115954137
C   0.8590106259  0.7754511303 -0.1652759142
H   0.6603629401  1.5331109883 -0.9363528606
O   0.5520564457  0.9934540918  1.1162744851
C   1.3425382809 -0.5704562260 -0.1765456323
H   0.8502664626 -0.3351665897  1.0030746108
H   1.0153910826 -1.3443121687 -0.8790161791
H   2.3305343411 -0.7002573310  0.2864604985
7
Image 2  Energy = -29.6186978883
C   0.8568202562  0.7786773009 -0.1587273134
H   0.6597751544  1.5322588821 -0.9342461984
O   0.5522354918  0.9971046865  1.1119388421
C   1.3428265110 -0.5725924854 -0.1726295270
H   0.8660686478 -0.4089634911  0.9523681062
H   1.0117357907 -1.3424977339 -0.8758152806
H   2.3387772245 -0.6984972653  0.2759736832
7
Image 3  Energy = -29.6292197919
C   0.8549266626  0.7817264668 -0.1533371365
H   0.6596048964  1.5317128285 -0.9329085729
O   0.5522674776  1.0010230940  1.1082363251
C   1.3427182906 -0.5745345026 -0.1685217881
H   0.8821178380 -0.4882778994  0.9084173393
H   1.0107338557 -1.3400088946 -0.8753580841
H   2.3472300716 -0.6966060845  0.2637203085
7
Image 4  Energy = -29.6420477396
C   0.8530839107  0.7844567062 -0.1476681825
H   0.6599472157  1.5310503378 -0.9323847897
O   0.5521981904  1.0054544932  1.1045885171
C   1.3425206758 -0.5766838786 -0.1648154853
H   0.8963672020 -0.5703895837  0.8709460405
H   1.0124245713 -1.3369564564 -0.8777946147
H   2.3563465193 -0.6942292698  0.2492884061
7
Image 5  Energy = -29.6540688342
C   0.8509779239  0.7871384923 -0.1408103589
H   0.6610815844  1.5298380863 -0.9316277718
O   0.5521090510  1.0105359358  1.1004369563
C   1.3430199466 -0.5794925927 -0.1624479631
H   0.9011992097 -0.6564400359  0.8513501544
H   1.0165944851 -1.3326119289 -0.8839888385
H   2.3667551735 -0.6905433147  0.2302942119
7
Image 6  Energy = -29.6643341547
C   0.8486927078  0.7896578403 -0.1331856031
H   0.6632695356  1.5279880528 -0.9312919175
O   0.5521277522  1.0155788569  1.0958854226
C   1.3436093931 -0.5828572595 -0.1602561609
H   0.9007935230 -0.7362012529  0.8389650218
H   1.0230682684 -1.3265134769 -0.8938857451
H   2.3783904671 -0.6851343449  0.2075133420
7
Image 7  Energy = -29.6732422626
C   0.8463420028  0.7913536883 -0.1249475894
H   0.6663594344  1.5252247741 -0.9303949247
O   0.5520707001  1.0211346203  1.0912965808
C   1.3440869455 -0.5868862868 -0.1578569120
H   0.9006203627 -0.8090973403  0.8237647338
H   1.0320393963 -1.3180758183 -0.9079959589
H   2.3897087020 -0.6784579191  0.1820075584
7
Image 8  Energy = -29.6808113670
C   0.8439811999  0.7923311568 -0.1166401932
H   0.6700587078  1.5217175802 -0.9288216320
O   0.5517724403  1.0274349305  1.0871450836
C   1.3447565808 -0.5915031019 -0.1558696364
H   0.9013628905 -0.8802477212  0.8085413385
H   1.0427819597 -1.3068881112 -0.9248532535
H   2.3993899950 -0.6717867934  0.1557388221
7
Image 9  Energy = -29.6865422791
C   0.8414982510  0.7923160349 -0.1077564229
H   0.6748720584  1.5167609196 -0.9273215376
O   0.5512850605  1.0342657406  1.0832048955
C   1.3455264935 -0.5971573993 -0.1540860434
H   0.9021011133 -0.9382909610  0.7925706755
H   1.0557762087 -1.2919757474 -0.9467661971
H   2.4089728881 -0.6647548803  0.1275477077
7
Image 10  Energy = -29.6912025279
C   0.8390634469  0.7912343220 -0.0989881012
H   0.6808862020  1.5101883653 -0.9262512932
O   0.5504032809  1.0420543210  1.0801228791
C   1.3465832374 -0.6037082725 -0.1529092564
H   0.9042368610 -0.9904547952  0.7752297154
H   1.0701496451 -1.2730269203 -0.9714602825
H   2.4168483214 -0.6578397126  0.0989257256
7
Image 11  Energy = -29.6950447774
C   0.8368847291  0.7889124147 -0.0907487267
H   0.6878105586  1.5018856643 -0.9252875014
O   0.5490411233  1.0508444881  1.0781871242
C   1.3478816275 -0.6108052873 -0.1526330483
H   0.9072839777 -1.0388065874  0.7582199323
H   1.0850234576 -1.2506784712 -0.9982091081
H   2.4240963685 -0.6510297592  0.0709780545
7
Image 12  Energy = -29.6982873595
C   0.8350851521  0.7851381712 -0.0830705861
H   0.6954308165  1.4918477527 -0.9250409339
O   0.5471710572  1.0607700454  1.0774497584
C   1.3493826786 -0.6181707252 -0.1534294102
H   0.9124444634 -1.0847435596  0.7403636124
H   1.0993010352 -1.2261028001 -1.0253411828
H   2.4302610890 -0.6446806588  0.0454258487
7
Image 13  Energy = -29.7009636825
C   0.8335133233  0.7799936829 -0.0753329196
H   0.7035148716  1.4797646173 -0.9258530863
O   0.5448731879  1.0716788649  1.0775574849
C   1.3512518073 -0.6257057211 -0.1555640429
H   0.9186885481 -1.1255058767  0.7217603789
H   1.1123690865 -1.2008815465 -1.0520035422
H   2.4357840616 -0.6393955579  0.0230329936
7
Image 14  Energy = -29.7031530505
C   0.8320865726  0.7734936792 -0.0672082115
H   0.7117155027  1.4655647721 -0.9266249465
O   0.5421838064  1.0834078776  1.0782480415
C   1.3537264831 -0.6332242078 -0.1593076832
H   0.9245317300 -1.1581356002  0.7030492264
H   1.1237469046 -1.1764944531 -1.0767086375
H   2.4405636927 -0.6363647982  0.0040596292
7
Image 15  Energy = -29.7050382710
C   0.8309116503  0.7660418675 -0.0588262018
H   0.7195861799  1.4497129693 -0.9268337223
O   0.5391016570  1.0958013419  1.0795189579
C   1.3568653287 -0.6403594890 -0.1645645047
H   0.9291470490 -1.1889630012  0.6836228560
H   1.1327030963 -1.1538540737 -1.0985665651
H   2.4446498223 -0.6355190685 -0.0118443972
7
Image 16  Energy = -29.7066391027
C   0.8299813875  0.7582402548 -0.0503610365
H   0.7267334375  1.4331887073 -0.9271512977
O   0.5358226161  1.1085180643  1.0810231452
C   1.3600487853 -0.6473881285 -0.1702837196
H   0.9352349150 -1.2178844142  0.6633485527
H   1.1401765156 -1.1328457931 -1.1207244579
H   2.4491508194 -0.6365483081 -0.0256732203
7
Image 17  Energy = -29.7079122728
C   0.8290207754  0.7505072955 -0.0414844108
H   0.7329035478  1.4179366393 -0.9258478333
O   0.5324253421  1.1211949986  1.0823897894
C   1.3638805842 -0.6540333200 -0.1769800024
H   0.9395042303 -1.2474868499  0.6425644968
H   1.1457499145 -1.1156929215 -1.1368913814
H   2.4528671138 -0.6391309263 -0.0376807099
7
Image 18  Energy = -29.7088351911
C   0.8283855777  0.7431589279 -0.0333207330
H   0.7373252477  1.4049368817 -0.9240305129
O   0.5292301263  1.1333631658  1.0836555716
C   1.3667209908 -0.6610853572 -0.1823074617
H   0.9472749421 -1.2704043452  0.6230385144
H   1.1532652526 -1.0976939461 -1.1617695071
H   2.4576202653 -0.6431648280 -0.0489824405
7
Image 19  Energy = -29.7093496388
C   0.8271330439  0.7365111092 -0.0242306824
H   0.7413766251  1.3936618494 -0.9192906515
O   0.5260693083  1.1448657390  1.0842214647
C   1.3718050015 -0.6662706476 -0.1903448399
H   0.9463688569 -1.3064566865  0.6004985361
H   1.1525872065 -1.0916763553 -1.1561386468
H   2.4596821905 -0.6441490926 -0.0583322994
7
Image 20  Energy = -29.7096510595
C   0.8270568740  0.7326963226 -0.0204797600
H   0.7416381276  1.3874266596 -0.9178193199
O   0.5244804127  1.1510859136  1.0847929691
C   1.3722008816 -0.6709825154 -0.1909132022
H   0.9572806211 -1.3077040287  0.5911949032
H   1.1589497123 -1.0767158749 -1.1900765651
H   2.4635804842 -0.6489091199 -0.0635768966
7
Image 21  Energy = -29.7098466522
C   0.8266816653  0.7301306580 -0.0170586146
H   0.7421001044  1.3821257431 -0.9166464669
O   0.5233195966  1.1554908328  1.0850889782
C   1.3740604044 -0.6728140658 -0.1942585572
H   0.9555866658 -1.3218888875  0.5834196507
H   1.1598635687 -1.0739541573 -1.1840429710
H   2.4646256769 -0.6499497994 -0.0686004913
7
Image 22  Energy = -29.7099677688
C   0.8261878747  0.7256642207 -0.0106884751
H   0.7422662856  1.3729478445 -0.9138780379
O   0.5212774619  1.1637001307  1.0850625998
C   1.3767987759 -0.6778287024 -0.1984244396
H   0.9585961309 -1.3365776041  0.5694597100
H   1.1624309891 -1.0620814480 -1.1955682335
H   2.4646571388 -0.6564434796 -0.0717710842
7
Image 23  Energy = -29.7099365956
C   0.8252006449  0.7225873425 -0.0089357519
H   0.7401599897  1.3674187885 -0.9134678088
O   0.5199495151  1.1684127927  1.0860465109
C   1.3784277496 -0.6810171307 -0.1993865456
H   0.9607932928 -1.3436598832  0.5633827872
H   1.1629680926 -1.0577930919 -1.1973465417
H   2.4775283962 -0.6490985346 -0.0892925999
7
Image 24  Energy = -29.7099810308
C   0.8242387866  0.7221123098 -0.0063892556
H   0.7387744030  1.3643766836 -0.9131347098
O   0.5197364249  1.1696671082  1.0854754998
C   1.3803620710 -0.6811466239 -0.2012883825
H   0.9641037299 -1.3494328977  0.5606655082
H   1.1628694854 -1.0538441686 -1.2024214313
H   2.4675408483 -0.6574372005 -0.0804207345
7
Image 25  Energy = -29.7099901503
C   0.8245103329  0.7224450736 -0.0072323374
H   0.7378595841  1.3653030176 -0.9130674818
O   0.5199195861  1.1691761098  1.0856022071
C   1.3797316813 -0.6811022864 -0.2007941018
H   0.9641787568 -1.3467748081  0.5619642443
H   1.1623637564 -1.0561291788 -1.2001449867
H   2.4702430350 -0.6553239487 -0.0819124483
