7
Image 0  Energy = -29.6082817829
C   0.8623947838  0.7700730450 -0.1745982227
H   0.6615520125  1.5338624295 -0.9376707051
O   0.5527253493  0.9853026162  1.1215512172
C   1.3420772370 -0.5664244301 -0.1839894615
H   0.8067438570 -0.1855568602  1.1145886228
H   1.0242036835 -1.3471049336 -0.8871852044
H   2.3186261402 -0.7025115429  0.3004826308
7
Image 1  Energy = -29.6147058672
C   0.8633828277  0.7679979223 -0.1766550226
H   0.6621930119  1.5334871086 -0.9372716841
O   0.5534533604  0.9813568312  1.1224399192
C   1.3424780789 -0.5650511632 -0.1881058919
H   0.7790639607 -0.1131215345  1.1715980748
H   1.0274198632 -1.3477446147 -0.8891309577
H   2.3143259735 -0.7029251142  0.3045631449
7
Image 2  Energy = -29.6227089977
C   0.8644101661  0.7648664093 -0.1781589402
H   0.6634947830  1.5323021324 -0.9365077556
O   0.5538247619  0.9789653927  1.1233998536
C   1.3433910930 -0.5636132148 -0.1937807743
H   0.7496570235 -0.0520296664  1.2392684336
H   1.0312135250 -1.3477937264 -0.8909214083
H   2.3096222355 -0.7046525660  0.3082083935
7
Image 3  Energy = -29.6305816388
C   0.8659595987  0.7587584026 -0.1793880215
H   0.6657996664  1.5296801259 -0.9346537916
O   0.5534827059  0.9789029115  1.1251924523
C   1.3445388540 -0.5612768558 -0.2014822727
H   0.7248174032 -0.0024852806  1.3121350407
H   1.0366888851 -1.3462930097 -0.8942343698
H   2.2999687668 -0.7071493766  0.3147406755
7
Image 4  Energy = -29.6381385392
C   0.8674731586  0.7517441845 -0.1802926374
H   0.6681769975  1.5269091772 -0.9333253972
O   0.5526736867  0.9808300040  1.1272222649
C   1.3458633099 -0.5592182979 -0.2104488965
H   0.7065262544  0.0304141629  1.3914779081
H   1.0439400010 -1.3452652397 -0.9012849050
H   2.2876506122 -0.7098421546  0.3265040775
7
Image 5  Energy = -29.6444189912
C   0.8688416217  0.7437768461 -0.1806380413
H   0.6703947170  1.5224647699 -0.9310542270
O   0.5516364245  0.9839131821  1.1294586327
C   1.3472719129 -0.5569790023 -0.2198227405
H   0.6920045544  0.0568422329  1.4652392862
H   1.0524095857 -1.3428332881 -0.9108667507
H   2.2748525895 -0.7149375194  0.3403487232
7
Image 6  Energy = -29.6497185743
C   0.8699743466  0.7347790112 -0.1800422226
H   0.6720442430  1.5155947760 -0.9263359597
O   0.5503566190  0.9878384481  1.1322996258
C   1.3493375410 -0.5550014510 -0.2298426566
H   0.6777410708  0.0889599665  1.5271564305
H   1.0617134812 -1.3385722507 -0.9232641723
H   2.2603622771 -0.7230969008  0.3532916438
7
Image 7  Energy = -29.6542865849
C   0.8706594639  0.7253004901 -0.1781595229
H   0.6728761688  1.5066891472 -0.9207024128
O   0.5489074083  0.9930935763  1.1349858776
C   1.3520997286 -0.5537516636 -0.2403601637
H   0.6628705005  0.1189420898  1.5870429368
H   1.0722939302 -1.3334399953 -0.9400506616
H   2.2457426582 -0.7346665688  0.3647887457
7
Image 8  Energy = -29.6578962272
C   0.8706880331  0.7151971980 -0.1744132319
H   0.6722594136  1.4953518283 -0.9160650817
O   0.5473934044  0.9991231558  1.1382439998
C   1.3553911390 -0.5530736374 -0.2513517737
H   0.6518174160  0.1538014231  1.6264382293
H   1.0858846100 -1.3251581270 -0.9632209639
H   2.2282923026 -0.7498802709  0.3785242735
7
Image 9  Energy = -29.6610022104
C   0.8699534047  0.7047307017 -0.1693657365
H   0.6692772499  1.4827522572 -0.9124582547
O   0.5456236485  1.0075632764  1.1408865407
C   1.3591693490 -0.5537887765 -0.2618382470
H   0.6481955744  0.1739754197  1.6611469976
H   1.1041275121 -1.3131331566 -0.9933191736
H   2.2084705897 -0.7702193733  0.3931448680
7
Image 10  Energy = -29.6637816793
C   0.8685774512  0.6956923494 -0.1641456419
H   0.6634606008  1.4685749514 -0.9095005836
O   0.5442523358  1.0147353694  1.1444126782
C   1.3633889453 -0.5553487910 -0.2721174385
H   0.6448150344  0.2058211698  1.6806573098
H   1.1247745783 -1.2958357209 -1.0271883201
H   2.1849143587 -0.7927637160  0.4088219304
7
Image 11  Energy = -29.6662868029
C   0.8667462191  0.6865563165 -0.1579604605
H   0.6563535620  1.4542478589 -0.9073693539
O   0.5426679115  1.0241386556  1.1457992311
C   1.3677519882 -0.5577711421 -0.2808810703
H   0.6470596121  0.2167958691  1.7098204226
H   1.1469590186 -1.2767318445 -1.0619832904
H   2.1625670260 -0.8200567719  0.4210055988
7
Image 12  Energy = -29.6685109353
C   0.8648495170  0.6789487024 -0.1526038130
H   0.6476561534  1.4391583357 -0.9054863629
O   0.5416054660  1.0307371490  1.1493046294
C   1.3722231064 -0.5599375307 -0.2897558015
H   0.6452361034  0.2480016998  1.7149839798
H   1.1679347974 -1.2543819771 -1.0963714251
H   2.1383209009 -0.8468314187  0.4345838111
7
Image 13  Energy = -29.6705240524
C   0.8629495604  0.6707554252 -0.1468700110
H   0.6391448475  1.4257668726 -0.9042979385
O   0.5402768401  1.0393399522  1.1499998156
C   1.3763626816 -0.5621935576 -0.2967420141
H   0.6488523440  0.2553150935  1.7430368556
H   1.1892904437 -1.2322588536 -1.1279939979
H   2.1162596484 -0.8749335789  0.4408127882
7
Image 14  Energy = -29.6723762220
C   0.8609272909  0.6634910159 -0.1417377501
H   0.6298409660  1.4108506941 -0.9026205445
O   0.5394533814  1.0458492203  1.1526416288
C   1.3805335190 -0.5641376952 -0.3042161146
H   0.6478740603  0.2812206908  1.7489127442
H   1.2111042370 -1.2075459546 -1.1600100650
H   2.0922195848 -0.9042674398  0.4511993154
7
Image 15  Energy = -29.6740878588
C   0.8585408406  0.6553567343 -0.1359508122
H   0.6199675739  1.3955195607 -0.9016631033
O   0.5385138901  1.0537362134  1.1536151798
C   1.3847149401 -0.5662535522 -0.3107016358
H   0.6517186112  0.2962220348  1.7699823276
H   1.2357022854 -1.1800621415 -1.1921760699
H   2.0671831736 -0.9345097131  0.4541499625
7
Image 16  Energy = -29.6755778855
C   0.8558840754  0.6478667731 -0.1304198411
H   0.6094435748  1.3793002555 -0.9005291326
O   0.5379545868  1.0607744624  1.1551924474
C   1.3888782764 -0.5678396520 -0.3172522077
H   0.6553821566  0.3144785507  1.7762561646
H   1.2608042856 -1.1500388579 -1.2225696924
H   2.0398947074 -0.9701898407  0.4641818565
7
Image 17  Energy = -29.6767996317
C   0.8526528538  0.6398209859 -0.1246515121
H   0.5990220109  1.3630804643 -0.9001440299
O   0.5375382402  1.0680690086  1.1561375691
C   1.3926754003 -0.5699479070 -0.3222585818
H   0.6619466805  0.3314394438  1.7909704944
H   1.2896356651 -1.1191084824 -1.2527035687
H   2.0148056886 -0.9967097685  0.4550532449
7
Image 18  Energy = -29.6776859826
C   0.8497577211  0.6334608615 -0.1199264473
H   0.5889551784  1.3488005793 -0.8984117585
O   0.5374705830  1.0739687518  1.1563642894
C   1.3966056598 -0.5698512201 -0.3283723654
H   0.6695366826  0.3447249471  1.7959176269
H   1.3131539877 -1.0892416333 -1.2713803324
H   1.9825497189 -1.0446540422  0.4798991782
7
Image 19  Energy = -29.6783472961
C   0.8472770092  0.6282919490 -0.1164591164
H   0.5815569315  1.3394129316 -0.8980575967
O   0.5374878749  1.0783977978  1.1571385557
C   1.3985120722 -0.5721118547 -0.3295106102
H   0.6749849505  0.3572093017  1.8027820855
H   1.3393904580 -1.0687634951 -1.2960362751
H   1.9648564946 -1.0500396244  0.4572401291
7
Image 20  Energy = -29.6789278156
C   0.8441656845  0.6233053069 -0.1133073990
H   0.5734518037  1.3297235738 -0.8962794109
O   0.5377264453  1.0828376382  1.1573852965
C   1.4014813707 -0.5721663545 -0.3340836282
H   0.6843039783  0.3687304527  1.8114160325
H   1.3594837089 -1.0484688659 -1.3018693047
H   1.9414775035 -1.0825998469  0.4655926351
7
Image 21  Energy = -29.6794090486
C   0.8409501178  0.6184073618 -0.1100922983
H   0.5643545806  1.3196519102 -0.8950306584
O   0.5383282741  1.0867245777  1.1575058152
C   1.4030683752 -0.5729895546 -0.3353506631
H   0.6936384670  0.3798251112  1.8132826140
H   1.3990764807 -1.0177435445 -1.3332817802
H   1.9116028357 -1.1079339262  0.4686087365
7
Image 22  Energy = -29.6796922451
C   0.8373259154  0.6137757327 -0.1074954863
H   0.5548971235  1.3105137567 -0.8945548224
O   0.5387234365  1.0909158918  1.1581852996
C   1.4063444126 -0.5740327544 -0.3398247519
H   0.7048237952  0.3933037401  1.8240332708
H   1.4139196129 -1.0047069222 -1.3237871036
H   1.8929412496 -1.1242564180  0.4593677559
7
Image 23  Energy = -29.6799709863
C   0.8349469942  0.6110985113 -0.1063498297
H   0.5487090734  1.3048051343 -0.8935241503
O   0.5394659517  1.0926400589  1.1580108204
C   1.4068435182 -0.5737393579 -0.3396123675
H   0.7147622100  0.4001182395  1.8251395964
H   1.4415602874 -0.9848820381 -1.3454748493
H   1.8722231067 -1.1441566603  0.4654017186
7
Image 24  Energy = -29.6801672494
C   0.8317261428  0.6079669292 -0.1046181930
H   0.5395914768  1.2973076336 -0.8934634462
O   0.5402345008  1.0950802935  1.1581770305
C   1.4086473791 -0.5741887734 -0.3415154466
H   0.7270362522  0.4098849622  1.8290633983
H   1.4626441669 -0.9700149351 -1.3475524626
H   1.8527392982 -1.1573836841  0.4627689950
