7
Image 0  Energy = -29.6082816488
C   0.8953051229  0.7886162003 -0.1884358044
H   0.7392996328  1.5689907295 -0.9451903228
O   0.5620604518  0.9972560534  1.1029358501
C   1.3288146733 -0.5635035429 -0.2053149685
H   0.7757484155 -0.1814928404  1.0854427495
H   1.0013097029 -1.3232801415 -0.9267524694
H   2.2881318990 -0.7398224034  0.3001444351
7
Image 1  Energy = -29.6147044367
C   0.8962703508  0.7865355859 -0.1904989929
H   0.7399212511  1.5685879981 -0.9447916503
O   0.5626321278  0.9932721612  1.1037846481
C   1.3293593110 -0.5620878334 -0.2094038138
H   0.7492353415 -0.1088853813  1.1427810187
H   1.0045540259 -1.3240083753 -0.9286339847
H   2.2837143144 -0.7401436782  0.3041224975
7
Image 2  Energy = -29.6227082676
C   0.8972247509  0.7833887186 -0.1920222842
H   0.7411647564  1.5673474509 -0.9440186272
O   0.5628981476  0.9908617917  1.1047198594
C   1.3304573611 -0.5606070619 -0.2150381785
H   0.7203233697 -0.0477617832  1.2106431577
H   1.0083876537 -1.3241666509 -0.9303363615
H   2.2788705509 -0.7417583436  0.3076343334
7
Image 3  Energy = -29.6305818623
C   0.8985914954  0.7772428354 -0.1932985704
H   0.7433348789  1.5646153130 -0.9421461793
O   0.5625115060  0.9907923101  1.1065040630
C   1.3318697968 -0.5582089614 -0.2226790463
H   0.6954594036  0.0016226410  1.2836041689
H   1.0139892598 -1.3228113430 -0.9334983221
H   2.2689835352 -0.7440057870  0.3138978059
7
Image 4  Energy = -29.6381386882
C   0.8998829239  0.7701910249 -0.1942647566
H   0.7455830595  1.5617438332 -0.9408051998
O   0.5617212234  0.9927214247  1.1085424571
C   1.3334798008 -0.5560792555 -0.2315819252
H   0.6764148058  0.0340754012  1.3629443845
H   1.0214374738 -1.3219415885 -0.9403623375
H   2.2563023383 -0.7464256132  0.3253237490
7
Image 5  Energy = -29.6444185144
C   0.9009834825  0.7621833790 -0.1946899598
H   0.7475906913  1.5571869177 -0.9385410183
O   0.5607376179  0.9958104043  1.1107987675
C   1.3351895495 -0.5537652613 -0.2408866271
H   0.6610544211  0.0600127061  1.4366887229
H   1.0302126706 -1.3196773862 -0.9497069681
H   2.2430049925 -0.7512548704  0.3387860459
7
Image 6  Energy = -29.6497170395
C   0.9017904830  0.7531418238 -0.1941942918
H   0.7488869599  1.5501928470 -0.9338758947
O   0.5595262894  0.9997418997  1.1136650475
C   1.3375612272 -0.5517267571 -0.2508239231
H   0.6464385579  0.0917702623  1.4986665535
H   1.0399525863 -1.3155767373 -0.9618182758
H   2.2279358679 -0.7590735470  0.3512642019
7
Image 7  Energy = -29.6542852289
C   0.9021021857  0.7436219422 -0.1924294814
H   0.7492738252  1.5411907914 -0.9283560089
O   0.5581957065  1.0050083107  1.1163909543
C   1.3406160853 -0.5504350694 -0.2612530406
H   0.6311853760  0.1214471719  1.5585936013
H   1.0511031644 -1.3105924206 -0.9782739232
H   2.2126553005 -0.7702769122  0.3622482833
7
Image 8  Energy = -29.6578950352
C   0.9016927510  0.7334771607 -0.1888287336
H   0.7481526570  1.5298196756 -0.9238890745
O   0.5568135639  1.0110417374  1.1196979057
C   1.3441903405 -0.5497256834 -0.2721492583
H   0.6203975713  0.1561461829  1.5981896652
H   1.0655170313 -1.3024836421 -1.0009878732
H   2.1943752230 -0.7850474074  0.3753415329
7
Image 9  Energy = -29.6610012567
C   0.9004750272  0.7229794039 -0.1839451247
H   0.7446515494  1.5172920571 -0.9205450252
O   0.5552727589  1.0195019434  1.1224159145
C   1.3481926174 -0.5504344204 -0.2825539459
H   0.6166285774  0.1759783581  1.6331192905
H   1.0848772148 -1.2907087351 -1.0304714798
H   2.1735284085 -0.8048793515  0.3891955588
7
Image 10  Energy = -29.6637799805
C   0.8986617374  0.7139282760 -0.1788864615
H   0.7382770150  1.5032817968 -0.9179102608
O   0.5540634312  1.0266677852  1.1260083087
C   1.3525967478 -0.5520016645 -0.2927463531
H   0.6138669337  0.2076603107  1.6529563536
H   1.1068995268 -1.2737001395 -1.0635824066
H   2.1488560012 -0.8267872364  0.4039780255
7
Image 11  Energy = -29.6662853426
C   0.8963602077  0.7047814869 -0.1728725254
H   0.7306249491  1.4891952856 -0.9161714533
O   0.5527640125  1.0361011638  1.1274887262
C   1.3570785112 -0.5544619350 -0.3014415935
H   0.6157627707  0.2181698105  1.6823738365
H   1.1305504957 -1.2549229703 -1.0975720355
H   2.1252947004 -0.8534545994  0.4152350786
7
Image 12  Energy = -29.6685082382
C   0.8940759086  0.6971779458 -0.1676703837
H   0.7213749001  1.4743848943 -0.9146801917
O   0.5518461490  1.0426820736  1.1310569735
C   1.3616781219 -0.5566599783 -0.3102284265
H   0.6148778598  0.2493396750  1.6878853808
H   1.1530792924 -1.2328776156 -1.1311110266
H   2.0998498672 -0.8795238784  0.4278471882
7
Image 13  Energy = -29.6705219513
C   0.8917705584  0.6889836800 -0.1620934353
H   0.7123915379  1.4612957437 -0.9139035485
O   0.5508128065  1.0513191289  1.1318461111
C   1.3659221558 -0.5589656561 -0.3171488256
H   0.6180696113  0.2561716364  1.7161385040
H   1.1759506082 -1.2110868108 -1.1619103241
H   2.0767071013 -0.9069282697  0.4331601663
7
Image 14  Energy = -29.6723737186
C   0.8893787961  0.6817279721 -0.1571120918
H   0.7025479806  1.4466865500 -0.9126375171
O   0.5501525315  1.0578188272  1.1345559082
C   1.3702003837 -0.5609520993 -0.3245434459
H   0.6178315966  0.2819994839  1.7223613076
H   1.1993496235 -1.1867337246 -1.1930366572
H   2.0514486126 -0.9355273880  0.4425490386
7
Image 15  Energy = -29.6740861750
C   0.8865731696  0.6736035977 -0.1514942760
H   0.6921249310  1.4316930807 -0.9121375974
O   0.5494611869  1.0657235434  1.1356222928
C   1.3744629640 -0.5631265532 -0.3309618939
H   0.6216649959  0.2966025361  1.7437261501
H   1.2256439097 -1.1596901070 -1.2242368531
H   2.0253213282 -0.9649327008  0.4444954942
7
Image 16  Energy = -29.6755761123
C   0.8835284956  0.6661379564 -0.1461312195
H   0.6810265185  1.4158356311 -0.9114735570
O   0.5491073897  1.0727582012  1.1372849394
C   1.3787247847 -0.5647697090 -0.3374317590
H   0.6257838255  0.3146413109  1.7503677822
H   1.2524738850 -1.1301646543 -1.2535993128
H   1.9966079478 -0.9997522082  0.4533534155
7
Image 17  Energy = -29.6767981267
C   0.8798840116  0.6581350634 -0.1405518801
H   0.6700433319  1.3999799860 -0.9115628901
O   0.5489197959  1.0800520965  1.1383245696
C   1.3825664645 -0.5669396856 -0.3423768083
H   0.6325585899  0.3311654196  1.7654525206
H   1.2830492392 -1.0998587276 -1.2826001953
H   1.9708555541 -1.0252809648  0.4432985897
7
Image 18  Energy = -29.6776850140
C   0.8766562983  0.6518151633 -0.1359794093
H   0.6594469843  1.3860309672 -0.9102747806
O   0.5490500510  1.0859523745  1.1386351842
C   1.3866448576 -0.5669014340 -0.3483930438
H   0.6404527637  0.3441327324  1.7707867893
H   1.3080254682 -1.0705674526 -1.3003161588
H   1.9363843473 -1.0723887299  0.4666662129
7
Image 19  Energy = -29.6783460146
C   0.8739135528  0.6466827917 -0.1326441911
H   0.6517183849  1.3768915093 -0.9102190718
O   0.5492012733  1.0903743759  1.1394752916
C   1.3884996877 -0.5692118193 -0.3495176503
H   0.6461583415  0.3563408153  1.7779750499
H   1.3355467238 -1.0506738023 -1.3240625432
H   1.9190727194 -1.0768504099  0.4434941516
7
Image 20  Energy = -29.6789262509
C   0.8705610617  0.6417761059 -0.1296385012
H   0.6432550360  1.3674800006 -0.9087743754
O   0.5495867366  1.0947924062  1.1397906247
C   1.3915683561 -0.5693044171 -0.3540122295
H   0.6556331707  0.3673827351  1.7869460510
H   1.3564200534 -1.0310365507 -1.3291240510
H   1.8944471455 -1.1086720273  0.4508756987
7
Image 21  Energy = -29.6794079757
C   0.8670959713  0.6369485093 -0.1265588745
H   0.6337803141  1.3577082060 -0.9078812132
O   0.5503186690  1.0986613886  1.1399815067
C   1.3931595351 -0.5701690092 -0.3552577784
H   0.6652718337  0.3781420721  1.7892308519
H   1.3977483007 -1.0013014923 -1.3591154586
H   1.8636809165 -1.1329746252  0.4528066013
7
Image 22  Energy = -29.6796909636
C   0.8632450847  0.6323999282 -0.1241136638
H   0.6239868264  1.3488830082 -0.9077465813
O   0.5508431405  1.1028367896  1.1407352966
C   1.3965066450 -0.5712626333 -0.3596671524
H   0.6766752202  0.3910957415  1.8004371132
H   1.4128136497 -0.9889014499 -1.3491053188
H   1.8446868880 -1.1485439237  0.4428960082
7
Image 23  Energy = -29.6799697346
C   0.8607471040  0.6297949543 -0.1230605344
H   0.6175760161  1.3433781848 -0.9069488591
O   0.5516498081  1.1045343502  1.1406037603
C   1.3970065012 -0.5709889489 -0.3594299586
H   0.6867912843  0.3975350846  1.8018524286
H   1.4416210587 -0.9697672190 -1.3698978766
H   1.8231796588 -1.1677775104  0.4481880963
7
Image 24  Energy = -29.6801656848
C   0.8573855234  0.6267624745 -0.1214496952
H   0.6082298930  1.3362151991 -0.9072068535
O   0.5524948001  1.1069398406  1.1408228943
C   1.3988354815 -0.5714751110 -0.3612913115
H   0.6992572482  0.4067975880  1.8062190300
H   1.4631481144 -0.9556672670 -1.3712259855
H   1.8033923850 -1.1802282712  0.4449153801
7
Image 25  Energy = -29.6080206847
C   0.8939161967  0.7908786961 -0.1848764804
H   0.7389041390  1.5685541047 -0.9451141664
O   0.5615931230  1.0019276300  1.1013259617
C   1.3287780089 -0.5654431923 -0.2018272899
H   0.7981953515 -0.2605797538  1.0299281075
H   0.9973843295 -1.3222914467 -0.9238627372
H   2.2944101558 -0.7392818574  0.2942755793
7
Image 26  Energy = -29.6115953094
C   0.8918916533  0.7939628676 -0.1791396411
H   0.7380877081  1.5682300029 -0.9439627536
O   0.5617967615  1.0055013532  1.0977726888
C   1.3289532373 -0.5676243308 -0.1979270971
H   0.8167369229 -0.3312177455  0.9730765967
H   0.9924498104 -1.3202820056 -0.9187879354
H   2.3004232096 -0.7378116689  0.2864667667
7
Image 27  Energy = -29.6186994529
C   0.8896575370  0.7971816418 -0.1726007624
H   0.7374208591  1.5673689200 -0.9418425076
O   0.5622037430  1.0092042099  1.0934935195
C   1.3290708068 -0.5698250608 -0.1940306323
H   0.8312750901 -0.4047728112  0.9216403165
H   0.9887921044 -1.3183802017 -0.9156485185
H   2.3089700402 -0.7361998521  0.2762183017
7
Image 28  Energy = -29.6292220271
C   0.8877411954  0.8002275809 -0.1672123319
H   0.7371974118  1.5668194848 -0.9405074047
O   0.5624589391  1.0131701487  1.0898460687
C   1.3287975691 -0.5718190311 -0.1899525579
H   0.8456471073 -0.4839844431  0.8769588844
H   0.9878674353 -1.3158624765 -0.9151803975
H   2.3177859942 -0.7344389001  0.2641891363
7
Image 29  Energy = -29.6420511967
C   0.8858585324  0.8029483263 -0.1615515626
H   0.7375018207  1.5661460736 -0.9399761720
O   0.5626287440  1.0176525145  1.0862604376
C   1.3284379311 -0.5740104038 -0.1862827065
H   0.8579748947 -0.5660369777  0.8386851842
H   0.9897195345 -1.3128393250 -0.9175306259
H   2.3273250932 -0.7321881487  0.2500124173
7
Image 30  Energy = -29.6540705478
C   0.8836828150  0.8056141915 -0.1547095359
H   0.7385732404  1.5648946476 -0.9392058553
O   0.5628135742  1.0227905771  1.0821793161
C   1.3287838155 -0.5768662580 -0.1839442607
H   0.8603209477 -0.6519276447  0.8180184150
H   0.9941838421 -1.3085609515 -0.9235608018
H   2.3383134309 -0.7286120529  0.2313231704
7
Image 31  Energy = -29.6643358535
C   0.8813031668  0.8081157361 -0.1471044614
H   0.7406852682  1.5629738325 -0.9388357757
O   0.5631142914  1.0278940348  1.0776991296
C   1.3292047937 -0.5802801215 -0.1817847636
H   0.8574937459 -0.7314462587  0.8044844009
H   1.0010977910 -1.3025606807 -0.9332113252
H   2.3506805126 -0.7233042060  0.2088957880
7
Image 32  Energy = -29.6732447064
C   0.8788142058  0.8097900660 -0.1388969958
H   0.7436537757  1.5601021719 -0.9378971124
O   0.5633578079  1.0335134975  1.0731862276
C   1.3294876226 -0.5843567174 -0.1794302799
H   0.8551982723 -0.8040702602  0.7882348531
H   1.0106863596 -1.2942537524 -0.9469783833
H   2.3628414848 -0.7166831098  0.1837498910
7
Image 33  Energy = -29.6808138555
C   0.8762890755  0.8107449066 -0.1306309506
H   0.7471908681  1.5564582344 -0.9362840492
O   0.5633752790  1.0398791972  1.0691156147
C   1.3299530865 -0.5890198091 -0.1774934442
H   0.8538623456 -0.8749896879  0.7720392827
H   1.0222053231 -1.2832236557 -0.9634127229
H   2.3733863601 -0.7100000718  0.1578013904
7
Image 34  Energy = -29.6865448421
C   0.8735934443  0.8107057919 -0.1218049260
H   0.7517948166  1.5513265917 -0.9347384736
O   0.5632169985  1.0467790474  1.0652587078
C   1.3304877116 -0.5947209476 -0.1757705434
H   0.8530007065 -0.9327888997  0.7552629008
H   1.0362210264 -1.2684821527 -0.9847933697
H   2.3838904980 -0.7029262920  0.1299322028
7
Image 35  Energy = -29.6912052995
C   0.8709121477  0.8096004750 -0.1131090300
H   0.7575557062  1.5445443142 -0.9336209121
O   0.5626765780  1.0546382122  1.0622645026
C   1.3312939359 -0.6013173391 -0.1746617292
H   0.8537568315 -0.9847633951  0.7372532774
H   1.0518201904 -1.2497169557 -1.0088635768
H   2.3926945537 -0.6959045228  0.1015888210
7
Image 36  Energy = -29.6950475192
C   0.8684575582  0.8072531486 -0.1049554167
H   0.7641715735  1.5360008374 -0.9326143602
O   0.5616627194  1.0635007551  1.0604193106
C   1.3323430977 -0.6084550372 -0.1744537019
H   0.8555584425 -1.0329688962  0.7196534142
H   1.0680870959 -1.2275438868 -1.0349336228
H   2.4008488320 -0.6889746659  0.0739045249
7
Image 37  Energy = -29.6982899374
C   0.8663456987  0.8034495426 -0.0973751948
H   0.7714414645  1.5257074579 -0.9323280759
O   0.5601509441  1.0735013459  1.0597761772
C   1.3336111411 -0.6158541685 -0.1753162078
H   0.8595821338 -1.0788194579  0.7012851995
H   1.0838431070 -1.2031188690 -1.0613660165
H   2.4078486529 -0.6824971829  0.0485805800
7
Image 38  Energy = -29.7009657389
C   0.8644126075  0.7982678524 -0.0897484938
H   0.7791318494  1.5133668549 -0.9331186116
O   0.5582247569  1.0844886888  1.0599815473
C   1.3352741272 -0.6234170863 -0.1775104973
H   0.8648803563 -1.1195096185  0.6822660114
H   1.0983996922 -1.1780130431 -1.0873500242
H   2.4140946561 -0.6771029932  0.0263838074
7
Image 39  Energy = -29.7031547344
C   0.8625682700  0.7917202234 -0.0817497722
H   0.7868681733  1.4989055070 -0.9339004846
O   0.5559211932  1.0963012836  1.0607721743
C   1.3375824917 -0.6309604251 -0.1812998836
H   0.8700487579 -1.1520608527  0.6632415577
H   1.1111878310 -1.1537086340 -1.1114224873
H   2.4194348566 -0.6739811986  0.0075567066
7
Image 40  Energy = -29.7050399101
C   0.8609376477  0.7842083931 -0.0735044552
H   0.7942049685  1.4827996570 -0.9341502439
O   0.5532335640  1.1087839540  1.0621442337
C   1.3406022171 -0.6381217446 -0.1865798098
H   0.8740723837 -1.1827673315  0.6435085598
H   1.1214335059 -1.1311021892 -1.1327459791
H   2.4239349011 -0.6730601318 -0.0082490296
7
Image 41  Energy = -29.7066404736
C   0.8595370693  0.7763398040 -0.0651729743
H   0.8007987689  1.4660476462 -0.9345323345
O   0.5503547234  1.1215952519  1.0637464018
C   1.3436810043 -0.6451732872 -0.1923192994
H   0.8796712272 -1.2116058374  0.6229790328
H   1.1301394391 -1.1100795862 -1.1544030805
H   2.4287321906 -0.6740501480 -0.0219952468
7
Image 42  Energy = -29.7079133755
C   0.8581004303  0.7685358371 -0.0564323121
H   0.8064219227  1.4505814012 -0.9332998229
O   0.5473584275  1.1343710096  1.0652096658
C   1.3474441653 -0.6518458948 -0.1990131432
H   0.8834237507 -1.2410593238  0.6019030309
H   1.1366813342 -1.0929016671 -1.1702066500
H   2.4326501492 -0.6765872624 -0.0339623623
7
Image 43  Energy = -29.7088361746
C   0.8570172873  0.7611146803 -0.0483863046
H   0.8103695921  1.4374159604 -0.9315712232
O   0.5445495825  1.1466378748  1.0665655684
C   1.3501697957 -0.6589134301 -0.2043683620
H   0.8909052595 -1.2639662896  0.5822372280
H   1.1453768830 -1.0748641741 -1.1945927603
H   2.4375360285 -0.6806097729 -0.0452224875
7
Image 44  Energy = -29.7093506223
C   0.8553249782  0.7544080916 -0.0394233957
H   0.8139281897  1.4259664488 -0.9268707572
O   0.5417633191  1.1582509709  1.0672182892
C   1.3552688847 -0.6641475534 -0.2123527035
H   0.8893111787 -1.2996660994  0.5592097124
H   1.1447853123 -1.0688422715 -1.1889560511
H   2.4397932024 -0.6815241479 -0.0545524158
7
Image 45  Energy = -29.7096511191
C   0.8550280819  0.7505465540 -0.0357185994
H   0.8139582074  1.4196857216 -0.9255291391
O   0.5403725255  1.1645208059  1.0678380865
C   1.3555181691 -0.6688576198 -0.2129760008
H   0.9003918902 -1.3011297932  0.5501154893
H   1.1524617290 -1.0536666101 -1.2225272287
H   2.4436558153 -0.6863340047 -0.0597836073
7
Image 46  Energy = -29.7098468608
C   0.8544868601  0.7479587864 -0.0323548782
H   0.8142093614  1.4143696757 -0.9244107101
O   0.5393566121  1.1689556245  1.0681672994
C   1.3573922574 -0.6706967438 -0.2163003556
H   0.8983920386 -1.3150893011  0.5421561785
H   1.1533165116 -1.0510337655 -1.2163715651
H   2.4447854374 -0.6873314072 -0.0647932266
7
Image 47  Energy = -29.7099676198
C   0.8536986841  0.7434672637 -0.0260408479
H   0.8140505387  1.4052246073 -0.9217178973
O   0.5375799817  1.1772364212  1.0682077118
C   1.3600653932 -0.6757060971 -0.2204843142
H   0.9011814614 -1.3297371094  0.5280340163
H   1.1565849977 -1.0390199990 -1.2277382684
H   2.4446267009 -0.6937756617 -0.0680200481
7
Image 48  Energy = -29.7099347478
C   0.8525793626  0.7403933752 -0.0243940518
H   0.8118202954  1.3997352177 -0.9215342898
O   0.5363890287  1.1820605233  1.0692106183
C   1.3615706995 -0.6789742873 -0.2214003751
H   0.9034402886 -1.3366044168  0.5219816104
H   1.1571668838 -1.0348579878 -1.2292059996
H   2.4583221033 -0.6865788179 -0.0853085852
7
Image 49  Energy = -29.7099817759
C   0.8515614587  0.7399489834 -0.0219215699
H   0.8103661606  1.3967842144 -0.9212905708
O   0.5362467732  1.1833008113  1.0686313517
C   1.3635176495 -0.6791022689 -0.2232013014
H   0.9064728824 -1.3424223580  0.5194161280
H   1.1572773461 -1.0309022803 -1.2341967226
H   2.4478225667 -0.6946311134 -0.0768037323
7
Image 50  Energy = -29.7099901503
C   0.8518634060  0.7403000626 -0.0227212522
H   0.8094459249  1.3977387593 -0.9212145416
O   0.5364090706  1.1827601771  1.0687539312
C   1.3628954741 -0.6790088622 -0.2227528378
H   0.9065233646 -1.3398330066  0.5207215446
H   1.1567035591 -1.0331214835 -1.2320869907
H   2.4505056875 -0.6926712563 -0.0780554014
