7
Image 0  Energy = -153.9152250348
C   0.8260657415  0.5508603911 -0.1261794589
H   0.4554445983  1.2417513435 -0.8784317668
O   0.5680753083  1.0246514429  1.1187434847
C   1.4411098584 -0.5873603774 -0.4363613732
H   0.9099091373  0.3932317500  1.7666320721
H   1.5916834696 -0.8592929697 -1.4741885892
H   1.8089534565 -1.2734747403  0.3237244514
7
Image 1  Energy = -153.9151589204
C   0.8258889399  0.5521850039 -0.1258050931
H   0.4576556726  1.2421659125 -0.8790403585
O   0.5664754024  1.0265158351  1.1174970627
C   1.4405572650 -0.5871437409 -0.4340386760
H   0.9105570672  0.3876919941  1.7638502466
H   1.5886802694 -0.8606493042 -1.4707549899
H   1.8114269536 -1.2703988604  0.3222306283
7
Image 2  Energy = -153.9150227037
C   0.8257124665  0.5535091402 -0.1254314881
H   0.4598671853  1.2425800820 -0.8796489306
O   0.5648761379  1.0283789389  1.1162524637
C   1.4400043616 -0.5869265638 -0.4317161217
H   0.9112043190  0.3821530499  1.7610667627
H   1.5856766608 -0.8620055804 -1.4673206031
H   1.8139004389 -1.2673222268  0.3207367371
7
Image 3  Energy = -153.9148171007
C   0.8255361963  0.5548330274 -0.1250583517
H   0.4620790237  1.2429941413 -0.8802576188
O   0.5632774123  1.0302409282  1.1150093232
C   1.4394511080 -0.5867087766 -0.4293937178
H   0.9118509637  0.3766147172  1.7582818461
H   1.5826726612 -0.8633619464 -1.4638857337
H   1.8163742047 -1.2642452511  0.3192430726
7
Image 4  Energy = -153.9145427378
C   0.8253600876  0.5561567413 -0.1246855853
H   0.4642911491  1.2434081861 -0.8808664683
O   0.5616791851  1.0321018678  1.1137674973
C   1.4388974860 -0.5864903518 -0.4270714713
H   0.9124970327  0.3710769231  1.7554955946
H   1.5796682775 -0.8647184509 -1.4604504848
H   1.8188483520 -1.2611680756  0.3177497378
7
Image 5  Energy = -153.9142003116
C   0.8251841195  0.5574803198 -0.1243131393
H   0.4665035414  1.2438222635 -0.8814755014
O   0.5600814313  1.0339617956  1.1125268979
C   1.4383434825 -0.5862712724 -0.4247493895
H   0.9131425470  0.3655396263  1.7527080730
H   1.5766635140 -0.8660751174 -1.4570149090
H   1.8213229342 -1.2580907754  0.3162567882
7
Image 6  Energy = -153.9137904165
C   0.8250082798  0.5588037857 -0.1239409843
H   0.4687161881  1.2442364012 -0.8820847314
O   0.5584841321  1.0358207389  1.1112874612
C   1.4377890867 -0.5860515256 -0.4224274793
H   0.9137875236  0.3600027983  1.7499193325
H   1.5736583737 -0.8674319598 -1.4535790388
H   1.8237979860 -1.2550133987  0.3147642601
7
Image 7  Energy = -153.9133136699
C   0.8248325604  0.5601271539 -0.1235691018
H   0.4709290805  1.2446506172 -0.8826941668
O   0.5568872724  1.0376787191  1.1100491367
C   1.4372342884 -0.5858311004 -0.4201057478
H   0.9144319766  0.3544664173  1.7471294163
H   1.5706528591 -0.8687889869 -1.4501428966
H   1.8262735326 -1.2519359802  0.3132721800
7
Image 8  Energy = -153.9127704208
C   0.8246569557  0.5614504349 -0.1231974800
H   0.4731422121  1.2450649238 -0.8833038137
O   0.5552908389  1.0395357541  1.1088118827
C   1.4366790778 -0.5856099869 -0.4177842015
H   0.9150759187  0.3489304658  1.7443383622
H   1.5676469722 -0.8701462048 -1.4467064988
H   1.8287495946 -1.2488585468  0.3117805690
7
Image 9  Energy = -153.9121611335
C   0.8244814618  0.5627736364 -0.1228261118
H   0.4753555783  1.2454793298 -0.8839136764
O   0.5536948201  1.0413918594  1.1075756641
C   1.4361234451 -0.5853881757 -0.4154628469
H   0.9157193607  0.3433949290  1.7415462042
H   1.5646407144 -0.8715036183 -1.4432698579
H   1.8312261896 -1.2457811207  0.3102894447
7
Image 10  Energy = -153.9114860185
C   0.8243060758  0.5640967644 -0.1224549933
H   0.4775691755  1.2458938418 -0.8845237583
O   0.5520992055  1.0432470483  1.1063404511
C   1.4355673805 -0.5851656576 -0.4131416903
H   0.9163623125  0.3378597946  1.7387529725
H   1.5616340866 -0.8728612310 -1.4398329840
H   1.8337033336 -1.2427037204  0.3087988224
7
Image 11  Energy = -153.9107452874
C   0.8241307957  0.5654198237 -0.1220841237
H   0.4797830008  1.2463084646 -0.8851340618
O   0.5505039858  1.0451013323  1.1051062181
C   1.4350108741 -0.5849424240 -0.4108207377
H   0.9170047825  0.3323250517  1.7359586947
H   1.5586270895 -0.8742190459 -1.4363958852
H   1.8361810416 -1.2396263625  0.3073087157
7
Image 12  Energy = -153.9099389376
C   0.8239556197  0.5667428183 -0.1217135037
H   0.4819970523  1.2467232021 -0.8857445892
O   0.5489091527  1.0469547212  1.1038729429
C   1.4344539156 -0.5847184660 -0.4084999949
H   0.9176467786  0.3267906913  1.7331633960
H   1.5556197232 -0.8755770654 -1.4329585682
H   1.8386593279 -1.2365490614  0.3058191371
7
Image 13  Energy = -153.9090672029
C   0.8237805465  0.5680657519 -0.1213431352
H   0.4842113283  1.2471380570 -0.8863553421
O   0.5473146983  1.0488072243  1.1026406052
C   1.4338964947 -0.5844937751 -0.4061794675
H   0.9182883077  0.3212567046  1.7303671002
H   1.5526119878 -0.8769352920 -1.4295210389
H   1.8411382067 -1.2334718308  0.3043300983
7
Image 14  Energy = -153.9081304815
C   0.8236055748  0.5693886281 -0.1209730194
H   0.4864258271  1.2475530316 -0.8869663221
O   0.5457206148  1.0506588510  1.1014091838
C   1.4333386009 -0.5842683429 -0.4038591617
H   0.9189293774  0.3157230831  1.7275698317
H   1.5496038837 -0.8782937271 -1.4260833030
H   1.8436176912 -1.2303946838  0.3028416107
7
Image 15  Energy = -153.9071295073
C   0.8234307032  0.5707114499 -0.1206031556
H   0.4886405463  1.2479681277 -0.8875775302
O   0.5441268936  1.0525096132  1.1001786538
C   1.4327802239 -0.5840421613 -0.4015390839
H   0.9195699967  0.3101898162  1.7247716175
H   1.5465954123 -0.8796523717 -1.4226453670
H   1.8460977939 -1.2273176338  0.3013536854
7
Image 16  Energy = -153.9060655671
C   0.8232559302  0.5720342203 -0.1202335401
H   0.4908554828  1.2483833463 -0.8881889672
O   0.5425335248  1.0543595263  1.0989489849
C   1.4322213536 -0.5838152230 -0.3992192418
H   0.9202101768  0.3046568908  1.7219724888
H   1.5435865761 -0.8810112258 -1.4192072386
H   1.8485785256 -1.2242406949  0.2998663340
7
Image 17  Energy = -153.9049404107
C   0.8230812543  0.5733569417 -0.1198641668
H   0.4930706321  1.2487986884 -0.8888006333
O   0.5409404969  1.0562086108  1.0977201411
C   1.4316619802 -0.5835875208 -0.3968996438
H   0.9208499315  0.2991242907  1.7191724818
H   1.5405773794 -0.8823702884 -1.4157689269
H   1.8510598957 -1.2211638823  0.2983795679
7
Image 18  Energy = -153.9037557612
C   0.8229066738  0.5746796156 -0.1194950282
H   0.4952859888  1.2492141545 -0.8894125286
O   0.5393477970  1.0580568901  1.0964920836
C   1.4311020939 -0.5833590483 -0.3945802987
H   0.9214892766  0.2935919974  1.7163716355
H   1.5375678276 -0.8837295576 -1.4123304423
H   1.8535419123 -1.2180872117  0.2968933986
7
Image 19  Energy = -153.9025135374
C   0.8227321875  0.5760022434 -0.1191261178
H   0.4975015476  1.2496297446 -0.8900246531
O   0.5377554120  1.0599043891  1.0952647746
C   1.4305416853 -0.5831297992 -0.3922612150
H   0.9221282281  0.2880599921  1.7135699891
H   1.5345579265 -0.8850890312 -1.4088917952
H   1.8560245830 -1.2150106987  0.2954078372
7
Image 20  Energy = -153.9012150795
C   0.8225577945  0.5773248259 -0.1187574314
H   0.4997173035  1.2500454587 -0.8906370067
O   0.5361633299  1.0617511306  1.0940381822
C   1.4299807441 -0.5828997673 -0.3899424009
H   0.9227668005  0.2825282577  1.7107675770
H   1.5315476811 -0.8864487072 -1.4054529947
H   1.8585079164 -1.2119343584  0.2939228945
7
Image 21  Energy = -153.8998611414
C   0.8223834941  0.5786473638 -0.1183889676
H   0.5019332531  1.2504612962 -0.8912495891
O   0.5345715403  1.0635971337  1.0928122814
C   1.4294192595 -0.5826689460 -0.3876238643
H   0.9234050053  0.2769967808  1.7079644276
H   1.5285370953 -0.8878085839 -1.4020140485
H   1.8609919224 -1.2088582046  0.2924385805
7
Image 22  Energy = -153.8984516352
C   0.8222092864  0.5799698577 -0.1180207283
H   0.5041493943  1.2508772566 -0.8918623997
O   0.5329800353  1.0654424117  1.0915870569
C   1.4288572200 -0.5824373284 -0.3853056130
H   0.9240428501  0.2714655526  1.7051605603
H   1.5255261704 -0.8891686604 -1.3985749614
H   1.8634766136 -1.2057822498  0.2909549051
7
Image 23  Energy = -153.8969854098
C   0.8220351724  0.5812923080 -0.1176527212
H   0.5063657280  1.2512933390 -0.8924754374
O   0.5313888107  1.0672869685  1.0903625079
C   1.4282946125 -0.5822049073 -0.3829876536
H   0.9246803358  0.2659345725  1.7023559817
H   1.5225149046 -0.8905289374 -1.3951357341
H   1.8659620061 -1.2027065032  0.2894718767
7
Image 24  Energy = -153.8954617682
C   0.8218611536  0.5826147146 -0.1172849572
H   0.5085822568  1.2517095428 -0.8930887011
O   0.5297978644  1.0691308022  1.0891386420
C   1.4277314239 -0.5819716758 -0.3806699917
H   0.9253174596  0.2604038446  1.6995506908
H   1.5195032940 -0.8918894162 -1.3916963648
H   1.8684481177 -1.1996309722  0.2879895019
7
Image 25  Energy = -153.8938824736
C   0.8216872311  0.5839370771 -0.1169174391
H   0.5107989795  1.2521258673 -0.8937021892
O   0.5282071898  1.0709739231  1.0879154495
C   1.4271676430 -0.5817376296 -0.3783526342
H   0.9259542262  0.2548733644  1.6967447018
H   1.5164913388 -0.8932500961 -1.3882568566
H   1.8709349616 -1.1965556661  0.2865077878
7
Image 26  Energy = -153.8922522296
C   0.8215134039  0.5852593940 -0.1165501530
H   0.5130158877  1.2525423113 -0.8943158995
O   0.5266167694  1.0728163693  1.0866928826
C   1.4266032618 -0.5815027683 -0.3760355925
H   0.9265906568  0.2493431069  1.6939380627
H   1.5134790490 -0.8946109715 -1.3848172234
H   1.8734225415 -1.1934806016  0.2850267431
7
Image 27  Energy = -153.8905763437
C   0.8213396700  0.5865816629 -0.1161830741
H   0.5152329675  1.2529588738 -0.8949298287
O   0.5250265782  1.0746581985  1.0854708694
C   1.4260382756 -0.5812670949 -0.3737188801
H   0.9272267840  0.2438130330  1.6911308432
H   1.5104664409 -0.8959720335 -1.3813774867
H   1.8759108538 -1.1904057997  0.2835463770
7
Image 28  Energy = -153.8888571019
C   0.8211660285  0.5879038807 -0.1158161851
H   0.5174502079  1.2533755534 -0.8955439736
O   0.5234365959  1.0764994579  1.0842493554
C   1.4254726795 -0.5810306131 -0.3714025066
H   0.9278626335  0.2382831128  1.6883230982
H   1.5074535277 -0.8973332745 -1.3779376634
H   1.8783998971 -1.1873312771  0.2820666951
7
Image 29  Energy = -153.8870926132
C   0.8209924809  0.5892260455 -0.1154494919
H   0.5196676075  1.2537923487 -0.8961583312
O   0.5218468171  1.0783401558  1.0830283376
C   1.4249064657 -0.5807933247 -0.3690864722
H   0.9284982079  0.2327533458  1.6855148370
H   1.5044403103 -0.8986946925 -1.3744977558
H   1.8808896807 -1.1842570385  0.2805876966
7
Image 30  Energy = -153.8852777706
C   0.8208190305  0.5905481581 -0.1150830233
H   0.5218851751  1.2542092588 -0.8967729002
O   0.5202572527  1.0801802594  1.0818078632
C   1.4243396230 -0.5805552295 -0.3667707668
H   0.9291334868  0.2272237613  1.6827060235
H   1.5014267771 -0.9000562916 -1.3710577509
H   1.8833802248 -1.1811830766  0.2791093746
7
Image 31  Energy = -153.8834079627
C   0.8206456807  0.5918702224 -0.1147168173
H   0.5241029235  1.2546262829 -0.8973876800
O   0.5186679204  1.0820197174  1.0805879969
C   1.4237721390 -0.5803163265 -0.3644553762
H   0.9297684407  0.2216944004  1.6798966058
H   1.4984129113 -0.9014180782 -1.3676176298
H   1.8858715545 -1.1781093784  0.2776317206
7
Image 32  Energy = -153.8814819372
C   0.8204724333  0.5931922424 -0.1143509014
H   0.5263208613  1.2550434201 -0.8980026699
O   0.5170788311  1.0838584952  1.0793687793
C   1.4232040022 -0.5800766165 -0.3621402908
H   0.9304030508  0.2161652909  1.6770865537
H   1.4953987013 -0.9027800562 -1.3641773801
H   1.8883636900 -1.1750359360  0.2761547291
7
Image 33  Energy = -153.8795039888
C   0.8202992883  0.5945142195 -0.1139852775
H   0.5285389855  1.2554606695 -0.8986178685
O   0.5154899772  1.0856966062  1.0781501927
C   1.4226352043 -0.5798361023 -0.3598255138
H   0.9310373253  0.2106364247  1.6742758909
H   1.4923841502 -0.9041422218 -1.3607370069
H   1.8908566392 -1.1719627558  0.2746784030
7
Image 34  Energy = -153.8774807531
C   0.8201262430  0.5958361520 -0.1136199237
H   0.5307572809  1.2558780304 -0.8992332746
O   0.5139013329  1.0875341124  1.0769321631
C   1.4220657398 -0.5795947883 -0.3575110602
H   0.9316713002  0.2051077569  1.6714646958
H   1.4893692755 -0.9055045642 -1.3572965334
H   1.8933503976 -1.1688898590  0.2732027530
7
Image 35  Energy = -153.8754146565
C   0.8199532962  0.5971580375 -0.1132548256
H   0.5329757352  1.2562955018 -0.8998488872
O   0.5123128770  1.0893710642  1.0757146329
C   1.4214956030 -0.5793526795 -0.3551969392
H   0.9323050044  0.1995792518  1.6686530325
H   1.4863540918 -0.9068670741 -1.3538559790
H   1.8958449624 -1.1658172617  0.2717277855
7
Image 36  Energy = -153.8733050363
C   0.8197804509  0.5984798725 -0.1128899926
H   0.5351943484  1.2567130825 -0.9004647036
O   0.5107246079  1.0912074604  1.0744976088
C   1.4209247898 -0.5791097840 -0.3528831417
H   0.9329384359  0.1940509173  1.6658409019
H   1.4833385985 -0.9082297498 -1.3504153437
H   1.8983403386 -1.1627449589  0.2702534908
7
Image 37  Energy = -153.8711523620
C   0.8196077115  0.5998016516 -0.1125254386
H   0.5374131214  1.2571307708 -0.9010807211
O   0.5091365272  1.0930432924  1.0732811085
C   1.4203533019 -0.5788661165 -0.3505696477
H   0.9335715879  0.1885227696  1.6630282965
H   1.4803227948 -0.9095925905 -1.3469746252
H   1.9008365253 -1.1596729373  0.2687798476
7
Image 38  Energy = -153.8689583333
C   0.8194350816  0.6011233684 -0.1121611708
H   0.5396320518  1.2575485650 -0.9016969370
O   0.5075486313  1.0948785641  1.0720651356
C   1.4197811428 -0.5786216930 -0.3482564389
H   0.9342044610  0.1829948159  1.6602152214
H   1.4773066842 -0.9109555937 -1.3435338260
H   1.9033335174 -1.1566011867  0.2673068357
7
Image 39  Energy = -153.8667263261
C   0.8192625637  0.6024450167 -0.1117971834
H   0.5418511340  1.2579664639 -0.9023133487
O   0.5059609094  1.0967132985  1.0708496730
C   1.4192083092 -0.5783765221 -0.3459435129
H   0.9348370654  0.1774670482  1.6574016974
H   1.4742902736 -0.9123187548 -1.3400929551
H   1.9058313145 -1.1535297103  0.2658344496
7
Image 40  Energy = -153.8644609767
C   0.8190901582  0.6037665910 -0.1114334550
H   0.5440703576  1.2583844663 -0.9029299530
O   0.5043733405  1.0985475460  1.0696346728
C   1.4186347888 -0.5781306014 -0.3436308886
H   0.9354694262  0.1719394351  1.6545877706
H   1.4712735755 -0.9136820662 -1.3366520309
H   1.9083299232 -1.1504585307  0.2643627041
7
Image 41  Energy = -153.8621659157
C   0.8189178650  0.6050880858 -0.1110699613
H   0.5462897117  1.2588025712 -0.9035467472
O   0.5027859013  1.1003813623  1.0684200825
C   1.4180605627 -0.5778839222 -0.3413185938
H   0.9361015710  0.1664119399  1.6517734897
H   1.4682566022 -0.9150455199 -1.3332110736
H   1.9108293560 -1.1473876771  0.2628916236
7
Image 42  Energy = -153.8598442952
C   0.8187456846  0.6064094968 -0.1107066866
H   0.5485091883  1.2592207771 -0.9041637282
O   0.5011985749  1.1022147881  1.0672058676
C   1.4174856146 -0.5776364794 -0.3390066472
H   0.9367335199  0.1608845375  1.6489588878
H   1.4652393634 -0.9164091096 -1.3297700989
H   1.9133296244 -1.1443171706  0.2614212256
7
Image 43  Energy = -153.8574989638
C   0.8185736179  0.6077308196 -0.1103436249
H   0.5507287807  1.2596390819 -0.9047808934
O   0.4996113494  1.1040478514  1.0659920077
C   1.4169099368 -0.5773882778 -0.3366950503
H   0.9373652873  0.1553572136  1.6461439885
H   1.4622218677 -0.9177728299 -1.3263291195
H   1.9158307302 -1.1412470187  0.2599515120
7
Image 44  Energy = -153.8551327392
C   0.8184016654  0.6090520509 -0.1099807754
H   0.5529484823  1.2600574830 -0.9053982410
O   0.4980242160  1.1058805743  1.0647784873
C   1.4163335285 -0.5771393295 -0.3343837920
H   0.9379968863  0.1498299573  1.6433288148
H   1.4592041250 -0.9191366754 -1.3228881476
H   1.9183326665 -1.1381772204  0.2584824740
7
Image 45  Energy = -153.8527479356
C   0.8182298276  0.6103731883 -0.1096181398
H   0.5551682863  1.2604759784 -0.9060157699
O   0.4964371673  1.1077129761  1.0635652911
C   1.4157563875 -0.5768896444 -0.3320728609
H   0.9386283295  0.1443027577  1.6405133903
H   1.4561861445 -0.9205006411 -1.3194471952
H   1.9208354273 -1.1351077749  0.2570141044
7
Image 46  Energy = -153.8503464096
C   0.8180581044  0.6116942310 -0.1092557207
H   0.5573881879  1.2608945666 -0.9066334794
O   0.4948501972  1.1095450723  1.0623524056
C   1.4151785039 -0.5766392241 -0.3297622514
H   0.9392596280  0.1387756037  1.6376977349
H   1.4531679334 -0.9218647230 -1.3160062731
H   1.9233390153 -1.1320386865  0.2555464040
7
Image 47  Energy = -153.8479295049
C   0.8178864960  0.6130151787 -0.1088935223
H   0.5596081829  1.2613132462 -0.9072513680
O   0.4932633008  1.1113768748  1.0611398210
C   1.4145998631 -0.5763880652 -0.3274519619
H   0.9398907910  0.1332484865  1.6348818624
H   1.4501494967 -0.9232289179 -1.3125653903
H   1.9258434394 -1.1289699630  0.2540793790
7
Image 48  Energy = -153.8454994201
C   0.8177150028  0.6143360308 -0.1085315488
H   0.5618282677  1.2617320155 -0.9078694327
O   0.4916764740  1.1132083934  1.0599275313
C   1.4140204541 -0.5761361690 -0.3251419855
H   0.9405218261  0.1277214014  1.6320657811
H   1.4471308402 -0.9245932229 -1.3091245550
H   1.9283487050 -1.1259016091  0.2526130296
7
Image 49  Energy = -153.8430597610
C   0.8175436250  0.6156567861 -0.1081698044
H   0.5640484360  1.2621508717 -0.9084876681
O   0.4900897117  1.1150396409  1.0587155314
C   1.4134402780 -0.5758835494 -0.3228323035
H   0.9411527421  0.1221943462  1.6292494980
H   1.4441119733 -0.9259576337 -1.3056837760
H   1.9308548038 -1.1228336217  0.2511473425
7
Image 50  Energy = -153.8406157888
C   0.8173723616  0.6169774431 -0.1078082899
H   0.5662686785  1.2625698107 -0.9091060668
O   0.4885030065  1.1168706380  1.0575038099
C   1.4128593486 -0.5756302336 -0.3205228862
H   0.9417835525  0.1166673169  1.6264330257
H   1.4410929111 -0.9273221436 -1.3022430641
H   1.9333617112 -1.1197659914  0.2496822914
7
Image 51  Energy = -153.8381743548
C   0.8172012099  0.6182980009 -0.1074470007
H   0.5684889818  1.2629888281 -0.9097246205
O   0.4869163472  1.1187014171  1.0562923435
C   1.4122776870 -0.5753762559 -0.3182137008
H   0.9424142776  0.1111403017  1.6236163874
H   1.4380736741 -0.9286867427 -1.2988024338
H   1.9358693923 -1.1166987091  0.2482178449
7
Image 52  Energy = -153.8357426383
C   0.8170301657  0.6196184598 -0.1070859270
H   0.5707093298  1.2634079196 -0.9103433215
O   0.4853297197  1.1205320209  1.0550810961
C   1.4116953108 -0.5751216464 -0.3159047220
H   0.9430449439  0.1056132791  1.6207996169
H   1.4350542858 -0.9300514189 -1.2953619017
H   1.9383778141 -1.1136317741  0.2467539791
7
Image 53  Energy = -153.8333264802
C   0.8168592242  0.6209388214 -0.1067250555
H   0.5729297068  1.2638270821 -0.9109621636
O   0.4837431089  1.1223624957  1.0538700245
C   1.4111122242 -0.5748664212 -0.3135959396
H   0.9436755805  0.1000862199  1.6179827531
H   1.4320347683 -0.9314161593 -1.2919214852
H   1.9408869570 -1.1105651985  0.2452906862
7
Image 54  Energy = -153.8309298001
C   0.8166883809  0.6222590879 -0.1063643739
H   0.5751500995  1.2642463134 -0.9115811433
O   0.4821565021  1.1241928819  1.0526590884
C   1.4105284157 -0.5746105803 -0.3112873575
H   0.9443062132  0.0945590944  1.6151658310
H   1.4290151386 -0.9327809532 -1.2884811992
H   1.9433968199 -1.1074990040  0.2438279744
7
Image 55  Energy = -153.8285543489
C   0.8165176330  0.6235792618 -0.1060038758
H   0.5773704994  1.2646656125 -0.9122002597
O   0.4805698913  1.1260232063  1.0514482601
C   1.4099438651 -0.5743541150 -0.3089789837
H   0.9449368596  0.0890318801  1.6123488763
H   1.4259954075 -0.9341457931 -1.2850410553
H   1.9459074141 -1.1044332125  0.2423658580
7
Image 56  Energy = -153.8261995713
C   0.8163469798  0.6248993455 -0.1056435631
H   0.5795909024  1.2650849791 -0.9128195135
O   0.4789832748  1.1278534775  1.0502375290
C   1.4093585556 -0.5740970202 -0.3066708188
H   0.9455675265  0.0835045678  1.6095319042
H   1.4229755792 -0.9355106761 -1.2816010611
H   1.9484187517 -1.1013678334  0.2409043431
7
Image 57  Energy = -153.8238630797
C   0.8161764219  0.6262193422 -0.1052834466
H   0.5818113093  1.2655044135 -0.9134389065
O   0.4773966559  1.1296836876  1.0490269011
C   1.4087724822 -0.5738393021 -0.3043628520
H   0.9461982101  0.0779771615  1.6067149238
H   1.4199556523 -0.9368756039 -1.2781612204
H   1.9509308382 -1.0983028587  0.2394434205
7
Image 58  Energy = -153.8215412937
C   0.8160059607  0.6275392572 -0.1049235434
H   0.5840317252  1.2659239170 -0.9140584412
O   0.4758100413  1.1315138163  1.0478163937
C   1.4081856493 -0.5735809768 -0.3020550682
H   0.9468288977  0.0724496755  1.6038979423
H   1.4169356202 -0.9382405827 -1.2747215328
H   1.9534436756 -1.0952382663  0.2379830697
7
Image 59  Energy = -153.8192293470
C   0.8158355975  0.6288590991 -0.1045638740
H   0.5862521587  1.2663434914 -0.9146781196
O   0.4742234381  1.1333438370  1.0466060285
C   1.4075980626 -0.5733220638 -0.2997474602
H   0.9474595713  0.0669221285  1.6010809693
H   1.4139154715 -0.9396056215 -1.2712819927
H   1.9559572701 -1.0921740306  0.2365232686
7
Image 60  Energy = -153.8169226330
C   0.8156653326  0.6301788794 -0.1042044586
H   0.5884726203  1.2667631398 -0.9152979429
O   0.4726368526  1.1351737226  1.0453958264
C   1.4070097242 -0.5730625805 -0.2974400346
H   0.9480902111  0.0613945389  1.5982640182
H   1.4108951923 -0.9409707302 -1.2678425889
H   1.9584716369 -1.0891101298  0.2350640005
7
Image 61  Energy = -153.8146173423
C   0.8154951652  0.6314986110 -0.1038453153
H   0.5906931204  1.2671828651 -0.9159179107
O   0.4710502885  1.1370034501  1.0441858034
C   1.4064206330 -0.5728025437 -0.2951328092
H   0.9487207987  0.0558669227  1.5954471067
H   1.4078747694 -0.9423359180 -1.2644033062
H   1.9609867948 -1.0860465472  0.2336052512
7
Image 62  Energy = -153.8123107586
C   0.8153250939  0.6328183066 -0.1034864584
H   0.5929136675  1.2676026699 -0.9165380217
O   0.4694637475  1.1388330029  1.0429759708
C   1.4058307904 -0.5725419723 -0.2928258032
H   0.9493513191  0.0503392931  1.5926302551
H   1.4048541928 -0.9437011916 -1.2609641274
H   1.9635027588 -1.0829832685  0.2321470047
7
Image 63  Energy = -153.8100012087
C   0.8151551175  0.6341379763 -0.1031278985
H   0.5951342677  1.2680225559 -0.9171582743
O   0.4678772297  1.1406623697  1.0417663360
C   1.4052402021 -0.5722808875 -0.2905190305
H   0.9499817610  0.0448116605  1.5898134843
H   1.4018334563 -0.9450665562 -1.2575250376
H   1.9660195357 -1.0799202786  0.2306892405
7
Image 64  Energy = -153.8076874305
C   0.8149852359  0.6354576266 -0.1027696431
H   0.5973549250  1.2684425241 -0.9177786684
O   0.4662907349  1.1424915433  1.0405569045
C   1.4046488741 -0.5720193086 -0.2882124983
H   0.9506121159  0.0392840329  1.5869968140
H   1.3988125566 -0.9464320155 -1.2540860264
H   1.9685371276 -1.0768575628  0.2292319377
7
Image 65  Energy = -153.8053676939
C   0.8148154507  0.6367772604 -0.1024116983
H   0.5995756429  1.2688625751 -0.9183992062
O   0.4647042634  1.1443205173  1.0393476819
C   1.4040568058 -0.5717572456 -0.2859062108
H   0.9512423768  0.0337564160  1.5841802605
H   1.3957914909 -0.9477975736 -1.2506470890
H   1.9710555396 -1.0737951095  0.2277750819
7
Image 66  Energy = -153.8030400014
C   0.8146457657  0.6380968767 -0.1020540695
H   0.6017964245  1.2692827091 -0.9190198925
O   0.4631178162  1.1461492856  1.0381386750
C   1.4034639841 -0.5714946955 -0.2836001737
H   0.9518725375  0.0282288126  1.5813638367
H   1.3927702554 -0.9491632344 -1.2472082256
H   1.9735747866 -1.0707329140  0.2263186697
7
Image 67  Energy = -153.8007021984
C   0.8144761860  0.6394164728 -0.1016967622
H   0.6040172734  1.2697029261 -0.9196407337
O   0.4615313949  1.1479778417  1.0369298911
C   1.4028703835 -0.5712316431 -0.2812943969
H   0.9525025925  0.0227012235  1.5785475520
H   1.3897488449 -0.9505290018 -1.2437694396
H   1.9760948947 -1.0676709791  0.2248627094
7
Image 68  Energy = -153.7983529767
C   0.8143067168  0.6407360461 -0.1013397803
H   0.6062381925  1.2701232255 -0.9202617361
O   0.4599450005  1.1498061807  1.0357213370
C   1.4022759714 -0.5709680681 -0.2789888931
H   0.9531325374  0.0171736482  1.5757314129
H   1.3867272548 -0.9518948790 -1.2403307364
H   1.9786158965 -1.0646093134  0.2234072159
7
Image 69  Energy = -153.7959917802
C   0.8141373612  0.6420555966 -0.1009831247
H   0.6084591837  1.2705436059 -0.9208829044
O   0.4583586328  1.1516343013  1.0345130176
C   1.4016807159 -0.5707039528 -0.2766836745
H   0.9537623700  0.0116460858  1.5729154237
H   1.3837054820 -0.9532608680 -1.2368921225
H   1.9811378244 -1.0615479286  0.2219522047
7
Image 70  Energy = -153.7936192872
C   0.8139681210  0.6433751265 -0.1006267923
H   0.6106802470  1.2709640652 -0.9215042418
O   0.4567722904  1.1534622054  1.0333049349
C   1.4010845881 -0.5704392847 -0.2743787511
H   0.9543920901  0.0061185350  1.5700995864
H   1.3806835257 -0.9546269698 -1.2334536058
H   1.9836607077 -1.0584868375  0.2204976897
7
Image 71  Energy = -153.7912366701
C   0.8137989966  0.6446946393 -0.1002707764
H   0.6129013816  1.2713846004 -0.9221257510
O   0.4551859711  1.1552898979  1.0320970892
C   1.4004875604 -0.5701740532 -0.2720741302
H   0.9550216994  0.0005909943  1.5672839015
H   1.3776613871 -0.9559931843 -1.2300151966
H   1.9861845738 -1.0554260542  0.2190436834
7
Image 72  Energy = -153.7888472932
C   0.8136299870  0.6460141406 -0.0999150652
H   0.6151225842  1.2718052079 -0.9227474332
O   0.4535996716  1.1571173877  1.0308894773
C   1.3998896129 -0.5699082565 -0.2697698118
H   0.9556512015 -0.0049365379  1.5644683680
H   1.3746390706 -0.9573595109 -1.2265769082
H   1.9887094422 -1.0523655907  0.2175901930
7
Image 73  Energy = -153.7864576569
C   0.8134610851  0.6473336431 -0.0995596367
H   0.6173438474  1.2722258829 -0.9233692850
O   0.4520133858  1.1589446926  1.0296820890
C   1.3992907522 -0.5696419175 -0.2674657806
H   0.9562806056 -0.0104640623  1.5616529830
H   1.3716165879 -0.9587259476 -1.2231387568
H   1.9912353060 -1.0493054511  0.2161372069
7
Image 74  Energy = -153.7840766350
C   0.8132922205  0.6486532522 -0.0992043346
H   0.6195650523  1.2726466035 -0.9239912487
O   0.4504270626  1.1607720128  1.0284746287
C   1.3986910003 -0.5693753165 -0.2651617915
H   0.9569100591 -0.0159916115  1.5588379076
H   1.3685940878 -0.9600924486 -1.2197008878
H   1.9937620874 -1.0462456518  0.2146845462
7
Image 75  Energy = -153.7817116825
C   0.8131229212  0.6499736737 -0.0988481304
H   0.6217853267  1.2730672308 -0.9246129294
O   0.4488403722  1.1626007452  1.0272648590
C   1.3980902325 -0.5691103287 -0.2628560948
H   0.9575406400 -0.0215194375  1.5560244553
H   1.3655726263 -0.9614586747 -1.2162643506
H   1.9962894510 -1.0431863687  0.2132310108
7
Image 76  Energy = -153.7793704973
C   0.8129531462  0.6512949733 -0.0984909278
H   0.6240046069  1.2734877491 -0.9252343028
O   0.4472533104  1.1644309627  1.0260526633
C   1.3974884457 -0.5688470910 -0.2605485446
H   0.9581724131 -0.0270475341  1.5532126406
H   1.3625522821 -0.9628246048 -1.2128292258
H   1.9988173655 -1.0401276151  0.2117765170
7
Image 77  Energy = -153.7770591198
C   0.8127828598  0.6526172096 -0.0981326380
H   0.6262228326  1.2739081427 -0.9258553508
O   0.4456658767  1.1662627304  1.0248379324
C   1.3968856078 -0.5685857105 -0.2582390099
H   0.9588054395 -0.0325758992  1.5504024773
H   1.3595331281 -0.9641902180 -1.2093955947
H   2.0013458255 -1.0370694149  0.2103210036
7
Image 78  Energy = -153.7747821315
C   0.8126118261  0.6539407839 -0.0977727381
H   0.6284395464  1.2743283429 -0.9264759206
O   0.4440779962  1.1680966130  1.0236196290
C   1.3962813394 -0.5683269884 -0.2559265670
H   0.9594402267 -0.0381045830  1.5475944572
H   1.3565156828 -0.9655553636 -1.2059640539
H   2.0038749525 -1.0340119647  0.2088640134
7
Image 79  Energy = -153.7725461267
C   0.8124402072  0.6552654324 -0.0974115649
H   0.6306550681  1.2747483843 -0.9270961377
O   0.4424897589  1.1699321678  1.0223985480
C   1.3956758372 -0.5680703056 -0.2536118635
H   0.9600764003 -0.0436335282  1.5447881181
H   1.3534995836 -0.9669201478 -1.2025342054
H   2.0064047146 -1.0309551628  0.2074059252
7
Image 80  Energy = -153.7703567363
C   0.8122679711  0.6565912135 -0.0970490382
H   0.6328693424  1.2751682509 -0.9277159888
O   0.4409011688  1.1717694509  1.0211745889
C   1.3950690418 -0.5678157409 -0.2512947953
H   0.9607140163 -0.0491627378  1.5419834738
H   1.3504848960 -0.9682845498 -1.1991061265
H   2.0089351337 -1.0278990468  0.2059467060
7
Image 81  Energy = -153.7682207069
C   0.8120950842  0.6579181878 -0.0966850797
H   0.6350823147  1.2755879265 -0.9283354596
O   0.4393122300  1.1736085172  1.0199476533
C   1.3944608990 -0.5675633756 -0.2489752617
H   0.9613531291 -0.0546922143  1.5391805376
H   1.3474716848 -0.9696485486 -1.1956798915
H   2.0114662281 -1.0248436529  0.2044863215
7
Image 82  Energy = -153.7661440255
C   0.8119215136  0.6592464159 -0.0963196139
H   0.6372939321  1.2760073955 -0.9289545362
O   0.4377229477  1.1754494184  1.0187176464
C   1.3938513583 -0.5673132917 -0.2466531648
H   0.9619937910 -0.0602219597  1.5363793229
H   1.3444600133 -0.9710121233 -1.1922555714
H   2.0139980140 -1.0217890150  0.2030247369
7
Image 83  Energy = -153.7641321427
C   0.8117472272  0.6605759581 -0.0959525702
H   0.6395041433  1.2764266425 -0.9295732048
O   0.4361333283  1.1772922021  1.0174844783
C   1.3932403702 -0.5670655692 -0.2443284109
H   0.9626360512 -0.0657519750  1.5335798424
H   1.3414499420 -0.9723752534 -1.1888332336
H   2.0165305077 -1.0187351649  0.2015619186
7
Image 84  Energy = -153.7621903091
C   0.8115721946  0.6619068725 -0.0955838830
H   0.6417128997  1.2768456525 -0.9301914528
O   0.4345433795  1.1791369111  1.0162480652
C   1.3926278846 -0.5668202850 -0.2420009108
H   0.9632799556 -0.0712822598  1.5307821089
H   1.3384415285 -0.9737379189 -1.1854129422
H   2.0190637274 -1.0156821323  0.2000978347
7
Image 85  Energy = -153.7603226610
C   0.8113963874  0.6632392156 -0.0952134918
H   0.6439201547  1.2772644109 -0.9308092680
O   0.4329531103  1.1809835836  1.0150083286
C   1.3920138509 -0.5665775126 -0.2396705811
H   0.9639255461 -0.0768128124  1.5279861345
H   1.3354348270 -0.9751001005 -1.1819947578
H   2.0215976936 -1.0126299444  0.1986324555
7
Image 86  Energy = -153.7585330641
C   0.8112197793  0.6645730411 -0.0948413400
H   0.6461258646  1.2776829037 -0.9314266388
O   0.4313625305  1.1828322536  1.0137651954
C   1.3913982175 -0.5663373225 -0.2373373442
H   0.9645728612 -0.0823436297  1.5251919316
H   1.3324298884 -0.9764617795 -1.1785787370
H   2.0241324286 -1.0095786266  0.1971657530
7
Image 87  Energy = -153.7568247042
C   0.8110423454  0.6659084006 -0.0944673752
H   0.6483299877  1.2781011172 -0.9320435538
O   0.4297716507  1.1846829519  1.0125185970
C   1.3907809338 -0.5660997824 -0.2350011293
H   0.9652219359 -0.0878747076  1.5223995133
H   1.3294267602 -0.9778229381 -1.1751649330
H   2.0266679563 -1.0065282013  0.1956977009
7
Image 88  Energy = -153.7552001566
C   0.8108640631  0.6672453424 -0.0940915481
H   0.6505324846  1.2785190385 -0.9326600013
O   0.4281804818  1.1865357061  1.0112684687
C   1.3901619505 -0.5658649586 -0.2326618722
H   0.9658728019 -0.0934060413  1.5196088939
H   1.3264254870 -0.9791835589 -1.1717533943
H   2.0292043010 -1.0034786881  0.1942282732
7
Image 89  Energy = -153.7536613774
C   0.8106849111  0.6685839122 -0.0937138125
H   0.6527333185  1.2789366556 -0.9332759695
O   0.4265890353  1.1883905411  1.0100147487
C   1.3895412212 -0.5656329153 -0.2303195158
H   0.9665254873 -0.0989376248  1.5168200903
H   1.3234261099 -0.9805436258 -1.1683441654
H   2.0317414866 -1.0004301028  0.1927574441
7
Image 90  Energy = -153.7522104868
C   0.8105045714  0.6699248035 -0.0933334740
H   0.6549318058  1.2793538893 -0.9338913410
O   0.4249973568  1.1902480080  1.0087561337
C   1.3889174403 -0.5654044762 -0.2279728283
H   0.9671806277 -0.1044694180  1.5140336318
H   1.3204293124 -0.9819029723 -1.1649382398
H   2.0342804556 -0.9973829941  0.1912849375
7
Image 91  Energy = -153.7508476728
C   0.8103233173  0.6712674312 -0.0929511251
H   0.6571285409  1.2797707966 -0.9345062115
O   0.4234054321  1.1921076031  1.0074937822
C   1.3882917447 -0.5651789462 -0.2256229242
H   0.9678376474 -0.1100014433  1.5112490425
H   1.3174344997 -0.9832617327 -1.1615347371
H   2.0368203878 -0.9943368686  0.1898109931
7
Image 92  Energy = -153.7495733888
C   0.8101411337  0.6726118299 -0.0925667290
H   0.6593234941  1.2801873691 -0.9351205676
O   0.4218132735  1.1939693432  1.0062276404
C   1.3876640990 -0.5649563843 -0.2232697714
H   0.9684965629 -0.1155336934  1.5084663499
H   1.3144417013 -0.9846198940 -1.1581336860
H   2.0393613055 -0.9912917304  0.1883355838
7
Image 93  Energy = -153.7483871068
C   0.8099580068  0.6739580306 -0.0921802515
H   0.6615166382  1.2806036002 -0.9357343959
O   0.4202208931  1.1958332414  1.0049576560
C   1.3870344713 -0.5647368475 -0.2209133452
H   0.9691573871 -0.1210661602  1.5056855847
H   1.3114509430 -0.9859774442 -1.1547351098
H   2.0419032305 -0.9882475800  0.1868586816
7
Image 94  Energy = -153.7472875949
C   0.8097739250  0.6753060603 -0.0917916604
H   0.6637079480  1.2810194845 -0.9363476822
O   0.4186283039  1.1976993081  1.0036837786
C   1.3864028326 -0.5645203906 -0.2185536281
H   0.9698201290 -0.1265988346  1.5029067807
H   1.3084622468 -0.9873343729 -1.1513390269
H   2.0444461847 -0.9852044146  0.1853802582
7
Image 95  Energy = -153.7462734974
C   0.8095888783  0.6766559423 -0.0914009258
H   0.6658974004  1.2814350185 -0.9369604121
O   0.4170355189  1.1995675505  1.0024059596
C   1.3857691555 -0.5643070653 -0.2161906094
H   0.9704847947 -0.1321317069  1.5001299731
H   1.3054756313 -0.9886906703 -1.1479454511
H   2.0469901908 -0.9821622287  0.1839002856
7
Image 96  Energy = -153.7453428602
C   0.8094028587  0.6780076966 -0.0910080197
H   0.6680849738  1.2818501999 -0.9375725710
O   0.4154425514  1.2014379732  1.0011241522
C   1.3851334140 -0.5640969201 -0.2138242840
H   0.9711513871 -0.1376647662  1.4973551984
H   1.3024911125 -0.9900463277 -1.1445543924
H   2.0495352725 -0.9791210156  0.1824187365
7
Image 97  Energy = -153.7444933593
C   0.8092158592  0.6793613398 -0.0906129153
H   0.6702706476  1.2822650275 -0.9381841447
O   0.4138494150  1.2033105789  0.9998383117
C   1.3844955814 -0.5638900001 -0.2114546514
H   0.9718199073 -0.1431980009  1.4945824930
H   1.2995087039 -0.9914013374 -1.1411658582
H   2.0520814556 -0.9760807677  0.1809355848
7
Image 98  Energy = -153.7437216436
C   0.8090282039  0.6807159872 -0.0902163255
H   0.6724552062  1.2826795632 -0.9387951271
O   0.4122560200  1.2051848451  0.9985497752
C   1.3838579244 -0.5636857772 -0.2090829244
H   0.9724896715 -0.1487314434  1.4918112662
H   1.2965276966 -0.9927558272 -1.1377785245
H   2.0546268475 -0.9730405077  0.1794506801
7
Image 99  Energy = -153.7430266398
C   0.8088395637  0.6820725185 -0.0898175010
H   0.6746378463  1.2830937455 -0.9394054874
O   0.4106624762  1.2070612913  0.9972571442
C   1.3832182333 -0.5634848705 -0.2067079020
H   0.9731613519 -0.1542650381  1.4890421575
H   1.2935488111 -0.9941096541 -1.1343936812
H   2.0571732874 -0.9700011524  0.1779640898
7
Image 100  Energy = -153.7424067434
C   0.8086499342  0.6834309447 -0.0894164175
H   0.6768185482  1.2835075753 -0.9400152129
O   0.4090687980  1.2089399167  0.9959603788
C   1.3825764744 -0.5632873150 -0.2043295866
H   0.9738349483 -0.1597987725  1.4862751983
H   1.2905720590 -0.9954628111 -1.1310113343
H   2.0597208079 -0.9669626980  0.1764757942
7
Image 101  Energy = -153.7418604200
C   0.8084593112  0.6847912771 -0.0890130508
H   0.6789972910  1.2839210537 -0.9406242923
O   0.4074749996  1.2108207206  0.9946594403
C   1.3819326074 -0.5630931416 -0.2019479798
H   0.9745104610 -0.1653326342  1.4835104177
H   1.2875974525 -0.9968152907 -1.1276314923
H   2.0622694473 -0.9639251447  0.1749857773
7
Image 102  Energy = -153.7413864850
C   0.8082676901  0.6861535284 -0.0886073765
H   0.6811740526  1.2843341820 -0.9412327164
O   0.4058810959  1.2127037020  0.9933542905
C   1.3812865814 -0.5629023764 -0.1995630816
H   0.9751878920 -0.1708666112  1.4807478435
H   1.2846250046 -0.9981670860 -1.1242541680
H   2.0648192534 -0.9608884986  0.1734940284
7
Image 103  Energy = -153.7409837821
C   0.8080750662  0.6875177145 -0.0881993699
H   0.6833488085  1.2847469612 -0.9418404783
O   0.4042871026  1.2145888599  0.9920448914
C   1.3806383284 -0.5627150395 -0.1971748893
H   0.9758672449 -0.1764006919  1.4779875024
H   1.2816547302 -0.9995181898 -1.1208793812
H   2.0673702890 -0.9578527743  0.1720005449
7
Image 104  Energy = -153.7409290304
C   0.8057624955  0.7034555992 -0.0832873318
H   0.7086492376  1.2895309747 -0.9488185818
O   0.3856546537  1.2367515894  0.9764949945
C   1.3734627131 -0.5609201126 -0.1690464150
H   0.9839035812 -0.2409879319  1.4458667548
H   1.2471260644 -1.0152174725 -1.0814791560
H   2.0966828245 -0.9222458062  0.1542085552
7
Image 105  Energy = -153.7413275909
C   0.8055656301  0.7048082739 -0.0828696444
H   0.7108238886  1.2899400100 -0.9494103062
O   0.3840548650  1.2386517603  0.9751681041
C   1.3729038714 -0.5607792129 -0.1666384137
H   0.9845886736 -0.2465213328  1.4431108180
H   1.2441654567 -1.0165606824 -1.0780843501
H   2.0991391846 -0.9191719760  0.1526626125
7
Image 106  Energy = -153.7418025800
C   0.8053696660  0.7061591914 -0.0824540524
H   0.7130004417  1.2903493135 -0.9500025754
O   0.3824546965  1.2405506988  0.9738447622
C   1.3723478967 -0.5606356267 -0.1642339883
H   0.9852721708 -0.2520551368  1.4403538608
H   1.2412029139 -1.0179044503 -1.0746871890
H   2.1015937844 -0.9160971498  0.1511180020
7
Image 107  Energy = -153.7423551369
C   0.8051745919  0.7075083678 -0.0820405149
H   0.7151788729  1.2907588783 -0.9505953683
O   0.3808541376  1.2424484555  0.9725248935
C   1.3717948103 -0.5604894322 -0.1618331444
H   0.9859540921 -0.2575893568  1.4375959659
H   1.2382384646 -1.0192487582 -1.0712876832
H   2.1040466005 -0.9130213142  0.1495746714
7
Image 108  Energy = -153.7429863674
C   0.8049803989  0.7088558190 -0.0816289955
H   0.7173591593  1.2911686988 -0.9511886672
O   0.3792531783  1.2443450781  0.9712084286
C   1.3712446168 -0.5603406949 -0.1594358946
H   0.9866344545 -0.2631240076  1.4348372143
H   1.2352721342 -1.0205935900 -1.0678858458
H   2.1064976280 -0.9099444634  0.1480325801
7
Image 109  Energy = -153.7436971303
C   0.8047870794  0.7102015608 -0.0812194597
H   0.7195412786  1.2915787694 -0.9517824558
O   0.3776518087  1.2462406129  0.9698953013
C   1.3706973092 -0.5601894718 -0.1570422560
H   0.9873132745 -0.2686591050  1.4320776857
H   1.2323039464 -1.0219389300 -1.0644816911
H   2.1089468732 -0.9068665963  0.1464916956
7
Image 110  Energy = -153.7444878373
C   0.8045946267  0.7115456083 -0.0808118748
H   0.7217252083  1.2919890848 -0.9523767188
O   0.3760500190  1.2481351059  0.9685854471
C   1.3701528731 -0.5600358151 -0.1546522470
H   0.9879905685 -0.2741946657  1.4293174581
H   1.2293339244 -1.0232847627 -1.0610752347
H   2.1113943500 -0.9037877154  0.1449519902
7
Image 111  Energy = -153.7453599932
C   0.8044034597  0.7128874443 -0.0804071485
H   0.7239116611  1.2923997931 -0.9529718727
O   0.3744477927  1.2500278344  0.9672804808
C   1.3696110046 -0.5598779928 -0.1522676139
H   0.9886656084 -0.2797308529  1.4265560603
H   1.2263611861 -1.0246313940 -1.0576658344
H   2.1138408572 -0.9007079920  0.1434147483
7
Image 112  Energy = -153.7463125870
C   0.8042131370  0.7142276199 -0.0800042822
H   0.7260998603  1.2928107288 -0.9535674502
O   0.3728451247  1.2519196403  0.9659786124
C   1.3690720168 -0.5597178965 -0.1498866072
H   0.9893391760 -0.2852675367  1.4237941355
H   1.2233866875 -1.0259784731 -1.0542541699
H   2.1162855676 -0.8976272427  0.1418785816
7
Image 113  Energy = -153.7473450011
C   0.8040236522  0.7155661526 -0.0796032435
H   0.7282897807  1.2932218854 -0.9541634364
O   0.3712420057  1.2538105713  0.9646797774
C   1.3685358767 -0.5595555702 -0.1475092422
H   0.9900112915 -0.2908047366  1.4210317566
H   1.2204104544 -1.0273259833 -1.0508402638
H   2.1187285088 -0.8945454791  0.1403434720
7
Image 114  Energy = -153.7484568225
C   0.8038349987  0.7169030612 -0.0792039996
H   0.7304813953  1.2936332555 -0.9547598164
O   0.3696384272  1.2557006755  0.9633839104
C   1.3680025471 -0.5593910570 -0.1451355306
H   0.9906819771 -0.2963424723  1.4182689938
H   1.2174325146 -1.0286739075 -1.0474241408
H   2.1211697100 -0.8914627153  0.1388094032
7
Image 115  Energy = -153.7496467280
C   0.8036471689  0.7182383661 -0.0788065166
H   0.7326746760  1.2940448315 -0.9553565749
O   0.3680343814  1.2575900016  0.9620909450
C   1.3674719869 -0.5592243996 -0.1427654795
H   0.9913512571 -0.3018807641  1.4155059142
H   1.2144528979 -1.0300222280 -1.0440058284
H   2.1236092017 -0.8883789674  0.1372763603
7
Image 116  Energy = -153.7509130316
C   0.8034601545  0.7195720899 -0.0784107594
H   0.7348695930  1.2944566046 -0.9559536968
O   0.3664298609  1.2594785984  0.9608008136
C   1.3669441521 -0.5590556406 -0.1403990907
H   0.9920191579 -0.3074196319  1.4127425812
H   1.2114716362 -1.0313709265 -1.0405853571
H   2.1260470153 -0.8852942538  0.1357443292
7
Image 117  Energy = -153.7522540640
C   0.8032739459  0.7209042573 -0.0780166913
H   0.7370661147  1.2948685657 -0.9565511671
O   0.3648248597  1.2613665148  0.9595134477
C   1.3664189955 -0.5588848231 -0.1380363600
H   0.9926857080 -0.3129590953  1.4099790542
H   1.2084887637 -1.0327199846 -1.0371627601
H   2.1284831825 -0.8822085949  0.1342132966
7
Image 118  Energy = -153.7536672990
C   0.8030885319  0.7222348959 -0.0776242740
H   0.7392642083  1.2952807049 -0.9571489710
O   0.3632193723  1.2632537996  0.9582287781
C   1.3658964676 -0.5587119906 -0.1356772765
H   0.9933509380 -0.3184991732  1.4072153883
H   1.2055043167 -1.0340693835 -1.0337380743
H   2.1309177352 -0.8791220130  0.1326832495
7
Image 119  Energy = -153.7551502545
C   0.8029035667  0.7235645622 -0.0772327499
H   0.7414632261  1.2956929110 -0.9577468475
O   0.3616134335  1.2651410447  0.9569454415
C   1.3653761622 -0.5585383665 -0.1333204343
H   0.9940154836 -0.3240397651  1.4044520226
H   1.2025190297 -1.0354188959 -1.0303120348
H   2.1333506681 -0.8760346503  0.1311534223
7
Image 120  Energy = -153.7566999078
C   0.8027193811  0.7248927503 -0.0768428214
H   0.7436637649  1.2961052797 -0.9583450443
O   0.3600070042  1.2670277259  0.9556647081
C   1.3648583558 -0.5583627616 -0.1309672354
H   0.9946787551 -0.3295810059  1.4016885908
H   1.1995322213 -1.0367687230 -1.0268839752
H   2.1357820877 -0.8729464253  0.1296245973
7
Image 121  Energy = -153.7583132936
C   0.8025359596  0.7262194946 -0.0764544455
H   0.7458657881  1.2965178001 -0.9589435479
O   0.3584000821  1.2689138895  0.9543865072
C   1.3643429963 -0.5581852227 -0.1286176484
H   0.9953407873 -0.3351229106  1.3989251347
H   1.1965439331 -1.0381188467 -1.0234539401
H   2.1382120234 -0.8698573641  0.1280967599
7
Image 122  Energy = -153.7599870375
C   0.8023532857  0.7275448314 -0.0760675775
H   0.7480692583  1.2969304610 -0.9595423453
O   0.3567926656  1.2707995813  0.9531107678
C   1.3638300314 -0.5580057979 -0.1262716348
H   0.9960016164 -0.3406654928  1.3961616918
H   1.1935542085 -1.0394692494 -1.0200219764
H   2.1406405041 -0.8667674936  0.1265698945
7
Image 123  Energy = -153.7617176289
C   0.8021713412  0.7288687997 -0.0756821719
H   0.7502741369  1.2973432512 -0.9601414243
O   0.3551847536  1.2726848458  0.9518374187
C   1.3633194083 -0.5578245367 -0.1239291493
H   0.9966612796 -0.3462087644  1.3933982964
H   1.1905630923 -1.0408199137 -1.0165881340
H   2.1430675580 -0.8636768418  0.1250439844
7
Image 124  Energy = -153.7635014003
C   0.8019901069  0.7301914401 -0.0752981821
H   0.7524803848  1.2977561595 -0.9607407729
O   0.3535763460  1.2745697267  0.9505663882
C   1.3628110744 -0.5576414897 -0.1215901398
H   0.9973198153 -0.3517527359  1.3906349792
H   1.1875706302 -1.0421708232 -1.0131524646
H   2.1454932124 -0.8605854374  0.1235190121
7
Image 125  Energy = -153.7653349671
C   0.8018095626  0.7315127949 -0.0749155611
H   0.7546879616  1.2981691748 -0.9613403796
O   0.3519674433  1.2764542669  0.9492976045
C   1.3623049762 -0.5574567086 -0.1192545482
H   0.9979772624 -0.3572974164  1.3878717681
H   1.1845768691 -1.0435219619 -1.0097150224
H   2.1479174947 -0.8574933098  0.1219949588
7
Image 126  Energy = -153.7672144869
C   0.8016296873  0.7328329082 -0.0745342615
H   0.7568968266  1.2985822861 -0.9619402334
O   0.3503580464  1.2783385082  0.9480309952
C   1.3618010605 -0.5572702457 -0.1169223107
H   0.9986336610 -0.3628428138  1.3851086887
H   1.1815818565 -1.0448733144 -1.0062758633
H   2.1503404316 -0.8544004886  0.1204718049
7
Image 127  Energy = -153.7691364049
C   0.8014504593  0.7341518256 -0.0741542362
H   0.7591069380  1.2989954826 -0.9625403232
O   0.3487481572  1.2802224914  0.9467664876
C   1.3612992725 -0.5570821544 -0.1145933586
H   0.9992890517 -0.3683889352  1.3823457649
H   1.1785856407 -1.0462248658 -1.0028350450
H   2.1527620506 -0.8513070043  0.1189495305
7
Image 128  Energy = -153.7710969665
C   0.8012718560  0.7354695942 -0.0737754380
H   0.7613182534  1.2994087537 -0.9631406386
O   0.3471377781  1.2821062559  0.9455040081
C   1.3607995564 -0.5568924881 -0.1122676189
H   0.9999434760 -0.3739357863  1.3795830187
H   1.1755882703 -1.0475766017 -0.9993926267
H   2.1551823798 -0.8482128878  0.1174281153
7
Image 129  Energy = -153.7730925342
C   0.8010938548  0.7367862626 -0.0733978200
H   0.7635307296  1.2998220889 -0.9637411690
O   0.3455269122  1.2839898402  0.9442434826
C   1.3603018543 -0.5567013007 -0.1099450150
H   1.0005969760 -0.3794833724  1.3768204714
H   1.1725897942 -1.0489285081 -0.9959486691
H   2.1576014490 -0.8451181704  0.1159075391
7
Image 130  Energy = -153.7751194815
C   0.8009164323  0.7381018807 -0.0730213356
H   0.7657443227  1.3002354782 -0.9643419042
O   0.3439155636  1.2858732811  0.9429848358
C   1.3598061059 -0.5565086463 -0.1076254673
H   1.0012495942 -0.3850316980  1.3740581434
H   1.1695902615 -1.0502805717 -0.9925032341
H   2.1600192899 -0.8420228840  0.1143877819
7
Image 131  Energy = -153.7771737292
C   0.8007395649  0.7394164994 -0.0726459379
H   0.7679589885  1.3006489117 -0.9649428342
O   0.3423037368  1.2877566146  0.9417279921
C   1.3593122492 -0.5563145791 -0.1053088939
H   1.0019013736 -0.3905807666  1.3712960546
H   1.1665897209 -1.0516327792 -0.9890563844
H   2.1624359360 -0.8389270608  0.1128688238
7
Image 132  Energy = -153.7792523818
C   0.8005630311  0.7407305388 -0.0722711733
H   0.7701742911  1.3010623447 -0.9655438575
O   0.3406915251  1.2896400845  0.9404721312
C   1.3588196252 -0.5561197121 -0.1029942806
H   1.0025527130 -0.3961304455  1.3685343408
H   1.1635886181 -1.0529850317 -0.9856086910
H   2.1648517663 -0.8358309385  0.1113503504
7
Image 133  Energy = -153.7813515752
C   0.8003870156  0.7420436650 -0.0718974296
H   0.7723905988  1.3014758085 -0.9661450669
O   0.3390788507  1.2915234846  0.9392179702
C   1.3583287623 -0.5559234933 -0.1006825141
H   1.0032032749 -0.4016808684  1.3657728799
H   1.1605865775 -1.0543374130 -0.9821596866
H   2.1672664902 -0.8327343433  0.1098326671
7
Image 134  Energy = -153.7834678770
C   0.8002114929  0.7433559289 -0.0715246603
H   0.7746078677  1.3018892945 -0.9667464524
O   0.3374657187  1.2934068487  0.9379654323
C   1.3578396010 -0.5557259801 -0.0983735068
H   1.0038531013 -0.4072320349  1.3630116917
H   1.1575836464 -1.0556899113 -0.9787094339
H   2.1696801420 -0.8296373058  0.1083157494
7
Image 135  Energy = -153.7855984348
C   0.8000364370  0.7446673802 -0.0711528195
H   0.7768260548  1.3023027946 -0.9673480038
O   0.3358521338  1.2952902097  0.9367144408
C   1.3573520834 -0.5555272310 -0.0960671689
H   1.0045022332 -0.4127839430  1.3602507957
H   1.1545798718 -1.0570425148 -0.9752579952
H   2.1720927560 -0.8265398557  0.1067995708
7
Image 136  Energy = -153.7877409407
C   0.7998618218  0.7459780678 -0.0707818611
H   0.7790451174  1.3027163010 -0.9679497106
O   0.3342381009  1.2971735998  0.9354649192
C   1.3568661513 -0.5553273058 -0.0937634086
H   1.0051507111 -0.4183365882  1.3574902104
H   1.1515752993 -1.0583952122 -0.9718054327
H   2.1745043682 -0.8234420224  0.1052841035
7
Image 137  Energy = -153.7898927518
C   0.7996876208  0.7472880413 -0.0704117372
H   0.7812650111  1.3031298060 -0.9685515618
O   0.3326236249  1.2990570516  0.9342167866
C   1.3563817427 -0.5551262674 -0.0914621291
H   1.0057985764 -0.4238899641  1.3547299552
H   1.1485699761 -1.0597479920 -0.9683518109
H   2.1769150180 -0.8203438353  0.1037693172
7
Image 138  Energy = -153.7920518713
C   0.7995138089  0.7485973496 -0.0700424009
H   0.7834856916  1.3035433021 -0.9691535467
O   0.3310087124  1.3009405934  0.9329699646
C   1.3558987876 -0.5549241753 -0.0891632338
H   1.0064458688 -0.4294440615  1.3519700460
H   1.1455639473 -1.0611008434 -0.9648971945
H   2.1793247533 -0.8172453250  0.1022551854
7
Image 139  Energy = -153.7942152793
C   0.7993403634  0.7499060409 -0.0696738060
H   0.7857071152  1.3039567826 -0.9697556555
O   0.3293933723  1.3028242483  0.9317243774
C   1.3554172079 -0.5547210847 -0.0868666275
H   1.0070926252 -0.4349988680  1.3492104941
H   1.1425572555 -1.0624537571 -0.9614416472
H   2.1817336305 -0.8141465221  0.1007416848
7
Image 140  Energy = -153.7963810393
C   0.7991672625  0.7512141615 -0.0693059075
H   0.7879292391  1.3043702414 -0.9703578794
O   0.3277776144  1.3047080356  0.9304799523
C   1.3549369224 -0.5545170485 -0.0845722164
H   1.0077388803 -0.4405543686  1.3464513087
H   1.1395499411 -1.0638067247 -0.9579852316
H   2.1841417102 -0.8110474566  0.0992287938
7
Image 141  Energy = -153.7985470825
C   0.7989944849  0.7525217538 -0.0689386622
H   0.7901520238  1.3047836734 -0.9709602097
O   0.3261614474  1.3065919729  0.9292366202
C   1.3544578577 -0.5543121199 -0.0822799089
H   1.0083846659 -0.4461105467  1.3436924989
H   1.1365420415 -1.0651597386 -0.9545280061
H   2.1865490487 -0.8079481550  0.0977164878
7
Image 142  Energy = -153.8007131774
C   0.7988219406  0.7538290098 -0.0685719010
H   0.7923752854  1.3051970777 -0.9715626352
O   0.3245449715  1.3084760439  0.9279940938
C   1.3539795362 -0.5541064638 -0.0799892178
H   1.0090301176 -0.4516672721  1.3409339982
H   1.1335337137 -1.0665127838 -0.9510702353
H   2.1889560050 -0.8048487715  0.0962047174
7
Image 143  Energy = -153.8028812417
C   0.7986493766  0.7551364917 -0.0682051509
H   0.7945984841  1.3056104629 -0.9721651397
O   0.3229285212  1.3103601282  0.9267515604
C   1.3535004607 -0.5539004997 -0.0776986844
H   1.0096756223 -0.4572241320  1.3381755323
H   1.1305254044 -1.0678658305 -0.9476126885
H   2.1913637007 -0.8017497807  0.0946933908
7
Image 144  Energy = -153.8050521534
C   0.7984767897  0.7564441971 -0.0678384084
H   0.7968216230  1.3060238305 -0.9727677223
O   0.3213120989  1.3122442174  0.9255090221
C   1.3530206423 -0.5536942362 -0.0754083013
H   1.0103211743 -0.4627811148  1.3354170951
H   1.1275171099 -1.0692188797 -0.9441553622
H   2.1937721319 -0.7986511743  0.0931824970
7
Image 145  Energy = -153.8072270231
C   0.7983041798  0.7577521258 -0.0674716665
H   0.7990447018  1.3064371816 -0.9733703834
O   0.3196957100  1.3141282991  0.9242664778
C   1.3525400727 -0.5534876751 -0.0731180655
H   1.0109667681 -0.4683382093  1.3326586814
H   1.1245088263 -1.0705719343 -0.9406982564
H   2.1961813114 -0.7955529478  0.0916720326
7
Image 146  Energy = -153.8094055265
C   0.7981315493  0.7590602794 -0.0671049150
H   0.8012677176  1.3068505176 -0.9739731245
O   0.3180793626  1.3160123582  0.9230239241
C   1.3520587258 -0.5532808126 -0.0708279766
H   1.0116123974 -0.4738954041  1.3299002862
H   1.1215005497 -1.0719249988 -0.9372413741
H   2.1985912676 -0.7924550997  0.0901619999
7
Image 147  Energy = -153.8115871792
C   0.7979589010  0.7603686587 -0.0667381423
H   0.8034906674  1.3072638401 -0.9745759472
O   0.3164630651  1.3178963794  0.9217813572
C   1.3515765734 -0.5530736438 -0.0685380353
H   1.0122580553 -0.4794526872  1.3271419053
H   1.1184922763 -1.0732780784 -0.9337847188
H   2.2010020315 -0.7893576288  0.0886524012
7
Image 148  Energy = -153.8137720340
C   0.7977862357  0.7616772613 -0.0663713387
H   0.8057135510  1.3076771510 -0.9751788524
O   0.3148468231  1.3197803504  0.9205387757
C   1.3510936009 -0.5528661682 -0.0662482408
H   1.0129037342 -0.4850100458  1.3243835349
H   1.1154840017 -1.0746311776 -0.9303282913
H   2.2034136234 -0.7862605310  0.0871432327
7
Image 149  Energy = -153.8159607895
C   0.7976135522  0.7629860813 -0.0660044968
H   0.8079363714  1.3080904518 -0.9757818393
O   0.3132306388  1.3216642622  0.9192961806
C   1.3506098101 -0.5526583908 -0.0639585892
H   1.0135494266 -0.4905674658  1.3216251702
H   1.1124757214 -1.0759842997 -0.9268720890
H   2.2058260496 -0.7831637990  0.0856344835
7
Image 150  Energy = -153.8181554405
C   0.7974408480  0.7642951115 -0.0656376108
H   0.8101591331  1.3085037439 -0.9763849070
O   0.3116145126  1.3235481080  0.9180535750
C   1.3501252109 -0.5524503202 -0.0616690743
H   1.0141951248 -0.4961249325  1.3188668053
H   1.1094674311 -1.0773374465 -0.9234161079
H   2.2082393093 -0.7800674241  0.0841261397
7
Image 151  Energy = -153.8203577010
C   0.7972681210  0.7656043455 -0.0652706747
H   0.8123818403  1.3089170284 -0.9769880546
O   0.3099984451  1.3254318816  0.9168109614
C   1.3496398098 -0.5522419641 -0.0593796922
H   1.0148408219 -0.5016824325  1.3161084363
H   1.1064591268 -1.0786906202 -0.9199603452
H   2.2106534051 -0.7769713986  0.0826181889
7
Image 152  Energy = -153.8225693577
C   0.7970953704  0.7669137784 -0.0649036809
H   0.8146044954  1.3093303074 -0.9775912836
O   0.3083824373  1.3273155775  0.9155683400
C   1.3491536039 -0.5520333261 -0.0570904480
H   1.0154865103 -0.5072399570  1.3133500683
H   1.1034508036 -1.0800438241 -0.9165047990
H   2.2130683491 -0.7738757161  0.0811106232
7
Image 153  Energy = -153.8247916067
C   0.7969225974  0.7682234067 -0.0645366205
H   0.8168271000  1.3097435844 -0.9781945982
O   0.3067664908  1.3291991915  0.9143257086
C   1.3486665826 -0.5518244051 -0.0548013610
H   1.0161321819 -0.5127975043  1.3105917204
H   1.1004424552 -1.0813970631 -0.9130494683
H   2.2154841622 -0.7707803701  0.0796034390
7
Image 154  Energy = -153.8270257648
C   0.7967498038  0.7695332283 -0.0641694846
H   0.8190496545  1.3101568645 -0.9787980049
O   0.3051506071  1.3310827207  0.9130830634
C   1.3481787322 -0.5516151969 -0.0525124592
H   1.0167778283 -0.5183550790  1.3078334224
H   1.0974340745 -1.0827503434 -0.9095943527
H   2.2179008697 -0.7676853541  0.0780966356
7
Image 155  Energy = -153.8292725691
C   0.7965769909  0.7708432430 -0.0638022662
H   0.8212721580  1.3105701524 -0.9794015100
O   0.3035347887  1.3329661620  0.9118404010
C   1.3476900367 -0.5514056975 -0.0502237631
H   1.0174234428 -0.5239126853  1.3050752003
H   1.0944256567 -1.0841036706 -0.9061394541
H   2.2203184961 -0.7645906640  0.0765902121
7
Image 156  Energy = -153.8315315172
C   0.7964041583  0.7721534535 -0.0634349617
H   0.8234946062  1.3109834510 -0.9800051174
O   0.3019190405  1.3348495096  0.9105977203
C   1.3472004785 -0.5511959060 -0.0479352667
H   1.0180690232 -0.5294703201  1.3023170588
H   1.0914172025 -1.0854570476 -0.9026847795
H   2.2227370608 -0.7614963005  0.0750841663
7
Image 157  Energy = -153.8338007531
C   0.7962313031  0.7734638654 -0.0630675706
H   0.8257169916  1.3113967604 -0.9806088266
O   0.3003033697  1.3367327550  0.9093550225
C   1.3467100377 -0.5509858270 -0.0456469312
H   1.0187145727 -0.5350279693  1.2995589736
H   1.0884087195 -1.0868104741 -0.8992303416
H   2.2251565756 -0.7584022703  0.0735784939
7
Image 158  Energy = -153.8360765226
C   0.7960584211  0.7747744853 -0.0627000942
H   0.8279393044  1.3118100780 -0.9812126345
O   0.2986877847  1.3386158889  0.9081123108
C   1.3462186960 -0.5507754695 -0.0433586945
H   1.0193600988 -0.5405856116  1.2968009001
H   1.0854002204 -1.0881639475 -0.8957761565
H   2.2275770445 -0.7553085836  0.0720731888
7
Image 159  Energy = -153.8383546988
C   0.7958855074  0.7760853192 -0.0623325339
H   0.8301615356  1.3122234011 -0.9818165373
O   0.2970722928  1.3404989042  0.9068695882
C   1.3457264413 -0.5505648448 -0.0410704932
H   1.0200056110 -0.5461432260  1.2940427918
H   1.0823917183 -1.0895174643 -0.8923222395
H   2.2299984636 -0.7522152495  0.0705682439
7
Image 160  Energy = -153.8406316902
C   0.7957125579  0.7773963711 -0.0619648902
H   0.8323836779  1.3126367284 -0.9824205329
O   0.2954568988  1.3423817977  0.9056268563
C   1.3452332708 -0.5503539638 -0.0387822795
H   1.0206511172 -0.5517007987  1.2912846166
H   1.0793832236 -1.0908710221 -0.8888686022
H   2.2324208237 -0.7491222725  0.0690636519
7
Image 161  Energy = -153.8429047808
C   0.7955395696  0.7787076427 -0.0615971616
H   0.8346057272  1.3130500605 -0.9830246219
O   0.2938416052  1.3442645698  0.9043841149
C   1.3447391908 -0.5501428359 -0.0364940272
H   1.0212966230 -0.5572583246  1.2885263614
H   1.0763747424 -1.0922246206 -0.8854152513
H   2.2348441117 -0.7460296518  0.0675594057
7
Image 162  Energy = -153.8451728572
C   0.7953665405  0.7800191338 -0.0612293449
H   0.8368276810  1.3134633997 -0.9836288065
O   0.2922264126  1.3461472231  0.9031413620
C   1.3442442123 -0.5499314679 -0.0342057272
H   1.0219421317 -0.5628158050  1.2857680278
H   1.0733662774 -1.0935782609 -0.8819621900
H   2.2372683145 -0.7429373827  0.0660554987
7
Image 163  Energy = -153.8474355561
C   0.7951934692  0.7813308430 -0.0608614355
H   0.8390495379  1.3138767491 -0.9842330900
O   0.2906113213  1.3480297608  0.9018985952
C   1.3437483453 -0.5497198647 -0.0319173791
H   1.0225876449 -0.5683732433  1.2830096237
H   1.0703578294 -1.0949319451 -0.8785094199
H   2.2396934219 -0.7398454597  0.0645519255
7
Image 164  Energy = -153.8496922674
C   0.7950203548  0.7826427679 -0.0604934272
H   0.8412712963  1.3142901116 -0.9848374755
O   0.2889963318  1.3499121853  0.9006558115
C   1.3432515944 -0.5495080290 -0.0296289840
H   1.0232331639 -0.5739306418  1.2802511567
H   1.0673493988 -1.0962856757 -0.8750569432
H   2.2421194299 -0.7367538784  0.0630486817
7
Image 165  Energy = -153.8519427316
C   0.7948471965  0.7839549054 -0.0601253130
H   0.8434929538  1.3147034895 -0.9854419652
O   0.2873814457  1.3517944978  0.8994130080
C   1.3427539557 -0.5492959616 -0.0273405398
H   1.0238786900 -0.5794879991  1.2774926297
H   1.0643409862 -1.0976394552 -0.8716047640
H   2.2445463420 -0.7336626368  0.0615457643
7
Image 166  Energy = -153.8541858864
C   0.7946739939  0.7852672513 -0.0597570857
H   0.8457145072  1.3151168842 -0.9860465606
O   0.2857666655  1.3536766980  0.8981701823
C   1.3422554170 -0.5490836624 -0.0250520396
H   1.0245242249 -0.5850453104  1.2747340401
H   1.0613325932 -1.0989932854 -0.8681528877
H   2.2469741683 -0.7305717352  0.0600431712
7
Image 167  Energy = -153.8564205743
C   0.7945007462  0.7865798014 -0.0593887386
H   0.8479359527  1.3155302962 -0.9866512625
O   0.2841519941  1.3555587846  0.8969273329
C   1.3417559625 -0.5488711314 -0.0227634712
H   1.0251697707 -0.5906025679  1.2719753810
H   1.0583242219 -1.1003471675 -0.8647013216
H   2.2494029220 -0.7274811754  0.0585409000
7
Image 168  Energy = -153.8586452359
C   0.7943274525  0.7878925513 -0.0590202670
H   0.8501572870  1.3159437252 -0.9872560711
O   0.2825374342  1.3574407564  0.8956844591
C   1.3412555785 -0.5486583710 -0.0204748170
H   1.0258153297 -0.5961597618  1.2692166418
H   1.0553158751 -1.1017011009 -0.8612500726
H   2.2518326130 -0.7243909592  0.0570389467
7
Image 169  Energy = -153.8608583689
C   0.7941541109  0.7892054978 -0.0586516690
H   0.8523785071  1.3163571706 -0.9878609860
O   0.2809229885  1.3593226118  0.8944415619
C   1.3407542579 -0.5484453874 -0.0181860533
H   1.0264609045 -0.6017168820  1.2664578094
H   1.0523075564 -1.1030550837 -0.8577991477
H   2.2542632446 -0.7213010870  0.0555373047
7
Image 170  Energy = -153.8630585720
C   0.7939807196  0.7905186400 -0.0582829455
H   0.8545996090  1.3167706317 -0.9884660075
O   0.2793086602  1.3612043476  0.8931986430
C   1.3402519956 -0.5482321891 -0.0158971485
H   1.0271064982 -0.6072739171  1.2636988673
H   1.0492992704 -1.1044091133 -0.8543485551
H   2.2566948170 -0.7182115598  0.0540359662
7
Image 171  Energy = -153.8652431903
C   0.7938072765  0.7918319817 -0.0579140996
H   0.8568205858  1.3171841089 -0.9890711363
O   0.2776944562  1.3630859564  0.8919557041
C   1.3397487782 -0.5480187845 -0.0136080608
H   1.0277521136 -0.6128308538  1.2609397951
H   1.0462910232 -1.1057631877 -0.8508983071
H   2.2591273364 -0.7151223810  0.0525349246
7
Image 172  Energy = -153.8674085322
C   0.7936337807  0.7931455304 -0.0575451356
H   0.8590414273  1.3175976036 -0.9896763740
O   0.2760803865  1.3649674258  0.8907127465
C   1.3392445804 -0.5478051796 -0.0113187396
H   1.0283977537 -0.6183876758  1.2581805686
H   1.0432828218 -1.1071173072 -0.8474484212
H   2.2615608196 -0.7120335572  0.0510341754
7
Image 173  Energy = -153.8695500198
C   0.7934602312  0.7944592941 -0.0571760586
H   0.8612621231  1.3180111179 -0.9902817225
O   0.2744664616  1.3668487428  0.8894697717
C   1.3387393764 -0.5475913808 -0.0090291348
H   1.0290434206 -0.6239443668  1.2554211651
H   1.0402746727 -1.1084714727 -0.8439989149
H   2.2639952844 -0.7089450945  0.0495337140
7
Image 174  Energy = -153.8716640917
C   0.7932866277  0.7957732766 -0.0568068741
H   0.8634826673  1.3184246531 -0.9908871822
O   0.2728526874  1.3687298995  0.8882267821
C   1.3382331598 -0.5473773987 -0.0067392080
H   1.0296891157 -0.6295009141  1.2526615685
H   1.0372665793 -1.1098256842 -0.8405497992
H   2.2664307329 -0.7058569922  0.0480335328
7
Image 175  Energy = -153.8737491724
C   0.7931129699  0.7970874753 -0.0564375869
H   0.8657030596  1.3188382095 -0.9914927524
O   0.2712390636  1.3706108952  0.8869837814
C   1.3377259490 -0.5471632485 -0.0044489359
H   1.0303348393 -0.6350573099  1.2499017700
H   1.0342585419 -1.1111799397 -0.8371010766
H   2.2688671468 -0.7027692420  0.0465336203
7
Image 176  Energy = -153.8758052609
C   0.7929392589  0.7984018843 -0.0560681998
H   0.8679233016  1.3192517866 -0.9920984320
O   0.2696255878  1.3724917321  0.8857407728
C   1.3372177694 -0.5469489451 -0.0021583029
H   1.0309805917 -0.6406135481  1.2471417628
H   1.0312505595 -1.1125342373 -0.8336527457
H   2.2713045012 -0.6996818325  0.0450339648
7
Image 177  Energy = -153.8778326654
C   0.7927654970  0.7997164985 -0.0556987140
H   0.8701433922  1.3196653850 -0.9927042203
O   0.2680122606  1.3743724088  0.8844977585
C   1.3367086316 -0.5467344981  0.0001327101
H   1.0316263735 -0.6461696201  1.2443815367
H   1.0282426322 -1.1138885776 -0.8302048088
H   2.2737427828 -0.6965947565  0.0435345579
7
Image 178  Energy = -153.8798299482
C   0.7925916873  0.8010313164 -0.0553291300
H   0.8723633258  1.3200790073 -0.9933101183
O   0.2663990870  1.3762529179  0.8832547390
C   1.3361985260 -0.5465199105  0.0024241297
H   1.0322721863 -0.6517255146  1.2416210781
H   1.0252347624 -1.1152429642 -0.8267572734
H   2.2761819952 -0.6935080123  0.0420353949
7
Image 179  Energy = -153.8817949852
C   0.7924178328  0.8023463383 -0.0549594484
H   0.8745830959  1.3204926572 -0.9939161280
O   0.2647860731  1.3781332508  0.8820117145
C   1.3356874370 -0.5463051819  0.0047159816
H   1.0329180315 -0.6572812215  1.2388603753
H   1.0222269528 -1.1165974021 -0.8233101477
H   2.2786221468 -0.6904216008  0.0405364728
7
Image 180  Energy = -153.8837256030
C   0.7922439361  0.8036615622 -0.0545896696
H   0.8768026989  1.3209063387 -0.9945222512
O   0.2631732223  1.3800134022  0.8807686847
C   1.3351753583 -0.5460903121  0.0070082793
H   1.0335639105 -0.6628367352  1.2360994253
H   1.0192192048 -1.1179518957 -0.8198634354
H   2.2810632391 -0.6873355199  0.0390377868
7
Image 181  Energy = -153.8856217548
C   0.7920699994  0.8049769822 -0.0542197929
H   0.8790221354  1.3213200546 -0.9951284895
O   0.2615605335  1.3818933717  0.8795256501
C   1.3346622945 -0.5458753020  0.0093010217
H   1.0342098235 -0.6683920550  1.2333382340
H   1.0162115172 -1.1193064482 -0.8164171345
H   2.2835052665 -0.6842497635  0.0375393310
7
Image 182  Energy = -153.8874842243
C   0.7918960251  0.8062925911 -0.0538498185
H   0.8812414072  1.3217338075 -0.9957348441
O   0.2599480050  1.3837731605  0.8782826115
C   1.3341482491 -0.5456601523  0.0115942014
H   1.0348557695 -0.6739471808  1.2305768120
H   1.0132038875 -1.1206610614 -0.8129712416
H   2.2859482266 -0.6811643246  0.0360410993
7
Image 183  Energy = -153.8893135706
C   0.7917220155  0.8076083832 -0.0534797488
H   0.8834605144  1.3221475990 -0.9963413154
O   0.2583356369  1.3856527664  0.8770395706
C   1.3336332132 -0.5454448638  0.0138878175
H   1.0355017471 -0.6795021093  1.2278151671
H   1.0101963147 -1.1220157365 -0.8095257566
H   2.2883921283 -0.6780791990  0.0345430857
7
Image 184  Energy = -153.8911090225
C   0.7915479723  0.8089243568 -0.0531095880
H   0.8856794533  1.3225614298 -0.9969479029
O   0.2567234332  1.3875321831  0.8757965299
C   1.3331171640 -0.5452294391  0.0161818850
H   1.0361477552 -0.6850568299  1.2250532956
H   1.0071888002 -1.1233704741 -0.8060806847
H   2.2908369918 -0.6749943866  0.0330452852
7
Image 185  Energy = -153.8928684599
C   0.7913738967  0.8102405110 -0.0527393388
H   0.8878982191  1.3229752991 -0.9975546048
O   0.2551113994  1.3894114028  0.8745534915
C   1.3326000758 -0.5450138833  0.0184764286
H   1.0367937941 -0.6906113265  1.2222911840
H   1.0041813470 -1.1247252743 -0.8026360329
H   2.2932828378 -0.6719098889  0.0315476924
7
Image 186  Energy = -153.8945900368
C   0.7911997898  0.8115568417 -0.0523689991
H   0.8901168100  1.3233892059 -0.9981614196
O   0.2534995387  1.3912904208  0.8733104559
C   1.3320819370 -0.5447982005  0.0207714611
H   1.0374398633 -0.6961655864  1.2195288234
H   1.0011739557 -1.1260801389 -0.7991918036
H   2.2957296755 -0.6688257026  0.0300503021
7
Image 187  Energy = -153.8962736801
C   0.7910256539  0.8128733390 -0.0519985620
H   0.8923352294  1.3238031501 -0.9987683473
O   0.2518878493  1.3931692382  0.8720674220
C   1.3315627595 -0.5445823915  0.0230669682
H   1.0380859597 -0.7017196079  1.2167662216
H   0.9981666209 -1.1274350711 -0.7957479905
H   2.2981774973 -0.6657418168  0.0285531080
7
Image 188  Energy = -153.8979216698
C   0.7908514923  0.8141899905 -0.0516280199
H   0.8945534840  1.3242171324 -0.9993753887
O   0.2502763263  1.3950478594  0.8708243886
C   1.3310425698 -0.5443664550  0.0253629205
H   1.0387320780 -0.7072733967  1.2140033980
H   0.9951593348 -1.1287900749 -0.7923045817
H   2.3006262848 -0.6626582157  0.0270561032
7
Image 189  Energy = -153.8995365125
C   0.7906773078  0.8155067871 -0.0512573695
H   0.8967715785  1.3246311525 -0.9999825439
O   0.2486649665  1.3969262871  0.8695813558
C   1.3305213915 -0.5441503922  0.0276592990
H   1.0393782132 -0.7128269561  1.2112403662
H   0.9921520915 -1.1301451526 -0.7888615673
H   2.3030760211 -0.6595748858  0.0255592797
7
Image 190  Energy = -153.9011189744
C   0.7905031019  0.8168237260 -0.0508866138
H   0.8989895128  1.3250452088 -1.0005898111
O   0.2470537707  1.3988045188  0.8683383259
C   1.3299992354 -0.5439342094  0.0299561108
H   1.0400243620 -0.7183802809  1.2084771229
H   0.9891448905 -1.1315003037 -0.7854189435
H   2.3055266967 -0.6564918197  0.0240626288
7
Image 191  Energy = -153.9026679287
C   0.7903288744  0.8181408101 -0.0505157594
H   0.9012072831  1.3254592991 -1.0011971879
O   0.2454427435  1.4006825483  0.8670953016
C   1.3294761028 -0.5437179163  0.0322533839
H   1.0406705238 -0.7239333592  1.2057136512
H   0.9861377362 -1.1328555264 -0.7819767113
H   2.3079783062 -0.6534090156  0.0225661418
7
Image 192  Energy = -153.9041811187
C   0.7901546251  0.8194580423 -0.0501448124
H   0.9034248858  1.3258734220 -1.0018046721
O   0.2438318890  1.4025603694  0.8658522852
C   1.3289519978 -0.5435015204  0.0345511466
H   1.0413166993 -0.7294861807  1.2029499330
H   0.9831306336 -1.1342108198 -0.7785348707
H   2.3104308395 -0.6503264728  0.0210698104
7
Image 193  Energy = -153.9056574821
C   0.7899803540  0.8207754214 -0.0497737747
H   0.9056423202  1.3262875781 -1.0024122636
O   0.2422212084  1.4044379795  0.8646092772
C   1.3284269350 -0.5432850233  0.0368494101
H   1.0419628897 -0.7350387425  1.2001859610
H   0.9801235850 -1.1355661854 -0.7750934173
H   2.3128842777 -0.6472441879  0.0195736273
7
Image 194  Energy = -153.9070973516
C   0.7898060615  0.8220929446 -0.0494026469
H   0.9078595877  1.3267017693 -1.0030199632
O   0.2406107012  1.4063153772  0.8633662773
C   1.3279009351 -0.5430684234  0.0391481766
H   1.0426090964 -0.7405910460  1.1974217335
H   0.9771165913 -1.1369216255 -0.7716523437
H   2.3153385968 -0.6441621562  0.0180775864
7
Image 195  Energy = -153.9085011185
C   0.7896317471  0.8234106131 -0.0490314331
H   0.9100766877  1.3271159966 -1.0036277707
O   0.2390003689  1.4081925588  0.8621232864
C   1.3273740129 -0.5428517234  0.0414474616
H   1.0432553221 -0.7461430878  1.1946572402
H   0.9741096560 -1.1382771413 -0.7682116454
H   2.3177937754 -0.6410803759  0.0165816810
7
Image 196  Energy = -153.9098677150
C   0.7894574092  0.8247284323 -0.0486601408
H   0.9122936168  1.3275302596 -1.0042356843
O   0.2373902156  1.4100695171  0.8608803066
C   1.3268461733 -0.5426349316  0.0437472958
H   1.0439015700 -0.7516948577  1.1918924605
H   0.9711027850 -1.1396327319 -0.7647713219
H   2.3202498002 -0.6379988478  0.0150859041
7
Image 197  Energy = -153.9111956369
C   0.7892830470  0.8260464051 -0.0482887749
H   0.9145103724  1.3279445579 -1.0048437022
O   0.2357802450  1.4119462467  0.8596373393
C   1.3263174184 -0.5424180557  0.0460477009
H   1.0445478410 -0.7572463460  1.1891273806
H   0.9680959821 -1.1409883973 -0.7613313727
H   2.3227066640 -0.6349175707  0.0135902490
7
Image 198  Energy = -153.9124842908
C   0.7891086618  0.8273645284 -0.0479173362
H   0.9167269549  1.3283588917 -1.0054518235
O   0.2341704582  1.4138227456  0.8583943846
C   1.3257877541 -0.5422010987  0.0483486786
H   1.0451941332 -0.7627975495  1.1863620010
H   0.9650892467 -1.1423441388 -0.7578917942
H   2.3251643612 -0.6318365388  0.0120947098
7
Image 199  Energy = -153.9137340307
C   0.7889342551  0.8286827972 -0.0475458241
H   0.9189433650  1.3287732620 -1.0060600480
O   0.2325608554  1.4156990131  0.8571514423
C   1.3252571893 -0.5419840622  0.0506502273
H   1.0458404441 -0.7683484662  1.1835963241
H   0.9620825777 -1.1436999584 -0.7544525819
H   2.3276228834 -0.6287557454  0.0105992803
7
Image 200  Energy = -153.9149448417
C   0.7887598279  0.8300012095 -0.0471742402
H   0.9211596019  1.3291876691 -1.0066683749
O   0.2309514384  1.4175750463  0.8559085127
C   1.3247257340 -0.5417669510  0.0529523592
H   1.0464867729 -0.7738990907  1.1808303417
H   0.9590759770 -1.1450558568 -0.7510137323
H   2.3300822178 -0.6256751864  0.0091039538
7
Image 201  Energy = -153.9161160883
C   0.7885853804  0.8313197650 -0.0468025871
H   0.9233756640  1.3296021136 -1.0072768037
O   0.2293422096  1.4194508416  0.8546655966
C   1.3241933991 -0.5415497711  0.0552550924
H   1.0471331203 -0.7794494156  1.1780640403
H   0.9560694475 -1.1464118345 -0.7475752424
H   2.3325423491 -0.6225948590  0.0076087238
7
Image 202  Energy = -153.9172470776
C   0.7884109128  0.8326384633 -0.0464308669
H   0.9255915501  1.3300165963 -1.0078853338
O   0.2277331712  1.4213263954  0.8534226944
C   1.3236601957 -0.5413325269  0.0575584419
H   1.0477794867 -0.7849994348  1.1752974087
H   0.9530629912 -1.1477678928 -0.7441371089
H   2.3350032624 -0.6195147605  0.0061135847
7
Image 203  Energy = -153.9183370401
C   0.7882364245  0.8339573068 -0.0460590833
H   0.9278072574  1.3304311173 -1.0084939642
O   0.2261243267  1.4232017027  0.8521798065
C   1.3231261307 -0.5411152254  0.0598624287
H   1.0484258727 -0.7905491395  1.1725304316
H   0.9500566112 -1.1491240326 -0.7406993303
H   2.3374649467 -0.6164348895  0.0046185310
7
Image 204  Energy = -153.9193843450
C   0.7880619141  0.8352763003 -0.0456872408
H   0.9300227828  1.3308456764 -1.0091026931
O   0.2245156807  1.4250767573  0.8509369336
C   1.3225912098 -0.5408978763  0.0621670788
H   1.0490722791 -0.7960985185  1.1697630910
H   0.9470503113 -1.1504802538 -0.7372619062
H   2.3399273922 -0.6133552454  0.0031235568
7
Image 205  Energy = -153.9203878077
C   0.7878873807  0.8365954457 -0.0453153419
H   0.9322381248  1.3312602735 -1.0097115193
O   0.2229072357  1.4269515554  0.8496940752
C   1.3220554423 -0.5406804867  0.0644724070
H   1.0497187060 -0.8016475652  1.1669953767
H   0.9440440934 -1.1518365572 -0.7338248342
H   2.3423905871 -0.6102758256  0.0016286566
7
Image 206  Energy = -153.9213470311
C   0.7877128240  0.8379147413 -0.0449433866
H   0.9344532842  1.3316749088 -1.0103204421
O   0.2212989922  1.4288260968  0.8484512301
C   1.3215188428 -0.5404630603  0.0667784154
H   1.0503651524 -0.8071962781  1.1642272871
H   0.9410379572 -1.1531929435 -0.7303881093
H   2.3448545172 -0.6071966250  0.0001338254
7
Image 207  Energy = -153.9222624354
C   0.7875382441  0.8392341842 -0.0445713739
H   0.9366682622  1.3320895826 -1.0109294610
O   0.2196909503  1.4307003812  0.8472083970
C   1.3209814253 -0.5402456009  0.0690851050
H   1.0510116178 -0.8127446553  1.1614588201
H   0.9380319022 -1.1545494132 -0.7269517257
H   2.3473191681 -0.6041176386 -0.0013609416
7
Image 208  Energy = -153.9231339973
C   0.7873636400  0.8405537736 -0.0441993037
H   0.9388830586  1.3325042945 -1.0115385744
O   0.2180831119  1.4325744063  0.8459655744
C   1.3204432003 -0.5400281159  0.0713924854
H   1.0516581025 -0.8182926906  1.1586899668
H   0.9350259294 -1.1559059658 -0.7235156793
H   2.3497845273 -0.6010388621 -0.0028556491
7
Image 209  Energy = -153.9239613017
C   0.7871890104  0.8418735105 -0.0438271765
H   0.9410976728  1.3329190436 -1.0121477807
O   0.2164754800  1.4344481686  0.8447227604
C   1.3199041753 -0.5398106144  0.0737005698
H   1.0523046070 -0.8238403755  1.1559207150
H   0.9320200403 -1.1572626006 -0.7200799667
H   2.3522505842 -0.5979602922 -0.0043503014
7
Image 210  Energy = -153.9247436990
C   0.7870143538  0.8431933957 -0.0434549919
H   0.9433121042  1.3333338295 -1.0127570778
O   0.2148680579  1.4363216642  0.8434799525
C   1.3193643578 -0.5395931047  0.0760093681
H   1.0529511320 -0.8293877032  1.1531510556
H   0.9290142356 -1.1586193169 -0.7166445841
H   2.3547173287 -0.5948819246 -0.0058449023
7
Image 211  Energy = -153.9254810261
C   0.7868396688  0.8445134293 -0.0430827493
H   0.9455263531  1.3337486520 -1.0133664642
O   0.2132608482  1.4381948905  0.8422371472
C   1.3188237567 -0.5393755931  0.0783188846
H   1.0535976783 -0.8349346693  1.1503809832
H   0.9260085154 -1.1599761144 -0.7132095265
H   2.3571847495 -0.5918037549 -0.0073394550
7
Image 212  Energy = -153.9261732494
C   0.7866649537  0.8458336115 -0.0427104476
H   0.9477404199  1.3341635111 -1.0139759381
O   0.2116538536  1.4400678446  0.8409943408
C   1.3182823820 -0.5391580857  0.0806291225
H   1.0542442468 -0.8404812708  1.1476104930
H   0.9230028801 -1.1613329924 -0.7097747882
H   2.3596528339 -0.5887257784 -0.0088339624
7
Image 213  Energy = -153.9268202877
C   0.7864902064  0.8471539439 -0.0423380864
H   0.9499543047  1.3345784069 -1.0145854972
O   0.2100470772  1.4419405233  0.8397515287
C   1.3177402436 -0.5389405896  0.0829400883
H   1.0548908400 -0.8460275035  1.1448395774
H   0.9199973310 -1.1626899495 -0.7063403634
H   2.3621215671 -0.5856479915 -0.0103284273
7
Image 214  Energy = -153.9274221257
C   0.7863154243  0.8484744292 -0.0419656658
H   0.9521680075  1.3349933390 -1.0151951387
O   0.2084405225  1.4438129227  0.8385087060
C   1.3171973518 -0.5387231133  0.0852517914
H   1.0555374609 -0.8515733623  1.1420682254
H   0.9169918701 -1.1640469838 -0.7029062459
H   2.3645909329 -0.5825703914 -0.0118228523
7
Image 215  Energy = -153.9279784969
C   0.7861406039  0.8497950712 -0.0415931856
H   0.9543815281  1.3354083070 -1.0158048596
O   0.2068341939  1.4456850379  0.8372658670
C   1.3166537166 -0.5385056660  0.0875642423
H   1.0561841133 -0.8571188416  1.1392964249
H   0.9139865002 -1.1654040929 -0.6994724288
H   2.3670609140 -0.5794929755 -0.0133172402
7
Image 216  Energy = -153.9284893236
C   0.7859657419  0.8511158738 -0.0412206452
H   0.9565948663  1.3358233105 -1.0164146560
O   0.2052280959  1.4475568640  0.8360230045
C   1.3161093487 -0.5382882562  0.0898774501
H   1.0568308012 -0.8626639368  1.1365241638
H   0.9109812241 -1.1667612738 -0.6960389043
H   2.3695314919 -0.5764157414 -0.0148115931
7
Image 217  Energy = -153.9289544467
C   0.7857908342  0.8524368415 -0.0408480430
H   0.9588080223  1.3362383489 -1.0170245236
O   0.2036222340  1.4494283953  0.8347801098
C   1.3155642590 -0.5380708921  0.0921914219
H   1.0574775290 -0.8682086439  1.1337514309
H   0.9079760447 -1.1681185232 -0.6926056632
H   2.3720026468 -0.5733386864 -0.0163059127
7
Image 218  Energy = -153.9293738807
C   0.7856158762  0.8537579794 -0.0404753768
H   0.9610209962  1.3366534216 -1.0176344572
O   0.2020166145  1.4512996251  0.8335371720
C   1.3150184590 -0.5378535812  0.0945061625
H   1.0581243016 -0.8737529603  1.1309782150
H   0.9049709651 -1.1694758369 -0.6891726950
H   2.3744743574 -0.5702618077 -0.0178002005
7
Image 219  Energy = -153.9297476615
C   0.7854408626  0.8550792940 -0.0401026428
H   0.9632337879  1.3370685277 -1.0182444505
O   0.2004112455  1.4531705452  0.8322941775
C   1.3144719608 -0.5376363307  0.0968216754
H   1.0587711239 -0.8792968839  1.1282045047
H   0.9019659889 -1.1708332100 -0.6857399870
H   2.3769466004 -0.5671851023 -0.0192944572
7
Image 220  Energy = -153.9300759744
C   0.7852657863  0.8564007932 -0.0397298358
H   0.9654463974  1.3374836657 -1.0188544954
O   0.1988061371  1.4550411452  0.8310511088
C   1.3139247772 -0.5374191477  0.0991379625
H   1.0594180021 -0.8848404134  1.1254302871
H   0.8989611201 -1.1721906359 -0.6823075241
H   2.3794193497 -0.5641085670 -0.0207886831
7
Image 221  Energy = -153.9303588367
C   0.7850906388  0.8577224877 -0.0393569484
H   0.9676588244  1.3378988339 -1.0194645813
O   0.1972013028  1.4569114112  0.8298079430
C   1.3133769219 -0.5372020392  0.1014550244
H   1.0600649432 -0.8903835485  1.1226555472
H   0.8959563644 -1.1735481063 -0.6788752874
H   2.3818925746 -0.5610321988 -0.0222828774
7
Image 222  Energy = -153.9305963845
C   0.7849154082  0.8590443924 -0.0389839697
H   0.9698710680  1.3383140295 -1.0200746943
O   0.1955967611  1.4587813244  0.8285646492
C   1.3128284103 -0.5369850119  0.1037728598
H   1.0607119560 -0.8959262900  1.1198802664
H   0.8929517286 -1.1749056101 -0.6754432528
H   2.3843662377 -0.5579559943 -0.0237770385
7
Image 223  Energy = -153.9307887163
C   0.7847400783  0.8603665280 -0.0386108836
H   0.9720831268  1.3387292486 -1.0206848143
O   0.1939925383  1.4606508578  0.8273211836
C   1.3122792602 -0.5367680725  0.1060914645
H   1.0613590522 -0.9014686403  1.1171044202
H   0.8899472230 -1.1762631315 -0.6720113875
H   2.3868402913 -0.5548799501 -0.0252711630
7
Image 224  Energy = -153.9309359893
C   0.7845646244  0.8616889262 -0.0382376646
H   0.9742949981  1.3391444849 -1.0212949111
O   0.1923886742  1.4625199706  0.8260774801
C   1.3117294938 -0.5365512268  0.1084108297
H   1.0620062484 -0.9070106056  1.1143279743
H   0.8869428626 -1.1776206466 -0.6685796440
H   2.3893146684 -0.5518040626 -0.0267652443
7
Image 225  Energy = -153.9310382493
C   0.7843890058  0.8630116404 -0.0378642689
H   0.9765066770  1.3395597279 -1.0219049344
O   0.1907852365  1.4643885933  0.8248334272
C   1.3111791421 -0.5363344798  0.1107309372
H   1.0626535713 -0.9125521984  1.1115508742
H   0.8839386728 -1.1789781160 -0.6651479450
H   2.3917892646 -0.5487283275 -0.0282592704
7
Image 226  Energy = -153.9310957319
C   0.7842131408  0.8643347775 -0.0374906063
H   0.9787181522  1.3399749561 -1.0225147825
O   0.1891823610  1.4662565864  0.8235888019
C   1.3106282571 -0.5361178333  0.1130517459
H   1.0633010728 -0.9180934475  1.1087730151
H   0.8809347046 -1.1803354599 -0.6617161394
H   2.3942638815 -0.5456527393 -0.0297532148
7
Image 227  Energy = -153.9311086108
C   0.7840367852  0.8656586589 -0.0371164025
H   0.9809293880  1.3403901038 -1.0231241499
O   0.1875804579  1.4681235287  0.8223429327
C   1.3100769769 -0.5359012779  0.1153731248
H   1.0639489065 -0.9236344469  1.1059940899
H   0.8779311114 -1.1816924395 -0.6582837811
H   2.3967379442 -0.5425772870 -0.0312469938
