7
Image 0  Energy = -153.9152250348
C   0.8260657415  0.5508603911 -0.1261794589
H   0.4554445983  1.2417513435 -0.8784317668
O   0.5680753083  1.0246514429  1.1187434847
C   1.4411098584 -0.5873603774 -0.4363613732
H   0.9099091373  0.3932317500  1.7666320721
H   1.5916834696 -0.8592929697 -1.4741885892
H   1.8089534565 -1.2734747403  0.3237244514
7
Image 1  Energy = -153.8684115600
C   0.8199307567  0.6149461186 -0.1173327337
H   0.5649618605  1.2658715170 -0.9154628712
O   0.4998924996  1.0919143011  1.0784432817
C   1.3929469449 -0.5570179663 -0.3332718846
H   0.9304779840  0.1381839645  1.6196334197
H   1.4385852323 -0.9294403795 -1.3112491156
H   1.9544462917 -1.1340907155  0.2731787240
7
Image 2  Energy = -153.7809016942
C   0.8115984678  0.6826212041 -0.1017544371
H   0.6674738811  1.2866781941 -0.9483043118
O   0.4231399024  1.1827343130  1.0179300916
C   1.3488811905 -0.5436489959 -0.2191442418
H   0.9637438316 -0.1281032017  1.4920557031
H   1.2961977673 -0.9945642880 -1.1565864658
H   2.0902065274 -0.9953503855  0.2097424814
7
Image 3  Energy = -153.8125506493
C   0.7984916750  0.7550531616 -0.0712968771
H   0.7632985216  1.3032861526 -0.9739841945
O   0.3482692056  1.2805475642  0.9444705647
C   1.3163518052 -0.5480327254 -0.0902023769
H   1.0016773702 -0.3912272790  1.3592243936
H   1.1636790017 -1.0559239938 -1.0046476954
H   2.2094739898 -0.8533360391  0.1303750056
7
Image 4  Energy = -153.8988538611
C   0.7909631048  0.8120709349 -0.0523649323
H   0.8686207745  1.3227337628 -1.0001575340
O   0.2707177550  1.3717657826  0.8831515468
C   1.3030727549 -0.5441502559  0.0276811497
H   1.0335100632 -0.6519698964  1.2239727309
H   1.0222621063 -1.1201730285 -0.8371246698
H   2.3120950115 -0.6999104591  0.0487805286
7
Image 5  Energy = -153.9311086108
C   0.7840367852  0.8656586589 -0.0371164025
H   0.9809293880  1.3403901038 -1.0231241499
O   0.1875804579  1.4681235287  0.8223429327
C   1.3100769769 -0.5359012779  0.1153731248
H   1.0639489065 -0.9236344469  1.1059940899
H   0.8779311114 -1.1816924395 -0.6582837811
H   2.3967379442 -0.5425772870 -0.0312469938
