22
Image 0  Energy = -424.93306391
C  -0.5072973495  0.1000276132 -0.6484526873
C   0.0453855256  0.7885331770 -1.9149797360
H  -0.3552151247  0.2291210605 -2.7655171378
O  -0.2126803611 -1.2908339645 -0.7346111953
H   0.7120625453 -1.4325816019 -0.5027653157
O   1.4799778321  0.6459992216 -1.8893832459
H   1.8488321026  1.0968051086 -2.6510379108
C   0.0779384127  0.6971965407  0.6288457740
H  -0.2351063887  1.7291815999  0.7676300555
H  -0.2766673919  0.1223756207  1.4824977254
H   1.1654310868  0.6620771252  0.6137523213
C  -2.0291540349  0.1877243872 -0.6335443625
H  -2.3752726178  1.2075460296 -0.4738981874
H  -2.4408594343 -0.1811125862 -1.5708982140
H  -2.4099125545 -0.4361728173  0.1705481586
C  -0.3227666932  2.2565347061 -2.0675938974
H   0.1050684253  2.6455985344 -2.9918712232
H  -1.3981536362  2.4007467183 -2.1124250344
H   0.0738285617  2.8416656596 -1.2409834832
O   2.7785039496 -1.3162275474 -0.4302768212
H   3.7246144489 -1.4448387683 -0.4981097472
H   2.5613799481 -0.6086514195 -1.0591441261
22
Image 1  Energy = -424.92880945
C  -0.4911015103  0.1026392094 -0.6516235288
C   0.0516628525  0.8009660074 -1.9191470466
H  -0.3478979600  0.2354149856 -2.7668501711
O  -0.1754969659 -1.2827109667 -0.7405473777
H   0.7510250695 -1.4073119993 -0.5097231505
O   1.4864300831  0.6736730683 -1.9016511940
H   1.8422360180  1.1290236110 -2.6673123534
C   0.0865435427  0.7079118495  0.6273214581
H  -0.2119183099  1.7468879604  0.7492515112
H  -0.2908749420  0.1486728050  1.4817387801
H   1.1737529344  0.6535332356  0.6284904080
C  -2.0120078417  0.1691381309 -0.6316372206
H  -2.3726987499  1.1849543057 -0.4756703055
H  -2.4255721010 -0.2108241776 -1.5645613322
H  -2.3817964551 -0.4555595326  0.1776706050
C  -0.3331640744  2.2640753135 -2.0700564214
H   0.0693719117  2.6563194084 -3.0052090511
H  -1.4111248328  2.3979987652 -2.0917453553
H   0.0749906182  2.8581500692 -1.2544220557
O   2.7139649485 -1.3446042421 -0.4340605063
H   3.6549587711 -1.5171075254 -0.4537346523
H   2.5586538305 -0.6105257201 -1.0487392150
22
Image 2  Energy = -424.92905768
C  -0.4837087035  0.1056388854 -0.6537129416
C   0.0566300169  0.8083551733 -1.9195124738
H  -0.3381270103  0.2400113514 -2.7675743309
O  -0.1598853565 -1.2782184565 -0.7451412297
H   0.7634172762 -1.3972181728 -0.4991999615
O   1.4925508947  0.6919077594 -1.9005455081
H   1.8417372768  1.1045839122 -2.6932579079
C   0.0894669098  0.7139846364  0.6263956871
H  -0.2276542406  1.7464670827  0.7558021147
H  -0.2734678543  0.1427672941  1.4791145836
H   1.1775102833  0.6810438840  0.6226452227
C  -2.0049975427  0.1609216426 -0.6350634848
H  -2.3747458182  1.1702883444 -0.4588694325
H  -2.4139371756 -0.2033637173 -1.5763264154
H  -2.3692021575 -0.4844399217  0.1605116647
C  -0.3411247956  2.2676909254 -2.0694428416
H   0.0816604669  2.6723205597 -2.9900768472
H  -1.4200200724  2.3885537239 -2.1175577487
H   0.0385301272  2.8599359431 -1.2392860171
O   2.7143290366 -1.2907762925 -0.3654710270
H   3.5902698459 -1.6338003373 -0.5418422791
H   2.5707054051 -0.5659394949 -0.9938067474
22
Image 3  Energy = -424.92903181
C  -0.4811000820  0.1068152861 -0.6534274162
C   0.0614002490  0.8104926995 -1.9173678899
H  -0.3288485051  0.2406739624 -2.7664236086
O  -0.1533310209 -1.2772995877 -0.7440530974
H   0.7663127085 -1.3944810651 -0.4834080844
O   1.4980694779  0.7004835159 -1.8941768234
H   1.8443919739  1.0414986785 -2.7216125394
C   0.0912185191  0.7141453385  0.6280420934
H  -0.2628113520  1.7310066311  0.7815981722
H  -0.2334319291  0.1134951094  1.4760559882
H   1.1794883534  0.7248193853  0.6057268489
C  -2.0026684731  0.1613089988 -0.6396659206
H  -2.3735100097  1.1662155477 -0.4401425036
H  -2.4079913430 -0.1777760683 -1.5919868647
H  -2.3695668059 -0.5041713116  0.1378720019
C  -0.3431208130  2.2674180609 -2.0661130909
H   0.1237131286  2.6899977686 -2.9564442693
H  -1.4197625428  2.3766773730 -2.1671207975
H  -0.0138014479  2.8508062449 -1.2090084020
O   2.7370135550 -1.2405302377 -0.3233824164
H   3.5259913834 -1.6866657082 -0.6321703657
H   2.5722819165 -0.5142159311 -0.9450089629
22
Image 4  Energy = -424.92876870
C  -0.4772655387  0.1071497849 -0.6522021739
C   0.0683670423  0.8120742485 -1.9139883597
H  -0.3143460755  0.2392729113 -2.7642981231
O  -0.1509994420 -1.2779479781 -0.7440428529
H   0.7672316554 -1.3959579610 -0.4776091110
O   1.5063166417  0.7123895975 -1.8840393670
H   1.8518862268  0.9681159083 -2.7420188691
C   0.0967686317  0.7100523819  0.6314370346
H  -0.2849732651  1.7127633554  0.8085743346
H  -0.1951096794  0.0844140439  1.4733386688
H   1.1836531760  0.7555330772  0.5940918961
C  -1.9988809920  0.1654224462 -0.6427053998
H  -2.3680157740  1.1682247110 -0.4292472907
H  -2.4014582091 -0.1563283872 -1.6023073151
H  -2.3702829282 -0.5113456957  0.1227745964
C  -0.3449666148  2.2660267085 -2.0639831635
H   0.1568964543  2.7030996604 -2.9272709831
H  -1.4176665896  2.3622993884 -2.2100746365
H  -0.0622837901  2.8439361599 -1.1866833305
O   2.7388349834 -1.2085516698 -0.3088307667
H   3.4662174082 -1.6952623182 -0.6973931195
H   2.5600136689 -0.4646656268 -0.9057397368
22
Image 5  Energy = -424.92841396
C  -0.4713099242  0.1085867687 -0.6480476828
C   0.0752191363  0.8116866958 -1.9101658151
H  -0.3038126264  0.2346869811 -2.7591717106
O  -0.1425135839 -1.2769600275 -0.7375815922
H   0.7752249324 -1.3924480877 -0.4659262485
O   1.5138464055  0.7192558250 -1.8786795202
H   1.8566545086  0.8921676250 -2.7582638341
C   0.1018761006  0.7107248463  0.6369318372
H  -0.2956589279  1.7047562898  0.8265092666
H  -0.1714848995  0.0714720392  1.4749977485
H   1.1873481120  0.7777242691  0.5935347773
C  -1.9932789818  0.1683228506 -0.6447882557
H  -2.3616381652  1.1671928571 -0.4114468614
H  -2.3904068042 -0.1293789782 -1.6146318541
H  -2.3708270621 -0.5248893082  0.1027570845
C  -0.3459044431  2.2628575333 -2.0660366782
H   0.1774296045  2.7061638684 -2.9125044037
H  -1.4149750744  2.3472302340 -2.2421765603
H  -0.0966572290  2.8423776386 -1.1786430031
O   2.7450993869 -1.1779908865 -0.2937165431
H   3.3847773846 -1.7061075411 -0.7721229868
H   2.5509289440 -0.4167158616 -0.8630448705
22
Image 6  Energy = -424.92771927
C  -0.4631652198  0.1122349023 -0.6456099163
C   0.0799178434  0.8151291055 -1.9090015560
H  -0.2990568309  0.2368207457 -2.7568844748
O  -0.1193846534 -1.2706468234 -0.7281400796
H   0.7978375416 -1.3736774865 -0.4477457833
O   1.5201746686  0.7260799273 -1.8834165264
H   1.8537790242  0.8183905571 -2.7785794071
C   0.1025155818  0.7229693922  0.6389629041
H  -0.3075602930  1.7117334543  0.8290479987
H  -0.1610351570  0.0796503893  1.4771217720
H   1.1868566632  0.8063484116  0.5944894846
C  -1.9863713636  0.1589521763 -0.6469152126
H  -2.3646695293  1.1488969112 -0.3911168585
H  -2.3786252236 -0.1176112547 -1.6258349676
H  -2.3595013453 -0.5560029017  0.0815728298
C  -0.3472644495  2.2649595362 -2.0605704334
H   0.1929950096  2.7190608674 -2.8904043742
H  -1.4128428428  2.3400067279 -2.2630431333
H  -0.1278269698  2.8382932183 -1.1640540108
O   2.7472374443 -1.1588925098 -0.2877647934
H   3.3030474836 -1.7312812132 -0.8162852594
H   2.5528789870 -0.3906984198 -0.8480450594
22
Image 7  Energy = -424.92842773
C  -0.4544941663  0.1129570127 -0.6476418741
C   0.0823583192  0.8174325170 -1.9119251537
H  -0.2966240398  0.2405450576 -2.7604307905
O  -0.0903026901 -1.2648529656 -0.7237287007
H   0.8277665193 -1.3480823308 -0.4357236937
O   1.5244059987  0.7337161888 -1.8956108080
H   1.8464635006  0.7548179411 -2.7993734234
C   0.1031896624  0.7363902687  0.6344870428
H  -0.3295230766  1.7150156959  0.8260906484
H  -0.1415960112  0.0871236092  1.4737004314
H   1.1851386641  0.8448628765  0.5834303500
C  -1.9788038875  0.1499981296 -0.6501124650
H  -2.3593764414  1.1299387383 -0.3608216182
H  -2.3732120086 -0.0925000494 -1.6362813512
H  -2.3505228812 -0.5890911461  0.0552282403
C  -0.3513363279  2.2661157199 -2.0519950154
H   0.2034273459  2.7346875558 -2.8633655619
H  -1.4137655335  2.3362366620 -2.2723391432
H  -0.1541817228  2.8258398555 -1.1419732008
O   2.7415613504 -1.1315641270 -0.2765133972
H   3.2223237764 -1.7749092655 -0.7968433072
H   2.5670399906 -0.3839635231 -0.8704741571
22
Image 8  Energy = -424.92654784
C  -0.4489227309  0.1108329828 -0.6314053296
C   0.0874346777  0.8077842856 -1.8998847082
H  -0.2928351743  0.2250318497 -2.7420351622
O  -0.0778436751 -1.2634411495 -0.6939738937
H   0.8492157377 -1.3328016800 -0.4269975289
O   1.5304278275  0.7290519037 -1.9024913952
H   1.8339477030  0.7033562192 -2.8126806638
C   0.0954034879  0.7504817643  0.6495829628
H  -0.3704122000  1.7134111655  0.8431901214
H  -0.1198148349  0.0954382178  1.4928568729
H   1.1728719878  0.8966901946  0.5901926716
C  -1.9740627591  0.1481382111 -0.6536935269
H  -2.3520876588  1.1171225379 -0.3280042911
H  -2.3531090435 -0.0452145898 -1.6575925308
H  -2.3635120788 -0.6208574359  0.0094052245
C  -0.3392438050  2.2569392149 -2.0453252782
H   0.2488539898  2.7181812148 -2.8364875672
H  -1.3937489190  2.3359554726 -2.3002516977
H  -0.1655312032  2.8127747833 -1.1284458481
O   2.7199346559 -1.1107441107 -0.3096740684
H   3.1913924372 -1.7689775613 -0.8189944437
H   2.5315779056 -0.3784385965 -0.9195076914
22
Image 9  Energy = -424.92451605
C  -0.4322208517  0.1104693447 -0.6105102220
C   0.1039509831  0.8030417890 -1.8827929885
H  -0.2780348135  0.2145583241 -2.7171463545
O  -0.0712747471 -1.2652707627 -0.6662288698
H   0.8678130110 -1.3439652695 -0.4398230740
O   1.5488427004  0.7338729321 -1.9244614061
H   1.8138034291  0.6303827925 -2.8417626612
C   0.0898050037  0.7606214570  0.6761424091
H  -0.3867550986  1.7217868503  0.8530314057
H  -0.1395247590  0.1152855393  1.5234131280
H   1.1673400253  0.9136543189  0.6361286112
C  -1.9580300342  0.1503550671 -0.6580840120
H  -2.3423843337  1.1015533766 -0.2904395483
H  -2.3118224688  0.0092635371 -1.6797601311
H  -2.3595486106 -0.6539719529 -0.0464067330
C  -0.3294385228  2.2498958101 -2.0308148595
H   0.2861985061  2.7174753578 -2.7963394837
H  -1.3737527222  2.3172267191 -2.3267916554
H  -0.1968096658  2.8040709686 -1.1061441820
O   2.6661264221 -1.0841948025 -0.3633543018
H   3.2013555586 -1.7252042376 -0.8285835339
H   2.4442974454 -0.3801916085 -1.0014887001
22
Image 10  Energy = -424.92231698
C  -0.4180195639  0.1034562911 -0.6019592607
C   0.1170622740  0.7964375425 -1.8782875876
H  -0.2686856867  0.2028846516 -2.7058480249
O  -0.0664340641 -1.2746737232 -0.6487926931
H   0.8742980858 -1.3637949383 -0.4262220589
O   1.5639583155  0.7465903828 -1.9520205331
H   1.8094230381  0.5604933379 -2.8622879288
C   0.0897945163  0.7617672841  0.6884897584
H  -0.3962512471  1.7202880422  0.8534179310
H  -0.1446256479  0.1222774251  1.5391808331
H   1.1665100474  0.9233224636  0.6629951565
C  -1.9456512865  0.1521242814 -0.6648870265
H  -2.3268803815  1.0956064323 -0.2744916663
H  -2.2911421373  0.0458800141 -1.6938105541
H  -2.3593591191 -0.6676477193 -0.0826651735
C  -0.3242874471  2.2425579346 -2.0211890827
H   0.3113834598  2.7101021550 -2.7700238740
H  -1.3612509429  2.3117693905 -2.3408343078
H  -0.2152029947  2.7932802856 -1.0913547719
O   2.6350509146 -1.0487482284 -0.3804784418
H   3.1592718253 -1.6915278323 -0.8549396709
H   2.4009742368 -0.3417301538 -1.0162079893
22
Image 11  Energy = -424.92120524
C  -0.4147041422  0.0976529694 -0.5911692495
C   0.1194833906  0.7840322455 -1.8756638739
H  -0.2718558888  0.1851908916 -2.6972690927
O  -0.0617968304 -1.2793160455 -0.6217268895
H   0.8908432263 -1.3550435575 -0.4416665894
O   1.5700681990  0.7495398485 -1.9704148633
H   1.8270343233  0.5033178507 -2.8651170405
C   0.0838891781  0.7638154641  0.7012661423
H  -0.4062817186  1.7205783008  0.8639471769
H  -0.1493282676  0.1292750606  1.5566529085
H   1.1603278821  0.9275635948  0.6802739255
C  -1.9432397885  0.1565667314 -0.6719793451
H  -2.3189409970  1.0982612276 -0.2718573706
H  -2.2830100910  0.0750027365 -1.7048513618
H  -2.3738464196 -0.6675829903 -0.1095627145
C  -0.3258088494  2.2302488806 -2.0137707295
H   0.3204518901  2.6903587051 -2.7538769037
H  -1.3602693497  2.3129054364 -2.3393990944
H  -0.2296871512  2.7776200222 -1.0794727637
O   2.6296741900 -1.0083153249 -0.4059026818
H   3.1415568348 -1.6796319783 -0.8517326548
H   2.4053764735 -0.3113238538 -1.0589246593
22
Image 12  Energy = -424.91512209
C  -0.4148963110  0.0854117572 -0.5752595373
C   0.1181141089  0.7696837716 -1.8676502864
H  -0.2832175692  0.1603898406 -2.6771847983
O  -0.0421488268 -1.2855691647 -0.5844526150
H   0.9257809909 -1.3446249812 -0.4557909420
O   1.5904528915  0.7662630277 -1.9864444165
H   1.9147350738  0.4737279386 -2.8489780758
C   0.0751180455  0.7663698019  0.7155002285
H  -0.4269906805  1.7176769680  0.8724797072
H  -0.1443029189  0.1346386836  1.5762456623
H   1.1501815407  0.9408695430  0.6851882475
C  -1.9497984774  0.1553730098 -0.6739290524
H  -2.3149731314  1.0941152918 -0.2584873375
H  -2.3049904261  0.1049011671 -1.7075730786
H  -2.3899641152 -0.6740604679 -0.1302414279
C  -0.3235077344  2.2183079501 -2.0038928275
H   0.3474059762  2.6526803393 -2.7348915656
H  -1.3495585406  2.3262418340 -2.3501827123
H  -0.2373177648  2.7706838105 -1.0705642564
O   2.5770217200 -0.9809791053 -0.4728638696
H   3.1231979793 -1.6764835548 -0.8373446813
H   2.3695949654 -0.2749026662 -1.1358995569
22
Image 13  Energy = -424.89381060
C  -0.4133955984  0.0667543272 -0.5487899920
C   0.0702413062  0.7626381103 -1.8408472352
H  -0.3106931306  0.1372441811 -2.6428827635
O  -0.0149456986 -1.2915192246 -0.5549530375
H   0.9780243995 -1.3414272642 -0.4723941189
O   1.6735150658  0.7817770383 -2.0378012915
H   2.0470853373  0.4380926362 -2.8686345731
C   0.0747365743  0.7626627033  0.7358475483
H  -0.4266370798  1.7166687171  0.8755375275
H  -0.1393741713  0.1358397025  1.6008613051
H   1.1515773098  0.9393906527  0.6963355682
C  -1.9631570119  0.1525549540 -0.6879988548
H  -2.3091146434  1.0993572433 -0.2681789329
H  -2.3451900219  0.1151709229 -1.7192950543
H  -2.3991628464 -0.6812102616 -0.1502512231
C  -0.3474973846  2.2171702657 -1.9838340590
H   0.3560378817  2.5901709101 -2.7109950137
H  -1.3608722605  2.3763556598 -2.3618619080
H  -0.2504101328  2.7874335024 -1.0621119126
O   2.5166933202 -0.9702995878 -0.5253096888
H   3.0882333056 -1.6860847409 -0.7986169351
H   2.3342417913 -0.2080251535 -1.1960424458
22
Image 14  Energy = -424.85716687
C  -0.4127794870  0.0548561011 -0.5235675243
C  -0.0638116772  0.7641558696 -1.8013284216
H  -0.3306259646  0.1244033403 -2.6301104035
O  -0.0084525699 -1.2919490052 -0.5435094530
H   1.0088776120 -1.3424884591 -0.4741638265
O   1.8131311875  0.7613585025 -2.0495973934
H   2.1317893417  0.4261097369 -2.9007151339
C   0.0775707536  0.7647454815  0.7480657017
H  -0.4276099917  1.7166352411  0.8776846036
H  -0.1344929660  0.1339564671  1.6098299030
H   1.1537257519  0.9426057552  0.6975474543
C  -1.9839177751  0.1605708658 -0.7045633032
H  -2.3067907275  1.1125576706 -0.2768981401
H  -2.3792299123  0.1266299194 -1.7356879690
H  -2.3896623000 -0.6841281195 -0.1662868857
C  -0.3770100235  2.2192329441 -1.9701239971
H   0.3527667301  2.5457810507 -2.6950565146
H  -1.3769772804  2.4135742948 -2.3687521986
H  -0.2626762281  2.7974284391 -1.0574204683
O   2.5037303543 -0.9927098234 -0.5248510717
H   3.0893755937 -1.7069597742 -0.7772058919
H   2.3330058187 -0.1456511104 -1.2555061171
22
Image 15  Energy = -424.83502574
C  -0.3927228626  0.0449688453 -0.5102184851
C  -0.1889129505  0.7650276946 -1.7663516220
H  -0.3379279908  0.1178942998 -2.6185030716
O  -0.0039818771 -1.2912825625 -0.5352565683
H   1.0356882935 -1.3468188102 -0.4723409722
O   1.9172435131  0.7420981080 -2.0484202229
H   2.1786110941  0.4177145383 -2.9199370426
C   0.0808266761  0.7667694832  0.7559790248
H  -0.4293445239  1.7161360474  0.8778869254
H  -0.1321561713  0.1319331873  1.6127741304
H   1.1559877847  0.9444836877  0.6986399166
C  -2.0039596471  0.1730456241 -0.7235857001
H  -2.3035733320  1.1252440985 -0.2825345202
H  -2.4053727596  0.1359065822 -1.7510748548
H  -2.3713105106 -0.6846256925 -0.1795771547
C  -0.3972078925  2.2188057059 -1.9603081283
H   0.3489866981  2.5142294115 -2.6832831552
H  -1.3867219436  2.4365075899 -2.3735504759
H  -0.2696981173  2.8036897723 -1.0558747875
O   2.4922667918 -1.0208607079 -0.5142914378
H   3.0953131027 -1.7213254717 -0.7653128429
H   2.3279028685 -0.0888260459 -1.3070759360
22
Image 16  Energy = -424.82410539
C  -0.3525721687  0.0319646337 -0.5024665559
C  -0.2756692922  0.7578347075 -1.7335933308
H  -0.3462400888  0.1134771590 -2.5985584723
O   0.0056673383 -1.2843285822 -0.5274808258
H   1.0826107214 -1.3543276591 -0.4667625906
O   1.9723275140  0.7374248662 -2.0546494406
H   2.2045046034  0.4131077700 -2.9304240540
C   0.0837587974  0.7685450988  0.7613289761
H  -0.4313271797  1.7146243610  0.8751136894
H  -0.1295568915  0.1290484593  1.6139706648
H   1.1583434019  0.9468401613  0.7028425715
C  -2.0208671913  0.1933575526 -0.7505925361
H  -2.3035645648  1.1412580684 -0.2900439279
H  -2.4312058729  0.1444019265 -1.7727075245
H  -2.3488344019 -0.6775356538 -0.1966441313
C  -0.4192636901  2.2189491489 -1.9508688871
H   0.3438766772  2.4812426365 -2.6705690154
H  -1.3985099752  2.4536733076 -2.3748877603
H  -0.2739472315  2.8084237781 -1.0537536480
O   2.4636770887 -1.0540801813 -0.5085876353
H   3.0994622512 -1.7305415852 -0.7541137016
H   2.3272664610 -0.0526446235 -1.3387688035
22
Image 17  Energy = -424.82456252
C  -0.2751892215  0.0175046810 -0.4930947213
C  -0.3523630404  0.7403281682 -1.7015144607
H  -0.3498047966  0.1141206469 -2.5876456331
O   0.0103915554 -1.2758129849 -0.5244544150
H   1.1383897205 -1.3625038673 -0.4635031941
O   1.9967490403  0.7401403566 -2.0572327365
H   2.2021579997  0.4109426921 -2.9338276641
C   0.0846487183  0.7690288696  0.7651326046
H  -0.4317627056  1.7142866695  0.8723426375
H  -0.1292329736  0.1261483641  1.6138423625
H   1.1592019499  0.9470889685  0.7047348295
C  -2.0546946323  0.2176120964 -0.7829124489
H  -2.3034859359  1.1515542951 -0.2911166595
H  -2.4418504399  0.1419519209 -1.7947756046
H  -2.3291173957 -0.6688218872 -0.2045464258
C  -0.4264253280  2.2197795358 -1.9478439851
H   0.3444909662  2.4751271757 -2.6674852474
H  -1.4001258860  2.4560008314 -2.3754707743
H  -0.2720900469  2.8087809111 -1.0526711209
O   2.4328658810 -1.0837444590 -0.4871259134
H   3.0914140912 -1.7310627900 -0.7546999482
H   2.3157688122 -0.0277348047 -1.3583484410
22
Image 18  Energy = -424.83597289
C  -0.2405239234  0.0094725306 -0.4833090908
C  -0.4022172615  0.7315247945 -1.6810398637
H  -0.3575031013  0.1127343523 -2.5756963740
O   0.0004927495 -1.2653694323 -0.5230656137
H   1.2333611174 -1.3774353407 -0.4610186667
O   2.0293648494  0.7489715224 -2.0631722771
H   2.2057928623  0.4080491369 -2.9409678437
C   0.0839054081  0.7683149994  0.7676024650
H  -0.4338269513  1.7132447330  0.8681107638
H  -0.1266355979  0.1234555350  1.6143965029
H   1.1590890811  0.9481060938  0.7091428859
C  -2.0637467168  0.2344991324 -0.8067258206
H  -2.3086068340  1.1601126429 -0.2962701062
H  -2.4680438352  0.1417463709 -1.8098459057
H  -2.3085400025 -0.6557150622 -0.2150648412
C  -0.4376511928  2.2176679363 -1.9429647975
H   0.3427233379  2.4628107120 -2.6617442352
H  -1.4047950928  2.4640600426 -2.3762431693
H  -0.2724602551  2.8080204787 -1.0504148448
O   2.4063508547 -1.1159217125 -0.4525499662
H   3.0703177280 -1.7409453708 -0.7554622514
H   2.3030889513  0.0033112192 -1.3859140003
22
Image 19  Energy = -424.85094283
C  -0.2134542959 -0.0089097370 -0.4776177388
C  -0.4494123020  0.7231351676 -1.6628481514
H  -0.3744747000  0.1093520502 -2.5607601109
O  -0.0358802762 -1.2632532336 -0.5135369232
H   1.3783384419 -1.3860780474 -0.4632446244
O   2.0630420039  0.7582374744 -2.0685814859
H   2.2059897266  0.4045844009 -2.9477866796
C   0.0888504945  0.7627637158  0.7741889792
H  -0.4341366349  1.7080223921  0.8593272916
H  -0.1225913785  0.1219222081  1.6219281181
H   1.1640774704  0.9516119171  0.7199956057
C  -2.0710174866  0.2593840293 -0.8429528729
H  -2.3243625395  1.1725997562 -0.3109704129
H  -2.5219937909  0.1460198503 -1.8249152679
H  -2.2891775584 -0.6290982237 -0.2358037341
C  -0.4515196720  2.2117526900 -1.9331130199
H   0.3366073407  2.4411724888 -2.6510238264
H  -1.4100003175  2.4767222444 -2.3756916369
H  -0.2764017508  2.8082390809 -1.0462108836
O   2.4051212804 -1.1261321480 -0.4261506413
H   3.0415223149 -1.7672133011 -0.7524919967
H   2.3008100662  0.0258803090 -1.4039569713
22
Image 20  Energy = -424.86839711
C  -0.1502606470 -0.0195467987 -0.4696176997
C  -0.5634349468  0.6999671099 -1.6354321564
H  -0.3939460425  0.1108294066 -2.5414030555
O  -0.0475732781 -1.2586933492 -0.4978749101
H   1.4543912039 -1.4087313070 -0.4547464470
O   2.0918755043  0.7635544189 -2.0694681051
H   2.1967793347  0.4040564841 -2.9504511477
C   0.1050433174  0.7554944598  0.7860518201
H  -0.4288228646  1.6997627559  0.8539785893
H  -0.1161281186  0.1215681676  1.6331401842
H   1.1760162175  0.9586097007  0.7365710843
C  -2.0694220417  0.2940606280 -0.9082770789
H  -2.3363273800  1.1768375923 -0.3316718137
H  -2.5765662952  0.1501895037 -1.8441683305
H  -2.2619559040 -0.5947210896 -0.2697664933
C  -0.4632588714  2.2004178156 -1.9239237312
H   0.3318698852  2.4205835192 -2.6406030536
H  -1.4116094402  2.4937342242 -2.3748663042
H  -0.2821616342  2.8082650739 -1.0430912005
O   2.4213044563 -1.1306055560 -0.4098333130
H   3.0317737178 -1.7877925204 -0.7501833496
H   2.3023504583  0.0428751655 -1.4165805600
22
Image 21  Energy = -424.89285920
C  -0.1048361916 -0.0221880617 -0.4623629816
C  -0.6453861174  0.6836006030 -1.6150488965
H  -0.4301207988  0.1077666135 -2.5185961277
O  -0.0308697760 -1.2502021608 -0.4906488871
H   1.5303660807 -1.4566109557 -0.4238852032
O   2.1198344273  0.7801616105 -2.0755067370
H   2.1949177017  0.4049887094 -2.9537701806
C   0.1326937698  0.7515573680  0.7971340554
H  -0.4182249802  1.6881577080  0.8511259006
H  -0.0998200425  0.1208307100  1.6462138191
H   1.1986089932  0.9728381855  0.7666614547
C  -2.0987415671  0.3283150733 -0.9732812131
H  -2.3662812056  1.1901999162 -0.3663844853
H  -2.6715627083  0.1674991678 -1.8671904650
H  -2.2405814870 -0.5549558367 -0.3195820830
C  -0.4827001323  2.1867334043 -1.9153334907
H   0.3250696390  2.3858163847 -2.6248212254
H  -1.4159597118  2.5182732764 -2.3746369393
H  -0.2927866997  2.8020432667 -1.0380487916
O   2.4677489712 -1.1505577851 -0.3796482688
H   3.0390892628 -1.8184262216 -0.7589341293
H   2.2994783892  0.0648747545 -1.4256725895
22
Image 22  Energy = -424.90948236
C  -0.0846684299 -0.0168530477 -0.4596097852
C  -0.6973526312  0.6701253623 -1.6038855589
H  -0.4754611986  0.0876800982 -2.4985258164
O   0.0123016566 -1.2428178811 -0.4916246278
H   1.5964541646 -1.4976081875 -0.4048450293
O   2.1265076451  0.7909520872 -2.0849116325
H   2.2246030281  0.4081738733 -2.9583857256
C   0.1550910138  0.7506486502  0.8033452725
H  -0.4157799265  1.6754276396  0.8419468307
H  -0.0790657869  0.1189765655  1.6539767341
H   1.2165235260  0.9923452792  0.7899232921
C  -2.1393316975  0.3633013287 -1.0200903004
H  -2.4072118955  1.2148071241 -0.3969729801
H  -2.7822453903  0.2163490470 -1.8736578516
H  -2.2391615722 -0.5185916670 -0.3716605492
C  -0.5015507656  2.1697775043 -1.9065287034
H   0.3178189646  2.3461892131 -2.6045064137
H  -1.4219677358  2.5302537600 -2.3717512105
H  -0.3083303716  2.7804048951 -1.0253699932
O   2.5266093829 -1.1878236004 -0.3350099928
H   3.0758707390 -1.8391670061 -0.7699051775
H   2.3102827046  0.0881634186 -1.4341673380
22
Image 23  Energy = -424.92117279
C  -0.0798060958 -0.0186064056 -0.4524371281
C  -0.7450730752  0.6575114892 -1.5975334552
H  -0.5329878575  0.0701033779 -2.4902018660
O   0.0516297438 -1.2347226681 -0.4809581932
H   1.6462482371 -1.5075391748 -0.3863064325
O   2.1478333940  0.7845593856 -2.0956300120
H   2.2823332198  0.4352685913 -2.9779446902
C   0.1691897034  0.7549420683  0.8081548021
H  -0.4179678116  1.6674615834  0.8410148883
H  -0.0595828150  0.1224199036  1.6614039460
H   1.2248783180  1.0209910520  0.8168362132
C  -2.1870850917  0.3928997008 -1.0515201764
H  -2.4574116009  1.2330472100 -0.4152237179
H  -2.8769543109  0.2710219282 -1.8764790930
H  -2.2608263215 -0.4974127265 -0.4252367264
C  -0.5190027882  2.1520273902 -1.8974489515
H   0.3084870634  2.3130691640 -2.5855890572
H  -1.4261649655  2.5402012193 -2.3657028271
H  -0.3220118662  2.7507676518 -1.0097461436
O   2.5796509892 -1.2031116011 -0.3315890941
H   3.1177667179 -1.8795348284 -0.7425216403
H   2.3667941497  0.0753495510 -1.4675568447
22
Image 24  Energy = -424.92577326
C  -0.0824837820 -0.0040474804 -0.4507112235
C  -0.8027415273  0.6560063083 -1.5867175274
H  -0.5988175297  0.0654560249 -2.4794382485
O   0.0971229016 -1.2124763859 -0.4889966899
H   1.7007189356 -1.4977112959 -0.3541867451
O   2.1518700572  0.7381197469 -2.1302973003
H   2.4318242291  0.4624255860 -3.0044893446
C   0.1796866851  0.7696182770  0.8098516315
H  -0.4208179681  1.6715918265  0.8542812701
H  -0.0352389358  0.1319268466  1.6632378122
H   1.2299405688  1.0566045976  0.8372693634
C  -2.2446423423  0.4123967626 -1.0649410058
H  -2.5316284371  1.2488375158 -0.4274462450
H  -2.9480488140  0.3064212658 -1.8825610221
H  -2.3062891061 -0.4883961983 -0.4580035495
C  -0.5476927303  2.1435678153 -1.8855409140
H   0.2893037131  2.2772636448 -2.5661761828
H  -1.4401673450  2.5650070289 -2.3530261269
H  -0.3398629848  2.7286698333 -0.9923651229
O   2.6469586782 -1.2263263672 -0.3411221752
H   3.1577494483 -1.9464216893 -0.7114374232
H   2.4231928317  0.0421843133 -1.5093990976
22
Image 25  Energy = -424.92955115
C  -0.0885021600  0.0076955484 -0.4517637737
C  -0.8493653126  0.6555770988 -1.5744563783
H  -0.6502448386  0.0575859092 -2.4627991216
O   0.1411423938 -1.1885910747 -0.5086989414
H   1.7577831195 -1.4668326897 -0.3195580089
O   2.1569131271  0.7138412439 -2.1490196117
H   2.4713410986  0.4515338849 -3.0176305227
C   0.1956638033  0.7776988163  0.8072085389
H  -0.4043967229  1.6779685908  0.8713864560
H  -0.0026745918  0.1321847770  1.6588225385
H   1.2473661011  1.0632046616  0.8279445160
C  -2.2978198030  0.4278011657 -1.0811970482
H  -2.6040452641  1.2627517744 -0.4511682223
H  -2.9875196639  0.3331508337 -1.9134048541
H  -2.3707978109 -0.4823051070 -0.4884898805
C  -0.5681383247  2.1353524287 -1.8736568407
H   0.2898315714  2.2442660384 -2.5302912960
H  -1.4402878343  2.5800355192 -2.3567748285
H  -0.3691909598  2.7116200333 -0.9702989795
O   2.7174042877 -1.2457734338 -0.3255773534
H   3.1796848113 -2.0002010426 -0.6929949699
H   2.4857893583  0.0521505183 -1.5197995851
22
Image 26  Energy = -424.93415742
C  -0.0908800363  0.0138818247 -0.4472402271
C  -0.8783797410  0.6520764984 -1.5623498905
H  -0.6781362663  0.0496774137 -2.4472371142
O   0.1704066130 -1.1748009008 -0.5182861561
H   1.7982048385 -1.4481259770 -0.3010599696
O   2.1892415699  0.7443625116 -2.0944058432
H   2.3375929180  0.4431121681 -2.9925815445
C   0.2283191671  0.7812541239  0.8052793678
H  -0.3782558056  1.6740138058  0.9013616649
H   0.0745061129  0.1258091112  1.6583058729
H   1.2773928309  1.0785261827  0.7891490595
C  -2.3405276978  0.4385603233 -1.1137224875
H  -2.6623394539  1.2581686108 -0.4715042695
H  -3.0027233764  0.3857531399 -1.9729045902
H  -2.4497168732 -0.4929352803 -0.5604063310
C  -0.5759713414  2.1260624411 -1.8677703179
H   0.3033085213  2.2205197244 -2.4968982268
H  -1.4292954199  2.5733752341 -2.3796398774
H  -0.4017941565  2.7046829839 -0.9616110207
O   2.7672600856 -1.2709998118 -0.3035688638
H   3.1893166098 -2.0476091666 -0.6733899051
H   2.5624079077  0.0653465183 -1.5117404052
22
Image 27  Energy = -424.93661303
C  -0.0922830494  0.0173564128 -0.4558032787
C  -0.9041984799  0.6501338682 -1.5592945502
H  -0.7103700031  0.0453784530 -2.4452982075
O   0.2028292820 -1.1626115870 -0.5373367789
H   1.8475902573 -1.4254638588 -0.2796348555
O   2.2201536707  0.7604919022 -2.0351335467
H   2.2459274727  0.4171600154 -2.9299516243
C   0.2459201901  0.7852368026  0.7916715638
H  -0.3980009454  1.6457291259  0.9324422305
H   0.1769605300  0.1123848858  1.6417915918
H   1.2759262949  1.1378754601  0.7196823200
C  -2.3713114229  0.4520084690 -1.1270957241
H  -2.6792272045  1.2424380033 -0.4418501980
H  -3.0283854537  0.4722809224 -1.9928978645
H  -2.5124584397 -0.5082703561 -0.6335526083
C  -0.5891091657  2.1193555809 -1.8683800771
H   0.3119996009  2.2099878452 -2.4671894952
H  -1.4235837947  2.5616203391 -2.4141615338
H  -0.4486849941  2.7039856819 -0.9595099633
O   2.8251634768 -1.3112244675 -0.2944129419
H   3.1794645279 -2.1105864316 -0.6871279286
H   2.6356147762  0.0854478384 -1.4791748217
22
Image 28  Energy = -424.93698562
C  -0.1087183951 -0.0006786174 -0.4617701700
C  -0.9514966688  0.6324265797 -1.5476907481
H  -0.7764183285  0.0231329159 -2.4339794916
O   0.2366386923 -1.1634629312 -0.5579000335
H   1.9238159370 -1.4297756207 -0.2717439372
O   2.2563607811  0.7591719429 -2.0025295785
H   2.2870272899  0.4056201100 -2.8932088722
C   0.2470228231  0.7817566793  0.7706777811
H  -0.4196320383  1.6201037270  0.9365767978
H   0.2462964289  0.1138040957  1.6281267046
H   1.2591599008  1.1707890124  0.6417838713
C  -2.4252825002  0.4929126473 -1.1258584251
H  -2.6927990135  1.2551908183 -0.3933394107
H  -3.0720614021  0.6194458964 -1.9917216992
H  -2.6309986694 -0.4889644055 -0.7029998574
C  -0.6031944478  2.0932078859 -1.8608977239
H   0.3259101542  2.1656874368 -2.4174682161
H  -1.4074743190  2.5370884118 -2.4484004545
H  -0.5029462734  2.6861073928 -0.9516986490
O   2.9005954085 -1.3309431239 -0.2990309856
H   3.2368326267 -2.1357534642 -0.6976339045
H   2.6812986555  0.0938485088 -1.4415094906
22
Image 29  Energy = -424.93799347
C  -0.1298092478 -0.0074002125 -0.4524944720
C  -0.9944448702  0.6194435691 -1.5276770814
H  -0.8394120307 -0.0050502773 -2.4065059514
O   0.2552528547 -1.1571055018 -0.5685589773
H   1.9688308588 -1.4296395989 -0.2969160019
O   2.2665573627  0.7417171907 -2.0220537653
H   2.4602621540  0.4787546980 -2.9235980891
C   0.2289319549  0.7706353437  0.7830031463
H  -0.4097674887  1.6329909662  0.9369335164
H   0.1933400381  0.1086437743  1.6441736122
H   1.2568539115  1.1221007369  0.6678926200
C  -2.4735192998  0.5200583215 -1.1146231438
H  -2.7358909748  1.2968350801 -0.3956723743
H  -3.1077339028  0.6512297030 -1.9907144337
H  -2.7102255794 -0.4520985796 -0.6850179292
C  -0.6066618039  2.0654482129 -1.8622095970
H   0.3028675310  2.0952666237 -2.4531129044
H  -1.4121450692  2.5431834793 -2.4201069609
H  -0.4428106758  2.6555691779 -0.9601763394
O   2.9437584469 -1.3221896722 -0.3091670035
H   3.2960962321 -2.1171426129 -0.7138323750
H   2.6996080933  0.0894638264 -1.4517839771
22
Image 30  Energy = -424.93905487
C  -0.1367792777 -0.0078983700 -0.4404544785
C  -0.9978089286  0.6175666392 -1.5186889830
H  -0.8393334104 -0.0092615517 -2.3951854898
O   0.2449630551 -1.1582805543 -0.5534310338
H   1.9533065584 -1.4155366484 -0.2928232015
O   2.2615125811  0.7105213498 -2.0744227249
H   2.5582723755  0.5031453128 -2.9625691722
C   0.2266233370  0.7741424173  0.7912029301
H  -0.4168712623  1.6306058750  0.9514484265
H   0.2078289146  0.1117609992  1.6525787342
H   1.2502760029  1.1345838567  0.6634095040
C  -2.4783040926  0.5174081891 -1.1096666867
H  -2.7468193116  1.3007192430 -0.4001311054
H  -3.1102751939  0.6346968681 -1.9893138302
H  -2.7119098394 -0.4506053785 -0.6691025362
C  -0.6060934969  2.0618303019 -1.8549644536
H   0.3060026977  2.0873701717 -2.4419257251
H  -1.4073982581  2.5409105603 -2.4179396662
H  -0.4444019333  2.6534030493 -0.9537970609
O   2.9286307796 -1.3057293550 -0.3071408552
H   3.2830867807 -2.0990847830 -0.7133030604
H   2.6854292357  0.0684451479 -1.4859986945
22
Image 31  Energy = -424.93951370
C  -0.1434274046 -0.0097139431 -0.4244073321
C  -0.9912195684  0.6155278366 -1.5113393363
H  -0.8230408172 -0.0111970146 -2.3864441825
O   0.2182353087 -1.1694146653 -0.5237301709
H   1.9261490546 -1.4179707647 -0.2761761899
O   2.2625310378  0.6921166516 -2.1291046723
H   2.6101305587  0.5024758528 -3.0030975972
C   0.2317298872  0.7830432170  0.7961170734
H  -0.4329767816  1.6208756624  0.9696770573
H   0.2583334730  0.1234527363  1.6590228653
H   1.2391874508  1.1766033943  0.6371349323
C  -2.4739767664  0.5102848720 -1.1120607817
H  -2.7468132408  1.2889667283 -0.3990357969
H  -3.1016562585  0.6316922970 -1.9939841572
H  -2.7075898515 -0.4603675592 -0.6775428148
C  -0.6022971504  2.0612489934 -1.8418100106
H   0.3276217362  2.0926676639 -2.3999764965
H  -1.3903068267  2.5285837800 -2.4328576253
H  -0.4770828719  2.6585453370 -0.9382365667
O   2.8983364072 -1.2862477737 -0.3057632239
H   3.2653384565 -2.0785424753 -0.7024681492
H   2.6627296250  0.0480821536 -1.5261358139
22
Image 32  Energy = -424.94027182
C  -0.1468975085 -0.0087916185 -0.4130211915
C  -0.9816302598  0.6169849394 -1.5085140521
H  -0.8000085370 -0.0058963275 -2.3839570304
O   0.1890346154 -1.1768501757 -0.4960823398
H   1.8919545620 -1.4197421624 -0.2645803604
O   2.2780637085  0.6775816831 -2.1647216073
H   2.6379588118  0.4684915311 -3.0294537288
C   0.2422433701  0.7982765706  0.7933885020
H  -0.4548323997  1.6048075018  0.9900601991
H   0.3348121785  0.1423812441  1.6538722506
H   1.2211294281  1.2433899057  0.5942881348
C  -2.4652339397  0.4985541079 -1.1180510287
H  -2.7384150206  1.2549859495 -0.3814335890
H  -3.0904458605  0.6465349554 -1.9971049826
H  -2.6965978210 -0.4851521575 -0.7126507946
C  -0.6037543739  2.0672838725 -1.8278287897
H   0.3539459805  2.1155660263 -2.3360177967
H  -1.3682311281  2.5128019437 -2.4650061978
H  -0.5427232555  2.6726569787 -0.9227233614
O   2.8627452553 -1.2777620012 -0.3044991870
H   3.2348380091 -2.0769450492 -0.6816669394
H   2.6519798942  0.0315565325 -1.5465146017
22
Image 33  Energy = -424.94099431
C  -0.1426770096 -0.0030497076 -0.4325298398
C  -0.9851212838  0.6241113402 -1.5201374918
H  -0.8095701032  0.0079103308 -2.4015696603
O   0.1830254171 -1.1746608745 -0.5136523366
H   1.8709598544 -1.4362888229 -0.2691114126
O   2.2998379446  0.6751011412 -2.1268170069
H   2.6511869670  0.4410095429 -2.9886959102
C   0.2593750177  0.8100686796  0.7640554202
H  -0.4678113224  1.5817790892  0.9919219224
H   0.4144146382  0.1532975985  1.6138533790
H   1.2063399646  1.3049342395  0.5321022611
C  -2.4621405860  0.4936346845 -1.1103266964
H  -2.7197283885  1.2205904998 -0.3391678770
H  -3.1031851051  0.6752491528 -1.9711952264
H  -2.6838996936 -0.5051002307 -0.7375644081
C  -0.6175892001  2.0776938138 -1.8328992512
H   0.3585209554  2.1394629857 -2.3038808657
H  -1.3629657068  2.5072878956 -2.5026720424
H  -0.6023713457  2.6878712545 -0.9291655339
O   2.8449067186 -1.3064697895 -0.2813143431
H   3.2159968977 -2.1038934685 -0.6629508489
H   2.6624324271  0.0301757040 -1.5005001522
22
Image 34  Energy = -424.94163507
C  -0.1426118083 -0.0052151403 -0.4536246328
C  -1.0026101608  0.6247861423 -1.5259194798
H  -0.8443641733  0.0104443517 -2.4120185624
O   0.1842117835 -1.1758822063 -0.5397284317
H   1.8729494007 -1.4498139507 -0.2682420533
O   2.3138300414  0.6670650333 -2.1026400304
H   2.6727445663  0.4311299922 -2.9609339103
C   0.2762552954  0.8142456145  0.7319736409
H  -0.4825116619  1.5412123739  1.0032114806
H   0.5085734483  0.1590018756  1.5643485762
H   1.1795852029  1.3665111904  0.4593373894
C  -2.4731426206  0.5011529370 -1.0923190174
H  -2.7046701394  1.1994187699 -0.2870781324
H  -3.1282748341  0.7273259193 -1.9320145537
H  -2.7013078925 -0.5085546564 -0.7547435347
C  -0.6302159324  2.0764407760 -1.8385650988
H   0.3612229764  2.1369185350 -2.2768999849
H  -1.3530269154  2.4987754089 -2.5368965261
H  -0.6462533069  2.6926631666 -0.9389157686
O   2.8466240010 -1.3184696467 -0.2558675429
H   3.2278496573 -2.1134889723 -0.6323862781
H   2.6750803052  0.0250471181 -1.4722957775
22
Image 35  Energy = -424.94152543
C  -0.1462850644 -0.0074752641 -0.4483544046
C  -1.0116216831  0.6231833833 -1.5170496358
H  -0.8546627336  0.0103676487 -2.4047683128
O   0.1806989911 -1.1776276334 -0.5310732438
H   1.8818701026 -1.4437739275 -0.2590237038
O   2.3084797569  0.6316194588 -2.1471889667
H   2.6897357251  0.3964147166 -2.9960674332
C   0.2827796399  0.8240536746  0.7250798401
H  -0.5100371449  1.4956168596  1.0416193403
H   0.5989847476  0.1787144184  1.5369553740
H   1.1291788733  1.4412882467  0.4125732639
C  -2.4830990633  0.5054439390 -1.0864328524
H  -2.7023390362  1.1688001105 -0.2487858667
H  -3.1347188644  0.7829782337 -1.9134904988
H  -2.7277557846 -0.5147682425 -0.7954009353
C  -0.6309291743  2.0731738976 -1.8242005697
H   0.3857694461  2.1323362067 -2.2008850262
H  -1.3106467126  2.4830515870 -2.5714969213
H  -0.7039839982  2.6994534034 -0.9341722440
O   2.8537286723 -1.3027041562 -0.2506946724
H   3.2408002581 -2.1046046205 -0.6059537757
H   2.6739903908  0.0051719341 -1.5034072332
22
Image 36  Energy = -424.94256538
C  -0.1476192841 -0.0042893690 -0.4310117763
C  -1.0084180940  0.6253649525 -1.5049834600
H  -0.8398386700  0.0160120787 -2.3932038280
O   0.1768819201 -1.1745897512 -0.5055950189
H   1.8882489736 -1.4309214861 -0.2506517936
O   2.2942630562  0.5865404081 -2.2132577419
H   2.6867856647  0.3384025084 -3.0534038601
C   0.2820943395  0.8385474524  0.7350392019
H  -0.5398423662  1.4556827327  1.0886551680
H   0.6658327021  0.2055859606  1.5271585967
H   1.0740856217  1.5130884124  0.3998753343
C  -2.4840483701  0.5030826986 -1.0915808118
H  -2.7040198479  1.1300406527 -0.2264532899
H  -3.1260339413  0.8245870476 -1.9103063748
H  -2.7399176043 -0.5266701753 -0.8477945914
C  -0.6260888469  2.0764317247 -1.8027456014
H   0.4153032471  2.1433919437 -2.1042849895
H  -1.2527735027  2.4670357134 -2.6045238030
H  -0.7722608670  2.7129997407 -0.9288686326
O   2.8588813926 -1.2840079090 -0.2582201355
H   3.2444251807 -2.0952911128 -0.5932094694
H   2.6639972100 -0.0203100866 -1.5528516567
22
Image 37  Energy = -424.94290827
C  -0.1471569149  0.0006952307 -0.4100248595
C  -0.9980899467  0.6285559119 -1.4931820883
H  -0.8144272647  0.0218699932 -2.3802868819
O   0.1766573270 -1.1698004394 -0.4771466007
H   1.8967374715 -1.4113974799 -0.2447686177
O   2.2700779405  0.5401223363 -2.2867846011
H   2.6609248300  0.2613695160 -3.1183589612
C   0.2746691088  0.8497876568  0.7556315983
H  -0.5714218221  1.4158534480  1.1384679573
H   0.7098272052  0.2275934613  1.5294597659
H   1.0187799555  1.5731767081  0.4140111081
C  -2.4786443610  0.5004262844 -1.1006499057
H  -2.7011748270  1.0850775629 -0.2069399804
H  -3.1096722041  0.8694168444 -1.9079285421
H  -2.7456021162 -0.5377240279 -0.9102144361
C  -0.6161932821  2.0811215415 -1.7830147898
H   0.4432446541  2.1596603282 -2.0112112564
H  -1.1868249167  2.4504684099 -2.6347551921
H  -0.8348511132  2.7269757178 -0.9317017775
O   2.8657232739 -1.2568234364 -0.2703592787
H   3.2512349824 -2.0755923765 -0.5865465454
H   2.6461196701 -0.0401189527 -1.6059139777
22
Image 38  Energy = -424.94005749
C  -0.1528853129 -0.0028758573 -0.3951847997
C  -0.9883136998  0.6319324780 -1.4853949237
H  -0.7961515091  0.0275427249 -2.3724861077
O   0.1753018723 -1.1730590110 -0.4654714847
H   1.9124401586 -1.3766273317 -0.2399205110
O   2.2500550097  0.4904063240 -2.3826210127
H   2.6406108821  0.1536812269 -3.1929912550
C   0.2511828036  0.8378166995  0.7831185216
H  -0.6068407718  1.3825089032  1.1712811554
H   0.6953872418  0.2130505448  1.5500646885
H   0.9816933039  1.5814249859  0.4556270344
C  -2.4734647103  0.5069830258 -1.1091910441
H  -2.6965444165  1.0638890458 -0.1980542508
H  -3.0949656714  0.9096081887 -1.9078402053
H  -2.7522120899 -0.5340881718 -0.9542022406
C  -0.5987785970  2.0842626506 -1.7642827548
H   0.4684156256  2.1655649245 -1.9571200015
H  -1.1384199447  2.4508968703 -2.6374498450
H  -0.8500709163  2.7318840086 -0.9221584236
O   2.8736502622 -1.1888090217 -0.2778069356
H   3.2858275014 -2.0088303343 -0.5547555487
H   2.6240206746 -0.0464481008 -1.6653787073
22
Image 39  Energy = -424.93949782
C  -0.1605500374 -0.0104069711 -0.3913229160
C  -0.9819920868  0.6340795027 -1.4831156901
H  -0.7818365567  0.0334252919 -2.3699076823
O   0.1783741170 -1.1769158568 -0.4724956322
H   1.9127504269 -1.3167650012 -0.2507361836
O   2.2336393081  0.4298319087 -2.4658129391
H   2.6388688619  0.0348358045 -3.2408789324
C   0.2267498027  0.8181779060  0.7988914986
H  -0.6309546596  1.3667321222  1.1807413326
H   0.6598977413  0.1845514206  1.5646001397
H   0.9623134360  1.5590235967  0.4774284844
C  -2.4680166648  0.5139639390 -1.1144632851
H  -2.6889615754  1.0593772564 -0.1963784026
H  -3.0916461470  0.9289452248 -1.9044959392
H  -2.7481542474 -0.5274923927 -0.9715429798
C  -0.5821407530  2.0867808210 -1.7409040477
H   0.4903671282  2.1676493299 -1.9023156480
H  -1.0951844938  2.4638767459 -2.6256993242
H  -0.8548603434  2.7258326132 -0.9001016633
O   2.8698414450 -1.1052203314 -0.2843662096
H   3.3071282420 -1.9253824837 -0.5211067409
H   2.6143045540 -0.0441860947 -1.7082355172
