22
Image 0  Energy = -424.82410539
C  -0.3525721687  0.0319646337 -0.5024665559
C  -0.2756692922  0.7578347075 -1.7335933308
H  -0.3462400888  0.1134771590 -2.5985584723
O   0.0056673383 -1.2843285822 -0.5274808258
H   1.0826107214 -1.3543276591 -0.4667625906
O   1.9723275140  0.7374248662 -2.0546494406
H   2.2045046034  0.4131077700 -2.9304240540
C   0.0837587974  0.7685450988  0.7613289761
H  -0.4313271797  1.7146243610  0.8751136894
H  -0.1295568915  0.1290484593  1.6139706648
H   1.1583434019  0.9468401613  0.7028425715
C  -2.0208671913  0.1933575526 -0.7505925361
H  -2.3035645648  1.1412580684 -0.2900439279
H  -2.4312058729  0.1444019265 -1.7727075245
H  -2.3488344019 -0.6775356538 -0.1966441313
C  -0.4192636901  2.2189491489 -1.9508688871
H   0.3438766772  2.4812426365 -2.6705690154
H  -1.3985099752  2.4536733076 -2.3748877603
H  -0.2739472315  2.8084237781 -1.0537536480
O   2.4636770887 -1.0540801813 -0.5085876353
H   3.0994622512 -1.7305415852 -0.7541137016
H   2.3272664610 -0.0526446235 -1.3387688035
