7
Image 0  Energy = -29.6082816488
C   0.8953051228  0.7886162006 -0.1884358040
H   0.7392996326  1.5689907296 -0.9451903226
O   0.5620604518  0.9972560537  1.1029358497
C   1.3288146735 -0.5635035432 -0.2053149684
H   0.7757484146 -0.1814928409  1.0854427504
H   1.0013097019 -1.3232801415 -0.9267524686
H   2.2881319002 -0.7398224040  0.3001444340
7
Image 1  Energy = -29.6150448090
C   0.8963464302  0.7860519319 -0.1905427356
H   0.7401465973  1.5683251600 -0.9445912471
O   0.5625651025  0.9935826698  1.1038560516
C   1.3294643550 -0.5618930669 -0.2099831475
H   0.7480230458 -0.1099529400  1.1485444706
H   1.0050782406 -1.3236982151 -0.9285628845
H   2.2830826703 -0.7406095429  0.3043785975
7
Image 2  Energy = -29.6235398865
C   0.8974829832  0.7818293189 -0.1920659738
H   0.7416962183  1.5665740372 -0.9433862991
O   0.5626787922  0.9916120201  1.1050864589
C   1.3306811489 -0.5600180385 -0.2164209343
H   0.7190013376 -0.0476328981  1.2203946496
H   1.0095860537 -1.3233626236 -0.9308649395
H   2.2762008916 -0.7422623660  0.3089573059
7
Image 3  Energy = -29.6321260995
C   0.8988701217  0.7753843416 -0.1933897943
H   0.7438510783  1.5638373410 -0.9417702671
O   0.5622487346  0.9917434328  1.1069682254
C   1.3322017190 -0.5576403168 -0.2247654401
H   0.6936803606  0.0026893525  1.3004754173
H   1.0159365550 -1.3223515910 -0.9356508318
H   2.2651950497 -0.7444806091  0.3173836195
7
Image 4  Energy = -29.6402438647
C   0.9002207535  0.7673950083 -0.1943018319
H   0.7461331440  1.5599538374 -0.9398118759
O   0.5613950026  0.9938602756  1.1092895202
C   1.3340059679 -0.5551783729 -0.2346741406
H   0.6727540528  0.0407744142  1.3859074137
H   1.0245041922 -1.3206619821 -0.9439436298
H   2.2512295469 -0.7481078443  0.3303787864
7
Image 5  Energy = -29.6473585731
C   0.9013831215  0.7572281372 -0.1943401792
H   0.7481576236  1.5530618811 -0.9356061688
O   0.5601022547  0.9979194864  1.1123588380
C   1.3365043161 -0.5526090550 -0.2462900804
H   0.6536713890  0.0776510427  1.4694137619
H   1.0355920569 -1.3170307402 -0.9567048494
H   2.2340983995 -0.7556217746  0.3455803846
7
Image 6  Energy = -29.6536844587
C   0.9019547646  0.7448975867 -0.1924143044
H   0.7490456962  1.5420871667 -0.9291948042
O   0.5584055450  1.0041750628  1.1161421906
C   1.3402495452 -0.5506051380 -0.2598437494
H   0.6343662539  0.1195093343  1.5461491944
H   1.0498747634 -1.3107457273 -0.9768240033
H   2.2137244869 -0.7690301959  0.3610563090
7
Image 7  Energy = -29.6589029795
C   0.9012822794  0.7302153681 -0.1872871242
H   0.7470135177  1.5260959703 -0.9230339612
O   0.5563127646  1.0136672734  1.1206031482
C   1.3454555221 -0.5499654031 -0.2753311290
H   0.6206445247  0.1622182526  1.6073708395
H   1.0717013472 -1.2984430603 -1.0103174920
H   2.1868488028 -0.7913854665  0.3798116928
7
Image 8  Energy = -29.6631818926
C   0.8990920050  0.7160079738 -0.1800355658
H   0.7399720979  1.5067491239 -0.9186170259
O   0.5542837221  1.0251613122  1.1249462508
C   1.3515811002 -0.5516728242 -0.2902066069
H   0.6161437881  0.1982024787  1.6497616972
H   1.1017342302 -1.2771940587 -1.0550351110
H   2.1536713820 -0.8220696572  0.3996317739
7
Image 9  Energy = -29.6667959011
C   0.8959742933  0.7034819576 -0.1720198434
H   0.7289256406  1.4863094323 -0.9158504753
O   0.5525743175  1.0368294671  1.1286190008
C   1.3580516353 -0.5547727667 -0.3032750281
H   0.6163503663  0.2284316573  1.6796193124
H   1.1346326235 -1.2495023602 -1.1032945113
H   2.1187931295 -0.8585545761  0.4171794558
7
Image 10  Energy = -29.6699636793
C   0.8925598946  0.6916576534 -0.1639631388
H   0.7155362878  1.4655141964 -0.9140310079
O   0.5511083613  1.0482766282  1.1317789875
C   1.3645670164 -0.5581247353 -0.3149718047
H   0.6178913660  0.2560889168  1.7052969479
H   1.1686739221 -1.2171871834 -1.1513194078
H   2.0829171349 -0.8985862131  0.4309254518
7
Image 11  Energy = -29.6726475424
C   0.8889906763  0.6805599976 -0.1562810667
H   0.7014234943  1.4448081140 -0.9126385602
O   0.5499809309  1.0589674458  1.1344228755
C   1.3707346457 -0.5612265319 -0.3252159991
H   0.6202603380  0.2821500997  1.7279578529
H   1.2035164542 -1.1820226979 -1.1964449226
H   2.0467509942 -0.9395950567  0.4405628088
7
Image 12  Energy = -29.6749120867
C   0.8849793363  0.6697308335 -0.1486624366
H   0.6867065144  1.4234437837 -0.9117743809
O   0.5492145126  1.0692443056  1.1365625287
C   1.3766432845 -0.5640056893 -0.3342576215
H   0.6251504508  0.3064163311  1.7467612639
H   1.2406636241 -1.1429980132 -1.2387811232
H   2.0089873559 -0.9824844293  0.4462262409
7
Image 13  Energy = -29.6767236060
C   0.8803806702  0.6592047177 -0.1412218746
H   0.6717607375  1.4021615527 -0.9112869682
O   0.5488818241  1.0790090130  1.1380763474
C   1.3821565287 -0.5664093439 -0.3419380557
H   0.6333923712  0.3286168177  1.7630107003
H   1.2807885815 -1.1016377913 -1.2771040354
H   1.9699481809 -1.0256825989  0.4466425548
7
Image 14  Energy = -29.6780318087
C   0.8751647300  0.6490128197 -0.1343339587
H   0.6566792952  1.3825196780 -0.9103437721
O   0.5489843897  1.0882037533  1.1388727616
C   1.3870392834 -0.5686231559 -0.3478877387
H   0.6454175946  0.3488272491  1.7803390164
H   1.3259424917 -1.0601934400 -1.3128197184
H   1.9301929623 -1.0658129174  0.4402647821
7
Image 15  Energy = -29.6790421522
C   0.8699331124  0.6409189046 -0.1289136580
H   0.6421008052  1.3663554505 -0.9086783876
O   0.5495843391  1.0953158921  1.1395648009
C   1.3913316377 -0.5696866687 -0.3530418501
H   0.6585160141  0.3664246123  1.7897011607
H   1.3725880190 -1.0210170516 -1.3443983885
H   1.8866838505 -1.1102042690  0.4466524079
7
Image 16  Energy = -29.6796988612
C   0.8643280847  0.6336406347 -0.1245200790
H   0.6271263329  1.3514055697 -0.9068019247
O   0.5506476951  1.1011253594  1.1407291032
C   1.3951401194 -0.5702891530 -0.3577427945
H   0.6733548830  0.3856804218  1.7950520860
H   1.4238134699 -0.9826026996 -1.3700850178
H   1.8401106607 -1.1512319844  0.4503041462
7
Image 17  Energy = -29.6801839984
C   0.8559957764  0.6256097942 -0.1204310074
H   0.6045252936  1.3341511801 -0.9062385762
O   0.5526889260  1.1073654812  1.1427574086
C   1.4001959700 -0.5710907489 -0.3635711832
H   0.6983633987  0.4099147533  1.8035381367
H   1.4757064543 -0.9478359431 -1.3814810182
H   1.7926807348 -1.1867533622  0.4408360990
7
Image 18  Energy = -29.6802706337
C   0.8552440172  0.6250643791 -0.1202388707
H   0.6026017062  1.3331443516 -0.9056280218
O   0.5528872067  1.1076987108  1.1418524771
C   1.4004343614 -0.5707391634 -0.3637232383
H   0.7052694765  0.4093202467  1.8104186668
H   1.4801699342 -0.9432332565 -1.3764799242
H   1.7861973097 -1.1927350006  0.4422382761
