7
Image 0  Energy = -29.6080206847
C   0.8939161968  0.7908786958 -0.1848764808
H   0.7389041392  1.5685541046 -0.9451141666
O   0.5615931230  1.0019276297  1.1013259621
C   1.3287780087 -0.5654431920 -0.2018272900
H   0.7981953524 -0.2605797533  1.0299281066
H   0.9973843305 -1.3222914467 -0.9238627380
H   2.2944101546 -0.7392818568  0.2942755804
7
Image 1  Energy = -29.6119683003
C   0.8917318742  0.7940983520 -0.1786234157
H   0.7381267847  1.5679135891 -0.9434888747
O   0.5618188985  1.0059476522  1.0974558840
C   1.3289221976 -0.5677927472 -0.1977079060
H   0.8164290677 -0.3377161854  0.9713069555
H   0.9930345260 -1.3201890371 -0.9195714012
H   2.3020296479 -0.7377810323  0.2848113314
7
Image 2  Energy = -29.6200468010
C   0.8894932687  0.7974230443 -0.1721556931
H   0.7376060098  1.5672284380 -0.9417522090
O   0.5621762600  1.0100312679  1.0931935483
C   1.3288658848 -0.5700626395 -0.1934445676
H   0.8326130731 -0.4187434598  0.9184866524
H   0.9902998113 -1.3177437214 -0.9172213830
H   2.3107746217 -0.7358978521  0.2733289967
7
Image 3  Energy = -29.6320185578
C   0.8874269453  0.8005541520 -0.1661545147
H   0.7375858396  1.5665686920 -0.9406849992
O   0.5624297500  1.0144781734  1.0892438794
C   1.3285544176 -0.5723363454 -0.1892449877
H   0.8473053587 -0.5041126963  0.8726951786
H   0.9903323384 -1.3147363941 -0.9176674125
H   2.3203795369 -0.7336741516  0.2596395984
7
Image 4  Energy = -29.6460183924
C   0.8852655635  0.8035113765 -0.1595748140
H   0.7382481010  1.5655018949 -0.9399522209
O   0.5626178390  1.0196261298  1.0851442443
C   1.3284716648 -0.5750200989 -0.1858377327
H   0.8568567271 -0.5949852131  0.8388075729
H   0.9932029168 -1.3109083294 -0.9215039550
H   2.3310503597 -0.7305299719  0.2426991698
7
Image 5  Energy = -29.6588031119
C   0.8827123138  0.8064598327 -0.1515365017
H   0.7399608063  1.5637307759 -0.9393354620
O   0.5629179907  1.0253125524  1.0802865010
C   1.3287435569 -0.5785435211 -0.1829488557
H   0.8589572313 -0.6873427240  0.8157385058
H   0.9990755100 -1.3052063148 -0.9296535502
H   2.3437842992 -0.7255076278  0.2201983959
7
Image 6  Energy = -29.6700546360
C   0.8798369782  0.8088562182 -0.1422326722
H   0.7428899463  1.5608419964 -0.9383714571
O   0.5632186984  1.0317013781  1.0750333164
C   1.3291464702 -0.5829890961 -0.1801775267
H   0.8574230919 -0.7769188902  0.7950723758
H   1.0084381265 -1.2966635341 -0.9428554583
H   2.3577144313 -0.7185716029  0.1925974330
7
Image 7  Energy = -29.6797365165
C   0.8767201381  0.8102820867 -0.1320430783
H   0.7469994194  1.5565533993 -0.9366643336
O   0.5633327609  1.0391356837  1.0698541682
C   1.3297132579 -0.5885228343 -0.1776821611
H   0.8552020319 -0.8624574358  0.7746308692
H   1.0214885906 -1.2840240656 -0.9616904242
H   2.3713507378 -0.7104334047  0.1612204901
7
Image 8  Energy = -29.6873702920
C   0.8731991309  0.8103221660 -0.1205540580
H   0.7530306309  1.5497979385 -0.9347584343
O   0.5630976324  1.0482073807  1.0648960399
C   1.3305472308 -0.5959184484 -0.1755253689
H   0.8540529305 -0.9406309692  0.7515933156
H   1.0390811749 -1.2647071126 -0.9882963071
H   2.3846258360 -0.7011612518  0.1250545224
7
Image 9  Energy = -29.6933072871
C   0.8696606726  0.8083110970 -0.1089346410
H   0.7611654601  1.5398208261 -0.9330631931
O   0.5621622219  1.0592678431  1.0612989080
C   1.3318069106 -0.6050005171 -0.1745196370
H   0.8549197971 -1.0105851885  0.7275268649
H   1.0600953397 -1.2378007066 -1.0212361719
H   2.3966100066 -0.6915061273  0.0870221733
7
Image 10  Energy = -29.6980300909
C   0.8665407285  0.8036485304 -0.0979836176
H   0.7709693437  1.5263348181 -0.9324671144
O   0.5602836415  1.0726485793  1.0598033689
C   1.3335011315 -0.6151456513 -0.1753395353
H   0.8594987743 -1.0750420694  0.7021884499
H   1.0819727305 -1.2049942166 -1.0575569182
H   2.4071550909 -0.6823055427  0.0511032851
7
Image 11  Energy = -29.7019081330
C   0.8636143224  0.7955262087 -0.0863156828
H   0.7824913993  1.5073924638 -0.9332913266
O   0.5573041018  1.0892767659  1.0601735950
C   1.3361936498 -0.6264829742 -0.1790707350
H   0.8671140284 -1.1325058229  0.6736393596
H   1.1034211568 -1.1679236930 -1.0960252939
H   2.4166476537 -0.6750183344  0.0184971473
7
Image 12  Energy = -29.7052144623
C   0.8607937149  0.7833389950 -0.0726149333
H   0.7950731095  1.4810604428 -0.9341072884
O   0.5529364191  1.1101201731  1.0622476485
C   1.3408289212 -0.6388329704 -0.1871505412
H   0.8751730945 -1.1857186842  0.6407751818
H   1.1217606582 -1.1295680427 -1.1334390837
H   2.4253673837 -0.6722788627 -0.0103056840
7
Image 13  Energy = -29.7078484064
C   0.8581003492  0.7688082948 -0.0570586418
H   0.8062046022  1.4515463880 -0.9333580660
O   0.5474861349  1.1339856825  1.0651060544
C   1.3470776794 -0.6518633968 -0.1983888561
H   0.8845518849 -1.2387662752  0.6031290672
H   1.1352307535 -1.0953627564 -1.1668686857
H   2.4355292480 -0.6743077285 -0.0367996150
7
Image 14  Energy = -29.7093099719
C   0.8550279917  0.7533705184 -0.0403228604
H   0.8138470391  1.4248107866 -0.9279252092
O   0.5413885506  1.1597911048  1.0677226470
C   1.3549391043 -0.6656921432 -0.2112682681
H   0.8933092155 -1.2971339152  0.5608068760
H   1.1418059834 -1.0713970937 -1.1851838103
H   2.4522883665 -0.6740276363 -0.0690785564
7
Image 15  Energy = -29.7095755106
C   0.8547327367  0.7525612613 -0.0387734653
H   0.8138311781  1.4227760832 -0.9274989273
O   0.5411499755  1.1612199507  1.0674465897
C   1.3556169653 -0.6666662210 -0.2109324962
H   0.8998349449 -1.2958922136  0.5586854016
H   1.1428581156 -1.0673426048 -1.2040507466
H   2.4439230126 -0.6787126485 -0.0665951985
7
Image 16  Energy = -29.7096189922
C   0.8512587331  0.7366867488 -0.0242462454
H   0.8081076909  1.3921552676 -0.9248302347
O   0.5371174928  1.1871786733  1.0689486503
C   1.3600967585 -0.6822016686 -0.2191561145
H   0.9335078692 -1.3279351832  0.5339775206
H   1.1418991574 -1.0402514768 -1.2296102114
H   2.4702605665 -0.6811132624 -0.1180613520
7
Image 17  Energy = -29.7099686927
C   0.8508049701  0.7372695154 -0.0230391343
H   0.8081497864  1.3913707444 -0.9242717320
O   0.5373450526  1.1868064047  1.0682032687
C   1.3620345069 -0.6809380064 -0.2207690713
H   0.9291114764 -1.3386886698  0.5395359183
H   1.1390475533 -1.0414729628 -1.2251284745
H   2.4561739224 -0.6844464425 -0.1119934285
7
Image 18  Energy = -29.7099841005
C   0.8505156607  0.7379994093 -0.0222286529
H   0.8078865695  1.3911934157 -0.9243049330
O   0.5375315377  1.1864584307  1.0675101093
C   1.3624003696 -0.6810086516 -0.2211028271
H   0.9305201461 -1.3381101970  0.5381867218
H   1.1354507078 -1.0431296927 -1.2225345294
H   2.4547498527 -0.6855227043 -0.1078833603
