22
Iteration 1  Energy = -424.8252928254
C  -0.3564401330  0.0304019639 -0.5009425916
C  -0.2737476005  0.7608215315 -1.7337137524
H  -0.3217310379  0.1162696956 -2.6011431347
O   0.0079911763 -1.2785435815 -0.5330689088
H   1.0869627603 -1.3414165765 -0.4700688744
O   1.9783756311  0.7540467117 -2.0702808703
H   2.1861358019  0.4212197709 -2.9466783835
C   0.0825434396  0.7695585860  0.7621233029
H  -0.4246308644  1.7197158278  0.8853200395
H  -0.1415113310  0.1306453497  1.6116006812
H   1.1590277972  0.9313782370  0.7050770643
C  -2.0194926091  0.1810352704 -0.7386088123
H  -2.3108064213  1.1227521452 -0.2785560307
H  -2.3987736834  0.1226986273 -1.7621759024
H  -2.3860172287 -0.6786816193 -0.1808080024
C  -0.4141692292  2.2206444451 -1.9550830457
H   0.3349580406  2.5139761848 -2.6842006693
H  -1.3966795086  2.4382645237 -2.3749994828
H  -0.2725674418  2.8057588508 -1.0555406410
O   2.4547493441 -1.0684267118 -0.4984772798
H   3.0883687832 -1.7742162047 -0.6680785232
H   2.3195522961 -0.0276689091 -1.3774980056
22
Iteration 3  Energy = -424.8252965973
C  -0.3564252135  0.0303801320 -0.5009400199
C  -0.2737668350  0.7608242417 -1.7337065585
H  -0.3215427474  0.1162786015 -2.6012545410
O   0.0080252778 -1.2785217300 -0.5330808931
H   1.0867032210 -1.3412303055 -0.4701204789
O   1.9783852066  0.7540949360 -2.0703330782
H   2.1860659726  0.4212749743 -2.9466511570
C   0.0825385288  0.7695655809  0.7621210558
H  -0.4246316454  1.7197441740  0.8854126033
H  -0.1415637322  0.1306830884  1.6115552359
H   1.1589998877  0.9313225428  0.7050582029
C  -2.0194945273  0.1810272452 -0.7386053058
H  -2.3108085177  1.1225342963 -0.2784703315
H  -2.3984928667  0.1226350564 -1.7619041031
H  -2.3863781147 -0.6788105095 -0.1806103561
C  -0.4141606345  2.2206468508 -1.9550893496
H   0.3350250049  2.5142583184 -2.6843594146
H  -1.3965439959  2.4381266624 -2.3749941131
H  -0.2725395342  2.8057115644 -1.0555628147
O   2.4547193967 -1.0684817520 -0.4984288662
H   3.0883330166 -1.7742673968 -0.6680224045
H   2.3194744713 -0.0275923528 -1.3776320096
22
Iteration 4  Energy = -424.8252997833
C  -0.3564101934  0.0303583555 -0.5009374312
C  -0.2737861533  0.7608269567 -1.7336993420
H  -0.3213546035  0.1162874349 -2.6013658081
O   0.0080593833 -1.2784999209 -0.5330928910
H   1.0864422015 -1.3410439434 -0.4701722253
O   1.9783948145  0.7541431790 -2.0703853537
H   2.1859962859  0.4213303267 -2.9466240783
C   0.0825336539  0.7695725688  0.7621188393
H  -0.4246323992  1.7197724977  0.8855051026
H  -0.1416161620  0.1307208363  1.6115098394
H   1.1589720269  0.9312668450  0.7050394420
C  -2.0194964904  0.1810192449 -0.7386018584
H  -2.3108106002  1.1223165635 -0.2783847189
H  -2.3982121820  0.1225715174 -1.7616324682
H  -2.3867388509 -0.6789393913 -0.1804128121
C  -0.4141520896  2.2206492387 -1.9550956321
H   0.3350919529  2.5145402300 -2.6845180605
H  -1.3964085624  2.4379889091 -2.3749887573
H  -0.2725116622  2.8056642819 -1.0555849694
O   2.4546895188 -1.0685367979 -0.4983803722
H   3.0882973784 -1.7743183155 -0.6679667411
H   2.3193968779 -0.0275165152 -1.3777656164
22
Iteration 5  Energy = -424.8253023943
C  -0.3563950720  0.0303366347 -0.5009348255
C  -0.2738055554  0.7608296767 -1.7336921029
H  -0.3211666055  0.1162961963 -2.6014769377
O   0.0080934920 -1.2784781545 -0.5331049027
H   1.0861796997 -1.3408574899 -0.4702241134
O   1.9784044545  0.7541914398 -2.0704376962
H   2.1859267414  0.4213858286 -2.9465971458
C   0.0825288151  0.7695795497  0.7621166536
H  -0.4246331258  1.7198007993  0.8855975379
H  -0.1416686216  0.1307585940  1.6114644913
H   1.1589442147  0.9312111424  0.7050207813
C  -2.0194984992  0.1810112698 -0.7385984706
H  -2.3108126681  1.1220989446 -0.2782991919
H  -2.3979316252  0.1225080104 -1.7613609953
H  -2.3870994409 -0.6790682666 -0.1802153686
C  -0.4141435944  2.2206516086 -1.9551018931
H   0.3351588852  2.5148219230 -2.6846766086
H  -1.3962732065  2.4378512621 -2.3749834153
H  -0.2724838253  2.8056170023 -1.0556071051
O   2.4546597109 -1.0685918485 -0.4983317986
H   3.0882618670 -1.7743689623 -0.6679115324
H   2.3193195158 -0.0274414002 -1.3778988244
22
Iteration 6  Energy = -424.8253045727
C  -0.3563798469  0.0303149697 -0.5009322022
C  -0.2738250434  0.7608324013 -1.7336848406
H  -0.3209787553  0.1163048856 -2.6015879295
O   0.0081276038 -1.2784564312 -0.5331169282
H   1.0859157141 -1.3406709471 -0.4702761434
O   1.9784141271  0.7542397178 -2.0704901056
H   2.1858573410  0.4214414821 -2.9465703598
C   0.0825240126  0.7695865235  0.7621144991
H  -0.4246338253  1.7198290785  0.8856899082
H  -0.1417211116  0.1307963615  1.6114191916
H   1.1589164513  0.9311554349  0.7050022214
C  -2.0195005551  0.1810033210 -0.7385951441
H  -2.3108147197  1.1218814405 -0.2782137507
H  -2.3976511959  0.1224445367 -1.7610896862
H  -2.3874598827 -0.6791971357 -0.1800180264
C  -0.4141351493  2.2206539602 -1.9551081322
H   0.3352258019  2.5151033968 -2.6848350593
H  -1.3961379282  2.4377137217 -2.3749780867
H  -0.2724560230  2.8055697251 -1.0556292215
O   2.4546299740 -1.0686469028 -0.4982831457
H   3.0882264799 -1.7744193397 -0.6678567789
H   2.3192423853 -0.0273670118 -1.3780316310
22
Iteration 7  Energy = -424.8253059439
C  -0.3563645196  0.0302933615 -0.5009295616
C  -0.2738446155  0.7608351308 -1.7336775558
H  -0.3207910533  0.1163135035 -2.6016987844
O   0.0081617174 -1.2784347515 -0.5331289675
H   1.0856502433 -1.3404843164 -0.4703283149
O   1.9784238317  0.7542880115 -2.0705425804
H   2.1857880847  0.4214972867 -2.9465437185
C   0.0825192469  0.7695934901  0.7621123759
H  -0.4246344975  1.7198573355  0.8857822137
H  -0.1417736325  0.1308341389  1.6113739402
H   1.1588887368  0.9310997215  0.7049837620
C  -2.0195026583  0.1809953980 -0.7385918784
H  -2.3108167546  1.1216640504 -0.2781283949
H  -2.3973708924  0.1223810965 -1.7608185402
H  -2.3878201777 -0.6793259992 -0.1798207847
C  -0.4141267542  2.2206562936 -1.9551143496
H   0.3352927030  2.5153846530 -2.6849934131
H  -1.3960027270  2.4375762869 -2.3749727713
H  -0.2724282549  2.8055224496 -1.0556513185
O   2.4546003095 -1.0687019587 -0.4982344148
H   3.0881912148 -1.7744694494 -0.6678024810
H   2.3191654874 -0.0272933558 -1.3781640327
22
Iteration 8  Energy = -424.8253070501
C  -0.3563490866  0.0302718094 -0.5009269032
C  -0.2738642753  0.7608378646 -1.7336702471
H  -0.3206035031  0.1163220492 -2.6018095001
O   0.0081958333 -1.2784131151 -0.5331410207
H   1.0853833026 -1.3402976023 -0.4703806253
O   1.9784335696  0.7543363210 -2.0705951214
H   2.1857189760  0.4215532448 -2.9465172238
C   0.0825145180  0.7696004497  0.7621102844
H  -0.4246351428  1.7198855698  0.8858744526
H  -0.1418261844  0.1308719259  1.6113287376
H   1.1588610719  0.9310440031  0.7049654044
C  -2.0195048106  0.1809875023 -0.7385886754
H  -2.3108187718  1.1214467775 -0.2780431258
H  -2.3970907174  0.1223176910 -1.7605475620
H  -2.3881803202 -0.6794548560 -0.1796236466
C  -0.4141184098  2.2206586085 -1.9551205448
H   0.3353595877  2.5156656874 -2.6851516686
H  -1.3958676045  2.4374389600 -2.3749674687
H  -0.2724005211  2.8054751764 -1.0556733958
O   2.4545707161 -1.0687570170 -0.4981856051
H   3.0881560708 -1.7745192926 -0.6677486381
H   2.3190888211 -0.0272204254 -1.3782960340
22
Iteration 9  Energy = -424.8253075265
C  -0.3563335474  0.0302503138 -0.5009242267
C  -0.2738840229  0.7608406029 -1.7336629148
H  -0.3204161009  0.1163305238 -2.6019200807
O   0.0082299510 -1.2783915226 -0.5331530880
H   1.0851148780 -1.3401108011 -0.4704330767
O   1.9784433405  0.7543846459 -2.0706477283
H   2.1856500129  0.4216093581 -2.9464908739
C   0.0825098263  0.7696074023  0.7621082249
H  -0.4246357610  1.7199137821  0.8859666269
H  -0.1418787693  0.1309097238  1.6112835826
H   1.1588334558  0.9309882773  0.7049471480
C  -2.0195070126  0.1809796341 -0.7385855356
H  -2.3108207696  1.1212296158 -0.2779579407
H  -2.3968106615  0.1222543197 -1.7602767448
H  -2.3885403195 -0.6795837100 -0.1794266069
C  -0.4141101158  2.2206609050 -1.9551267178
H   0.3354264578  2.5159465090 -2.6853098304
H  -1.3957325568  2.4373017368 -2.3749621787
H  -0.2723728203  2.8054279033 -1.0556954536
O   2.4545411956 -1.0688120765 -0.4981367172
H   3.0881210443 -1.7745688726 -0.6676952499
H   2.3190123866 -0.0271482293 -1.3784276313
22
Iteration 10  Energy = -424.8253074115
C  -0.3563179004  0.0302288754 -0.5009215320
C  -0.2739038594  0.7608433451 -1.7336555584
H  -0.3202288529  0.1163389269 -2.6020305232
O   0.0082640693 -1.2783699745 -0.5331651690
H   1.0848449792 -1.3399239192 -0.4704856674
O   1.9784531446  0.7544329837 -2.0707003992
H   2.1855811983  0.4216656259 -2.9464646681
C   0.0825051720  0.7696143476  0.7621061977
H  -0.4246363524  1.7199419717  0.8860587338
H  -0.1419313866  0.1309475315  1.6112384761
H   1.1588058895  0.9309325453  0.7049289933
C  -2.0195092660  0.1809717946 -0.7385824607
H  -2.3108227464  1.1210125712 -0.2778728417
H  -2.3965307305  0.1221909853 -1.7600060965
H  -2.3889001649 -0.6797125591 -0.1792296708
C  -0.4141018728  2.2206631827 -1.9551328684
H   0.3354933121  2.5162271106 -2.6854678950
H  -1.3955975869  2.4371646206 -2.3749569008
H  -0.2723451526  2.8053806310 -1.0557174912
O   2.4545117489 -1.0688671345 -0.4980877532
H   3.0880861346 -1.7746181896 -0.6676423178
H   2.3189361858 -0.0270767722 -1.3785588202
22
Iteration 11  Energy = -424.8253068135
C  -0.3563021432  0.0302074936 -0.5009188186
C  -0.2739237874  0.7608460910 -1.7336481769
H  -0.3200417592  0.1163472587 -2.6021408281
O   0.0082981886 -1.2783484707 -0.5331772639
H   1.0845736110 -1.3397369573 -0.4705383961
O   1.9784629826  0.7544813349 -2.0707531347
H   2.1855125333  0.4217220497 -2.9464386066
C   0.0825005554  0.7696212859  0.7621042031
H  -0.4246369170  1.7199701387  0.8861507734
H  -0.1419840372  0.1309853493  1.6111934178
H   1.1587783730  0.9308768062  0.7049109411
C  -2.0195115721  0.1809639847 -0.7385794520
H  -2.3108247010  1.1207956423 -0.2777878281
H  -2.3962509214  0.1221276878 -1.7597356164
H  -2.3892598587 -0.6798414046 -0.1790328374
C  -0.4140936810  2.2206654416 -1.9551389962
H   0.3355601511  2.5165074940 -2.6856258639
H  -1.3954626936  2.4370276106 -2.3749516349
H  -0.2723175174  2.8053333588 -1.0557395086
O   2.4544823759 -1.0689221917 -0.4980387122
H   3.0880513390 -1.7746672468 -0.6675898401
H   2.3188602167 -0.0270060506 -1.3786896043
22
Iteration 12  Energy = -424.8253056427
C  -0.3562862778  0.0301861703 -0.5009160865
C  -0.2739438032  0.7608488407 -1.7336407720
H  -0.3198548199  0.1163555205 -2.6022509988
O   0.0083323065 -1.2783270127 -0.5331893724
H   1.0843007589 -1.3395499158 -0.4705912646
O   1.9784728528  0.7545296963 -2.0708059319
H   2.1854440164  0.4217786303 -2.9464126870
C   0.0824959767  0.7696282168  0.7621022413
H  -0.4246374548  1.7199982831  0.8862427460
H  -0.1420367223  0.1310231781  1.6111484077
H   1.1587509060  0.9308210592  0.7048929901
C  -2.0195139307  0.1809562042 -0.7385765090
H  -2.3108266314  1.1205788274 -0.2777028989
H  -2.3959712292  0.1220644282 -1.7594653024
H  -2.3896194037 -0.6799702478 -0.1788361048
C  -0.4140855400  2.2206676816 -1.9551451013
H   0.3356269748  2.5167876640 -2.6857837387
H  -1.3953278759  2.4368907044 -2.3749463801
H  -0.2722899141  2.8052860853 -1.0557615054
O   2.4544530794 -1.0689772429 -0.4979895979
H   3.0880166557 -1.7747160445 -0.6675378198
H   2.3187844844 -0.0269360856 -1.3788199693
22
Iteration 13  Energy = -424.8253039681
C  -0.3562703002  0.0301649037 -0.5009133356
C  -0.2739639126  0.7608515940 -1.7336333413
H  -0.3196680376  0.1163637108 -2.6023610306
O   0.0083664252 -1.2783055989 -0.5332014953
H   1.0840264528 -1.3393627994 -0.4706442685
O   1.9784827581  0.7545780704 -2.0708587939
H   2.1853756530  0.4218353697 -2.9463869124
C   0.0824914362  0.7696351407  0.7621003125
H  -0.4246379659  1.7200264050  0.8863346502
H  -0.1420894417  0.1310610170  1.6111034457
H   1.1587234893  0.9307653046  0.7048751427
C  -2.0195163441  0.1809484539 -0.7385736333
H  -2.3108285393  1.1203621294 -0.2776180557
H  -2.3956916591  0.1220012065 -1.7591951588
H  -2.3899787954 -0.6800990873 -0.1786394761
C  -0.4140774508  2.2206699025 -1.9551511833
H   0.3356937828  2.5170676145 -2.6859415179
H  -1.3951931352  2.4367539054 -2.3749411370
H  -0.2722623429  2.8052388116 -1.0557834819
O   2.4544238563 -1.0690322931 -0.4979404062
H   3.0879820825 -1.7747645860 -0.6674862537
H   2.3187089821 -0.0268668509 -1.3789499339
22
Iteration 14  Energy = -424.8253017558
C  -0.3562542077  0.0301436947 -0.5009105652
C  -0.2739841169  0.7608543500 -1.7336258845
H  -0.3194814137  0.1163718304 -2.6024709260
O   0.0084005431 -1.2782842309 -0.5332136316
H   1.0837506780 -1.3391756079 -0.4706974097
O   1.9784926976  0.7546264542 -2.0709117180
H   2.1853074413  0.4218922683 -2.9463612799
C   0.0824869342  0.7696420573  0.7620984174
H  -0.4246384505  1.7200545041  0.8864264856
H  -0.1421421966  0.1310988663  1.6110585316
H   1.1586961228  0.9307095417  0.7048573982
C  -2.0195188139  0.1809407361 -0.7385708278
H  -2.3108304193  1.1201455477 -0.2775332971
H  -2.3954122052  0.1219380254 -1.7589251864
H  -2.3903380324 -0.6802279257 -0.1784429510
C  -0.4140694135  2.2206721043 -1.9551572420
H   0.3357605759  2.5173473486 -2.6860992029
H  -1.3950584702  2.4366172118 -2.3749359044
H  -0.2722348025  2.8051915360 -1.0558054374
O   2.4543947098 -1.0690873376 -0.4978911408
H   3.0879476173 -1.7748128727 -0.6674351437
H   2.3186337143 -0.0267983665 -1.3790794851
22
Iteration 15  Energy = -424.8252988918
C  -0.3562380029  0.0301225440 -0.5009077756
C  -0.2740044132  0.7608571096 -1.7336184028
H  -0.3192949481  0.1163798799 -2.6025806857
O   0.0084346594 -1.2782629086 -0.5332257822
H   1.0834734401 -1.3389883443 -0.4707506866
O   1.9785026711  0.7546748475 -2.0709647043
H   2.1852393831  0.4219493278 -2.9463357902
C   0.0824824708  0.7696489667  0.7620965558
H  -0.4246389084  1.7200825806  0.8865182523
H  -0.1421949872  0.1311367266  1.6110136655
H   1.1586688066  0.9306537700  0.7048397568
C  -2.0195213395  0.1809330492 -0.7385680904
H  -2.3108322739  1.1199290811 -0.2774486234
H  -2.3951328683  0.1218748837 -1.7586553829
H  -2.3906971188 -0.6803567623 -0.1782465282
C  -0.4140614278  2.2206742868 -1.9551632775
H   0.3358273535  2.5176268679 -2.6862567943
H  -1.3949238808  2.4364806231 -2.3749306825
H  -0.2722072931  2.8051442585 -1.0558273720
O   2.4543656397 -1.0691423762 -0.4978418011
H   3.0879132576 -1.7748609067 -0.6673844902
H   2.3185586800 -0.0267306322 -1.3792086232
22
Iteration 16  Energy = -424.8252954638
C  -0.3562216832  0.0301014516 -0.5009049664
C  -0.2740248040  0.7608598722 -1.7336108953
H  -0.3191086434  0.1163878595 -2.6026903091
O   0.0084687738 -1.2782416323 -0.5332379466
H   1.0831947433 -1.3388010108 -0.4708040985
O   1.9785126791  0.7547232489 -2.0710177517
H   2.1851714796  0.4220065484 -2.9463104422
C   0.0824780464  0.7696558689  0.7620947281
H  -0.4246393398  1.7201106343  0.8866099493
H  -0.1422478142  0.1311745975  1.6109688474
H   1.1586415410  0.9305979893  0.7048222187
C  -2.0195239230  0.1809253947 -0.7385654234
H  -2.3108341005  1.1197127311 -0.2773640346
H  -2.3948536469  0.1218117831 -1.7583857514
H  -2.3910560513 -0.6804855975 -0.1780502090
C  -0.4140534942  2.2206764498 -1.9551692893
H   0.3358941156  2.5179061713 -2.6864142917
H  -1.3947893672  2.4363441399 -2.3749254707
H  -0.2721798143  2.8050969787 -1.0558492853
O   2.4543366469 -1.0691974072 -0.4977923885
H   3.0878790013 -1.7749086901 -0.6673342922
H   2.3184838798 -0.0266636505 -1.3793373467
22
Iteration 17  Energy = -424.8252916360
C  -0.3562052469  0.0300804176 -0.5009021372
C  -0.2740452909  0.7608626374 -1.7336033616
H  -0.3189225004  0.1163957695 -2.6027997973
O   0.0085028857 -1.2782204026 -0.5332501248
H   1.0829145891 -1.3386136086 -0.4708576449
O   1.9785227216  0.7547716574 -2.0710708595
H   2.1851037313  0.4220639318 -2.9462852354
C   0.0824736611  0.7696627637  0.7620929347
H  -0.4246397447  1.7201386652  0.8867015765
H  -0.1423006785  0.1312124796  1.6109240774
H   1.1586143260  0.9305421989  0.7048047842
C  -2.0195265652  0.1809177736 -0.7385628280
H  -2.3108358970  1.1194964969 -0.2772795301
H  -2.3945745378  0.1217487245 -1.7581162919
H  -2.3914148308 -0.6806144327 -0.1778539933
C  -0.4140456127  2.2206785934 -1.9551752774
H   0.3359608627  2.5181852607 -2.6865716967
H  -1.3946549286  2.4362077613 -2.3749202686
H  -0.2721523652  2.8050496957 -1.0558711771
O   2.4543077323 -1.0692524294 -0.4977429037
H   3.0878448461 -1.7749562248 -0.6672845505
H   2.3184093138 -0.0265974246 -1.3794656544
22
Iteration 18  Energy = -424.8252873252
C  -0.3561893473  0.0300597470 -0.5008993612
C  -0.2740649922  0.7608655100 -1.7335961655
H  -0.3187364859  0.1164038244 -2.6029095514
O   0.0085366092 -1.2781994322 -0.5332622703
H   1.0826302845 -1.3384260669 -0.4709116547
O   1.9785324365  0.7548196864 -2.0711235604
H   2.1850357431  0.4221212504 -2.9462598192
C   0.0824693267  0.7696695967  0.7620911477
H  -0.4246400751  1.7201666489  0.8867931469
H  -0.1423535782  0.1312504182  1.6108794000
H   1.1585871371  0.9304863388  0.7047872210
C  -2.0195290466  0.1809099856 -0.7385600157
H  -2.3108376573  1.1192802430 -0.2771950469
H  -2.3942953221  0.1216857361 -1.7578467281
H  -2.3917738150 -0.6807432515 -0.1776576820
C  -0.4140376593  2.2206807004 -1.9551812674
H   0.3360275397  2.5184645545 -2.6867290415
H  -1.3945205305  2.4360712210 -2.3749150423
H  -0.2721249773  2.8050023123 -1.0558929781
O   2.4542793618 -1.0693067684 -0.4976938267
H   3.0878107788 -1.7750033514 -0.6672357134
H   2.3183357307 -0.0265349237 -1.3795912871
22
Iteration 19  Energy = -424.8252823661
C  -0.3561726770  0.0300388316 -0.5008964921
C  -0.2740856700  0.7608682816 -1.7335885800
H  -0.3185506700  0.1164115950 -2.6030187676
O   0.0085707133 -1.2781782967 -0.5332744770
H   1.0823472146 -1.3382385341 -0.4709654679
O   1.9785425473  0.7548681069 -2.0711767876
H   2.1849683107  0.4221789590 -2.9462348918
C   0.0824650212  0.7696764770  0.7620894235
H  -0.4246404263  1.7201946342  0.8868846323
H  -0.1424065188  0.1312883225  1.6108347257
H   1.1585600249  0.9304305270  0.7047699950
C  -2.0195318097  0.1809024314 -0.7385575643
H  -2.3108393928  1.1190642420 -0.2771107116
H  -2.3940164382  0.1216227636 -1.7575776153
H  -2.3921322865 -0.6808720870 -0.1774616742
C  -0.4140298826  2.2206828044 -1.9551872075
H   0.3360942552  2.5187432145 -2.6868862615
H  -1.3943862426  2.4359350519 -2.3749098590
H  -0.2720975869  2.8049550218 -1.0559148264
O   2.4542506076 -1.0693617701 -0.4976441991
H   3.0877768192 -1.7750503995 -0.6671868738
H   2.3182616302 -0.0264702107 -1.3797187614
22
Iteration 20  Energy = -424.8252767564
C  -0.3561558853  0.0300179751 -0.5008936023
C  -0.2741064474  0.7608710549 -1.7335809670
H  -0.3183650201  0.1164192968 -2.6031278494
O   0.0086048137 -1.2781572086 -0.5332866973
H   1.0820626963 -1.3380509383 -0.4710194133
O   1.9785526934  0.7549165314 -2.0712300731
H   2.1849010362  0.4222368337 -2.9462101040
C   0.0824607556  0.7696833499  0.7620877344
H  -0.4246407513  1.7202225966  0.8869760465
H  -0.1424594986  0.1313262380  1.6107900989
H   1.1585329637  0.9303747045  0.7047528733
C  -2.0195346356  0.1808949134 -0.7385551884
H  -2.3108410934  1.1188483573 -0.2770264600
H  -2.3937376616  0.1215598364 -1.7573086772
H  -2.3924906032 -0.6810009246 -0.1772657706
C  -0.4140221587  2.2206848885 -1.9551931231
H   0.3361609558  2.5190216620 -2.6870433902
H  -1.3942520288  2.4357989869 -2.3749046841
H  -0.2720702246  2.8049077265 -1.0559366525
O   2.4542219332 -1.0694167591 -0.4975945019
H   3.0877429544 -1.7750972041 -0.6671384908
H   2.3181877651 -0.0264062639 -1.3798458146
22
Iteration 21  Energy = -424.8252705509
C  -0.3561389721  0.0299971779 -0.5008906915
C  -0.2741273245  0.7608738300 -1.7335733265
H  -0.3181795372  0.1164269301 -2.6032367969
O   0.0086389097 -1.2781361681 -0.5332989313
H   1.0817767342 -1.3378632824 -0.4710734898
O   1.9785628749  0.7549649591 -2.0712834166
H   2.1848339217  0.4222948756 -2.9461854558
C   0.0824565302  0.7696902154  0.7620860808
H  -0.4246410502  1.7202505361  0.8870673889
H  -0.1425125181  0.1313641650  1.6107455198
H   1.1585059537  0.9303188708  0.7047358563
C  -2.0195375248  0.1808874315 -0.7385528882
H  -2.3108427590  1.1186325889 -0.2769422921
H  -2.3934589919  0.1214969547 -1.7570399145
H  -2.3928487655 -0.6811297642 -0.1770699716
C  -0.4140144878  2.2206869527 -1.9551990143
H   0.3362276414  2.5192998973 -2.6872004280
H  -1.3941178893  2.4356630263 -2.3748995174
H  -0.2720428904  2.8048604261 -1.0559584563
O   2.4541933393 -1.0694717345 -0.4975447351
H   3.0877091811 -1.7751437687 -0.6670905643
H   2.3181141339 -0.0263430825 -1.3799724478
22
Iteration 22  Energy = -424.8252638887
C  -0.3561219337  0.0299764389 -0.5008877596
C  -0.2741483051  0.7608766063 -1.7335656570
H  -0.3179942234  0.1164344945 -2.6033456085
O   0.0086730028 -1.2781151747 -0.5333111792
H   1.0814893471 -1.3376755685 -0.4711276948
O   1.9785730930  0.7550133906 -2.0713368191
H   2.1847669687  0.4223530857 -2.9461609477
C   0.0824523451  0.7696970737  0.7620844627
H  -0.4246413232  1.7202784527  0.8871586588
H  -0.1425655777  0.1314021031  1.6107009880
H   1.1584789952  0.9302630262  0.7047189449
C  -2.0195404796  0.1808799872 -0.7385506656
H  -2.3108443881  1.1184169382 -0.2768582082
H  -2.3931804297  0.1214341195 -1.7567713296
H  -2.3932067711 -0.6812586062 -0.1768742782
C  -0.4140068702  2.2206889968 -1.9552048806
H   0.3362943120  2.5195779185 -2.6873573746
H  -1.3939838242  2.4355271710 -2.3748943584
H  -0.2720155836  2.8048131205 -1.0559802378
O   2.4541648239 -1.0695266979 -0.4974948979
H   3.0876754985 -1.7751900942 -0.6670430923
H   2.3180407350 -0.0262806579 -1.3800986675
22
Iteration 23  Energy = -424.8252567983
C  -0.3561047721  0.0299557603 -0.5008848064
C  -0.2741693858  0.7608793839 -1.7335579602
H  -0.3178090787  0.1164419919 -2.6034542887
O   0.0087070893 -1.2780942303 -0.5333234404
H   1.0812005109 -1.3374877969 -0.4711820310
O   1.9785833457  0.7550618219 -2.0713902765
H   2.1847001754  0.4224114645 -2.9461365762
C   0.0824482007  0.7697039244  0.7620828805
H  -0.4246415701  1.7203063462  0.8872498564
H  -0.1426186787  0.1314400531  1.6106565036
H   1.1584520880  0.9302071690  0.7047021377
C  -2.0195434998  0.1808725806 -0.7385485209
H  -2.3108459783  1.1182014027 -0.2767742068
H  -2.3929019680  0.1213713323 -1.7565029199
H  -2.3935646244 -0.6813874524 -0.1766786884
C  -0.4139993056  2.2206910206 -1.9552107220
H   0.3363609680  2.5198557315 -2.6875142324
H  -1.3938498317  2.4353914180 -2.3748892064
H  -0.2719883033  2.8047658080 -1.0560019963
O   2.4541363919 -1.0695816427 -0.4974449948
H   3.0876419025 -1.7752361833 -0.6669960781
H   2.3179675735 -0.0262190170 -1.3802244557
22
Iteration 24  Energy = -424.8252488755
C  -0.3560874852  0.0299351414 -0.5008818317
C  -0.2741905690  0.7608821625 -1.7335502350
H  -0.3176241046  0.1164494219 -2.6035628356
O   0.0087411707 -1.2780733343 -0.5333357153
H   1.0809102454 -1.3372999707 -0.4712364953
O   1.9785936345  0.7551102535 -2.0714437900
H   2.1846335448  0.4224700132 -2.9461123425
C   0.0824440971  0.7697107676  0.7620813344
H  -0.4246417911  1.7203342169  0.8873409811
H  -0.1426718213  0.1314780148  1.6106120665
H   1.1584252323  0.9301512996  0.7046854356
C  -2.0195465870  0.1808652124 -0.7385464549
H  -2.3108475292  1.1179859835 -0.2766902884
H  -2.3926236080  0.1213085931 -1.7562346874
H  -2.3939223237 -0.6815163028 -0.1764832031
C  -0.4139917944  2.2206930242 -1.9552165384
H   0.3364276092  2.5201333344 -2.6876710009
H  -1.3937159125  2.4352557685 -2.3748840614
H  -0.2719610494  2.8047184889 -1.0560237320
O   2.4541080414 -1.0696365706 -0.4973950245
H   3.0876083918 -1.7752820377 -0.6669495198
H   2.3178946465 -0.0261581488 -1.3803498201
22
Iteration 25  Energy = -424.8252405891
C  -0.3560700731  0.0299145827 -0.5008788355
C  -0.2742118541  0.7608849424 -1.7335424818
H  -0.3174393030  0.1164567851 -2.6036712496
O   0.0087752457 -1.2780524872 -0.5333480039
H   1.0806185545 -1.3371120935 -0.4712910866
O   1.9786039589  0.7551586843 -2.0714973586
H   2.1845670774  0.4225287331 -2.9460882466
C   0.0824400345  0.7697176033  0.7620798246
H  -0.4246419859  1.7203620645  0.8874320320
H  -0.1427250058  0.1315159882  1.6105676768
H   1.1583984285  0.9300954175  0.7046688390
C  -2.0195497416  0.1808578827 -0.7385444678
H  -2.3108490404  1.1177706814 -0.2766064531
H  -2.3923453500  0.1212459031 -1.7559666334
H  -2.3942798684 -0.6816451567 -0.1762878231
C  -0.4139843365  2.2206950072 -1.9552223294
H   0.3364942350  2.5204107268 -2.6878276799
H  -1.3935820669  2.4351202228 -2.3748789229
H  -0.2719338217  2.8046711628 -1.0560454445
O   2.4540797735 -1.0696914800 -0.4973449876
H   3.0875749637 -1.7753276594 -0.6669034190
H   2.3178219542 -0.0260980557 -1.3804747592
22
Iteration 26  Energy = -424.8252317562
C  -0.3560525318  0.0298940838 -0.5008758172
C  -0.2742332453  0.7608877226 -1.7335346990
H  -0.3172546742  0.1164640815 -2.6037795318
O   0.0088093146 -1.2780316891 -0.5333603060
H   1.0803254389 -1.3369241645 -0.4713458048
O   1.9786143199  0.7552071132 -2.0715509818
H   2.1845007737  0.4225876258 -2.9460642871
C   0.0824360133  0.7697244316  0.7620783515
H  -0.4246421551  1.7203898892  0.8875230095
H  -0.1427782337  0.1315539737  1.6105233339
H   1.1583716764  0.9300395220  0.7046523479
C  -2.0195529659  0.1808505935 -0.7385425625
H  -2.3108505085  1.1175554947 -0.2765226996
H  -2.3920671881  0.1211832635 -1.7556987573
H  -2.3946372599 -0.6817740171 -0.1760925475
C  -0.4139769324  2.2206969697 -1.9552280950
H   0.3365608468  2.5206879117 -2.6879842716
H  -1.3934482931  2.4349847799 -2.3748737902
H  -0.2719066188  2.8046238287 -1.0560671337
O   2.4540515885 -1.0697463696 -0.4972948854
H   3.0875416155 -1.7753730512 -0.6668577735
H   2.3177494963 -0.0260387423 -1.3805992722
22
Iteration 27  Energy = -424.8252222640
C  -0.3560348614  0.0298736451 -0.5008727768
C  -0.2742547420  0.7608905030 -1.7335268869
H  -0.3170702202  0.1164713119 -2.6038876820
O   0.0088433764 -1.2780109405 -0.5333726214
H   1.0800309064 -1.3367361883 -0.4714006480
O   1.9786247173  0.7552555392 -2.0716046587
H   2.1844346355  0.4226466912 -2.9460404638
C   0.0824320336  0.7697312522  0.7620769152
H  -0.4246422984  1.7204176909  0.8876139126
H  -0.1428315050  0.1315919712  1.6104790380
H   1.1583449763  0.9299836129  0.7046359627
C  -2.0195562605  0.1808433451 -0.7385407393
H  -2.3108519329  1.1173404247 -0.2764390283
H  -2.3917891231  0.1211206751 -1.7554310611
H  -2.3949944971 -0.6819028831 -0.1758973773
C  -0.4139695822  2.2206989116 -1.9552338349
H   0.3366274437  2.5209648884 -2.6881407752
H  -1.3933145919  2.4348494403 -2.3748686631
H  -0.2718794408  2.8045764864 -1.0560887992
O   2.4540234872 -1.0698012382 -0.4972447185
H   3.0875083447 -1.7754182158 -0.6668125835
H   2.3176772723 -0.0259802083 -1.3807233584
22
Iteration 28  Energy = -424.8252121858
C  -0.3560170605  0.0298532668 -0.5008697141
C  -0.2742763448  0.7608932835 -1.7335190451
H  -0.3168859416  0.1164784765 -2.6039957012
O   0.0088774312 -1.2779902416 -0.5333849503
H   1.0797349600 -1.3365481650 -0.4714556159
O   1.9786351511  0.7553039613 -2.0716583886
H   2.1843686628  0.4227059308 -2.9460167755
C   0.0824280956  0.7697380654  0.7620755160
H  -0.4246424159  1.7204454696  0.8877047413
H  -0.1428848207  0.1316299808  1.6104347888
H   1.1583183281  0.9299276897  0.7046196833
C  -2.0195596268  0.1808361381 -0.7385389992
H  -2.3108533123  1.1171254705 -0.2763554387
H  -2.3915111520  0.1210581388 -1.7551635442
H  -2.3953515819 -0.6820317559 -0.1757023117
C  -0.4139622858  2.2207008327 -1.9552395489
H   0.3366940261  2.5212416589 -2.6882971924
H  -1.3931809622  2.4347142028 -2.3748635410
H  -0.2718522869  2.8045291352 -1.0561104411
O   2.4539954696 -1.0698560847 -0.4971944878
H   3.0874751495 -1.7754631540 -0.6667678496
H   2.3176052831 -0.0259224580 -1.3808470158
22
Iteration 29  Energy = -424.8252015425
C  -0.3559991276  0.0298329493 -0.5008666286
C  -0.2742980551  0.7608960635 -1.7335111734
H  -0.3167018420  0.1164855760 -2.6041035893
O   0.0089114777 -1.2779695930 -0.5333972921
H   1.0794376048 -1.3363600987 -0.4715107070
O   1.9786456213  0.7553523771 -2.0717121694
H   2.1843028566  0.4227653447 -2.9459932217
C   0.0824241997  0.7697448708  0.7620741542
H  -0.4246425080  1.7204732250  0.8877954942
H  -0.1429381807  0.1316680024  1.6103905867
H   1.1582917323  0.9298717527  0.7046035099
C  -2.0195630660  0.1808289740 -0.7385373440
H  -2.3108546438  1.1169106341 -0.2762719310
H  -2.3912332743  0.1209956567 -1.7548962106
H  -2.3957085101 -0.6821606356 -0.1755073532
C  -0.4139550435  2.2207027329 -1.9552452367
H   0.3367605936  2.5215182215 -2.6884535220
H  -1.3930474051  2.4345790685 -2.3748584232
H  -0.2718251566  2.8044817748 -1.0561320587
O   2.4539675372 -1.0699109059 -0.4971441956
H   3.0874420277 -1.7755078676 -0.6667235721
H   2.3175335302 -0.0258654979 -1.3809702396
22
Iteration 30  Energy = -424.8251905148
C  -0.3559810610  0.0298126917 -0.5008635204
C  -0.2743198747  0.7608988430 -1.7335032709
H  -0.3165179191  0.1164926104 -2.6042113474
O   0.0089455173 -1.2779489940 -0.5334096474
H   1.0791388505 -1.3361719886 -0.4715659200
O   1.9786561290  0.7554007880 -2.0717660029
H   2.1842372186  0.4228249358 -2.9459698027
C   0.0824203458  0.7697516687  0.7620728300
H  -0.4246425745  1.7205009577  0.8878861725
H  -0.1429915866  0.1317060365  1.6103464307
H   1.1582651884  0.9298158006  0.7045874430
C  -2.0195665794  0.1808218528 -0.7385357740
H  -2.3108559280  1.1166959122 -0.2761885038
H  -2.3909554852  0.1209332279 -1.7546290563
H  -2.3960652885 -0.6822895241 -0.1753124987
C  -0.4139478554  2.2207046122 -1.9552508983
H   0.3368271470  2.5217945804 -2.6886097670
H  -1.3929139182  2.4344440357 -2.3748533097
H  -0.2717980492  2.8044344043 -1.0561536523
O   2.4539396883 -1.0699657041 -0.4970938399
H   3.0874089768 -1.7755523594 -0.6666797493
H   2.3174620099 -0.0258093197 -1.3810930380
22
Iteration 31  Energy = -424.8251787653
C  -0.3559628577  0.0297924945 -0.5008603888
C  -0.2743418065  0.7609016210 -1.7334953367
H  -0.3163341760  0.1164995803 -2.6043189757
O   0.0089795489 -1.2779284456 -0.5334220156
H   1.0788386978 -1.3359838378 -0.4716212544
O   1.9786666745  0.7554491917 -2.0718198875
H   2.1841717495  0.4228847050 -2.9459465178
C   0.0824165343  0.7697584591  0.7620715438
H  -0.4246426157  1.7205286674  0.8879767749
H  -0.1430450390  0.1317440833  1.6103023212
H   1.1582386968  0.9297598333  0.7045714828
C  -2.0195701686  0.1808147767 -0.7385342921
H  -2.3108571607  1.1164813064 -0.2761051571
H  -2.3906777832  0.1208708550 -1.7543620847
H  -2.3964219134 -0.6824184222 -0.1751177500
C  -0.4139407221  2.2207064704 -1.9552565333
H   0.3368936865  2.5220707351 -2.6887659272
H  -1.3927805019  2.4343091052 -2.3748481996
H  -0.2717709639  2.8043870233 -1.0561752216
O   2.4539119245 -1.0700204763 -0.4970434230
H   3.0873759933 -1.7755966324 -0.6666363814
H   2.3173907237 -0.0257539312 -1.3812154061
22
Iteration 32  Energy = -424.8251663029
C  -0.3559445190  0.0297723579 -0.5008572340
C  -0.2743638485  0.7609043980 -1.7334873716
H  -0.3161506119  0.1165064864 -2.6044264756
O   0.0090135720 -1.2779079477 -0.5334343970
H   1.0785371512 -1.3357956473 -0.4716767091
O   1.9786772573  0.7554975876 -2.0718738224
H   2.1841064491  0.4229446529 -2.9459233658
C   0.0824127652  0.7697652418  0.7620702957
H  -0.4246426314  1.7205563543  0.8880673021
H  -0.1430985385  0.1317821428  1.6102582575
H   1.1582122573  0.9297038500  0.7045556290
C  -2.0195738340  0.1808077451 -0.7385328976
H  -2.3108583425  1.1162668146 -0.2760218902
H  -2.3904001650  0.1208085377 -1.7540952936
H  -2.3967783897 -0.6825473306 -0.1749231053
C  -0.4139336430  2.2207083076 -1.9552621417
H   0.3369602121  2.5223466886 -2.6889220042
H  -1.3926471551  2.4341742752 -2.3748430926
H  -0.2717439003  2.8043396311 -1.0561967664
O   2.4538842461 -1.0700752216 -0.4969929453
H   3.0873430756 -1.7756406881 -0.6665934684
H   2.3173196713 -0.0256993341 -1.3813373428
22
Iteration 33  Energy = -424.8251535589
C  -0.3559260420  0.0297522820 -0.5008540554
C  -0.2743860036  0.7609071732 -1.7334793745
H  -0.3159672315  0.1165133290 -2.6045338461
O   0.0090475860 -1.2778875010 -0.5334467912
H   1.0782342210 -1.3356074222 -0.4717322819
O   1.9786878779  0.7555459737 -2.0719278062
H   2.1840413199  0.4230047796 -2.9459003463
C   0.0824090391  0.7697720167  0.7620690860
H  -0.4246426219  1.7205840180  0.8881577521
H  -0.1431520851  0.1318202148  1.6102142405
H   1.1581858706  0.9296478512  0.7045398825
C  -2.0195775774  0.1808007598 -0.7385315928
H  -2.3108594706  1.1160524402 -0.2759387038
H  -2.3901226324  0.1207462784 -1.7538286882
H  -2.3971347114 -0.6826762486 -0.1747285680
C  -0.4139266188  2.2207101234 -1.9552677231
H   0.3370267231  2.5226224376 -2.6890779964
H  -1.3925138792  2.4340395479 -2.3748379880
H  -0.2717168578  2.8042922278 -1.0562182863
O   2.4538566540 -1.0701299381 -0.4969424084
H   3.0873102213 -1.7756845287 -0.6665510101
H   2.3172488523 -0.0256455287 -1.3814588477
22
Iteration 34  Energy = -424.8251402192
C  -0.3559074205  0.0297322647 -0.5008508525
C  -0.2744082792  0.7609099457 -1.7334713423
H  -0.3157840357  0.1165201068 -2.6046410847
O   0.0090815937 -1.2778671039 -0.5334591984
H   1.0779299309 -1.3354191640 -0.4717879696
O   1.9786985393  0.7555943522 -2.0719818420
H   2.1839763656  0.4230650880 -2.9458774615
C   0.0824053559  0.7697787843  0.7620679152
H  -0.4246425875  1.7206116587  0.8882481247
H  -0.1432056797  0.1318582991  1.6101702693
H   1.1581595367  0.9295918369  0.7045242451
C  -2.0195814017  0.1807938229 -0.7385303808
H  -2.3108605439  1.1158381836 -0.2758555979
H  -2.3898451843  0.1206840778 -1.7535622705
H  -2.3974908774 -0.6828051774 -0.1745341392
C  -0.4139196504  2.2207119180 -1.9552732772
H   0.3370932202  2.5228979803 -2.6892339045
H  -1.3923806739  2.4339049245 -2.3748328858
H  -0.2716898359  2.8042448135 -1.0562397816
O   2.4538291445 -1.0701846298 -0.4968918093
H   3.0872774276 -1.7757281575 -0.6665090030
H   2.3171782612 -0.0255924965 -1.3815799360
22
Iteration 35  Energy = -424.8251261424
C  -0.3558886630  0.0297123105 -0.5008476261
C  -0.2744306636  0.7609127163 -1.7334632800
H  -0.3156010237  0.1165268240 -2.6047481990
O   0.0091155888 -1.2778467600 -0.5334716179
H   1.0776242453 -1.3352308726 -0.4718437763
O   1.9787092365  0.7556427160 -2.0720359215
H   2.1839115805  0.4231255761 -2.9458547049
C   0.0824017158  0.7697855437  0.7620667830
H  -0.4246425278  1.7206392763  0.8883384205
H  -0.1432593232  0.1318963966  1.6101263440
H   1.1581332551  0.9295358052  0.7045087129
C  -2.0195853046  0.1807869326 -0.7385292588
H  -2.3108615603  1.1156240409 -0.2757725704
H  -2.3895678124  0.1206219370 -1.7532960353
H  -2.3978468959 -0.6829341185 -0.1743398147
C  -0.4139127362  2.2207136911 -1.9552788041
H   0.3371597031  2.5231733262 -2.6893897310
H  -1.3922475373  2.4337704000 -2.3748277846
H  -0.2716628337  2.8041973857 -1.0562612512
O   2.4538017254 -1.0702392848 -0.4968411566
H   3.0872446921 -1.7757715744 -0.6664674527
H   2.3171079090 -0.0255402848 -1.3817005731
22
Iteration 36  Energy = -424.8251116505
C  -0.3558697648  0.0296924174 -0.5008443758
C  -0.2744531619  0.7609154848 -1.7334551853
H  -0.3154181970  0.1165334792 -2.6048551862
O   0.0091495742 -1.2778264677 -0.5334840501
H   1.0773171943 -1.3350425512 -0.4718996979
O   1.9787199716  0.7556910673 -2.0720900481
H   2.1838469684  0.4231862458 -2.9458320788
C   0.0823981191  0.7697922953  0.7620656896
H  -0.4246424427  1.7206668710  0.8884286387
H  -0.1433130158  0.1319345071  1.6100824645
H   1.1581070262  0.9294797565  0.7044932880
C  -2.0195892886  0.1807800899 -0.7385282284
H  -2.3108625198  1.1154100138 -0.2756896220
H  -2.3892905186  0.1205598562 -1.7530299851
H  -2.3982027650 -0.6830630714 -0.1741455959
C  -0.4139058767  2.2207154427 -1.9552843036
H   0.3372261717  2.5234484723 -2.6895454755
H  -1.3921144699  2.4336359762 -2.3748226845
H  -0.2716358512  2.8041499453 -1.0562826954
O   2.4537743928 -1.0702939080 -0.4967904468
H   3.0872120128 -1.7758147824 -0.6664263563
H   2.3170377898 -0.0254888695 -1.3818207770
22
Iteration 37  Energy = -424.8250965650
C  -0.3558507228  0.0296725856 -0.5008411009
C  -0.2744757778  0.7609182499 -1.7334470571
H  -0.3152355574  0.1165400733 -2.6049620477
O   0.0091835488 -1.2778062280 -0.5334964944
H   1.0770087746 -1.3348542012 -0.4719557343
O   1.9787307451  0.7557394042 -2.0721442199
H   2.1837825294  0.4232470987 -2.9458095819
C   0.0823945659  0.7697990391  0.7620646357
H  -0.4246423328  1.7206944427  0.8885187790
H  -0.1433667588  0.1319726307  1.6100386304
H   1.1580808499  0.9294236901  0.7044779703
C  -2.0195933555  0.1807732973 -0.7385272930
H  -2.3108634183  1.1151961015 -0.2756067512
H  -2.3890132984  0.1204978380 -1.7527641211
H  -2.3985584844 -0.6831920386 -0.1739514834
C  -0.4138990725  2.2207171726 -1.9552897754
H   0.3372926269  2.5237234206 -2.6897011393
H  -1.3919814705  2.4335016528 -2.3748175847
H  -0.2716088869  2.8041024909 -1.0563041139
O   2.4537471486 -1.0703484962 -0.4967396822
H   3.0871793867 -1.7758577842 -0.6663857131
H   2.3169679043 -0.0254382608 -1.3819405417
22
Iteration 38  Energy = -424.8250807501
C  -0.3558315348  0.0296528146 -0.5008378012
C  -0.2744985130  0.7609210114 -1.7334388945
H  -0.3150531055  0.1165466065 -2.6050687835
O   0.0092175132 -1.2777860404 -0.5335089509
H   1.0766989983 -1.3346658242 -0.4720118833
O   1.9787415579  0.7557877263 -2.0721984371
H   2.1837182652  0.4233081356 -2.9457872140
C   0.0823910565  0.7698057750  0.7620636214
H  -0.4246421979  1.7207219915  0.8886088415
H  -0.1434205527  0.1320107675  1.6099948415
H   1.1580547264  0.9293676057  0.7044627605
C  -2.0195975068  0.1807665555 -0.7385264534
H  -2.3108642549  1.1149823039 -0.2755239581
H  -2.3887361492  0.1204358828 -1.7524984437
H  -2.3989140557 -0.6833210205 -0.1737574769
C  -0.4138923237  2.2207188809 -1.9552952192
H   0.3373590686  2.5239981718 -2.6898567233
H  -1.3918485388  2.4333674295 -2.3748124847
H  -0.2715819401  2.8040550224 -1.0563255066
O   2.4537199919 -1.0704030497 -0.4966888625
H   3.0871468116 -1.7759005822 -0.6663455222
H   2.3168982504 -0.0253884533 -1.3820598722
22
Iteration 39  Energy = -424.8250644490
C  -0.3558122011  0.0296331049 -0.5008344767
C  -0.2745213671  0.7609237693 -1.7334306979
H  -0.3148708438  0.1165530795 -2.6051753938
O   0.0092514669 -1.2777659053 -0.5335214196
H   1.0763878749 -1.3344774239 -0.4720681432
O   1.9787524098  0.7558360322 -2.0722526985
H   2.1836541767  0.4233693575 -2.9457649750
C   0.0823875909  0.7698125029  0.7620626467
H  -0.4246420383  1.7207495173  0.8886988250
H  -0.1434743975  0.1320489174  1.6099510980
H   1.1580286557  0.9293115035  0.7044476585
C  -2.0196017431  0.1807598647 -0.7385257102
H  -2.3108650287  1.1147686221 -0.2754412429
H  -2.3884590711  0.1203739918 -1.7522329549
H  -2.3992694781 -0.6834500166 -0.1735635777
C  -0.4138856303  2.2207205673 -1.9553006348
H   0.3374254962  2.5242727252 -2.6900122271
H  -1.3917156755  2.4332333068 -2.3748073838
H  -0.2715550109  2.8040075396 -1.0563468732
O   2.4536929228 -1.0704575668 -0.4966379893
H   3.0871142859 -1.7759431772 -0.6663057839
H   2.3168288298 -0.0253394506 -1.3821787654
22
Iteration 40  Energy = -424.8250476812
C  -0.3557927190  0.0296134564 -0.5008311269
C  -0.2745443423  0.7609265227 -1.7334224663
H  -0.3146887731  0.1165594928 -2.6052818797
O   0.0092854092 -1.2777458233 -0.5335339001
H   1.0760754053 -1.3342890012 -0.4721245135
O   1.9787633008  0.7558843205 -2.0723070029
H   2.1835902646  0.4234307643 -2.9457428629
C   0.0823841696  0.7698192229  0.7620617121
H  -0.4246418538  1.7207770201  0.8887887295
H  -0.1435282944  0.1320870808  1.6099073996
H   1.1580026380  0.9292553826  0.7044326642
C  -2.0196060660  0.1807532266 -0.7385250655
H  -2.3108657367  1.1145550552 -0.2753586046
H  -2.3881820600  0.1203121666 -1.7519676550
H  -2.3996247521 -0.6835790288 -0.1733697856
C  -0.4138789926  2.2207222318 -1.9553060221
H   0.3374919104  2.5245470828 -2.6901676519
H  -1.3915828795  2.4330992843 -2.3748022816
H  -0.2715280980  2.8039600417 -1.0563682135
O   2.4536659427 -1.0705120455 -0.4965870638
H   3.0870818061 -1.7759855728 -0.6662664973
H   2.3167596412 -0.0252912557 -1.3822972202
22
Iteration 41  Energy = -424.8250302706
C  -0.3557730857  0.0295938684 -0.5008277517
C  -0.2745674422  0.7609292713 -1.7334141983
H  -0.3145068942  0.1165658463 -2.6053882402
O   0.0093193411 -1.2777257939 -0.5335463924
H   1.0757616040 -1.3341005586 -0.4721809917
O   1.9787742328  0.7559325914 -2.0723613512
H   2.1835265313  0.4234923584 -2.9457208790
C   0.0823807924  0.7698259350  0.7620608178
H  -0.4246416447  1.7208045000  0.8888785547
H  -0.1435822440  0.1321252574  1.6098637459
H   1.1579766734  0.9291992427  0.7044177788
C  -2.0196104775  0.1807466423 -0.7385245208
H  -2.3108663782  1.1143416035 -0.2752760428
H  -2.3879051151  0.1202504081 -1.7517025450
H  -2.3999798782 -0.6837080576 -0.1731761011
C  -0.4138724110  2.2207238744 -1.9553113807
H   0.3375583113  2.5248212443 -2.6903229983
H  -1.3914501505  2.4329653625 -2.3747971776
H  -0.2715012009  2.8039125286 -1.0563895275
O   2.4536390500 -1.0705664870 -0.4965360853
H   3.0870493698 -1.7760277716 -0.6662276604
H   2.3166906824 -0.0252438617 -1.3824152428
22
Iteration 42  Energy = -424.8250121700
C  -0.3557533017  0.0295743419 -0.5008243509
C  -0.2745906653  0.7609320147 -1.7334058946
H  -0.3143252083  0.1165721416 -2.6054944782
O   0.0093532612 -1.2777058180 -0.5335588963
H   1.0754464676 -1.3339120972 -0.4722375778
O   1.9787852047  0.7559808422 -2.0724157409
H   2.1834629764  0.4235541398 -2.9456990207
C   0.0823774596  0.7698326391  0.7620599640
H  -0.4246414112  1.7208319571  0.8889683005
H  -0.1436362470  0.1321634478  1.6098201371
H   1.1579507615  0.9291430836  0.7044030015
C  -2.0196149780  0.1807401125 -0.7385240769
H  -2.3108669507  1.1141282657 -0.2751935567
H  -2.3876282312  0.1201887177 -1.7514376241
H  -2.4003348595 -0.6838371043 -0.1729825233
C  -0.4138658852  2.2207254949 -1.9553167105
H   0.3376246990  2.5250952130 -2.6904782676
H  -1.3913174877  2.4328315398 -2.3747920710
H  -0.2714743188  2.8038649993 -1.0564108148
O   2.4536122467 -1.0706208874 -0.4964850567
H   3.0870169751 -1.7760697751 -0.6661892737
H   2.3166219560 -0.0251972819 -1.3825328241
22
Iteration 43  Energy = -424.8249936794
C  -0.3557333693  0.0295548782 -0.5008209249
C  -0.2746140077  0.7609347534 -1.7333975567
H  -0.3141437157  0.1165783803 -2.6056005959
O   0.0093871673 -1.2776858968 -0.5335714113
H   1.0751299960 -1.3337236191 -0.4722942715
O   1.9787962146  0.7560290704 -2.0724701687
H   2.1833995976  0.4236161073 -2.9456772854
C   0.0823741715  0.7698393348  0.7620591506
H  -0.4246411528  1.7208593912  0.8890579666
H  -0.1436903038  0.1322016519  1.6097765727
H   1.1579249026  0.9290869042  0.7043883310
C  -2.0196195675  0.1807336364 -0.7385237330
H  -2.3108674532  1.1139150415 -0.2751111458
H  -2.3873514063  0.1201270960 -1.7511728921
H  -2.4006896979 -0.6839661689 -0.1727890511
C  -0.4138594145  2.2207270933 -1.9553220115
H   0.3376910732  2.5253689917 -2.6906334605
H  -1.3911848907  2.4326978149 -2.3747869612
H  -0.2714474512  2.8038174529 -1.0564320749
O   2.4535855349 -1.0706752426 -0.4964339810
H   3.0869846194 -1.7761115846 -0.6661513390
H   2.3165534634 -0.0251515251 -1.3826499565
22
Iteration 44  Energy = -424.8249744683
C  -0.3557132800  0.0295354749 -0.5008174726
C  -0.2746374802  0.7609374857 -1.7333891804
H  -0.3139624192  0.1165845607 -2.6057065897
O   0.0094210628 -1.2776660288 -0.5335839377
H   1.0748122148 -1.3335351269 -0.4723510689
O   1.9788072667  0.7560772780 -2.0725246383
H   2.1833364007  0.4236782645 -2.9456556761
C   0.0823709281  0.7698460225  0.7620583781
H  -0.4246408701  1.7208868025  0.8891475525
H  -0.1437444151  0.1322398694  1.6097330526
H   1.1578990968  0.9290307049  0.7043737700
C  -2.0196242497  0.1807272176 -0.7385234939
H  -2.3108678834  1.1137019321 -0.2750288100
H  -2.3870746399  0.1200655449 -1.7509083527
H  -2.4010443898 -0.6840952529 -0.1725956875
C  -0.4138530006  2.2207286694 -1.9553272830
H   0.3377574344  2.5256425764 -2.6907885769
H  -1.3910523596  2.4325641906 -2.3747818478
H  -0.2714205971  2.8037698900 -1.0564533081
O   2.4535589109 -1.0707295572 -0.4963828551
H   3.0869523001 -1.7761532042 -0.6661138512
H   2.3164851993 -0.0251065725 -1.3827666565
22
Iteration 45  Energy = -424.8249547270
C  -0.3556930356  0.0295161329 -0.5008139940
C  -0.2746610794  0.7609402117 -1.7333807670
H  -0.3137813197  0.1165906845 -2.6058124620
O   0.0094549455 -1.2776462151 -0.5335964751
H   1.0744931245 -1.3333466231 -0.4724079690
O   1.9788183593  0.7561254624 -2.0725791467
H   2.1832733848  0.4237406107 -2.9456341904
C   0.0823677297  0.7698527021  0.7620576467
H  -0.4246405629  1.7209141909  0.8892370574
H  -0.1437985813  0.1322781007  1.6096895767
H   1.1578733443  0.9289744853  0.7043593176
C  -2.0196290248  0.1807208559 -0.7385233592
H  -2.3108682395  1.1134889375 -0.2749465489
H  -2.3867979286  0.1200040657 -1.7506440063
H  -2.4013989374 -0.6842243562 -0.1724024321
C  -0.4138466427  2.2207302233 -1.9553325252
H   0.3378237824  2.5259159699 -2.6909436177
H  -1.3909198943  2.4324306656 -2.3747767299
H  -0.2713937559  2.8037223096 -1.0564745140
O   2.4535323769 -1.0707838273 -0.4963316817
H   3.0869200154 -1.7761946350 -0.6660768120
H   2.3164171648 -0.0250624318 -1.3828829176
22
Iteration 46  Energy = -424.8249343757
C  -0.3556726342  0.0294968524 -0.5008104891
C  -0.2746848076  0.7609429309 -1.7333723158
H  -0.3136004180  0.1165967525 -2.6059182140
O   0.0094888157 -1.2776264557 -0.5336090233
H   1.0741727292 -1.3331581086 -0.4724649712
O   1.9788294931  0.7561736224 -2.0726336931
H   2.1832105501  0.4238031468 -2.9456128274
C   0.0823645763  0.7698593734  0.7620569566
H  -0.4246402315  1.7209415565  0.8893264818
H  -0.1438528035  0.1323163460  1.6096461449
H   1.1578476448  0.9289182448  0.7043449739
C  -2.0196338940  0.1807145525 -0.7385233307
H  -2.3108685196  1.1132760565 -0.2748643617
H  -2.3865212688  0.1199426595 -1.7503798525
H  -2.4017533429 -0.6843534804 -0.1722092843
C  -0.4138403411  2.2207317547 -1.9553377377
H   0.3378901175  2.5261891742 -2.6910985841
H  -1.3907874935  2.4322972393 -2.3747716071
H  -0.2713669269  2.8036747113 -1.0564956924
O   2.4535059329 -1.0708380514 -0.4962804622
H   3.0868877624 -1.7762358798 -0.6660402195
H   2.3163493606 -0.0250191079 -1.3829987375
22
Iteration 47  Energy = -424.8249135283
C  -0.3556520737  0.0294776332 -0.5008069574
C  -0.2747086665  0.7609456425 -1.7333638260
H  -0.3134197152  0.1166027652 -2.6060238464
O   0.0095226728 -1.2776067511 -0.5336215818
H   1.0738510345 -1.3329695847 -0.4725220743
O   1.9788406684  0.7562217565 -2.0726882764
H   2.1831478980  0.4238658736 -2.9455915860
C   0.0823614682  0.7698660364  0.7620563082
H  -0.4246398758  1.7209688993  0.8894158252
H  -0.1439070822  0.1323546052  1.6096027569
H   1.1578219984  0.9288619829  0.7043307389
C  -2.0196388591  0.1807083088 -0.7385234101
H  -2.3108687212  1.1130632886 -0.2747822476
H  -2.3862446572  0.1198813279 -1.7501158918
H  -2.4021076073 -0.6844826267 -0.1720162443
C  -0.4138340960  2.2207332638 -1.9553429202
H   0.3379564401  2.5264621908 -2.6912534771
H  -1.3906551569  2.4321639114 -2.3747664786
H  -0.2713401090  2.8036270942 -1.0565168431
O   2.4534795795 -1.0708922280 -0.4962291980
H   3.0868555389 -1.7762769405 -0.6660040733
H   2.3162817863 -0.0249766034 -1.3831141153
22
Iteration 48  Energy = -424.8248919920
C  -0.3556313529  0.0294584755 -0.5008033989
C  -0.2747326575  0.7609483464 -1.7333552971
H  -0.3132392122  0.1166087231 -2.6061293595
O   0.0095565168 -1.2775871015 -0.5336341508
H   1.0735280492 -1.3327810542 -0.4725792762
O   1.9788518856  0.7562698641 -2.0727428962
H   2.1830854294  0.4239287917 -2.9455704657
C   0.0823584054  0.7698726911  0.7620557014
H  -0.4246394960  1.7209962194  0.8895050872
H  -0.1439614181  0.1323928784  1.6095594124
H   1.1577964051  0.9288056992  0.7043166130
C  -2.0196439211  0.1807021256 -0.7385235986
H  -2.3108688433  1.1128506341 -0.2747002062
H  -2.3859680921  0.1198200720 -1.7498521255
H  -2.4024617311 -0.6846117956 -0.1718233125
C  -0.4138279075  2.2207347503 -1.9553480727
H   0.3380227501  2.5267350197 -2.6914082972
H  -1.3905228841  2.4320306820 -2.3747613438
H  -0.2713133017  2.8035794583 -1.0565379659
O   2.4534533168 -1.0709463562 -0.4961778895
H   3.0868233423 -1.7763178202 -0.6659683721
H   2.3162144398 -0.0249349154 -1.3832290533
22
Iteration 49  Energy = -424.8248698456
C  -0.3556104706  0.0294393792 -0.5007998134
C  -0.2747567806  0.7609510420 -1.7333467291
H  -0.3130589104  0.1166146274 -2.6062347549
O   0.0095903474 -1.2775675072 -0.5336467298
H   1.0732037799 -1.3325925179 -0.4726365760
O   1.9788631443  0.7563179435 -2.0727975507
H   2.1830231435  0.4239919008 -2.9455494647
C   0.0823553882  0.7698793374  0.7620551365
H  -0.4246390921  1.7210235169  0.8895942678
H  -0.1440158116  0.1324311659  1.6095161112
H   1.1577708649  0.9287493934  0.7043025956
C  -2.0196490813  0.1806960037 -0.7385238972
H  -2.3108688832  1.1126380924 -0.2746182368
H  -2.3856915691  0.1197588932 -1.7495885538
H  -2.4028157161 -0.6847409882 -0.1716304885
C  -0.4138217755  2.2207362142 -1.9553531948
H   0.3380890475  2.5270076636 -2.6915630454
H  -1.3903906746  2.4318975503 -2.3747562019
H  -0.2712865040  2.8035318027 -1.0565590606
O   2.4534271449 -1.0710004342 -0.4961265387
H   3.0867911714 -1.7763585194 -0.6659331157
H   2.3161473230 -0.0248940490 -1.3833435481
22
Iteration 50  Energy = -424.8248471090
C  -0.3555894256  0.0294203446 -0.5007962007
C  -0.2747810378  0.7609537290 -1.7333381212
H  -0.3128788111  0.1166204785 -2.6063400327
O   0.0096241642 -1.2775479685 -0.5336593187
H   1.0728782344 -1.3324039788 -0.4726939720
O   1.9788744454  0.7563659936 -2.0728522393
H   2.1829610427  0.4240552019 -2.9455285827
C   0.0823524166  0.7698859751  0.7620546137
H  -0.4246386642  1.7210507916  0.8896833664
H  -0.1440702633  0.1324694675  1.6094728534
H   1.1577453779  0.9286930653  0.7042886872
C  -2.0196543406  0.1806899440 -0.7385243071
H  -2.3108688399  1.1124256637 -0.2745363390
H  -2.3854150875  0.1196977929 -1.7493251776
H  -2.4031695628 -0.6848702047 -0.1714377730
C  -0.4138157001  2.2207376555 -1.9553582863
H   0.3381553325  2.5272801220 -2.6917177220
H  -1.3902585282  2.4317645168 -2.3747510525
H  -0.2712597154  2.8034841273 -1.0565801269
O   2.4534010641 -1.0710544604 -0.4960751463
H   3.0867590230 -1.7763990412 -0.6658983032
H   2.3160804341 -0.0248540041 -1.3834576000
22
Iteration 51  Energy = -424.8248239047
C  -0.3555682172  0.0294013717 -0.5007925608
C  -0.2748054294  0.7609564071 -1.7333294732
H  -0.3126989145  0.1166262773 -2.6064451940
O   0.0096579670 -1.2775284855 -0.5336719174
H   1.0725514181 -1.3322154385 -0.4727514627
O   1.9788857889  0.7564140135 -2.0729069615
H   2.1828991277  0.4241186958 -2.9455078190
C   0.0823494907  0.7698926044  0.7620541330
H  -0.4246382121  1.7210780437  0.8897723831
H  -0.1441247739  0.1325077835  1.6094296384
H   1.1577199440  0.9286367141  0.7042748877
C  -2.0196597001  0.1806839472 -0.7385248292
H  -2.3108687123  1.1122133471 -0.2744545122
H  -2.3851386439  0.1196367719 -1.7490619965
H  -2.4035232739 -0.6849994461 -0.1712451655
C  -0.4138096814  2.2207390740 -1.9553633471
H   0.3382216051  2.5275523971 -2.6918723282
H  -1.3901264443  2.4316315808 -2.3747458950
H  -0.2712329352  2.8034364317 -1.0566011647
O   2.4533750746 -1.0711084342 -0.4960237132
H   3.0867268947 -1.7764393885 -0.6658639329
H   2.3160137730 -0.0248147822 -1.3835712087
22
Iteration 52  Energy = -424.8247999271
C  -0.3555468419  0.0293824604 -0.5007888933
C  -0.2748299587  0.7609590752 -1.7333207838
H  -0.3125192225  0.1166320242 -2.6065502393
O   0.0096917555 -1.2775090588 -0.5336845252
H   1.0722233374 -1.3320268984 -0.4728090468
O   1.9788971752  0.7564620015 -2.0729617156
H   2.1828373991  0.4241823822 -2.9454871717
C   0.0823466109  0.7698992251  0.7620536948
H  -0.4246377360  1.7211052733  0.8898613173
H  -0.1441793443  0.1325461138  1.6093864663
H   1.1576945633  0.9285803395  0.7042611973
C  -2.0196651618  0.1806780154 -0.7385254664
H  -2.3108684963  1.1120011428 -0.2743727555
H  -2.3848622343  0.1195758326 -1.7487990127
H  -2.4038768486 -0.6851287139 -0.1710526668
C  -0.4138037196  2.2207404696 -1.9553683769
H   0.3382878659  2.5278244899 -2.6920268648
H  -1.3899944223  2.4314987423 -2.3747407284
H  -0.2712061621  2.8033887150 -1.0566221738
O   2.4533491770 -1.0711623532 -0.4959722414
H   3.0866947846 -1.7764795628 -0.6658300038
H   2.3159473391 -0.0247763849 -1.3836843737
22
Iteration 53  Energy = -424.8247755487
C  -0.3555252996  0.0293636106 -0.5007851980
C  -0.2748546258  0.7609617333 -1.7333120533
H  -0.3123397363  0.1166377202 -2.6066551694
O   0.0097255296 -1.2774896883 -0.5336971422
H   1.0718940037 -1.3318383610 -0.4728667222
O   1.9789086046  0.7565099568 -2.0730165011
H   2.1827758577  0.4242462617 -2.9454666406
C   0.0823437771  0.7699058371  0.7620532993
H  -0.4246372361  1.7211324802  0.8899501687
H  -0.1442339746  0.1325844585  1.6093433369
H   1.1576692358  0.9285239413  0.7042476161
C  -2.0196707268  0.1806721487 -0.7385262188
H  -2.3108681911  1.1117890510 -0.2742910688
H  -2.3845858563  0.1195149756 -1.7485362270
H  -2.4042302886 -0.6852580084 -0.1708602773
C  -0.4137978146  2.2207418425 -1.9553733754
H   0.3383541143  2.5280964008 -2.6921813321
H  -1.3898624622  2.4313660014 -2.3747355522
H  -0.2711793957  2.8033409770 -1.0566431538
O   2.4533233711 -1.0712162170 -0.4959207314
H   3.0866626907 -1.7765195664 -0.6657965148
H   2.3158811323 -0.0247388103 -1.3837970962
22
Iteration 54  Energy = -424.8247504968
C  -0.3555035886  0.0293448226 -0.5007814748
C  -0.2748794324  0.7609643806 -1.7333032807
H  -0.3121604568  0.1166433661 -2.6067599849
O   0.0097592891 -1.2774703745 -0.5337097680
H   1.0715634214 -1.3316498278 -0.4729244879
O   1.9789200774  0.7565578779 -2.0730713167
H   2.1827145044  0.4243103347 -2.9454462243
C   0.0823409894  0.7699124403  0.7620529466
H  -0.4246367122  1.7211596647  0.8900389372
H  -0.1442886655  0.1326228176  1.6093002499
H   1.1576439615  0.9284675191  0.7042341441
C  -2.0196763959  0.1806663486 -0.7385270883
H  -2.3108677950  1.1115770712 -0.2742094512
H  -2.3843095078  0.1194542031 -1.7482736398
H  -2.4045835951 -0.6853873304 -0.1706679973
C  -0.4137919667  2.2207431924 -1.9553783425
H   0.3384203508  2.5283681310 -2.6923357309
H  -1.3897305635  2.4312333579 -2.3747303657
H  -0.2711526352  2.8032932174 -1.0566641046
O   2.4532976572 -1.0712700235 -0.4958691849
H   3.0866306102 -1.7765594020 -0.6657634646
H   2.3158151517 -0.0247020627 -1.3839093741
22
Iteration 55  Energy = -424.8247248479
C  -0.3554817048  0.0293260958 -0.5007777231
C  -0.2749043829  0.7609670161 -1.7332944646
H  -0.3119813858  0.1166489621 -2.6068646865
O   0.0097930339 -1.2774511177 -0.5337224021
H   1.0712315989 -1.3314613004 -0.4729823423
O   1.9789315947  0.7566057637 -2.0731261619
H   2.1826533404  0.4243746013 -2.9454259217
C   0.0823382481  0.7699190348  0.7620526372
H  -0.4246361648  1.7211868266  0.8901276223
H  -0.1443434180  0.1326611913  1.6092572053
H   1.1576187405  0.9284110724  0.7042207817
C  -2.0196821718  0.1806606172 -0.7385280779
H  -2.3108673038  1.1113652033 -0.2741279021
H  -2.3840331837  0.1193935169 -1.7480112530
H  -2.4049367681 -0.6855166817 -0.1704758272
C  -0.4137861762  2.2207445193 -1.9553832779
H   0.3384865758  2.5286396815 -2.6924900626
H  -1.3895987255  2.4311008120 -2.3747251678
H  -0.2711258790  2.8032454354 -1.0566850261
O   2.4532720358 -1.0713237720 -0.4958176029
H   3.0865985414 -1.7765990720 -0.6657308509
H   2.3157493961 -0.0246661394 -1.3840212103
22
Iteration 56  Energy = -424.8246985737
C  -0.3554596503  0.0293074311 -0.5007739434
C  -0.2749294743  0.7609696402 -1.7332856058
H  -0.3118025233  0.1166545097 -2.6069692760
O   0.0098267633 -1.2774319183 -0.5337350444
H   1.0708985399 -1.3312727805 -0.4730402841
O   1.9789431556  0.7566536127 -2.0731810348
H   2.1825923652  0.4244390616 -2.9454057315
C   0.0823355532  0.7699256203  0.7620523707
H  -0.4246355935  1.7212139661  0.8902162242
H  -0.1443982324  0.1326995796  1.6092142025
H   1.1575935724  0.9283546007  0.7042075282
C  -2.0196880542  0.1806549540 -0.7385291867
H  -2.3108667179  1.1111534465 -0.2740464206
H  -2.3837568824  0.1193329177 -1.7477490652
H  -2.4052898116 -0.6856460624 -0.1702837662
C  -0.4137804426  2.2207458231 -1.9553881813
H   0.3385527890  2.5289110546 -2.6926443277
H  -1.3894669477  2.4309683625 -2.3747199583
H  -0.2710991269  2.8031976308 -1.0567059179
O   2.4532465071 -1.0713774599 -0.4957659873
H   3.0865664822 -1.7766385777 -0.6656986742
H   2.3156838667 -0.0246310478 -1.3841325985
22
Iteration 57  Energy = -424.8246716347
C  -0.3554374196  0.0292888277 -0.5007701346
C  -0.2749547132  0.7609722512 -1.7332767021
H  -0.3116238717  0.1166600092 -2.6070737530
O   0.0098604775 -1.2774127765 -0.5337476944
H   1.0705642523 -1.3310842703 -0.4730983116
O   1.9789547617  0.7567014236 -2.0732359351
H   2.1825315815  0.4245037160 -2.9453856526
C   0.0823329049  0.7699321969  0.7620521480
H  -0.4246349987  1.7212410831  0.8903047422
H  -0.1444531098  0.1327379827  1.6091712418
H   1.1575684576  0.9282981036  0.7041943845
C  -2.0196940460  0.1806493621 -0.7385304190
H  -2.3108660328  1.1109418009 -0.2739650059
H  -2.3834805997  0.1192724084 -1.7474870794
H  -2.4056427238 -0.6857754746 -0.1700918162
C  -0.4137747667  2.2207471038 -1.9553930524
H   0.3386189914  2.5291822501 -2.6927985271
H  -1.3893352294  2.4308360105 -2.3747147362
H  -0.2710723775  2.8031498029 -1.0567267799
O   2.4532210718 -1.0714310865 -0.4957143389
H   3.0865344298 -1.7766779228 -0.6656669318
H   2.3156185611 -0.0245967838 -1.3842435434
22
Iteration 58  Energy = -424.8246443266
C  -0.3554150153  0.0292702863 -0.5007662975
C  -0.2749800962  0.7609748497 -1.7332677546
H  -0.3114454307  0.1166654618 -2.6071781192
O   0.0098941760 -1.2773936925 -0.5337603522
H   1.0702287468 -1.3308957710 -0.4731564229
O   1.9789664124  0.7567491956 -2.0732908614
H   2.1824709891  0.4245685638 -2.9453656839
C   0.0823303031  0.7699387643  0.7620519687
H  -0.4246343801  1.7212681778  0.8903931764
H  -0.1445080501  0.1327764004  1.6091283226
H   1.1575433958  0.9282415808  0.7041813499
C  -2.0197001467  0.1806438403 -0.7385317731
H  -2.3108652493  1.1107302660 -0.2738836579
H  -2.3832043337  0.1192119888 -1.7472252944
H  -2.4059955092 -0.6859049175 -0.1698999758
C  -0.4137691480  2.2207483613 -1.9553978912
H   0.3386851821  2.5294532701 -2.6929526615
H  -1.3892035708  2.4307037549 -2.3747095010
H  -0.2710456307  2.8031019516 -1.0567476118
O   2.4531957292 -1.0714846504 -0.4956626590
H   3.0865023825 -1.7767171086 -0.6656356225
H   2.3155534798 -0.0245633488 -1.3843540432
22
Iteration 59  Energy = -424.8246160799
C  -0.3553924331  0.0292518069 -0.5007624314
C  -0.2750056276  0.7609774341 -1.7332587616
H  -0.3112672054  0.1166708678 -2.6072823732
O   0.0099278580 -1.2773746673 -0.5337730167
H   1.0698920323 -1.3307072878 -0.4732146163
O   1.9789781082  0.7567969259 -2.0733458115
H   2.1824105894  0.4246336040 -2.9453458238
C   0.0823277482  0.7699453226  0.7620518332
H  -0.4246337380  1.7212952497  0.8904815249
H  -0.1445630533  0.1328148321  1.6090854455
H   1.1575183876  0.9281850328  0.7041684249
C  -2.0197063589  0.1806383917 -0.7385332530
H  -2.3108643628  1.1105188456 -0.2738023767
H  -2.3829280848  0.1191516631 -1.7469637169
H  -2.4063481603 -0.6860343913 -0.1697082498
C  -0.4137635869  2.2207495956 -1.9554026972
H   0.3387513610  2.5297241103 -2.6931067289
H  -1.3890719731  2.4305715986 -2.3747042519
H  -0.2710188853  2.8030540771 -1.0567684131
O   2.4531704809 -1.0715381486 -0.4956109504
H   3.0864703387 -1.7767561372 -0.6656047452
H   2.3154886230 -0.0245307464 -1.3844640945
22
Iteration 60  Energy = -424.8245874543
C  -0.3553696749  0.0292333894 -0.5007585365
C  -0.2750313055  0.7609800053 -1.7332497239
H  -0.3110891893  0.1166762288 -2.6073865199
O   0.0099615244 -1.2773556999 -0.5337856887
H   1.0695541088 -1.3305188160 -0.4732728909
O   1.9789898492  0.7568446158 -2.0734007868
H   2.1823503814  0.4246988394 -2.9453260716
C   0.0823252400  0.7699518717  0.7620517414
H  -0.4246330721  1.7213222998  0.8905697907
H  -0.1446181215  0.1328532794  1.6090426089
H   1.1574934320  0.9281284571  0.7041556089
C  -2.0197126824  0.1806330148 -0.7385348568
H  -2.3108633742  1.1103075315 -0.2737211594
H  -2.3826518416  0.1190914287 -1.7467023368
H  -2.4067006941 -0.6861638997 -0.1695166302
C  -0.4137580828  2.2207508066 -1.9554074706
H   0.3388175294  2.5299947824 -2.6932607357
H  -1.3889404319  2.4304395359 -2.3746989881
H  -0.2709921403  2.8030061774 -1.0567891844
O   2.4531453255 -1.0715915826 -0.4955592117
H   3.0864382959 -1.7767950112 -0.6655742981
H   2.3154239878 -0.0244989724 -1.3845737035
22
Iteration 61  Energy = -424.8245580729
C  -0.3553467340  0.0292150333 -0.5007546120
C  -0.2750571371  0.7609825609 -1.7332406388
H  -0.3109113887  0.1166815450 -2.6074905579
O   0.0099951744 -1.2773367917 -0.5337983668
H   1.0692149844 -1.3303303600 -0.4733312456
O   1.9790016365  0.7568922622 -2.0734557845
H   2.1822903673  0.4247642680 -2.9453064251
C   0.0823227788  0.7699584114  0.7620516939
H  -0.4246323828  1.7213493277  0.8906579716
H  -0.1446732550  0.1328917417  1.6089998136
H   1.1574685295  0.9280718545  0.7041429024
C  -2.0197191205  0.1806277140 -0.7385365905
H  -2.3108622772  1.1100963278 -0.2736400061
H  -2.3823756030  0.1190312911 -1.7464411622
H  -2.4070531023 -0.6862934434 -0.1693251228
C  -0.4137526366  2.2207519942 -1.9554122107
H   0.3388836877  2.5302652818 -2.6934146801
H  -1.3888089484  2.4303075700 -2.3746937086
H  -0.2709653943  2.8029582527 -1.0568099248
O   2.4531202645 -1.0716449486 -0.4955074465
H   3.0864062521 -1.7768337331 -0.6655442788
H   2.3153595753 -0.0244680322 -1.3846828654
22
Iteration 62  Energy = -424.8245282261
C  -0.3553236129  0.0291967395 -0.5007506582
C  -0.2750831191  0.7609851014 -1.7332315075
H  -0.3107338032  0.1166868177 -2.6075944885
O   0.0100288077 -1.2773179427 -0.5338110512
H   1.0688746702 -1.3301419222 -0.4733896777
O   1.9790134695  0.7569398643 -2.0735108037
H   2.1822305470  0.4248298898 -2.9452868835
C   0.0823203647  0.7699649416  0.7620516906
H  -0.4246316700  1.7213763333  0.8907460676
H  -0.1447284537  0.1329302188  1.6089570591
H   1.1574436800  0.9280152245  0.7041303051
C  -2.0197256730  0.1806224883 -0.7385384524
H  -2.3108610726  1.1098852343 -0.2735589166
H  -2.3820993683  0.1189712499 -1.7461801923
H  -2.4074053879 -0.6864230217 -0.1691337266
C  -0.4137472477  2.2207531584 -1.9554169175
H   0.3389498349  2.5305356099 -2.6935685624
H  -1.3886775228  2.4301757003 -2.3746884128
H  -0.2709386470  2.8029103027 -1.0568306342
O   2.4530952978 -1.0716982458 -0.4954556555
H   3.0863742051 -1.7768723048 -0.6655146870
H   2.3152953848 -0.0244379240 -1.3847915812
22
Iteration 63  Energy = -424.8244975974
C  -0.3553003094  0.0291785076 -0.5007466751
C  -0.2751092546  0.7609876263 -1.7332223288
H  -0.3105564335  0.1166920475 -2.6076983124
O   0.0100624241 -1.2772991530 -0.5338237416
H   1.0685331719 -1.3299535037 -0.4734481861
O   1.9790253493  0.7569874212 -2.0735658440
H   2.1821709227  0.4248957052 -2.9452674459
C   0.0823179976  0.7699714624  0.7620517315
H  -0.4246309335  1.7214033169  0.8908340787
H  -0.1447837186  0.1329687109  1.6089143451
H   1.1574188835  0.9279585663  0.7041178172
C  -2.0197323411  0.1806173389 -0.7385404444
H  -2.3108597585  1.1096742497 -0.2734778897
H  -2.3818231335  0.1189113071 -1.7459194272
H  -2.4077575535 -0.6865526361 -0.1689424418
C  -0.4137419164  2.2207542992 -1.9554215908
H   0.3390159716  2.5308057681 -2.6937223839
H  -1.3885461542  2.4300439266 -2.3746831003
H  -0.2709118975  2.8028623273 -1.0568513126
O   2.4530704255 -1.0717514734 -0.4954038396
H   3.0863421525 -1.7769107294 -0.6654855201
H   2.3152314143 -0.0244086472 -1.3848998520
22
Iteration 64  Energy = -424.8244664089
C  -0.3552768229  0.0291603380 -0.5007426625
C  -0.2751355434  0.7609901349 -1.7332131026
H  -0.3103792806  0.1166972354 -2.6078020304
O   0.0100960234 -1.2772804230 -0.5338364376
H   1.0681904984 -1.3297651062 -0.4735067686
O   1.9790372755  0.7570349314 -2.0736209037
H   2.1821114940  0.4249617133 -2.9452481106
C   0.0823156778  0.7699779735  0.7620518169
H  -0.4246301732  1.7214302785  0.8909220048
H  -0.1448390499  0.1330072179  1.6088716716
H   1.1573941401  0.9279018798  0.7041054384
C  -2.0197391261  0.1806122666 -0.7385425673
H  -2.3108583330  1.1094633743 -0.2733969253
H  -2.3815468948  0.1188514638 -1.7456588681
H  -2.4081096005 -0.6866822871 -0.1687512686
C  -0.4137366426  2.2207554164 -1.9554262304
H   0.3390820977  2.5310757579 -2.6938761452
H  -1.3884148423  2.4299122488 -2.3746777701
H  -0.2708851450  2.8028143259 -1.0568719595
O   2.4530456474 -1.0718046295 -0.4953520006
H   3.0863100939 -1.7769490073 -0.6654567775
H   2.3151676647 -0.0243802028 -1.3850076766
22
Iteration 65  Energy = -424.8244346345
C  -0.3552531499  0.0291422302 -0.5007386200
C  -0.2751619899  0.7609926262 -1.7332038275
H  -0.3102023463  0.1167023822 -2.6079056436
O   0.0101296054 -1.2772617532 -0.5338491386
H   1.0678466551 -1.3295767310 -0.4735654241
O   1.9790492491  0.7570823937 -2.0736759821
H   2.1820522622  0.4250279138 -2.9452288759
C   0.0823134052  0.7699844749  0.7620519469
H  -0.4246293894  1.7214572181  0.8910098452
H  -0.1448944485  0.1330457401  1.6088290383
H   1.1573694495  0.9278451644  0.7040931690
C  -2.0197460299  0.1806072738 -0.7385448243
H  -2.3108567920  1.1092526078 -0.2733160220
H  -2.3812706482  0.1187917228 -1.7453985165
H  -2.4084615296 -0.6868119765 -0.1685602078
C  -0.4137314265  2.2207565100 -1.9554308359
H   0.3391482139  2.5313455798 -2.6940298473
H  -1.3882835865  2.4297806669 -2.3746724212
H  -0.2708583880  2.8027662977 -1.0568925748
O   2.4530209645 -1.0718577126 -0.4953001399
H   3.0862780263 -1.7769871421 -0.6654284560
H   2.3151041348 -0.0243525919 -1.3851150555
22
Iteration 66  Energy = -424.8244024867
C  -0.3552292896  0.0291241847 -0.5007345474
C  -0.2751885949  0.7609950998 -1.7331945031
H  -0.3100256310  0.1167074888 -2.6080091529
O   0.0101631697 -1.2772431438 -0.5338618443
H   1.0675016487 -1.3293883799 -0.4736241510
O   1.9790612704  0.7571298065 -2.0737310776
H   2.1819932283  0.4250943060 -2.9452097402
C   0.0823111800  0.7699909664  0.7620521218
H  -0.4246285822  1.7214841358  0.8910976001
H  -0.1449499149  0.1330842774  1.6087864449
H   1.1573448119  0.9277884195  0.7040810087
C  -2.0197530533  0.1806023610 -0.7385472162
H  -2.3108551341  1.1090419496 -0.2732351791
H  -2.3809943902  0.1187320855 -1.7451383724
H  -2.4088133430 -0.6869417050 -0.1683692594
C  -0.4137262681  2.2207575801 -1.9554354071
H   0.3392143202  2.5316152357 -2.6941834912
H  -1.3881523862  2.4296491808 -2.3746670531
H  -0.2708316258  2.8027182427 -1.0569131583
O   2.4529963771 -1.0719107211 -0.4952482592
H   3.0862459480 -1.7770251362 -0.6654005537
H   2.3150408231 -0.0243258138 -1.3852219885
22
Iteration 67  Energy = -424.8243693170
C  -0.3552052362  0.0291062002 -0.5007304441
C  -0.2752153655  0.7609975541 -1.7331851266
H  -0.3098491374  0.1167125552 -2.6081125570
O   0.0101967173 -1.2772245950 -0.5338745541
H   1.0671554925 -1.3292000549 -0.4736829468
O   1.9790733416  0.7571771698 -2.0737861910
H   2.1819343954  0.4251608904 -2.9451907038
C   0.0823090023  0.7699974481  0.7620523421
H  -0.4246277517  1.7215110315  0.8911852686
H  -0.1450054500  0.1331228297  1.6087438915
H   1.1573202273  0.9277316451  0.7040689591
C  -2.0197601993  0.1805975316 -0.7385497475
H  -2.3108533553  1.1088314010 -0.2731543963
H  -2.3807181180  0.1186725549 -1.7448784401
H  -2.4091650386 -0.6870714740 -0.1681784261
C  -0.4137211683  2.2207586266 -1.9554399435
H   0.3392804170  2.5318847235 -2.6943370771
H  -1.3880212415  2.4295177924 -2.3746616647
H  -0.2708048570  2.8026701608 -1.0569337099
O   2.4529718845 -1.0719636556 -0.4951963585
H   3.0862138568 -1.7770629928 -0.6653730672
H   2.3149777274 -0.0242998616 -1.3853284821
22
Iteration 68  Energy = -424.8243357563
C  -0.3551809986  0.0290882800 -0.5007263114
C  -0.2752422900  0.7609999904 -1.7331757027
H  -0.3096728637  0.1167175847 -2.6082158618
O   0.0102302442 -1.2772061083 -0.5338872678
H   1.0668081769 -1.3290117570 -0.4737418120
O   1.9790854584  0.7572244791 -2.0738413165
H   2.1818757586  0.4252276641 -2.9451717616
C   0.0823068719  0.7700039193  0.7620526069
H  -0.4246268972  1.7215379053  0.8912728513
H  -0.1450610535  0.1331613974  1.6087013780
H   1.1572956952  0.9276748401  0.7040570167
C  -2.0197674653  0.1805927822 -0.7385524134
H  -2.3108514570  1.1086209593 -0.2730736722
H  -2.3804418275  0.1186131304 -1.7446187148
H  -2.4095166245 -0.6872012832 -0.1679877041
C  -0.4137161252  2.2207596493 -1.9554444456
H   0.3393465037  2.5321540502 -2.6944906062
H  -1.3878901515  2.4293864976 -2.3746562555
H  -0.2707780817  2.8026220509 -1.0569542288
O   2.4529474902 -1.0720165088 -0.4951444434
H   3.0861817515 -1.7771007117 -0.6653459992
H   2.3149148531 -0.0242747578 -1.3854345177
22
Iteration 69  Energy = -424.8243014761
C  -0.3551565675  0.0290704214 -0.5007221482
C  -0.2752693796  0.7610024068 -1.7331662266
H  -0.3094968131  0.1167225761 -2.6083190637
O   0.0102637536 -1.2771876828 -0.5338999849
H   1.0664597285 -1.3288234882 -0.4738007426
O   1.9790976244  0.7572717360 -2.0738964566
H   2.1818173230  0.4252946271 -2.9451529143
C   0.0823047892  0.7700103805  0.7620529171
H  -0.4246260194  1.7215647573  0.8913603472
H  -0.1451167262  0.1331999798  1.6086589038
H   1.1572712162  0.9276180047  0.7040451839
C  -2.0197748555  0.1805881172 -0.7385552197
H  -2.3108494346  1.1084106268 -0.2729930068
H  -2.3801655167  0.1185538154 -1.7443592023
H  -2.4098680964 -0.6873311338 -0.1677970973
C  -0.4137111401  2.2207606484 -1.9554489125
H   0.3394125808  2.5324232115 -2.6946440786
H  -1.3877591165  2.4292552998 -2.3746508245
H  -0.2707512983  2.8025739133 -1.0569747153
O   2.4529231910 -1.0720692844 -0.4950925118
H   3.0861496306 -1.7771382962 -0.6653193435
H   2.3148521943 -0.0242504802 -1.3855401120
22
Iteration 70  Energy = -424.8242666450
C  -0.3551319447  0.0290526255 -0.5007179547
C  -0.2752966328  0.7610048032 -1.7331566993
H  -0.3093209846  0.1167275311 -2.6084221655
O   0.0102972441 -1.2771693191 -0.5339127054
H   1.0661101447 -1.3286352496 -0.4738597378
O   1.9791098395  0.7573189389 -2.0739516101
H   2.1817590881  0.4253617801 -2.9451341607
C   0.0823027541  0.7700168313  0.7620532724
H  -0.4246251177  1.7215915877  0.8914477571
H  -0.1451724689  0.1332385775  1.6086164687
H   1.1572467899  0.9275611378  0.7040334601
C  -2.0197823696  0.1805835361 -0.7385581660
H  -2.3108472879  1.1082004010 -0.2729123988
H  -2.3798891811  0.1184946103 -1.7440998997
H  -2.4102194606 -0.6874610270 -0.1676066037
C  -0.4137062127  2.2207616237 -1.9554533443
H   0.3394786485  2.5326922115 -2.6947974959
H  -1.3876281353  2.4291241975 -2.3746453713
H  -0.2707245059  2.8025257475 -1.0569951690
O   2.4528989883 -1.0721219801 -0.4950405655
H   3.0861174916 -1.7771757491 -0.6652930996
H   2.3147897508 -0.0242270362 -1.3856452603
22
Iteration 71  Energy = -424.8242310340
C  -0.3551071276  0.0290348929 -0.5007137305
C  -0.2753240524  0.7610071783 -1.7331471196
H  -0.3091453870  0.1167324505 -2.6085251644
O   0.0103307141 -1.2771510186 -0.5339254278
H   1.0657594441 -1.3284470495 -0.4739187944
O   1.9791221037  0.7573660839 -2.0740067726
H   2.1817010575  0.4254291188 -2.9451154986
C   0.0823007667  0.7700232713  0.7620536733
H  -0.4246241924  1.7216183955  0.8915350769
H  -0.1452282801  0.1332771891  1.6085740742
H   1.1572224171  0.9275042411  0.7040218458
C  -2.0197900095  0.1805790418 -0.7385612555
H  -2.3108450121  1.1079902898 -0.2728318498
H  -2.3796128253  0.1184355208 -1.7438408191
H  -2.4105707039 -0.6875909601 -0.1674162318
C  -0.4137013434  2.2207625751 -1.9554577404
H   0.3395447052  2.5329610410 -2.6949508535
H  -1.3874972120  2.4289931956 -2.3746398948
H  -0.2706977042  2.8024775546 -1.0570155890
O   2.4528748842 -1.0721745913 -0.4949886090
H   3.0860853338 -1.7772130716 -0.6652672655
H   2.3147275247 -0.0242044277 -1.3857499582
22
Iteration 72  Energy = -424.8241948843
C  -0.3550821158  0.0290172228 -0.5007094757
C  -0.2753516387  0.7610095323 -1.7331374876
H  -0.3089700071  0.1167373360 -2.6086280692
O   0.0103641652 -1.2771327802 -0.5339381530
H   1.0654076102 -1.3282588759 -0.4739779143
O   1.9791344174  0.7574131734 -2.0740619470
H   2.1816432266  0.4254966464 -2.9450969251
C   0.0822988268  0.7700297009  0.7620541196
H  -0.4246232432  1.7216451827  0.8916223131
H  -0.1452841642  0.1333158174  1.6085317172
H   1.1571980961  0.9274473100  0.7040103395
C  -2.0197977757  0.1805746334 -0.7385644876
H  -2.3108426073  1.1077802778 -0.2727513539
H  -2.3793364276  0.1183765428 -1.7435819418
H  -2.4109218545 -0.6877209418 -0.1672259676
C  -0.4136965313  2.2207635028 -1.9554621011
H   0.3396107549  2.5332297210 -2.6951041628
H  -1.3873663373  2.4288622844 -2.3746343942
H  -0.2706708908  2.8024293309 -1.0570359764
O   2.4528508769 -1.0722271205 -0.4949366399
H   3.0860531534 -1.7772502680 -0.6652418382
H   2.3146655109 -0.0241826522 -1.3858542127
22
Iteration 73  Energy = -424.8231696797
C  -0.3550569074  0.0289996156 -0.5007051902
C  -0.2753793940  0.7610118641 -1.7331278021
H  -0.3087948527  0.1167421879 -2.6087308764
O   0.0103975965 -1.2771146049 -0.5339508800
H   1.0650546628 -1.3280707366 -0.4740370941
O   1.9791467812  0.7574602049 -2.0741171307
H   2.1815855992  0.4255643599 -2.9450784393
C   0.0822969348  0.7700361197  0.7620546114
H  -0.4246222701  1.7216719484  0.8917094623
H  -0.1453401198  0.1333544610  1.6084893987
H   1.1571738277  0.9273903459  0.7039989418
C  -2.0198056698  0.1805703128 -0.7385678649
H  -2.3108400706  1.1075703720 -0.2726709128
H  -2.3790599938  0.1183176808 -1.7433232782
H  -2.4112729015 -0.6878509691 -0.1670358183
C  -0.4136917770  2.2207644065 -1.9554664260
H   0.3396767959  2.5334982426 -2.6952574193
H  -1.3872355151  2.4287314687 -2.3746288686
H  -0.2706440654  2.8023810779 -1.0570563304
O   2.4528269673 -1.0722795648 -0.4948846612
H   3.0860209500 -1.7772873395 -0.6652168155
H   2.3146037105 -0.0241617098 -1.3859580211
22
Iteration 74  Energy = -424.8231322660
C  -0.3550317238  0.0289821047 -0.5007008492
C  -0.2754075010  0.7610142459 -1.7331181121
H  -0.3086200328  0.1167470157 -2.6088336006
O   0.0104310612 -1.2770964863 -0.5339636786
H   1.0647004367 -1.3278829159 -0.4740961278
O   1.9791594354  0.7575071240 -2.0741723825
H   2.1815292829  0.4256334746 -2.9450603938
C   0.0822950752  0.7700425451  0.7620551386
H  -0.4246211693  1.7216987833  0.8917965614
H  -0.1453964079  0.1333931001  1.6084470129
H   1.1571496172  0.9273332648  0.7039876819
C  -2.0198137066  0.1805660034 -0.7385712463
H  -2.3108375767  1.1073605785 -0.2725905298
H  -2.3787838457  0.1182586991 -1.7430646020
H  -2.4116235143 -0.6879810754 -0.1668453356
C  -0.4136871209  2.2207653029 -1.9554707092
H   0.3397429138  2.5337665094 -2.6954105544
H  -1.3871047598  2.4286007947 -2.3746233052
H  -0.2706172092  2.8023326379 -1.0570765852
O   2.4528031823 -1.0723318987 -0.4948327016
H   3.0859883651 -1.7773248233 -0.6651916578
H   2.3145424474 -0.0241419090 -1.3860613860
22
Iteration 75  Energy = -424.8230941197
C  -0.3550063445  0.0289646579 -0.5006964776
C  -0.2754357784  0.7610166047 -1.7331083687
H  -0.3084454402  0.1167518116 -2.6089362294
O   0.0104645043 -1.2770784318 -0.5339764785
H   1.0643451082 -1.3276951317 -0.4741552182
O   1.9791721404  0.7575539820 -2.0742276406
H   2.1814731802  0.4257027754 -2.9450424317
C   0.0822932633  0.7700489591  0.7620557113
H  -0.4246200434  1.7217255973  0.8918835732
H  -0.1454527688  0.1334317545  1.6084046652
H   1.1571254594  0.9272761479  0.7039765293
C  -2.0198218721  0.1805617832 -0.7385747736
H  -2.3108349492  1.1071508899 -0.2725101988
H  -2.3785076593  0.1181998345 -1.7428061382
H  -2.4119740270 -0.6881112280 -0.1666549672
C  -0.4136825223  2.2207661755 -1.9554749563
H   0.3398090232  2.5340346201 -2.6955636377
H  -1.3869740564  2.4284702165 -2.3746177158
H  -0.2705903398  2.8022841679 -1.0570968059
O   2.4527794973 -1.0723841441 -0.4947807356
H   3.0859557530 -1.7773621874 -0.6651669020
H   2.3144813961 -0.0241229409 -1.3861643063
22
Iteration 76  Energy = -424.8230552855
C  -0.3549807654  0.0289472745 -0.5006920749
C  -0.2754642310  0.7610189397 -1.7330985703
H  -0.3082710702  0.1167565769 -2.6090387669
O   0.0104979269 -1.2770604412 -0.5339892796
H   1.0639886712 -1.3275073788 -0.4742143660
O   1.9791848976  0.7576007791 -2.0742829062
H   2.1814172911  0.4257722637 -2.9450245508
C   0.0822914990  0.7700553619  0.7620563297
H  -0.4246188926  1.7217523911  0.8919705005
H  -0.1455092051  0.1334704256  1.6083623542
H   1.1571013532  0.9272189932  0.7039654840
C  -2.0198301687  0.1805576542 -0.7385784499
H  -2.3108321849  1.1069412990 -0.2724299163
H  -2.3782314205  0.1181410875 -1.7425478799
H  -2.4123244525 -0.6882414327 -0.1664647078
C  -0.4136779812  2.2207670242 -1.9554791668
H   0.3398751266  2.5343025845 -2.6957166753
H  -1.3868433999  2.4283397299 -2.3746120994
H  -0.2705634548  2.8022356657 -1.0571169927
O   2.4527559121 -1.0724363014 -0.4947287630
H   3.0859231113 -1.7773994359 -0.6651425442
H   2.3144205539 -0.0241048051 -1.3862667858
22
Iteration 77  Energy = -424.8230158600
C  -0.3549550116  0.0289299647 -0.5006876443
C  -0.2754928258  0.7610212534 -1.7330887297
H  -0.3080969320  0.1167613198 -2.6091412220
O   0.0105313137 -1.2770425224 -0.5340020786
H   1.0636310952 -1.3273196699 -0.4742735742
O   1.9791976929  0.7576474982 -2.0743381574
H   2.1813616029  0.4258419213 -2.9450067362
C   0.0822897822  0.7700617512  0.7620569923
H  -0.4246177158  1.7217791626  0.8920573382
H  -0.1455657117  0.1335091119  1.6083200835
H   1.1570772986  0.9271618027  0.7039545369
C  -2.0198385879  0.1805536103 -0.7385822647
H  -2.3108292824  1.1067318145 -0.2723496841
H  -2.3779551374  0.1180824638 -1.7422898348
H  -2.4126747809 -0.6883716809 -0.1662745631
C  -0.4136734926  2.2207678486 -1.9554833416
H   0.3399412182  2.5345704015 -2.6958696593
H  -1.3867127971  2.4282093338 -2.3746064543
H  -0.2705365562  2.8021871320 -1.0571371422
O   2.4527324422 -1.0724883438 -0.4946768061
H   3.0858904403 -1.7774365650 -0.6651185917
H   2.3143599446 -0.0240875840 -1.3863687515
22
Iteration 78  Energy = -424.8229757882
C  -0.3549290314  0.0289127097 -0.5006831797
C  -0.2755216302  0.7610235382 -1.7330788203
H  -0.3079230281  0.1167660257 -2.6092435690
O   0.0105646909 -1.2770246627 -0.5340148792
H   1.0632725036 -1.3271320032 -0.4743328250
O   1.9792105534  0.7576941651 -2.0743934281
H   2.1813061479  0.4259117718 -2.9449890128
C   0.0822881135  0.7700681306  0.7620577025
H  -0.4246165151  1.7218059139  0.8921440862
H  -0.1456222942  0.1335478123  1.6082778494
H   1.1570532982  0.9271045766  0.7039437070
C  -2.0198471495  0.1805496678 -0.7385862429
H  -2.3108262368  1.1065224403 -0.2722695046
H  -2.3776788110  0.1180239641 -1.7420320174
H  -2.4130249997 -0.6885019798 -0.1660845430
C  -0.4136690668  2.2207686493 -1.9554874780
H   0.3400073039  2.5348380486 -2.6960225921
H  -1.3865822467  2.4280790441 -2.3746007816
H  -0.2705096398  2.8021385698 -1.0571572586
O   2.4527090595 -1.0725403154 -0.4946248306
H   3.0858577385 -1.7774735842 -0.6650950253
H   2.3142995226 -0.0240711060 -1.3864703435
22
Iteration 79  Energy = -424.8229351415
C  -0.3549028500  0.0288955193 -0.5006786842
C  -0.2755506118  0.7610257972 -1.7330688549
H  -0.3077493549  0.1167707038 -2.6093458241
O   0.0105980451 -1.2770068688 -0.5340276791
H   1.0629128377 -1.3269443784 -0.4743921255
O   1.9792234662  0.7577407658 -2.0744487004
H   2.1812509106  0.4259818030 -2.9449713653
C   0.0822864926  0.7700744980  0.7620584585
H  -0.4246152891  1.7218326444  0.8922307461
H  -0.1456789511  0.1335865280  1.6082356529
H   1.1570293501  0.9270473128  0.7039329838
C  -2.0198558444  0.1805458195 -0.7385903732
H  -2.3108230485  1.1063131700 -0.2721893739
H  -2.3774024305  0.1179655892 -1.7417744166
H  -2.4133751248 -0.6886323291 -0.1658946394
C  -0.4136646982  2.2207694260 -1.9554915771
H   0.3400733818  2.5351055437 -2.6961754759
H  -1.3864517465  2.4279488506 -2.3745950795
H  -0.2704827062  2.8020899765 -1.0571773398
O   2.4526857786 -1.0725921926 -0.4945728551
H   3.0858250040 -1.7775104928 -0.6650718506
H   2.3142393088 -0.0240554568 -1.3865714927
22
Iteration 80  Energy = -424.8228938366
C  -0.3548764641  0.0288783932 -0.5006741574
C  -0.2755797750  0.7610280293 -1.7330588321
H  -0.3075759141  0.1167753548 -2.6094479880
O   0.0106313764 -1.2769891411 -0.5340404778
H   1.0625521045 -1.3267567970 -0.4744514743
O   1.9792364325  0.7577872990 -2.0745039735
H   2.1811958927  0.4260520134 -2.9449537920
C   0.0822849194  0.7700808534  0.7620592607
H  -0.4246140379  1.7218593542  0.8923173176
H  -0.1457356834  0.1336252590  1.6081934938
H   1.1570054543  0.9269900109  0.7039223680
C  -2.0198646747  0.1805420674 -0.7385946585
H  -2.3108197138  1.1061040038 -0.2721092909
H  -2.3771259920  0.1179073419 -1.7415170343
H  -2.4137251568 -0.6887627302 -0.1657048537
C  -0.4136603874  2.2207701787 -1.9554956386
H   0.3401394525  2.5353728868 -2.6963283118
H  -1.3863212962  2.4278187539 -2.3745893471
H  -0.2704557536  2.8020413517 -1.0571973854
O   2.4526625996 -1.0726439742 -0.4945208813
H   3.0857922354 -1.7775472932 -0.6650490648
H   2.3141793019 -0.0240406351 -1.3866722005
22
Iteration 81  Energy = -424.8228518679
C  -0.3548498727  0.0288613318 -0.5006695993
C  -0.2756091211  0.7610302338 -1.7330487511
H  -0.3074027061  0.1167799800 -2.6095500619
O   0.0106646839 -1.2769714801 -0.5340532746
H   1.0621903086 -1.3265692595 -0.4745108701
O   1.9792494525  0.7578337631 -2.0745592456
H   2.1811410941  0.4261224006 -2.9449362900
C   0.0822833940  0.7700871965  0.7620601091
H  -0.4246127615  1.7218860435  0.8924038004
H  -0.1457924916  0.1336640051  1.6081513716
H   1.1569816106  0.9269326701  0.7039118591
C  -2.0198736414  0.1805384128 -0.7385991002
H  -2.3108162306  1.1058949409 -0.2720292544
H  -2.3768494908  0.1178492243 -1.7412598712
H  -2.4140750982 -0.6888931844 -0.1655151862
C  -0.4136561339  2.2207709073 -1.9554996623
H   0.3402055165  2.5356400798 -2.6964811006
H  -1.3861908950  2.4276887536 -2.3745835837
H  -0.2704287812  2.8019926949 -1.0572173953
O   2.4526395234 -1.0726956580 -0.4944689114
H   3.0857594309 -1.7775839878 -0.6650266653
H   2.3141195005 -0.0240266411 -1.3867724658
22
Iteration 82  Energy = -424.8228092367
C  -0.3548230756  0.0288443354 -0.5006650100
C  -0.2756386503  0.7610324103 -1.7330386121
H  -0.3072297316  0.1167845803 -2.6096520465
O   0.0106979677 -1.2769538861 -0.5340660692
H   1.0618274602 -1.3263817676 -0.4745703105
O   1.9792625262  0.7578801575 -2.0746145160
H   2.1810865165  0.4261929635 -2.9449188580
C   0.0822819164  0.7700935271  0.7620610035
H  -0.4246114594  1.7219127122  0.8924901946
H  -0.1458493759  0.1337027664  1.6081092864
H   1.1569578192  0.9268752900  0.7039014570
C  -2.0198827451  0.1805348559 -0.7386036987
H  -2.3108125972  1.1056859814 -0.2719492642
H  -2.3765729240  0.1177912375 -1.7410029283
H  -2.4144249506 -0.6890236918 -0.1653256371
C  -0.4136519377  2.2207716119 -1.9555036480
H   0.3402715733  2.5359071232 -2.6966338428
H  -1.3860605429  2.4275588501 -2.3745777884
H  -0.2704017883  2.8019440063 -1.0572373692
O   2.4526165500 -1.0727472435 -0.4944169461
H   3.0857265894 -1.7776205789 -0.6650046487
H   2.3140599035 -0.0240134699 -1.3868722914
22
Iteration 83  Energy = -424.8227659724
C  -0.3547960729  0.0288274043 -0.5006603895
C  -0.2756683634  0.7610345583 -1.7330284148
H  -0.3070569910  0.1167891571 -2.6097539430
O   0.0107312265 -1.2769363596 -0.5340788613
H   1.0614635637 -1.3261943232 -0.4746297937
O   1.9792756538  0.7579264806 -2.0746697830
H   2.1810321603  0.4262636997 -2.9449014936
C   0.0822804865  0.7700998452  0.7620619441
H  -0.4246101315  1.7219393606  0.8925764996
H  -0.1459063365  0.1337415429  1.6080672380
H   1.1569340801  0.9268178698  0.7038911613
C  -2.0198919861  0.1805313975 -0.7386084549
H  -2.3108088122  1.1054771249 -0.2718693191
H  -2.3762962882  0.1177333834 -1.7407462061
H  -2.4147747161 -0.6891542532 -0.1651362072
C  -0.4136477986  2.2207722924 -1.9555075956
H   0.3403376231  2.5361740181 -2.6967865388
H  -1.3859302398  2.4274290436 -2.3745719605
H  -0.2703747739  2.8018952854 -1.0572573067
O   2.4525936806 -1.0727987286 -0.4943649875
H   3.0856937090 -1.7776570692 -0.6649830133
H   2.3140005099 -0.0240011219 -1.3869716765
22
Iteration 84  Energy = -424.8227219513
C  -0.3547688602  0.0288105385 -0.5006557374
C  -0.2756982649  0.7610366762 -1.7330181575
H  -0.3068844859  0.1167937113 -2.6098557531
O   0.0107644602 -1.2769189015 -0.5340916497
H   1.0610986221 -1.3260069256 -0.4746893192
O   1.9792888357  0.7579727304 -2.0747250448
H   2.1809780252  0.4263346066 -2.9448841935
C   0.0822791044  0.7701061503  0.7620629311
H  -0.4246087781  1.7219659885  0.8926627157
H  -0.1459633746  0.1337803347  1.6080252261
H   1.1569103927  0.9267604089  0.7038809719
C  -2.0199013669  0.1805280406 -0.7386133726
H  -2.3108048703  1.1052683707 -0.2717894176
H  -2.3760195757  0.1176756657 -1.7404897064
H  -2.4151243962 -0.6892848714 -0.1649468970
C  -0.4136437166  2.2207729489 -1.9555115046
H   0.3404036670  2.5364407667 -2.6969391904
H  -1.3857999843  2.4272993334 -2.3745660987
H  -0.2703477361  2.8018465315 -1.0572772077
O   2.4525709159 -1.0728501108 -0.4943130384
H   3.0856607894 -1.7776934601 -0.6649617555
H   2.3139413196 -0.0239895998 -1.3870706194
22
Iteration 85  Energy = -424.8226774670
C  -0.3547414423  0.0287937389 -0.5006510545
C  -0.2757283504  0.7610387649 -1.7330078418
H  -0.3067122150  0.1167982444 -2.6099574775
O   0.0107976681 -1.2769015116 -0.5341044347
H   1.0607326465 -1.3258195774 -0.4747488837
O   1.9793020716  0.7580189068 -2.0747803008
H   2.1809241139  0.4264056829 -2.9448669568
C   0.0822777699  0.7701124425  0.7620639640
H  -0.4246073981  1.7219925964  0.8927488426
H  -0.1460204896  0.1338191415  1.6079832507
H   1.1568867575  0.9267029066  0.7038708882
C  -2.0199108862  0.1805247830 -0.7386184487
H  -2.3108007738  1.1050597185 -0.2717095597
H  -2.3757427871  0.1176180834 -1.7402334282
H  -2.4154739944 -0.6894155446 -0.1647577062
C  -0.4136396912  2.2207735814 -1.9555153752
H   0.3404697038  2.5367073695 -2.6970917974
H  -1.3856697772  2.4271697199 -2.3745602029
H  -0.2703206753  2.8017977452 -1.0572970718
O   2.4525482556 -1.0729013899 -0.4942610989
H   3.0856278282 -1.7777297545 -0.6649408732
H   2.3138823310 -0.0239788975 -1.3871691224
22
Iteration 86  Energy = -424.8226322028
C  -0.3547138140  0.0287770053 -0.5006463401
C  -0.2757586266  0.7610408226 -1.7329974655
H  -0.3065401807  0.1168027570 -2.6100591168
O   0.0108308497 -1.2768841908 -0.5341172153
H   1.0603656396 -1.3256322799 -0.4748084867
O   1.9793153631  0.7580650078 -2.0748355496
H   2.1808704271  0.4264769262 -2.9448497807
C   0.0822764831  0.7701187214  0.7620650433
H  -0.4246059921  1.7220191841  0.8928348802
H  -0.1460776827  0.1338579634  1.6079413115
H   1.1568631741  0.9266453622  0.7038609106
C  -2.0199205463  0.1805216280 -0.7386236878
H  -2.3107965180  1.1048511681 -0.2716297437
H  -2.3754659157  0.1175606408 -1.7399773741
H  -2.4158235110 -0.6895462757 -0.1645686365
C  -0.4136357227  2.2207741898 -1.9555192069
H   0.3405357348  2.5369738270 -2.6972443608
H  -1.3855396173  2.4270402039 -2.3745542717
H  -0.2702935893  2.8017489258 -1.0573168988
O   2.4525257013 -1.0729525636 -0.4942091718
H   3.0855948246 -1.7777659554 -0.6649203623
H   2.3138235421 -0.0239690161 -1.3872671851
22
Iteration 87  Energy = -424.8225863352
C  -0.3546859747  0.0287603379 -0.5006415943
C  -0.2757890935  0.7610428486 -1.7329870283
H  -0.3063683835  0.1168072505 -2.6101606724
O   0.0108640046 -1.2768669396 -0.5341299908
H   1.0599976096 -1.3254450332 -0.4748681257
O   1.9793287096  0.7581110323 -2.0748907894
H   2.1808169643  0.4265483334 -2.9448326625
C   0.0822752439  0.7701249869  0.7620661689
H  -0.4246045599  1.7220457518  0.8929208281
H  -0.1461349540  0.1338968004  1.6078994084
H   1.1568396425  0.9265877755  0.7038510384
C  -2.0199303484  0.1805185765 -0.7386290909
H  -2.3107920996  1.1046427196 -0.2715499689
H  -2.3751889572  0.1175033397 -1.7397215454
H  -2.4161729474 -0.6896770655 -0.1643796883
C  -0.4136318108  2.2207747741 -1.9555229997
H   0.3406017599  2.5372401406 -2.6973968813
H  -1.3854095047  2.4269107849 -2.3745483044
H  -0.2702664772  2.8017000731 -1.0573366884
O   2.4525032529 -1.0730036304 -0.4941572589
H   3.0855617782 -1.7778020635 -0.6649002200
H   2.3137649534 -0.0239599538 -1.3873648078
22
Iteration 88  Energy = -424.8225396922
C  -0.3546579230  0.0287437372 -0.5006368170
C  -0.2758197539  0.7610448421 -1.7329765293
H  -0.3061968239  0.1168117262 -2.6102621457
O   0.0108971322 -1.2768497586 -0.5341427605
H   1.0596285587 -1.3252578384 -0.4749278003
O   1.9793421119  0.7581569785 -2.0749460188
H   2.1807637269  0.4266199019 -2.9448155994
C   0.0822740524  0.7701312387  0.7620673410
H  -0.4246031012  1.7220722994  0.8930066864
H  -0.1461923043  0.1339356525  1.6078575412
H   1.1568161626  0.9265301454  0.7038412718
C  -2.0199402933  0.1805156301 -0.7386346600
H  -2.3107875163  1.1044343720 -0.2714702338
H  -2.3749119066  0.1174461826 -1.7394659426
H  -2.4165223062 -0.6898079155 -0.1641908621
C  -0.4136279555  2.2207753344 -1.9555267531
H   0.3406677797  2.5375063117 -2.6975493601
H  -1.3852794382  2.4267814632 -2.3745423000
H  -0.2702393378  2.8016511867 -1.0573564404
O   2.4524809117 -1.0730545883 -0.4941053624
H   3.0855286868 -1.7778380825 -0.6648804429
H   2.3137065628 -0.0239517107 -1.3874619897
22
Iteration 89  Energy = -424.8224925717
C  -0.3546296604  0.0287272035 -0.5006320085
C  -0.2758506064  0.7610468030 -1.7329659691
H  -0.3060255024  0.1168161850 -2.6103635370
O   0.0109302318 -1.2768326481 -0.5341555244
H   1.0592584984 -1.3250706974 -0.4749875071
O   1.9793555698  0.7582028461 -2.0750012371
H   2.1807107163  0.4266916302 -2.9447985901
C   0.0822729085  0.7701374767  0.7620685593
H  -0.4246016155  1.7220988273  0.8930924546
H  -0.1462497334  0.1339745194  1.6078157097
H   1.1567927345  0.9264724714  0.7038316101
C  -2.0199503810  0.1805127882 -0.7386403943
H  -2.3107827679  1.1042261256 -0.2713905384
H  -2.3746347619  0.1173891701 -1.7392105669
H  -2.4168715887 -0.6899388252 -0.1640021585
C  -0.4136241564  2.2207758707 -1.9555304671
H   0.3407337937  2.5377723405 -2.6977017969
H  -1.3851494186  2.4266522390 -2.3745362579
H  -0.2702121708  2.8016022668 -1.0573761544
O   2.4524586778 -1.0731054366 -0.4940534830
H   3.0854955496 -1.7778740141 -0.6648610292
H   2.3136483691 -0.0239442805 -1.3875587343
22
Iteration 90  Energy = -424.8224445958
C  -0.3546011852  0.0287107373 -0.5006271688
C  -0.2758816537  0.7610487304 -1.7329553467
H  -0.3058544194  0.1168206282 -2.6104648478
O   0.0109633028 -1.2768156085 -0.5341682817
H   1.0588874310 -1.3248836108 -0.4750472454
O   1.9793690841  0.7582486331 -2.0750564425
H   2.1806579333  0.4267635150 -2.9447816315
C   0.0822718120  0.7701437005  0.7620698238
H  -0.4246001029  1.7221253354  0.8931781329
H  -0.1463072419  0.1340134013  1.6077739138
H   1.1567693579  0.9264147528  0.7038220531
C  -2.0199606127  0.1805100523 -0.7386462956
H  -2.3107778514  1.1040179797 -0.2713108811
H  -2.3743575180  0.1173323051 -1.7389554188
H  -2.4172207974 -0.6900697965 -0.1638135780
C  -0.4136204134  2.2207763830 -1.9555341416
H   0.3407998023  2.5380382286 -2.6978541930
H  -1.3850194450  2.4265231127 -2.3745301773
H  -0.2701849747  2.8015533131 -1.0573958302
O   2.4524365521 -1.0731561731 -0.4940016232
H   3.0854623654 -1.7779098609 -0.6648419744
H   2.3135903715 -0.0239376652 -1.3876550394
22
Iteration 91  Energy = -424.8223959945
C  -0.3545724965  0.0286943384 -0.5006222978
C  -0.2759128972  0.7610506236 -1.7329446618
H  -0.3056835758  0.1168250567 -2.6105660787
O   0.0109963448 -1.2767986403 -0.5341810319
H   1.0585153669 -1.3246965794 -0.4751070127
O   1.9793826549  0.7582943389 -2.0751116340
H   2.1806053784  0.4268355532 -2.9447647212
C   0.0822707629  0.7701499101  0.7620711346
H  -0.4245985630  1.7221518239  0.8932637210
H  -0.1463648301  0.1340522979  1.6077321534
H   1.1567460329  0.9263569889  0.7038126009
C  -2.0199709891  0.1805074234 -0.7386523652
H  -2.3107727646  1.1038099344 -0.2712312614
H  -2.3740801702  0.1172755887 -1.7387005000
H  -2.4175699329 -0.6902008298 -0.1636251213
C  -0.4136167264  2.2207768714 -1.9555377764
H   0.3408658056  2.5383039764 -2.6980065488
H  -1.3848895174  2.4263940843 -2.3745240571
H  -0.2701577485  2.8015043254 -1.0574154675
O   2.4524145346 -1.0732067972 -0.4939497841
H   3.0854291336 -1.7779456245 -0.6648232762
H   2.3135325675 -0.0239318574 -1.3877509095
22
Iteration 92  Energy = -424.8223466923
C  -0.3545435943  0.0286780079 -0.5006173957
C  -0.2759443378  0.7610524820 -1.7329339139
H  -0.3055129719  0.1168294721 -2.6106672313
O   0.0110293569 -1.2767817443 -0.5341937744
H   1.0581423066 -1.3245096047 -0.4751668079
O   1.9793962826  0.7583399618 -2.0751668100
H   2.1805530530  0.4269077428 -2.9447478568
C   0.0822697612  0.7701561051  0.7620724917
H  -0.4245969954  1.7221782929  0.8933492187
H  -0.1464224985  0.1340912094  1.6076904283
H   1.1567227594  0.9262991789  0.7038032528
C  -2.0199815110  0.1805049024 -0.7386586040
H  -2.3107675055  1.1036019890 -0.2711516779
H  -2.3738027147  0.1172190241 -1.7384458111
H  -2.4179189981 -0.6903319266 -0.1634367892
C  -0.4136130951  2.2207773358 -1.9555413712
H   0.3409318040  2.5385695854 -2.6981588651
H  -1.3847596352  2.4262651539 -2.3745178968
H  -0.2701304914  2.8014553036 -1.0574350660
O   2.4523926270 -1.0732573063 -0.4938979682
H   3.0853958526 -1.7779813081 -0.6648049312
H   2.3134749569 -0.0239268614 -1.3878463409
22
Iteration 93  Energy = -424.8222968479
C  -0.3545144800  0.0286617460 -0.5006124629
C  -0.2759759741  0.7610543057 -1.7329231037
H  -0.3053426071  0.1168338754 -2.6107683065
O   0.0110623386 -1.2767649204 -0.5342065091
H   1.0577682619 -1.3243226870 -0.4752266282
O   1.9794099665  0.7583855016 -2.0752219697
H   2.1805009567  0.4269800805 -2.9447310360
C   0.0822688069  0.7701622854  0.7620738946
H  -0.4245953998  1.7222047426  0.8934346261
H  -0.1464802470  0.1341301355  1.6076487381
H   1.1566995374  0.9262413220  0.7037940084
C  -2.0199921780  0.1805024886 -0.7386650112
H  -2.3107620740  1.1033941429 -0.2710721303
H  -2.3735251480  0.1171626108 -1.7381913520
H  -2.4182679953 -0.6904630866 -0.1632485811
C  -0.4136095188  2.2207777762 -1.9555449261
H   0.3409977971  2.5388350571 -2.6983111424
H  -1.3846297983  2.4261363212 -2.3745116957
H  -0.2701032026  2.8014062476 -1.0574546256
O   2.4523708287 -1.0733077003 -0.4938461759
H   3.0853625215 -1.7780169130 -0.6647869373
H   2.3134175376 -0.0239226667 -1.3879413387
22
Iteration 94  Energy = -424.8222461855
C  -0.3544851501  0.0286455530 -0.5006074990
C  -0.2760078111  0.7610560929 -1.7329122294
H  -0.3051724836  0.1168382679 -2.6108693054
O   0.0110952891 -1.2767481698 -0.5342192348
H   1.0573932326 -1.3241358278 -0.4752864731
O   1.9794237082  0.7584309558 -2.0752771111
H   2.1804490922  0.4270525635 -2.9447142559
C   0.0822678997  0.7701684507  0.7620753438
H  -0.4245937761  1.7222311731  0.8935199428
H  -0.1465380764  0.1341690764  1.6076070832
H   1.1566763666  0.9261834178  0.7037848679
C  -2.0200029921  0.1805001848 -0.7386715905
H  -2.3107564652  1.1031863962 -0.2709926167
H  -2.3732474645  0.1171063540 -1.7379371254
H  -2.4186169249 -0.6905943122 -0.1630604993
C  -0.4136059981  2.2207781928 -1.9555484406
H   0.3410637857  2.5391003915 -2.6984633816
H  -1.3845000064  2.4260075874 -2.3745054526
H  -0.2700758806  2.8013571573 -1.0574741458
O   2.4523491415 -1.0733579761 -0.4937944106
H   3.0853291396 -1.7780524422 -0.6647692895
H   2.3133603092 -0.0239192795 -1.3880358987
22
Iteration 95  Energy = -424.8221950072
C  -0.3544556056  0.0286294295 -0.5006025041
C  -0.2760398482  0.7610578436 -1.7329012913
H  -0.3050026010  0.1168426508 -2.6109702292
O   0.0111282076 -1.2767314928 -0.5342319512
H   1.0570172258 -1.3239490276 -0.4753463408
O   1.9794375073  0.7584763236 -2.0753322328
H   2.1803974585  0.4271251879 -2.9446975134
C   0.0822670397  0.7701746007  0.7620768392
H  -0.4245921241  1.7222575844  0.8936051690
H  -0.1465959869  0.1342080320  1.6075654631
H   1.1566532470  0.9261254653  0.7037758305
C  -2.0200139534  0.1804979911 -0.7386783418
H  -2.3107506780  1.1029787482 -0.2709131365
H  -2.3729696600  0.1170502544 -1.7376831314
H  -2.4189657893 -0.6907256040 -0.1628725439
C  -0.4136025323  2.2207785855 -1.9555519148
H   0.3411297698  2.5393655904 -2.6986155832
H  -1.3843702589  2.4258789518 -2.3744991668
H  -0.2700485244  2.8013080324 -1.0574936264
O   2.4523275661 -1.0734081326 -0.4937426739
H   3.0852957054 -1.7780878984 -0.6647519848
H   2.3133032701 -0.0239166950 -1.3881300234
22
Iteration 96  Energy = -424.8221430469
C  -0.3544258447  0.0286133755 -0.5005974781
C  -0.2760720886  0.7610595567 -1.7328902883
H  -0.3048329603  0.1168470253 -2.6110710789
O   0.0111610937 -1.2767148898 -0.5342446573
H   1.0566402475 -1.3237622872 -0.4754062292
O   1.9794513648  0.7585216038 -2.0753873338
H   2.1803460583  0.4271979509 -2.9446808061
C   0.0822662267  0.7701807352  0.7620783807
H  -0.4245904435  1.7222839766  0.8936903044
H  -0.1466539788  0.1342470021  1.6075238778
H   1.1566301785  0.9260674640  0.7037668964
C  -2.0200250629  0.1804959090 -0.7386852671
H  -2.3107447097  1.1027711989 -0.2708336886
H  -2.3726917292  0.1169943150 -1.7374293719
H  -2.4193145899 -0.6908569631 -0.1626847161
C  -0.4135991215  2.2207789544 -1.9555553483
H   0.3411957497  2.5396306541 -2.6987677481
H  -1.3842405556  2.4257504153 -2.3744928373
H  -0.2700211330  2.8012588727 -1.0575130671
O   2.4523061028 -1.0734581684 -0.4936909674
H   3.0852622184 -1.7781232836 -0.6647350191
H   2.3132464189 -0.0239149108 -1.3882237134
22
Iteration 97  Energy = -424.8220906299
C  -0.3543958697  0.0285973920 -0.5005924217
C  -0.2761045303  0.7610612322 -1.7328792212
H  -0.3046635608  0.1168513929 -2.6111718558
O   0.0111939464 -1.2766983615 -0.5342573532
H   1.0562623034 -1.3235756074 -0.4754661367
O   1.9794652801  0.7585667954 -2.0754424125
H   2.1802948913  0.4272708488 -2.9446641312
C   0.0822654606  0.7701868540  0.7620799680
H  -0.4245887337  1.7223103501  0.8937753490
H  -0.1467120523  0.1342859868  1.6074823270
H   1.1566071610  0.9260094130  0.7037580646
C  -2.0200363203  0.1804939378 -0.7386923655
H  -2.3107385597  1.1025637474 -0.2707542721
H  -2.3724136689  0.1169385364 -1.7371758466
H  -2.4196633289 -0.6909883900 -0.1624970157
C  -0.4135957650  2.2207792995 -1.9555587411
H   0.3412617254  2.5398955843 -2.6989198766
H  -1.3841108963  2.4256219776 -2.3744864637
H  -0.2699937057  2.8012096784 -1.0575324677
O   2.4522847523 -1.0735080819 -0.4936392929
H   3.0852286774 -1.7781586000 -0.6647183897
H   2.3131897540 -0.0239139240 -1.3883169686
22
Iteration 98  Energy = -424.8220371396
C  -0.3543656775  0.0285814790 -0.5005873345
C  -0.2761371776  0.7610628687 -1.7328680884
H  -0.3044944044  0.1168557543 -2.6112725604
O   0.0112267656 -1.2766819083 -0.5342700377
H   1.0558833989 -1.3233889891 -0.4755260618
O   1.9794792546  0.7586118970 -2.0754974678
H   2.1802439586  0.4273438786 -2.9446474863
C   0.0822647414  0.7701929568  0.7620816014
H  -0.4245869948  1.7223367047  0.8938603025
H  -0.1467702078  0.1343249857  1.6074408107
H   1.1565841945  0.9259513116  0.7037493353
C  -2.0200477273  0.1804920798 -0.7386996396
H  -2.3107322243  1.1023563940 -0.2706748856
H  -2.3721354740  0.1168829226 -1.7369225580
H  -2.4200120067 -0.6911198864 -0.1623094446
C  -0.4135924630  2.2207796209 -1.9555620930
H   0.3413276973  2.5401603810 -2.6990719695
H  -1.3839812807  2.4254936397 -2.3744800449
H  -0.2699662411  2.8011604493 -1.0575518280
O   2.4522635154 -1.0735578716 -0.4935876524
H   3.0851950820 -1.7781938500 -0.6647020924
H   2.3131332744 -0.0239137333 -1.3884097899
22
Iteration 99  Energy = -424.8219831509
C  -0.3543352728  0.0285656375 -0.5005822174
C  -0.2761700257  0.7610644673 -1.7328568918
H  -0.3043254883  0.1168601110 -2.6113731943
O   0.0112595501 -1.2766655301 -0.5342827115
H   1.0555035438 -1.3232024327 -0.4755860011
O   1.9794932869  0.7586569088 -2.0755524992
H   2.1801932608  0.4274170373 -2.9446308692
C   0.0822640689  0.7701990435  0.7620832801
H  -0.4245852256  1.7223630412  0.8939451653
H  -0.1468284454  0.1343639990  1.6073993284
H   1.1565612790  0.9258931585  0.7037407078
C  -2.0200592822  0.1804903324 -0.7387070862
H  -2.3107257062  1.1021491372 -0.2705955293
H  -2.3718571415  0.1168274713 -1.7366695042
H  -2.4203606278 -0.6912514514 -0.1621220008
C  -0.4135892144  2.2207799187 -1.9555654043
H   0.3413936647  2.5404250469 -2.6992240273
H  -1.3838517087  2.4253654004 -2.3744735807
H  -0.2699387393  2.8011111855 -1.0575711477
O   2.4522423917 -1.0736075378 -0.4935360457
H   3.0851614309 -1.7782290352 -0.6646861259
H   2.3130769764 -0.0239143263 -1.3885021842
22
Iteration 100  Energy = -424.8219283924
C  -0.3543046507  0.0285498675 -0.5005770699
C  -0.2762030811  0.7610660257 -1.7328456291
H  -0.3041568163  0.1168644641 -2.6114737577
O   0.0112922993 -1.2766492282 -0.5342953727
H   1.0551227401 -1.3230159400 -0.4756459543
O   1.9795073786  0.7587018285 -2.0756075044
H   2.1801427992  0.4274903205 -2.9446142767
C   0.0822634431  0.7702051137  0.7620850046
H  -0.4245834264  1.7223893590  0.8940299365
H  -0.1468867655  0.1344030265  1.6073578805
H   1.1565384143  0.9258349537  0.7037321822
C  -2.0200709877  0.1804886995 -0.7387147102
H  -2.3107189988  1.1019419783 -0.2705162014
H  -2.3715786661  0.1167721890 -1.7364166898
H  -2.4207091896 -0.6913830874 -0.1619346885
C  -0.4135860198  2.2207801928 -1.9555686743
H   0.3414596284  2.5406895806 -2.6993760503
H  -1.3837221803  2.4252372616 -2.3744670696
H  -0.2699111983  2.8010618870 -1.0575904264
O   2.4522213832 -1.0736570773 -0.4934844765
H   3.0851277236 -1.7782641586 -0.6646704850
H   2.3130208606 -0.0239157087 -1.3885941462
22
Iteration 101  Energy = -424.8218730019
C  -0.3542738150  0.0285341697 -0.5005718925
C  -0.2762363404  0.7610675447 -1.7328343016
H  -0.3039883868  0.1168688150 -2.6115742520
O   0.0113250123 -1.2766330025 -0.5343080218
H   1.0547409988 -1.3228295115 -0.4757059181
O   1.9795215289  0.7587466558 -2.0756624827
H   2.1800925757  0.4275637247 -2.9445977061
C   0.0822628637  0.7702111673  0.7620867744
H  -0.4245815964  1.7224156588  0.8941146162
H  -0.1469451678  0.1344420682  1.6073164669
H   1.1565156006  0.9257766962  0.7037237579
C  -2.0200828424  0.1804871791 -0.7387225091
H  -2.3107121035  1.1017349167 -0.2704369019
H  -2.3713000444  0.1167170746 -1.7361641146
H  -2.4210576950 -0.6915147937 -0.1617475069
C  -0.4135828782  2.2207804434 -1.9555719033
H   0.3415255875  2.5409539839 -2.6995280389
H  -1.3835926958  2.4251092227 -2.3744605113
H  -0.2698836181  2.8010125539 -1.0576096638
O   2.4522004894 -1.0737064900 -0.4934329451
H   3.0850939591 -1.7782992220 -0.6646551670
H   2.3129649240 -0.0239178690 -1.3886856821
22
Iteration 102  Energy = -424.8218169553
C  -0.3542427646  0.0285185452 -0.5005666852
C  -0.2762698060  0.7610690230 -1.7328229087
H  -0.3038202029  0.1168731651 -2.6116746779
O   0.0113576878 -1.2766168543 -0.5343206572
H   1.0543583230 -1.3226431500 -0.4757658915
O   1.9795357384  0.7587913879 -2.0757174311
H   2.1800425896  0.4276372446 -2.9445811541
C   0.0822623306  0.7702172037  0.7620885896
H  -0.4245797357  1.7224419399  0.8941992034
H  -0.1470036522  0.1344811234  1.6072750878
H   1.1564928376  0.9257183862  0.7037154343
C  -2.0200948472  0.1804857731 -0.7387304851
H  -2.3107050169  1.1015279540 -0.2703576299
H  -2.3710212740  0.1166621328 -1.7359117822
H  -2.4214061416 -0.6916465709 -0.1615604594
C  -0.4135797895  2.2207806706 -1.9555750909
H   0.3415915425  2.5412182548 -2.6996799921
H  -1.3834632557  2.4249812858 -2.3744539048
H  -0.2698559974  2.8009631865 -1.0576288595
O   2.4521797127 -1.0737557720 -0.4933814557
H   3.0850601371 -1.7783342277 -0.6646401677
H   2.3129091678 -0.0239208144 -1.3887767846
22
Iteration 103  Energy = -424.8217602100
C  -0.3542114998  0.0285029938 -0.5005614484
C  -0.2763034784  0.7610704605 -1.7328114501
H  -0.3036522578  0.1168775159 -2.6117750395
O   0.0113903261 -1.2766007831 -0.5343332795
H   1.0539747078 -1.3224568492 -0.4758258742
O   1.9795500077  0.7588360263 -2.0757723510
H   2.1799928412  0.4277108797 -2.9445646180
C   0.0822618437  0.7702232230  0.7620904500
H  -0.4245778432  1.7224682040  0.8942837014
H  -0.1470622209  0.1345201936  1.6072337416
H   1.1564701248  0.9256600202  0.7037072110
C  -2.0201070023  0.1804844809 -0.7387386377
H  -2.3106977384  1.1013210823 -0.2702783817
H  -2.3707423413  0.1166073624 -1.7356596845
H  -2.4217545435 -0.6917784239 -0.1613735397
C  -0.4135767532  2.2207808744 -1.9555782374
H   0.3416574951  2.5414824039 -2.6998319159
H  -1.3833338556  2.4248534461 -2.3744472495
H  -0.2698283348  2.8009137834 -1.0576480140
O   2.4521590520 -1.0738049250 -0.4933300071
H   3.0850262556 -1.7783691789 -0.6646254835
H   2.3128535862 -0.0239245355 -1.3888674625
22
Iteration 104  Energy = -424.8217027868
C  -0.3541800123  0.0284875140 -0.5005561812
C  -0.2763373686  0.7610718551 -1.7327999216
H  -0.3034845591  0.1168818660 -2.6118753311
O   0.0114229292 -1.2765847888 -0.5343458876
H   1.0535901812 -1.3222706149 -0.4758858613
O   1.9795643404  0.7588805712 -2.0758272435
H   2.1799433368  0.4277846261 -2.9445480980
C   0.0822614031  0.7702292252  0.7620923560
H  -0.4245759195  1.7224944502  0.8943681068
H  -0.1471208732  0.1345592773  1.6071924291
H   1.1564474629  0.9256015996  0.7036990903
C  -2.0201193116  0.1804833068 -0.7387469727
H  -2.3106902637  1.1011143088 -0.2701991592
H  -2.3704632488  0.1165527692 -1.7354078335
H  -2.4221028882 -0.6919103515 -0.1611867569
C  -0.4135737708  2.2207810547 -1.9555813418
H   0.3417234447  2.5417464201 -2.6999838064
H  -1.3832044989  2.4247257105 -2.3744405445
H  -0.2698006290  2.8008643459 -1.0576671267
O   2.4521385057 -1.0738539508 -0.4932785988
H   3.0849923153 -1.7784040773 -0.6646111093
H   2.3127981760 -0.0239290120 -1.3889577283
22
Iteration 105  Energy = -424.8216446451
C  -0.3541483182  0.0284721109 -0.5005508856
C  -0.2763714581  0.7610732088 -1.7327883308
H  -0.3033171014  0.1168862212 -2.6119755624
O   0.0114554898 -1.2765688742 -0.5343584806
H   1.0532047201 -1.3220844457 -0.4759458550
O   1.9795787298  0.7589250161 -2.0758820995
H   2.1798940682  0.4278584750 -2.9445315846
C   0.0822610082  0.7702352093  0.7620943064
H  -0.4245739630  1.7225206789  0.8944524215
H  -0.1471796086  0.1345983751  1.6071511503
H   1.1564248509  0.9255431227  0.7036910667
C  -2.0201317690  0.1804822451 -0.7387554819
H  -2.3106825946  1.1009076283 -0.2701199595
H  -2.3701839890  0.1164983523 -1.7351562212
H  -2.4224511871 -0.6920423534 -0.1610001052
C  -0.4135708387  2.2207812120 -1.9555844052
H   0.3417893904  2.5420103152 -2.7001356660
H  -1.3830751839  2.4245980726 -2.3744337891
H  -0.2697728804  2.8008148730 -1.0576861969
O   2.4521180805 -1.0739028383 -0.4932272402
H   3.0849583148 -1.7784389243 -0.6645970444
H   2.3127429435 -0.0239342772 -1.3890475532
22
Iteration 106  Energy = -424.8215857565
C  -0.3541164112  0.0284567832 -0.5005455612
C  -0.2764057557  0.7610745201 -1.7327766743
H  -0.3031498873  0.1168905809 -2.6120757308
O   0.0114880100 -1.2765530387 -0.5343710583
H   1.0528183421 -1.3218983430 -0.4760058517
O   1.9795931793  0.7589693629 -2.0759369215
H   2.1798450405  0.4279324244 -2.9445150784
C   0.0822606590  0.7702411753  0.7620963015
H  -0.4245719739  1.7225468903  0.8945366447
H  -0.1472384275  0.1346374868  1.6071099052
H   1.1564022891  0.9254845889  0.7036831422
C  -2.0201443773  0.1804812987 -0.7387641692
H  -2.3106747281  1.1007010423 -0.2700407824
H  -2.3699045582  0.1164441150 -1.7349048524
H  -2.4227994371 -0.6921744313 -0.1608135887
C  -0.4135679580  2.2207813461 -1.9555874270
H   0.3418553327  2.5422740856 -2.7002874946
H  -1.3829459113  2.4244705357 -2.3744269824
H  -0.2697450876  2.8007653655 -1.0577052246
O   2.4520977743 -1.0739515910 -0.4931759293
H   3.0849242539 -1.7784737229 -0.6645832828
H   2.3126878834 -0.0239403107 -1.3891369518
22
Iteration 107  Energy = -424.8215262447
C  -0.3540842932  0.0284415314 -0.5005402083
C  -0.2764402607  0.7610757891 -1.7327649525
H  -0.3029829157  0.1168949461 -2.6121758372
O   0.0115204894 -1.2765372823 -0.5343836205
H   1.0524310559 -1.3217123074 -0.4760658487
O   1.9796076891  0.7590136114 -2.0759917094
H   2.1797962556  0.4280064719 -2.9444985775
C   0.0822603553  0.7702471231  0.7620983410
H  -0.4245699511  1.7225730847  0.8946207765
H  -0.1472973301  0.1346766124  1.6070686934
H   1.1563797775  0.9254259974  0.7036753166
C  -2.0201571357  0.1804804666 -0.7387730335
H  -2.3106666648  1.1004945500 -0.2699616274
H  -2.3696249536  0.1163900574 -1.7346537268
H  -2.4231476403 -0.6923065849 -0.1606272069
C  -0.4135651281  2.2207814572 -1.9555904074
H   0.3419212713  2.5425377325 -2.7004392926
H  -1.3828166808  2.4243430998 -2.3744201242
H  -0.2697172503  2.8007158234 -1.0577242096
O   2.4520775870 -1.0740002088 -0.4931246662
H   3.0848901312 -1.7785084754 -0.6645698231
H   2.3126329923 -0.0239471028 -1.3892259297
22
Iteration 108  Energy = -424.8214660232
C  -0.3540519627  0.0284263559 -0.5005348269
C  -0.2764749754  0.7610770148 -1.7327531646
H  -0.3028161872  0.1168993182 -2.6122758830
O   0.0115529269 -1.2765216059 -0.5343961663
H   1.0520428644 -1.3215263386 -0.4761258451
O   1.9796222595  0.7590577601 -2.0760464608
H   2.1797477122  0.4280806114 -2.9444820775
C   0.0822600971  0.7702530523  0.7621004248
H  -0.4245678947  1.7225992623  0.8947048169
H  -0.1473563166  0.1347157516  1.6070275149
H   1.1563573160  0.9253673474  0.7036675891
C  -2.0201700456  0.1804797503 -0.7387820767
H  -2.3106584007  1.1002881511 -0.2698824929
H  -2.3693451677  0.1163361834 -1.7344028465
H  -2.4234957973 -0.6924388165 -0.1604409616
C  -0.4135623488  2.2207815454 -1.9555933461
H   0.3419872068  2.5428012570 -2.7005910611
H  -1.3826874920  2.4242157650 -2.3744132132
H  -0.2696893671  2.8006662466 -1.0577431516
O   2.4520575197 -1.0740486894 -0.4930734539
H   3.0848559470 -1.7785431834 -0.6645566599
H   2.3125782696 -0.0239546532 -1.3893144853
22
Iteration 109  Energy = -424.8214051347
C  -0.3540194214  0.0284112575 -0.5005294175
C  -0.2765098997  0.7610781969 -1.7327413107
H  -0.3026497017  0.1169036984 -2.6123758685
O   0.0115853220 -1.2765060097 -0.5344086955
H   1.0516537737 -1.3213404379 -0.4761858384
O   1.9796368912  0.7591018083 -2.0761011755
H   2.1796994138  0.4281548399 -2.9444655766
C   0.0822598841  0.7702589627  0.7621025527
H  -0.4245658038  1.7226254232  0.8947887657
H  -0.1474153873  0.1347549044  1.6069863696
H   1.1563349045  0.9253086378  0.7036599598
C  -2.0201831065  0.1804791494 -0.7387912982
H  -2.3106499367  1.1000818453 -0.2698033784
H  -2.3690651987  0.1162824945 -1.7341522120
H  -2.4238439089 -0.6925711259 -0.1602548540
C  -0.4135596199  2.2207816107 -1.9555962430
H   0.3420531392  2.5430646588 -2.7007427998
H  -1.3825583450  2.4240885321 -2.3744062494
H  -0.2696614375  2.8006166355 -1.0577620506
O   2.4520375728 -1.0740970322 -0.4930222934
H   3.0848216998 -1.7785778503 -0.6645437889
H   2.3125237127 -0.0239629574 -1.3894026208
22
Iteration 110  Energy = -424.8213432737
C  -0.3539866721  0.0283962372 -0.5005239807
C  -0.2765450316  0.7610793356 -1.7327293918
H  -0.3024834582  0.1169080882 -2.6124757957
O   0.0116176733 -1.2764904940 -0.5344212077
H   1.0512637885 -1.3211546051 -0.4762458273
O   1.9796515839  0.7591457550 -2.0761558515
H   2.1796513595  0.4282291522 -2.9444490713
C   0.0822597160  0.7702648540  0.7621047242
H  -0.4245636780  1.7226515678  0.8948726234
H  -0.1474745418  0.1347940706  1.6069452573
H   1.1563125428  0.9252498679  0.7036524275
C  -2.0201963173  0.1804786629 -0.7388006966
H  -2.3106412722  1.0998756316 -0.2697242830
H  -2.3687850410  0.1162289915 -1.7339018230
H  -2.4241919776 -0.6927035136 -0.1600688839
C  -0.4135569405  2.2207816534 -1.9555990984
H   0.3421190680  2.5433279406 -2.7008945098
H  -1.3824292397  2.4239614008 -2.3743992318
H  -0.2696334609  2.8005669902 -1.0577809062
O   2.4520177469 -1.0741452355 -0.4929711866
H   3.0847873895 -1.7786124775 -0.6645312071
H   2.3124693203 -0.0239720123 -1.3894903359
22
Iteration 111  Energy = -424.8212810074
C  -0.3539537134  0.0283812950 -0.5005185163
C  -0.2765803737  0.7610804301 -1.7327174070
H  -0.3023174572  0.1169124884 -2.6125756643
O   0.0116499809 -1.2764750592 -0.5344337025
H   1.0508729194 -1.3209688404 -0.4763058085
O   1.9796663381  0.7591896005 -2.0762104892
H   2.1796035517  0.4283035443 -2.9444325595
C   0.0822595928  0.7702707261  0.7621069393
H  -0.4245615164  1.7226776964  0.8949563894
H  -0.1475337806  0.1348332504  1.6069041781
H   1.1562902310  0.9251910367  0.7036449927
C  -2.0202096790  0.1804782915 -0.7388102730
H  -2.3106324048  1.0996695105 -0.2696452060
H  -2.3685046902  0.1161756763 -1.7336516819
H  -2.4245400024 -0.6928359805 -0.1598830529
C  -0.4135543103  2.2207816736 -1.9556019120
H   0.3421849935  2.5435911020 -2.7010461912
H  -1.3823001762  2.4238343717 -2.3743921598
H  -0.2696054365  2.8005173109 -1.0577997181
O   2.4519980417 -1.0741933002 -0.4929201334
H   3.0847530151 -1.7786470675 -0.6645189113
H   2.3124150887 -0.0239818033 -1.3895776395
22
Iteration 112  Energy = -424.8212179077
C  -0.3539205466  0.0283664321 -0.5005130249
C  -0.2766159251  0.7610814799 -1.7327053568
H  -0.3021516988  0.1169169011 -2.6126754775
O   0.0116822428 -1.2764597063 -0.5344461787
H   1.0504811621 -1.3207831433 -0.4763657827
O   1.9796811536  0.7592333419 -2.0762650847
H   2.1795559886  0.4283780100 -2.9444160359
C   0.0822595143  0.7702765785  0.7621091977
H  -0.4245593190  1.7227038090  0.8950400643
H  -0.1475931039  0.1348724435  1.6068631315
H   1.1562679687  0.9251321434  0.7036376539
C  -2.0202231919  0.1804780357 -0.7388200280
H  -2.3106233320  1.0994634802 -0.2695661456
H  -2.3682241387  0.1161225527 -1.7334017888
H  -2.4248879860 -0.6929685288 -0.1596973618
C  -0.4135517288  2.2207816713 -1.9556046839
H   0.3422509161  2.5438541459 -2.7011978454
H  -1.3821711536  2.4237074442 -2.3743850323
H  -0.2695773629  2.8004675971 -1.0578184861
O   2.4519784594 -1.0742412214 -0.4928691386
H   3.0847185770 -1.7786816218 -0.6645068962
H   2.3123610187 -0.0239923411 -1.3896645220
22
Iteration 113  Energy = -424.8211540928
C  -0.3538871744  0.0283516492 -0.5005075068
C  -0.2766516851  0.7610824852 -1.7326932418
H  -0.3019861823  0.1169213272 -2.6127752352
O   0.0117144586 -1.2764444353 -0.5344586365
H   1.0500885280 -1.3205975156 -0.4764257463
O   1.9796960306  0.7592769796 -2.0763196388
H   2.1795086731  0.4284525472 -2.9443995000
C   0.0822594801  0.7702824110  0.7621114992
H  -0.4245570848  1.7227299060  0.8951236476
H  -0.1476525114  0.1349116499  1.6068221180
H   1.1562457560  0.9250731874  0.7036304112
C  -2.0202368543  0.1804778941 -0.7388299598
H  -2.3106140550  1.0992575409 -0.2694871016
H  -2.3679433847  0.1160696213 -1.7331521446
H  -2.4252359285 -0.6931011575 -0.1595118122
C  -0.4135491956  2.2207816466 -1.9556074141
H   0.3423168352  2.5441170718 -2.7013494721
H  -1.3820421727  2.4235806193 -2.3743778492
H  -0.2695492401  2.8004178495 -1.0578372100
O   2.4519589997 -1.0742890005 -0.4928182014
H   3.0846840740 -1.7787161432 -0.6644951597
H   2.3123071070 -0.0240036133 -1.3897509905
22
Iteration 114  Energy = -424.8210896076
C  -0.3538535963  0.0283369468 -0.5005019624
C  -0.2766876549  0.7610834453 -1.7326810615
H  -0.3018209074  0.1169257680 -2.6128749387
O   0.0117466277 -1.2764292465 -0.5344710751
H   1.0496950212 -1.3204119561 -0.4764856978
O   1.9797109697  0.7593205128 -2.0763741500
H   2.1794616053  0.4285271494 -2.9443829477
C   0.0822594902  0.7702882233  0.7621138435
H  -0.4245548133  1.7227559876  0.8952071397
H  -0.1477120036  0.1349508697  1.6067811371
H   1.1562235928  0.9250141674  0.7036232641
C  -2.0202506669  0.1804778674 -0.7388400692
H  -2.3106045720  1.0990516919 -0.2694080728
H  -2.3676624219  0.1160168840 -1.7329027500
H  -2.4255838309 -0.6932338681 -0.1593264044
C  -0.4135467102  2.2207815998 -1.9556101026
H   0.3423827511  2.5443798816 -2.7015010723
H  -1.3819132328  2.4234538968 -2.3743706095
H  -0.2695210672  2.8003680682 -1.0578558896
O   2.4519396629 -1.0743366359 -0.4927673238
H   3.0846495055 -1.7787506338 -0.6644836964
H   2.3122533512 -0.0240156146 -1.3898370474
22
Iteration 115  Energy = -424.8210243974
C  -0.3538198163  0.0283223259 -0.5004963923
C  -0.2767238324  0.7610843606 -1.7326688169
H  -0.3016558732  0.1169302249 -2.6129745890
O   0.0117787489 -1.2764141403 -0.5344834946
H   1.0493006481 -1.3202264655 -0.4765456349
O   1.9797259710  0.7593639413 -2.0764286178
H   2.1794147870  0.4286018131 -2.9443663769
C   0.0822595441  0.7702940152  0.7621162302
H  -0.4245525036  1.7227820542  0.8952905407
H  -0.1477715801  0.1349901025  1.6067401889
H   1.1562014789  0.9249550826  0.7036162122
C  -2.0202646284  0.1804779538 -0.7388503540
H  -2.3105948840  1.0988459325 -0.2693290587
H  -2.3673812478  0.1159643417 -1.7326536051
H  -2.4259316942 -0.6933666604 -0.1591411394
C  -0.4135442720  2.2207815311 -1.9556127495
H   0.3424486634  2.5446425755 -2.7016526459
H  -1.3817843343  2.4233272771 -2.3743633131
H  -0.2694928440  2.8003182535 -1.0578745248
O   2.4519204494 -1.0743841272 -0.4927165067
H   3.0846148712 -1.7787850956 -0.6644725034
H   2.3121997492 -0.0240283393 -1.3899226943
22
Iteration 116  Energy = -424.8209583757
C  -0.3537858332  0.0283077869 -0.5004907966
C  -0.2767602194  0.7610852302 -1.7326565074
H  -0.3014910796  0.1169346990 -2.6130741872
O   0.0118108218 -1.2763991170 -0.5344958941
H   1.0489054123 -1.3200410430 -0.4766055566
O   1.9797410349  0.7594072640 -2.0764830407
H   2.1793682188  0.4286765328 -2.9443497837
C   0.0822596418  0.7702997865  0.7621186591
H  -0.4245501554  1.7228081061  0.8953738509
H  -0.1478312415  0.1350293486  1.6066992731
H   1.1561794141  0.9248959320  0.7036092549
C  -2.0202787393  0.1804781543 -0.7388608155
H  -2.3105849887  1.0986402618 -0.2692500578
H  -2.3670998549  0.1159119974 -1.7324047109
H  -2.4262795196 -0.6934995361 -0.1589560184
C  -0.4135418807  2.2207814404 -1.9556153547
H   0.3425145727  2.5449051555 -2.7018041943
H  -1.3816554765  2.4232007601 -2.3743559590
H  -0.2694645693  2.8002684055 -1.0578931153
O   2.4519013596 -1.0744314730 -0.4926657519
H   3.0845801709 -1.7788195309 -0.6644615758
H   2.3121462986 -0.0240417834 -1.3900079323
22
Iteration 117  Energy = -424.8208917143
C  -0.3537516513  0.0282933310 -0.5004851761
C  -0.2767968130  0.7610860548 -1.7326441343
H  -0.3013265254  0.1169391916 -2.6131737345
O   0.0118428453 -1.2763841769 -0.5345082738
H   1.0485093207 -1.3198556892 -0.4766654596
O   1.9797561615  0.7594504809 -2.0765374183
H   2.1793219023  0.4287513052 -2.9443331666
C   0.0822597830  0.7703055368  0.7621211296
H  -0.4245477677  1.7228341436  0.8954570700
H  -0.1478909874  0.1350686078  1.6066583896
H   1.1561573986  0.9248367147  0.7036023917
C  -2.0202929981  0.1804784668 -0.7388714510
H  -2.3105748876  1.0984346794 -0.2691710699
H  -2.3668182414  0.1158598514 -1.7321560673
H  -2.4266273082 -0.6936324946 -0.1587710418
C  -0.4135395356  2.2207813279 -1.9556179184
H   0.3425804781  2.5451676223 -2.7019557172
H  -1.3815266602  2.4230743461 -2.3743485469
H  -0.2694362433  2.8002185246 -1.0579116609
O   2.4518823935 -1.0744786730 -0.4926150601
H   3.0845454033 -1.7788539418 -0.6644509111
H   2.3120929976 -0.0240559408 -1.3900927639
22
Iteration 118  Energy = -424.8208245436
C  -0.3537172723  0.0282789588 -0.5004795312
C  -0.2768336128  0.7610868340 -1.7326316980
H  -0.3011622103  0.1169437044 -2.6132732318
O   0.0118748185 -1.2763693203 -0.5345206332
H   1.0481123809 -1.3196704044 -0.4767253423
O   1.9797713506  0.7594935911 -2.0765917494
H   2.1792758376  0.4288261242 -2.9443165222
C   0.0822599674  0.7703112660  0.7621236414
H  -0.4245453397  1.7228601669  0.8955401982
H  -0.1479508176  0.1351078798  1.6066175386
H   1.1561354321  0.9247774298  0.7035956222
C  -2.0203074040  0.1804788908 -0.7388822598
H  -2.3105645801  1.0982291852 -0.2690920944
H  -2.3665364024  0.1158079049 -1.7319076754
H  -2.4269750593 -0.6937655361 -0.1585862110
C  -0.4135372360  2.2207811940 -1.9556204407
H   0.3426463796  2.5454299765 -2.7021072150
H  -1.3813978852  2.4229480355 -2.3743410765
H  -0.2694078654  2.8001686112 -1.0579301614
O   2.4518635516 -1.0745257262 -0.4925644325
H   3.0845105684 -1.7788883304 -0.6644405051
H   2.3120398432 -0.0240708032 -1.3901771928
22
Iteration 119  Energy = -424.8207562822
C  -0.3536826966  0.0282646710 -0.5004738623
C  -0.2768706204  0.7610875674 -1.7326191981
H  -0.3009981340  0.1169482383 -2.6133726801
O   0.0119067407 -1.2763545475 -0.5345329716
H   1.0477145945 -1.3194851878 -0.4767852034
O   1.9797866034  0.7595365939 -2.0766460329
H   2.1792300263  0.4289009850 -2.9442998472
C   0.0822601948  0.7703169737  0.7621261944
H  -0.4245428709  1.7228861764  0.8956232357
H  -0.1480107327  0.1351471648  1.6065767198
H   1.1561135146  0.9247180763  0.7035889460
C  -2.0203219574  0.1804794267 -0.7388932423
H  -2.3105540650  1.0980237780 -0.2690131300
H  -2.3662543316  0.1157561610 -1.7316595358
H  -2.4273227747 -0.6938986621 -0.1584015275
C  -0.4135349818  2.2207810386 -1.9556229215
H   0.3427122776  2.5456922192 -2.7022586885
H  -1.3812691512  2.4228218284 -2.3743335468
H  -0.2693794348  2.8001186653 -1.0579486168
O   2.4518448345 -1.0745726313 -0.4925138712
H   3.0844756662 -1.7789226985 -0.6644303529
H   2.3119868339 -0.0240863701 -1.3902612179
22
Iteration 120  Energy = -424.8206874589
C  -0.3536479266  0.0282504684 -0.5004681697
C  -0.2769078338  0.7610882550 -1.7326066354
H  -0.3008342959  0.1169527948 -2.6134720808
O   0.0119386109 -1.2763398589 -0.5345452890
H   1.0473159690 -1.3193000393 -0.4768450407
O   1.9798019193  0.7595794889 -2.0767002679
H   2.1791844688  0.4289758823 -2.9442831386
C   0.0822604649  0.7703226596  0.7621287880
H  -0.4245403605  1.7229121725  0.8957061825
H  -0.1480707323  0.1351864629  1.6065359332
H   1.1560916458  0.9246586534  0.7035823624
C  -2.0203366571  0.1804800731 -0.7389043971
H  -2.3105433420  1.0978184572 -0.2689341758
H  -2.3659720248  0.1157046205 -1.7314116491
H  -2.4276704547 -0.6940318729 -0.1582169919
C  -0.4135327721  2.2207808621 -1.9556253609
H   0.3427781716  2.5459543519 -2.7024101381
H  -1.3811404584  2.4226957247 -2.3743259576
H  -0.2693509510  2.8000686872 -1.0579670266
O   2.4518262422 -1.0746193879 -0.4924633769
H   3.0844406958 -1.7789570485 -0.6644204513
H   2.3119339666 -0.0241026309 -1.3903448439
22
Iteration 121  Energy = -424.8206179685
C  -0.3536129638  0.0282363515 -0.5004624541
C  -0.2769452534  0.7610888970 -1.7325940099
H  -0.3006706948  0.1169573746 -2.6135714339
O   0.0119704291 -1.2763252543 -0.5345575852
H   1.0469165130 -1.3191149588 -0.4769048511
O   1.9798172994  0.7596222769 -2.0767544549
H   2.1791391677  0.4290508126 -2.9442663949
C   0.0822607776  0.7703283237  0.7621314220
H  -0.4245378075  1.7229381557  0.8957890387
H  -0.1481308167  0.1352257737  1.6064951786
H   1.1560698261  0.9245991598  0.7035758715
C  -2.0203515026  0.1804808292 -0.7389157231
H  -2.3105324123  1.0976132227 -0.2688552320
H  -2.3656894784  0.1156532842 -1.7311640158
H  -2.4280180996 -0.6941651684 -0.1580326053
C  -0.4135306066  2.2207806645 -1.9556277590
H   0.3428440616  2.5462163747 -2.7025615641
H  -1.3810118069  2.4225697252 -2.3743183084
H  -0.2693224139  2.8000186776 -1.0579853909
O   2.4518077740 -1.0746659969 -0.4924129493
H   3.0844056568 -1.7789913823 -0.6644107965
H   2.3118812379 -0.0241195754 -1.3904280767
22
Iteration 122  Energy = -424.8205475845
C  -0.3535778108  0.0282223216 -0.5004567158
C  -0.2769828780  0.7610894927 -1.7325813226
H  -0.3005073311  0.1169619801 -2.6136707423
O   0.0120021930 -1.2763107348 -0.5345698590
H   1.0465162229 -1.3189299463 -0.4769646349
O   1.9798327434  0.7596649546 -2.0768085904
H   2.1790941225  0.4291257697 -2.9442496113
C   0.0822611323  0.7703339654  0.7621340961
H  -0.4245352118  1.7229641258  0.8958718046
H  -0.1481909858  0.1352650975  1.6064544563
H   1.1560480545  0.9245395952  0.7035694721
C  -2.0203664932  0.1804816950 -0.7389272202
H  -2.3105212734  1.0974080731 -0.2687762964
H  -2.3654066849  0.1156021561 -1.7309166365
H  -2.4283657109 -0.6942985502 -0.1578483698
C  -0.4135284848  2.2207804460 -1.9556301158
H   0.3429099475  2.5464782901 -2.7027129673
H  -1.3808831965  2.4224438295 -2.3743105982
H  -0.2692938225  2.7999686363 -1.0580037093
O   2.4517894323 -1.0747124537 -0.4923625932
H   3.0843705496 -1.7790257019 -0.6644013829
H   2.3118286494 -0.0241372141 -1.3905109068
22
Iteration 123  Energy = -424.8204766529
C  -0.3535424690  0.0282083791 -0.5004509555
C  -0.2770207074  0.7610900426 -1.7325685732
H  -0.3003442019  0.1169666116 -2.6137700058
O   0.0120339033 -1.2762962998 -0.5345821111
H   1.0461151110 -1.3187449996 -0.4770243881
O   1.9798482519  0.7597075246 -2.0768626763
H   2.1790493343  0.4292007488 -2.9442327862
C   0.0822615290  0.7703395847  0.7621368096
H  -0.4245325718  1.7229900838  0.8959544806
H  -0.1482512398  0.1353044342  1.6064137655
H   1.1560263316  0.9244799575  0.7035631641
C  -2.0203816279  0.1804826687 -0.7389388864
H  -2.3105099274  1.0972030070 -0.2686973689
H  -2.3651236409  0.1155512343 -1.7306695100
H  -2.4287132896 -0.6944320182 -0.1576642844
C  -0.4135264058  2.2207802069 -1.9556324316
H   0.3429758298  2.5467400992 -2.7028643484
H  -1.3807546265  2.4223180374 -2.3743028273
H  -0.2692651770  2.7999185638 -1.0580219819
O   2.4517712151 -1.0747587616 -0.4923123060
H   3.0843353727 -1.7790600095 -0.6643922082
H   2.3117761942 -0.0241555225 -1.3905933496
22
Iteration 124  Energy = -424.8204048178
C  -0.3535069430  0.0281945252 -0.5004451738
C  -0.2770587387  0.7610905469 -1.7325557634
H  -0.3001813079  0.1169712712 -2.6138692263
O   0.0120655580 -1.2762819499 -0.5345943408
H   1.0457131803 -1.3185601203 -0.4770841095
O   1.9798638247  0.7597499849 -2.0769167103
H   2.1790048046  0.4292757451 -2.9442159164
C   0.0822619673  0.7703451813  0.7621395622
H  -0.4245298872  1.7230160296  0.8960370665
H  -0.1483115782  0.1353437837  1.6063731067
H   1.1560046570  0.9244202468  0.7035569467
C  -2.0203969049  0.1804837491 -0.7389507197
H  -2.3104983750  1.0969980248 -0.2686184491
H  -2.3648403428  0.1155005216 -1.7304226377
H  -2.4290608360 -0.6945655719 -0.1574803516
C  -0.4135243692  2.2207799473 -1.9556347063
H   0.3430417073  2.5470018023 -2.7030157070
H  -1.3806260981  2.4221923497 -2.3742949948
H  -0.2692364770  2.7998684605 -1.0580402082
O   2.4517531237 -1.0748049176 -0.4922620908
H   3.0843001268 -1.7790943067 -0.6643832678
H   2.3117238730 -0.0241745066 -1.3906753980
22
Iteration 125  Energy = -424.8203323463
C  -0.3534712344  0.0281807605 -0.5004393712
C  -0.2770969718  0.7610910054 -1.7325428934
H  -0.3000186479  0.1169759597 -2.6139684043
O   0.0120971567 -1.2762676852 -0.5346065480
H   1.0453104390 -1.3183753072 -0.4771437966
O   1.9798794624  0.7597923356 -2.0769706920
H   2.1789605353  0.4293507530 -2.9441989993
C   0.0822624469  0.7703507548  0.7621423533
H  -0.4245271569  1.7230419638  0.8961195623
H  -0.1483720010  0.1353831461  1.6063324798
H   1.1559830306  0.9243604618  0.7035508196
C  -2.0204123236  0.1804849352 -0.7389627192
H  -2.3104866162  1.0967931257 -0.2685395363
H  -2.3645567858  0.1154500187 -1.7301760203
H  -2.4294083498 -0.6946992117 -0.1572965725
C  -0.4135223743  2.2207796674 -1.9556369402
H   0.3431075800  2.5472634001 -2.7031670436
H  -1.3804976113  2.4220667663 -2.3742871006
H  -0.2692077225  2.7998183269 -1.0580583883
O   2.4517351575 -1.0748509220 -0.4922119481
H   3.0842648111 -1.7791285956 -0.6643745577
H   2.3116716817 -0.0241941533 -1.3907570591
22
Iteration 126  Energy = -424.8202592374
C  -0.3534353473  0.0281670864 -0.5004335487
C  -0.2771354036  0.7610914187 -1.7325299644
H  -0.2998562198  0.1169806787 -2.6140675412
O   0.0121286984 -1.2762535059 -0.5346187327
H   1.0449068907 -1.3181905598 -0.4772034473
O   1.9798951646  0.7598345765 -2.0770246207
H   2.1789165260  0.4294257677 -2.9441820320
C   0.0822629675  0.7703563050  0.7621451823
H  -0.4245243799  1.7230678869  0.8962019684
H  -0.1484325082  0.1354225211  1.6062918844
H   1.1559614524  0.9243006012  0.7035447818
C  -2.0204278820  0.1804862248 -0.7389748820
H  -2.3104746527  1.0965883085 -0.2684606297
H  -2.3642729665  0.1153997256 -1.7299296561
H  -2.4297558327 -0.6948329374 -0.1571129469
C  -0.4135204204  2.2207793674 -1.9556391334
H   0.3431734478  2.5475248946 -2.7033183586
H  -1.3803691658  2.4219412869 -2.3742791446
H  -0.2691789134  2.7997681633 -1.0580765218
O   2.4517173169 -1.0748967742 -0.4921618786
H   3.0842294256 -1.7791628777 -0.6643660750
H   2.3116196177 -0.0242144577 -1.3908383345
22
Iteration 127  Energy = -424.8201851340
C  -0.3533992813  0.0281535030 -0.5004277064
C  -0.2771740370  0.7610917861 -1.7325169755
H  -0.2996940241  0.1169854291 -2.6141666374
O   0.0121601830 -1.2762394119 -0.5346308943
H   1.0445025407 -1.3180058780 -0.4772630602
O   1.9799109332  0.7598767072 -2.0770784961
H   2.1788727810  0.4295007852 -2.9441650123
C   0.0822635288  0.7703618317  0.7621480493
H  -0.4245215558  1.7230937990  0.8962842850
H  -0.1484931001  0.1354619089  1.6062513207
H   1.1559399221  0.9242406645  0.7035388337
C  -2.0204435805  0.1804876186 -0.7389872090
H  -2.3104624839  1.0963835724 -0.2683817283
H  -2.3639888790  0.1153496459 -1.7296835473
H  -2.4301032855 -0.6949667503 -0.1569294781
C  -0.4135185075  2.2207790474 -1.9556412859
H   0.3432393106  2.5477862857 -2.7034696525
H  -1.3802407619  2.4218159127 -2.3742711259
H  -0.2691500491  2.7997179704 -1.0580946089
O   2.4516996017 -1.0749424736 -0.4921118836
H   3.0841939695 -1.7791971560 -0.6643578134
H   2.3115676794 -0.0242354165 -1.3909192251
22
Iteration 128  Energy = -424.8201105926
C  -0.3533630448  0.0281400122 -0.5004218455
C  -0.2772128643  0.7610921090 -1.7325039300
H  -0.2995320575  0.1169902130 -2.6142656955
O   0.0121916081 -1.2762254038 -0.5346430330
H   1.0440973939 -1.3178212603 -0.4773226326
O   1.9799267661  0.7599187273 -2.0771323166
H   2.1788292979  0.4295757982 -2.9441479361
C   0.0822641303  0.7703673346  0.7621509529
H  -0.4245186830  1.7231197009  0.8963665125
H  -0.1485537760  0.1355013095  1.6062107885
H   1.1559184397  0.9241806500  0.7035329733
C  -2.0204594151  0.1804891126 -0.7389996948
H  -2.3104501129  1.0961789166 -0.2683028325
H  -2.3637045198  0.1152997763 -1.7294376913
H  -2.4304507095 -0.6951006489 -0.1567461640
C  -0.4135166339  2.2207787080 -1.9556433983
H   0.3433051676  2.5480475766 -2.7036209255
H  -1.3801123998  2.4216906422 -2.3742630447
H  -0.2691211303  2.7996677484 -1.0581126491
O   2.4516820124 -1.0749880193 -0.4920619641
H   3.0841584426 -1.7792314313 -0.6643497717
H   2.3115158637 -0.0242570193 -1.3909997338
22
Iteration 129  Energy = -424.8200351870
C  -0.3533266297  0.0281266122 -0.5004159653
C  -0.2772518971  0.7610923855 -1.7324908236
H  -0.2993703225  0.1169950297 -2.6143647128
O   0.0122229766 -1.2762114805 -0.5346551485
H   1.0436914638 -1.3176367067 -0.4773821619
O   1.9799426683  0.7599606385 -2.0771860849
H   2.1787860835  0.4296508048 -2.9441308036
C   0.0822647720  0.7703728138  0.7621538939
H  -0.4245157618  1.7231455926  0.8964486504
H  -0.1486145369  0.1355407229  1.6061702877
H   1.1558970051  0.9241205576  0.7035272033
C  -2.0204753894  0.1804907099 -0.7390123442
H  -2.3104375368  1.0959743414 -0.2682239414
H  -2.3634198820  0.1152501218 -1.7291920929
H  -2.4307981031 -0.6952346355 -0.1565630097
C  -0.4135148012  2.2207783489 -1.9556454697
H   0.3433710199  2.5483087639 -2.7037721780
H  -1.3799840792  2.4215654784 -2.3742549001
H  -0.2690921556  2.7996174977 -1.0581306426
O   2.4516645464 -1.0750334145 -0.4920121185
H   3.0841228454 -1.7792657063 -0.6643419420
H   2.3114641653 -0.0242792518 -1.3910798724
22
Iteration 130  Energy = -424.8199589382
C  -0.3532900502  0.0281133070 -0.5004100679
C  -0.2772911203  0.7610926176 -1.7324776623
H  -0.2992088142  0.1169998830 -2.6144636954
O   0.0122542835 -1.2761976436 -0.5346672404
H   1.0432847433 -1.3174522152 -0.4774416476
O   1.9799586349  0.7600024377 -2.0772397957
H   2.1787431318  0.4297257956 -2.9441136080
C   0.0822654533  0.7703782685  0.7621568706
H  -0.4245127902  1.7231714749  0.8965306997
H  -0.1486753816  0.1355801491  1.6061298181
H   1.1558756179  0.9240603856  0.7035215192
C  -2.0204914973  0.1804924049 -0.7390251491
H  -2.3104247591  1.0957698441 -0.2681450541
H  -2.3631349616  0.1152006800 -1.7289467469
H  -2.4311454704 -0.6953687086 -0.1563800121
C  -0.4135130062  2.2207779706 -1.9556475013
H   0.3434368663  2.5485698543 -2.7039234107
H  -1.3798558003  2.4214404177 -2.3742466923
H  -0.2690631260  2.7995672186 -1.0581485888
O   2.4516472072 -1.0750786532 -0.4919623519
H   3.0840871773 -1.7792999819 -0.6643343232
H   2.3114125862 -0.0243021227 -1.3911596289
22
Iteration 131  Energy = -424.8198820727
C  -0.3532533085  0.0281000965 -0.5004041539
C  -0.2773305348  0.7610928057 -1.7324644460
H  -0.2990475309  0.1170047731 -2.6145626424
O   0.0122855295 -1.2761838924 -0.5346793096
H   1.0428772446 -1.3172677852 -0.4775010860
O   1.9799746675  0.7600441270 -2.0772934513
H   2.1787004484  0.4298007675 -2.9440963486
C   0.0822661739  0.7703836989  0.7621598823
H  -0.4245097670  1.7231973483  0.8966126606
H  -0.1487363103  0.1356195883  1.6060893796
H   1.1558542783  0.9240001324  0.7035159218
C  -2.0205077368  0.1804941956 -0.7390381073
H  -2.3104117840  1.0955654237 -0.2680661707
H  -2.3628497572  0.1151514492 -1.7287016527
H  -2.4314928127 -0.6955028675 -0.1561971718
C  -0.4135112490  2.2207775733 -1.9556494931
H   0.3435027065  2.5488308473 -2.7040746235
H  -1.3797275631  2.4213154612 -2.3742384216
H  -0.2690340421  2.7995169117 -1.0581664878
O   2.4516299928 -1.0751237387 -0.4919126616
H   3.0840514369 -1.7793342610 -0.6643269120
H   2.3113611197 -0.0243256119 -1.3912390159
22
Iteration 132  Energy = -424.8198043726
C  -0.3532164022  0.0280869808 -0.5003982232
C  -0.2773701447  0.7610929488 -1.7324511733
H  -0.2988864746  0.1170097012 -2.6146615540
O   0.0123167148 -1.2761702269 -0.5346913548
H   1.0424689740 -1.3170834169 -0.4775604756
O   1.9799907684  0.7600857053 -2.0773470508
H   2.1786580353  0.4298757162 -2.9440790235
C   0.0822669335  0.7703891045  0.7621629294
H  -0.4245066924  1.7232232129  0.8966945326
H  -0.1487973234  0.1356590405  1.6060489725
H   1.1558329859  0.9239397984  0.7035104116
C  -2.0205241096  0.1804960837 -0.7390512209
H  -2.3103986085  1.0953610810 -0.2679872904
H  -2.3625642616  0.1151024343 -1.7284568140
H  -2.4318401289 -0.6956371135 -0.1560144932
C  -0.4135095299  2.2207771572 -1.9556514448
H   0.3435685406  2.5490917419 -2.7042258165
H  -1.3795993681  2.4211906104 -2.3742300868
H  -0.2690049029  2.7994665777 -1.0581843394
O   2.4516129026 -1.0751686698 -0.4918630500
H   3.0840156258 -1.7793685443 -0.6643197015
H   2.3113097658 -0.0243497194 -1.3913180323
22
Iteration 133  Energy = -424.8197260976
C  -0.3531793383  0.0280739613 -0.5003922769
C  -0.2774099449  0.7610930479 -1.7324378463
H  -0.2987256411  0.1170146687 -2.6147604320
O   0.0123478380 -1.2761566470 -0.5347033768
H   1.0420599360 -1.3168991080 -0.4776198140
O   1.9800069369  0.7601271733 -2.0774005940
H   2.1786158932  0.4299506357 -2.9440616294
C   0.0822677317  0.7703944852  0.7621660107
H  -0.4245035646  1.7232490695  0.8967763164
H  -0.1488584204  0.1356985056  1.6060085962
H   1.1558117407  0.9238793816  0.7035049872
C  -2.0205406119  0.1804980654 -0.7390644851
H  -2.3103852369  1.0951568137 -0.2679084129
H  -2.3622784718  0.1150536320 -1.7282122275
H  -2.4321874222 -0.6957714455 -0.1558319745
C  -0.4135078476  2.2207767225 -1.9556533569
H   0.3436343682  2.5493525409 -2.7043769904
H  -1.3794712152  2.4210658642 -2.3742216884
H  -0.2689757093  2.7994162169 -1.0582021435
O   2.4515959367 -1.0752134468 -0.4918135167
H   3.0839797429 -1.7794028341 -0.6643126891
H   2.3112585195 -0.0243744333 -1.3913966835
22
Iteration 134  Energy = -424.8196469409
C  -0.3531421193  0.0280610387 -0.5003863157
C  -0.2774499344  0.7610931032 -1.7324244656
H  -0.2985650304  0.1170196767 -2.6148592769
O   0.0123788985 -1.2761431528 -0.5347153752
H   1.0416501376 -1.3167148587 -0.4776790990
O   1.9800231733  0.7601685306 -2.0774540800
H   2.1785740239  0.4300255199 -2.9440441635
C   0.0822685681  0.7703998408  0.7621691257
H  -0.4245003830  1.7232749183  0.8968580118
H  -0.1489196013  0.1357379836  1.6059682509
H   1.1557905426  0.9238188814  0.7034996484
C  -2.0205572425  0.1805001397 -0.7390778984
H  -2.3103716703  1.0949526221 -0.2678295384
H  -2.3619923840  0.1150050430 -1.7279678945
H  -2.4325346921 -0.6959058634 -0.1556496174
C  -0.4135062018  2.2207762695 -1.9556552294
H   0.3437001888  2.5496132440 -2.7045281447
H  -1.3793431049  2.4209412233 -2.3742132261
H  -0.2689464611  2.7993658300 -1.0582199000
O   2.4515790948 -1.0752580691 -0.4917640632
H   3.0839437882 -1.7794371324 -0.6643058695
H   2.3112073791 -0.0243997482 -1.3914749707
22
Iteration 135  Energy = -424.8195669793
C  -0.3531047498  0.0280482142 -0.5003803405
C  -0.2774901103  0.7610931150 -1.7324110325
H  -0.2984046403  0.1170247270 -2.6149580908
O   0.0124098954 -1.2761297445 -0.5347273501
H   1.0412395824 -1.3165306670 -0.4777383287
O   1.9800394779  0.7602097769 -2.0775075083
H   2.1785324284  0.4301003647 -2.9440266232
C   0.0822694424  0.7704051710  0.7621722737
H  -0.4244971464  1.7233007599  0.8969396193
H  -0.1489808659  0.1357774748  1.6059279364
H   1.1557693914  0.9237582966  0.7034943941
C  -2.0205739990  0.1805023044 -0.7390914579
H  -2.3103579111  1.0947485046 -0.2677506666
H  -2.3617059934  0.1149566667 -1.7277238134
H  -2.4328819418 -0.6960403667 -0.1554674221
C  -0.4135045916  2.2207757982 -1.9556570627
H   0.3437660024  2.5498738532 -2.7046792799
H  -1.3792150372  2.4208166873 -2.3742046998
H  -0.2689171588  2.7993154173 -1.0582376086
O   2.4515623767 -1.0753025359 -0.4917146902
H   3.0839077617 -1.7794714402 -0.6642992393
H   2.3111563423 -0.0244256594 -1.3915528952
22
Iteration 136  Energy = -424.8194862499
C  -0.3530672313  0.0280354881 -0.5003743518
C  -0.2775304737  0.7610930836 -1.7323975470
H  -0.2982444698  0.1170298203 -2.6150568735
O   0.0124408286 -1.2761164216 -0.5347393015
H   1.0408282793 -1.3163465315 -0.4777975003
O   1.9800558518  0.7602509132 -2.0775608794
H   2.1784911089  0.4301751638 -2.9440090059
C   0.0822703542  0.7704104756  0.7621754542
H  -0.4244938538  1.7233265950  0.8970211387
H  -0.1490422144  0.1358169791  1.6058876525
H   1.1557482870  0.9236976259  0.7034892245
C  -2.0205908801  0.1805045585 -0.7391051625
H  -2.3103439606  1.0945444606 -0.2676717973
H  -2.3614192957  0.1149085021 -1.7274799844
H  -2.4332291715 -0.6961749556 -0.1552853893
C  -0.4135030166  2.2207753090 -1.9556588567
H   0.3438318088  2.5501343689 -2.7048303962
H  -1.3790870121  2.4206922567 -2.3741961097
H  -0.2688878027  2.7992649796 -1.0582552692
O   2.4515457815 -1.0753468488 -0.4916653971
H   3.0838716634 -1.7795057595 -0.6642927945
H   2.3111054044 -0.0244521512 -1.3916304655
22
Iteration 137  Energy = -424.8194049816
C  -0.3530295713  0.0280228618 -0.5003683508
C  -0.2775710186  0.7610930099 -1.7323840116
H  -0.2980845157  0.1170349582 -2.6151556271
O   0.0124716967 -1.2761031842 -0.5347512300
H   1.0404162336 -1.3161624513 -0.4778566113
O   1.9800722942  0.7602919395 -2.0776141926
H   2.1784500669  0.4302499135 -2.9439913096
C   0.0822713031  0.7704157545  0.7621786661
H  -0.4244905039  1.7233524240  0.8971025706
H  -0.1491036462  0.1358564967  1.6058473990
H   1.1557272293  0.9236368683  0.7034841382
C  -2.0206078821  0.1805068983 -0.7391190069
H  -2.3103298236  1.0943404885 -0.2675929304
H  -2.3611322886  0.1148605462 -1.7272364050
H  -2.4335763843 -0.6963096287 -0.1551035181
C  -0.4135014756  2.2207748022 -1.9556606120
H   0.3438976071  2.5503947930 -2.7049814936
H  -1.3789590301  2.4205679307 -2.3741874559
H  -0.2688583937  2.7992145174 -1.0582728816
O   2.4515293090 -1.0753910071 -0.4916161844
H   3.0838354924 -1.7795400918 -0.6642865322
H   2.3110545623 -0.0244792171 -1.3917076840
22
Iteration 138  Energy = -424.8193227660
C  -0.3529917694  0.0280103357 -0.5003623376
C  -0.2776117478  0.7610928933 -1.7323704252
H  -0.2979247789  0.1170401418 -2.6152543517
O   0.0125024997 -1.2760900323 -0.5347631348
H   1.0400034503 -1.3159784255 -0.4779156601
O   1.9800888071  0.7603328551 -2.0776674472
H   2.1784093055  0.4303246062 -2.9439735307
C   0.0822722886  0.7704210073  0.7621819094
H  -0.4244870963  1.7233782472  0.8971839147
H  -0.1491651616  0.1358960275  1.6058071762
H   1.1557062181  0.9235760232  0.7034791355
C  -2.0206250051  0.1805093244 -0.7391329921
H  -2.3103154990  1.0941365888 -0.2675140660
H  -2.3608449657  0.1148128017 -1.7269930774
H  -2.4339235804 -0.6964443866 -0.1549218115
C  -0.4134999690  2.2207742779 -1.9556623283
H   0.3439633977  2.5506551249 -2.7051325719
H  -1.3788310915  2.4204437104 -2.3741787379
H  -0.2688289316  2.7991640313 -1.0582904457
O   2.4515129589 -1.0754350100 -0.4915670541
H   3.0837992501 -1.7795744384 -0.6642804451
H   2.3110038152 -0.0245068550 -1.3917845495
22
Iteration 139  Energy = -424.8192398560
C  -0.3529538317  0.0279979109 -0.5003563134
C  -0.2776526574  0.7610927348 -1.7323567899
H  -0.2977652561  0.1170453726 -2.6153530490
O   0.0125332368 -1.2760769656 -0.5347750165
H   1.0395899350 -1.3157944519 -0.4779746440
O   1.9801053906  0.7603736608 -2.0777206436
H   2.1783688255  0.4303992381 -2.9439556675
C   0.0822733104  0.7704262339  0.7621851830
H  -0.4244836297  1.7234040654  0.8972651715
H  -0.1492267606  0.1359355719  1.6057669838
H   1.1556852532  0.9235150891  0.7034742155
C  -2.0206422454  0.1805118335 -0.7391471136
H  -2.3103009921  1.0939327593 -0.2674352043
H  -2.3605573236  0.1147652645 -1.7267499988
H  -2.4342707639 -0.6965792283 -0.1547402679
C  -0.4134984955  2.2207737363 -1.9556640060
H   0.3440291801  2.5509153665 -2.7052836315
H  -1.3787031959  2.4203195954 -2.3741699562
H  -0.2687994173  2.7991135218 -1.0583079613
O   2.4514967303 -1.0754788584 -0.4915180055
H   3.0837629355 -1.7796088014 -0.6642745310
H   2.3109531585 -0.0245350529 -1.3918610684
22
Iteration 140  Energy = -424.8191562780
C  -0.3529157622  0.0279855882 -0.5003502790
C  -0.2776937452  0.7610925349 -1.7323431064
H  -0.2976059460  0.1170506517 -2.6154517194
O   0.0125639072 -1.2760639840 -0.5347868753
H   1.0391756961 -1.3156105299 -0.4780335602
O   1.9801220449  0.7604143567 -2.0777737812
H   2.1783286297  0.4304738030 -2.9439377171
C   0.0822743680  0.7704314342  0.7621884861
H  -0.4244801028  1.7234298789  0.8973463407
H  -0.1492884426  0.1359751296  1.6057268215
H   1.1556643346  0.9234540651  0.7034693775
C  -2.0206596008  0.1805144236 -0.7391613685
H  -2.3102863053  1.0937290002 -0.2673563454
H  -2.3602693608  0.1147179331 -1.7265071690
H  -2.4346179351 -0.6967141526 -0.1545588880
C  -0.4134970547  2.2207731777 -1.9556656453
H   0.3440949538  2.5511755175 -2.7054346718
H  -1.3785753445  2.4201955859 -2.3741611111
H  -0.2687698516  2.7990629898 -1.0583254282
O   2.4514806228 -1.0755225520 -0.4914690392
H   3.0837265495 -1.7796431813 -0.6642687852
H   2.3109025895 -0.0245638019 -1.3919372438
22
Iteration 141  Energy = -424.8190718303
C  -0.3528775646  0.0279733683 -0.5003442352
C  -0.2777350096  0.7610922940 -1.7323293758
H  -0.2974468459  0.1170559806 -2.6155503647
O   0.0125945107 -1.2760510871 -0.5347987115
H   1.0387607376 -1.3154266571 -0.4780924067
O   1.9801387705  0.7604549434 -2.0778268604
H   2.1782887194  0.4305482965 -2.9439196772
C   0.0822754610  0.7704366078  0.7621918181
H  -0.4244765146  1.7234556886  0.8974274230
H  -0.1493502082  0.1360147012  1.6056866891
H   1.1556434620  0.9233929498  0.7034646212
C  -2.0206770690  0.1805170927 -0.7391757543
H  -2.3102714415  1.0935253091 -0.2672774895
H  -2.3599810711  0.1146708050 -1.7262645856
H  -2.4349650993 -0.6968491597 -0.1543776706
C  -0.4134956460  2.2207726023 -1.9556672464
H   0.3441607185  2.5514355810 -2.7055856938
H  -1.3784475366  2.4200716814 -2.3741522023
H  -0.2687402347  2.7990124356 -1.0583428464
O   2.4514646355 -1.0755660915 -0.4914201549
H   3.0836900914 -1.7796775801 -0.6642632038
H   2.3108521047 -0.0245930940 -1.3920130797
22
Iteration 142  Energy = -424.8189867036
C  -0.3528392419  0.0279612519 -0.5003381825
C  -0.2777764498  0.7610920122 -1.7323155987
H  -0.2972879549  0.1170613604 -2.6156489859
O   0.0126250466 -1.2760382748 -0.5348105248
H   1.0383450653 -1.3152428323 -0.4781511815
O   1.9801555683  0.7604954207 -2.0778798806
H   2.1782490973  0.4306227129 -2.9439015451
C   0.0822765890  0.7704417547  0.7621951784
H  -0.4244728644  1.7234814948  0.8975084181
H  -0.1494120572  0.1360542868  1.6056465868
H   1.1556226353  0.9233317425  0.7034599461
C  -2.0206946481  0.1805198397 -0.7391902692
H  -2.3102564030  1.0933216861 -0.2671986370
H  -2.3596924498  0.1146238783 -1.7260222489
H  -2.4353122578 -0.6969842492 -0.1541966164
C  -0.4134942689  2.2207720104 -1.9556688094
H   0.3442264743  2.5516955568 -2.7057366971
H  -1.3783197725  2.4199478822 -2.3741432300
H  -0.2687105674  2.7989618597 -1.0583602156
O   2.4514487683 -1.0756094765 -0.4913713538
H   3.0836535613 -1.7797119997 -0.6642577815
H   2.3108017013 -0.0246229215 -1.3920885786
22
Iteration 143  Energy = -424.8189007665
C  -0.3528008012  0.0279492404 -0.5003321222
C  -0.2778180607  0.7610916907 -1.7323017771
H  -0.2971292701  0.1170667928 -2.6157475843
O   0.0126555138 -1.2760255472 -0.5348223159
H   1.0379286848 -1.3150590536 -0.4782098822
O   1.9801724381  0.7605357888 -2.0779328413
H   2.1782097644  0.4306970468 -2.9438833181
C   0.0822777515  0.7704468746  0.7621985658
H  -0.4244691507  1.7235072981  0.8975893263
H  -0.1494739891  0.1360938864  1.6056065143
H   1.1556018542  0.9232704419  0.7034553510
C  -2.0207123340  0.1805226610 -0.7392049083
H  -2.3102411950  1.0931181297 -0.2671197888
H  -2.3594034949  0.1145771486 -1.7257801563
H  -2.4356594142 -0.6971194192 -0.1540157240
C  -0.4134929224  2.2207714021 -1.9556703347
H   0.3442922204  2.5519554464 -2.7058876814
H  -1.3781920528  2.4198241878 -2.3741341950
H  -0.2686808509  2.7989112631 -1.0583775356
O   2.4514330204 -1.0756527067 -0.4913226362
H   3.0836169597 -1.7797464407 -0.6642525148
H   2.3107513765 -0.0246532775 -1.3921637429
22
Iteration 144  Energy = -424.8188140955
C  -0.3527622450  0.0279373344 -0.5003260552
C  -0.2778598426  0.7610913296 -1.7322879112
H  -0.2969707901  0.1170722785 -2.6158461598
O   0.0126859125 -1.2760129035 -0.5348340850
H   1.0375116057 -1.3148753199 -0.4782685052
O   1.9801893813  0.7605760486 -2.0779857433
H   2.1781707244  0.4307712927 -2.9438649945
C   0.0822789480  0.7704519674  0.7622019797
H  -0.4244653724  1.7235330993  0.8976701475
H  -0.1495360040  0.1361335001  1.6055664712
H   1.1555811189  0.9232090470  0.7034508359
C  -2.0207301249  0.1805255552 -0.7392196696
H  -2.3102258206  1.0929146399 -0.2670409451
H  -2.3591142048  0.1145306137 -1.7255383077
H  -2.4360065704 -0.6972546692 -0.1538349938
C  -0.4134916062  2.2207707778 -1.9556718223
H   0.3443579564  2.5522152491 -2.7060386462
H  -1.3780643779  2.4197005990 -2.3741250973
H  -0.2686510860  2.7988606465 -1.0583948062
O   2.4514173908 -1.0756957836 -0.4912740014
H   3.0835802863 -1.7797809048 -0.6642473997
H   2.3107011259 -0.0246841477 -1.3922385799
22
Iteration 145  Energy = -424.8187267883
C  -0.3527235776  0.0279255343 -0.5003199820
C  -0.2779017936  0.7610909293 -1.7322740020
H  -0.2968125132  0.1170778192 -2.6159447142
O   0.0127162420 -1.2760003437 -0.5348458324
H   1.0370938326 -1.3146916292 -0.4783270492
O   1.9802063985  0.7606161999 -2.0780385860
H   2.1781319797  0.4308454450 -2.9438465711
C   0.0822801781  0.7704570329  0.7622054194
H  -0.4244615289  1.7235588986  0.8977508817
H  -0.1495981018  0.1361731280  1.6055264577
H   1.1555604290  0.9231475570  0.7034464001
C  -2.0207480179  0.1805285205 -0.7392345503
H  -2.3102102837  1.0927112155 -0.2669621070
H  -2.3588245745  0.1144842699 -1.7252967013
H  -2.4363537306 -0.6973899981 -0.1536544250
C  -0.4134903199  2.2207701375 -1.9556732724
H   0.3444236823  2.5524749661 -2.7061895915
H  -1.3779367480  2.4195771160 -2.3741159372
H  -0.2686212734  2.7988100105 -1.0584120274
O   2.4514018788 -1.0757387064 -0.4912254505
H   3.0835435415 -1.7798153931 -0.6642424310
H   2.3106509473 -0.0247155287 -1.3923130894
22
Iteration 146  Energy = -424.8186383266
C  -0.3526848040  0.0279138412 -0.5003139036
C  -0.2779439107  0.7610904905 -1.7322600509
H  -0.2966544369  0.1170834163 -2.6160432488
O   0.0127465015 -1.2759878675 -0.5348575582
H   1.0366753699 -1.3145079798 -0.4783855116
O   1.9802234901  0.7606562428 -2.0780913691
H   2.1780935323  0.4309194992 -2.9438280458
C   0.0822814412  0.7704620709  0.7622088839
H  -0.4244576189  1.7235846967  0.8978315291
H  -0.1496602826  0.1362127705  1.6054864735
H   1.1555397841  0.9230859706  0.7034420429
C  -2.0207660102  0.1805315545 -0.7392495470
H  -2.3101945878  1.0925078555 -0.2668832751
H  -2.3585345999  0.1144381134 -1.7250553355
H  -2.4367008992 -0.6975254053 -0.1534740163
C  -0.4134890627  2.2207694816 -1.9556746852
H   0.3444893976  2.5527345988 -2.7063405172
H  -1.3778091632  2.4194537382 -2.3741067149
H  -0.2685914140  2.7987593557 -1.0584291988
O   2.4513864840 -1.0757814750 -0.4911769840
H   3.0835067255 -1.7798499073 -0.6642376037
H   2.3106008385 -0.0247474136 -1.3923872736
22
Iteration 147  Energy = -424.8185494434
C  -0.3526459303  0.0279022564 -0.5003078212
C  -0.2779861907  0.7610900142 -1.7322460595
H  -0.2964965581  0.1170890709 -2.6161417642
O   0.0127766907 -1.2759754746 -0.5348692634
H   1.0362562279 -1.3143243688 -0.4784438883
O   1.9802406562  0.7606961792 -2.0781440936
H   2.1780553841  0.4309934479 -2.9438094160
C   0.0822827369  0.7704670813  0.7622123720
H  -0.4244536406  1.7236104945  0.8979120896
H  -0.1497225461  0.1362524277  1.6054465182
H   1.1555191845  0.9230242861  0.7034377637
C  -2.0207840973  0.1805346538 -0.7392646550
H  -2.3101787388  1.0923045593 -0.2668044512
H  -2.3582442799  0.1143921363 -1.7248142080
H  -2.4370480786 -0.6976608888 -0.1532937652
C  -0.4134878336  2.2207688103 -1.9556760611
H   0.3445551020  2.5529941477 -2.7064914228
H  -1.3776816239  2.4193304655 -2.3740974319
H  -0.2685615099  2.7987086831 -1.0584463202
O   2.4513712050 -1.0758240916 -0.4911286000
H   3.0834698378 -1.7798844485 -0.6642329155
H   2.3105507927 -0.0247797811 -1.3924611447
22
Iteration 148  Energy = -424.8184598438
C  -0.3526069601  0.0278907803 -0.5003017356
C  -0.2780286319  0.7610895007 -1.7322320285
H  -0.2963388751  0.1170947846 -2.6162402617
O   0.0128068089 -1.2759631645 -0.5348809480
H   1.0358364105 -1.3141407948 -0.4785021781
O   1.9802578978  0.7607360083 -2.0781967587
H   2.1780175380  0.4310672874 -2.9437906795
C   0.0822840647  0.7704720638  0.7622158832
H  -0.4244495934  1.7236362926  0.8979925633
H  -0.1497848924  0.1362920997  1.6054065918
H   1.1554986299  0.9229625029  0.7034335619
C  -2.0208022772  0.1805378168 -0.7392798720
H  -2.3101627404  1.0921013259 -0.2667256363
H  -2.3579536098  0.1143463355 -1.7245733174
H  -2.4373952736 -0.6977964481 -0.1531136710
C  -0.4134866323  2.2207681239 -1.9556774003
H   0.3446207950  2.5532536138 -2.7066423082
H  -1.3775541304  2.4192072979 -2.3740880880
H  -0.2685315616  2.7986579934 -1.0584633915
O   2.4513560412 -1.0758665551 -0.4910803001
H   3.0834328795 -1.7799190174 -0.6642283613
H   2.3105008088 -0.0248126309 -1.3925347003
22
Iteration 149  Energy = -424.8183694459
C  -0.3525678966  0.0278794135 -0.5002956473
C  -0.2780712340  0.7610889502 -1.7322179583
H  -0.2961813887  0.1171005583 -2.6163387411
O   0.0128368559 -1.2759509371 -0.5348926120
H   1.0354159282 -1.3139572583 -0.4785603781
O   1.9802752160  0.7607757300 -2.0782493639
H   2.1779799979  0.4311410109 -2.9437718335
C   0.0822854241  0.7704770184  0.7622194167
H  -0.4244454766  1.7236620909  0.8980729492
H  -0.1498473209  0.1363317866  1.6053666946
H   1.1554781201  0.9229006209  0.7034294372
C  -2.0208205475  0.1805410426 -0.7392951960
H  -2.3101465958  1.0918981574 -0.2666468324
H  -2.3576625884  0.1143007074 -1.7243326653
H  -2.4377424854 -0.6979320809 -0.1529337347
C  -0.4134854587  2.2207674225 -1.9556787026
H   0.3446864760  2.5535129944 -2.7067931714
H  -1.3774266842  2.4190842372 -2.3740786834
H  -0.2685015702  2.7986072875 -1.0584804124
O   2.4513409921 -1.0759088653 -0.4910320854
H   3.0833958512 -1.7799536153 -0.6642239346
H   2.3104508846 -0.0248459562 -1.3926079423
22
Iteration 150  Energy = -424.8182780644
C  -0.3525287452  0.0278681568 -0.5002895575
C  -0.2781139937  0.7610883636 -1.7322038506
H  -0.2960240924  0.1171063937 -2.6164372055
O   0.0128668315 -1.2759387918 -0.5349042565
H   1.0349947800 -1.3137737531 -0.4786184867
O   1.9802926112  0.7608153457 -2.0783019104
H   2.1779427648  0.4312146143 -2.9437528754
C   0.0822868146  0.7704819450  0.7622229714
H  -0.4244412886  1.7236878909  0.8981532490
H  -0.1499098326  0.1363714890  1.6053268254
H   1.1554576547  0.9228386375  0.7034253885
C  -2.0208389044  0.1805443279 -0.7393106226
H  -2.3101303109  1.0916950484 -0.2665680391
H  -2.3573712091  0.1142552443 -1.7240922447
H  -2.4380897249 -0.6980677884 -0.1527539507
C  -0.4134843118  2.2207667062 -1.9556799684
H   0.3447521458  2.5537722955 -2.7069440148
H  -1.3772992831  2.4189612806 -2.3740692192
H  -0.2684715369  2.7985565655 -1.0584973828
O   2.4513260563 -1.0759510235 -0.4909839545
H   3.0833587525 -1.7799882435 -0.6642196324
H   2.3104010145 -0.0248797454 -1.3926808774
22
Iteration 151  Energy = -424.8181861320
C  -0.3524895122  0.0278570115 -0.5002834672
C  -0.2781569081  0.7610877417 -1.7321897066
H  -0.2958669886  0.1171122918 -2.6165356531
O   0.0128967346 -1.2759267283 -0.5349158816
H   1.0345729848 -1.3135902823 -0.4786764986
O   1.9803100839  0.7608548551 -2.0783543972
H   2.1779058437  0.4312880912 -2.9437338043
C   0.0822882355  0.7704868433  0.7622265463
H  -0.4244370284  1.7237136924  0.8982334599
H  -0.1499724259  0.1364112064  1.6052869855
H   1.1554372342  0.9227765532  0.7034214161
C  -2.0208573435  0.1805476702 -0.7393261481
H  -2.3101138914  1.0914920046 -0.2664892615
H  -2.3570794767  0.1142099395 -1.7238520602
H  -2.4384369869 -0.6982035650 -0.1525743212
C  -0.4134831913  2.2207659756 -1.9556811980
H   0.3448178020  2.5540315101 -2.7070948337
H  -1.3771719312  2.4188384322 -2.3740596960
H  -0.2684414637  2.7985058296 -1.0585143023
O   2.4513112333 -1.0759930296 -0.4909359081
H   3.0833215844 -1.7800229025 -0.6642154512
H   2.3103511968 -0.0249139854 -1.3927535094
22
Iteration 152  Energy = -424.8180934122
C  -0.3524502001  0.0278459774 -0.5002773771
C  -0.2781999773  0.7610870849 -1.7321755269
H  -0.2957100689  0.1171182542 -2.6166340880
O   0.0129265661 -1.2759147457 -0.5349274883
H   1.0341505355 -1.3134068372 -0.4787344138
O   1.9803276358  0.7608942604 -2.0784068264
H   2.1778692362  0.4313614376 -2.9437146163
C   0.0822896866  0.7704917134  0.7622301406
H  -0.4244326948  1.7237394971  0.8983135851
H  -0.1500351028  0.1364509402  1.6052471729
H   1.1554168576  0.9227143649  0.7034175188
C  -2.0208758630  0.1805510676 -0.7393417695
H  -2.3100973416  1.0912890181 -0.2664104984
H  -2.3567873779  0.1141647841 -1.7236121016
H  -2.4387842890 -0.6983394142 -0.1523948372
C  -0.4134820964  2.2207652307 -1.9556823915
H   0.3448834469  2.5542906480 -2.7072456331
H  -1.3770446242  2.4187156874 -2.3740501144
H  -0.2684113510  2.7984550787 -1.0585311710
O   2.4512965212 -1.0760348858 -0.4908879444
H   3.0832843461 -1.7800575942 -0.6642113856
H   2.3103014251 -0.0249486669 -1.3928258459
22
Iteration 153  Energy = -424.8179997275
C  -0.3524108163  0.0278350563 -0.5002712883
C  -0.2782431956  0.7610863941 -1.7321613135
H  -0.2955533339  0.1171242826 -2.6167325110
O   0.0129563239 -1.2759028444 -0.5349390766
H   1.0337274409 -1.3132234185 -0.4787922293
O   1.9803452662  0.7609335599 -2.0784591957
H   2.1778329435  0.4314346458 -2.9436953086
C   0.0822911670  0.7704965549  0.7622337532
H  -0.4244282868  1.7237653050  0.8983936231
H  -0.1500978623  0.1364906901  1.6052073882
H   1.1553965248  0.9226520728  0.7034136955
C  -2.0208944582  0.1805545175 -0.7393574826
H  -2.3100806672  1.0910860919 -0.2663317532
H  -2.3564949139  0.1141197722 -1.7233723701
H  -2.4391316315 -0.6984753322 -0.1522154990
C  -0.4134810264  2.2207644716 -1.9556835491
H   0.3449490789  2.5545497064 -2.7073964098
H  -1.3769173644  2.4185930473 -2.3740404752
H  -0.2683812009  2.7984043145 -1.0585479885
O   2.4512819205 -1.0760765896 -0.4908400662
H   3.0832470392 -1.7800923189 -0.6642074303
H   2.3102516996 -0.0249837891 -1.3928978820
22
Iteration 154  Energy = -424.8179055379
C  -0.3523713664  0.0278242490 -0.5002652020
C  -0.2782865610  0.7610856702 -1.7321470679
H  -0.2953967800  0.1171303784 -2.6168309226
O   0.0129860080 -1.2758910235 -0.5349506476
H   1.0333037103 -1.3130400234 -0.4788499415
O   1.9803629760  0.7609727554 -2.0785115062
H   2.1777969704  0.4315077106 -2.9436758789
C   0.0822926763  0.7705013678  0.7622373829
H  -0.4244238030  1.7237911170  0.8984735737
H  -0.1501607042  0.1365304565  1.6051676311
H   1.1553762360  0.9225896752  0.7034099458
C  -2.0209131248  0.1805580167 -0.7393732828
H  -2.3100638749  1.0908832252 -0.2662530289
H  -2.3562020829  0.1140748926 -1.7231328631
H  -2.4394790191 -0.6986113171 -0.1520363023
C  -0.4134799805  2.2207636990 -1.9556846713
H   0.3450146976  2.5548086858 -2.7075471632
H  -1.3767901523  2.4184705123 -2.3740307794
H  -0.2683510153  2.7983535378 -1.0585647545
O   2.4512674297 -1.0761181431 -0.4907922718
H   3.0832096627 -1.7801270786 -0.6642035818
H   2.3102020145 -0.0250193330 -1.3929696284
22
Iteration 155  Energy = -424.8178104404
C  -0.3523318542  0.0278135559 -0.5002591190
C  -0.2783300721  0.7610849136 -1.7321327906
H  -0.2952404062  0.1171365426 -2.6169293234
O   0.0130156183 -1.2758792826 -0.5349622014
H   1.0328793511 -1.3128566507 -0.4789075480
O   1.9803807666  0.7610118467 -2.0785637578
H   2.1777613196  0.4315806271 -2.9436563258
C   0.0822942138  0.7705061520  0.7622410290
H  -0.4244192426  1.7238169335  0.8985534366
H  -0.1502236287  0.1365702394  1.6051279016
H   1.1553559906  0.9225271716  0.7034062694
C  -2.0209318599  0.1805615638 -0.7393891676
H  -2.3100469697  1.0906804187 -0.2661743279
H  -2.3559088829  0.1140301392 -1.7228935797
H  -2.4398264570 -0.6987473672 -0.1518572456
C  -0.4134789587  2.2207629127 -1.9556857579
H   0.3450803026  2.5550675853 -2.7076978923
H  -1.3766629885  2.4183480830 -2.3740210278
H  -0.2683207955  2.7983027497 -1.0585814688
O   2.4512530478 -1.0761595460 -0.4907445620
H   3.0831722188 -1.7801618727 -0.6641998344
H   2.3101523679 -0.0250552954 -1.3930410849
22
Iteration 156  Energy = -424.8177146375
C  -0.3522922861  0.0278029781 -0.5002530404
C  -0.2783737259  0.7610841253 -1.7321184830
H  -0.2950842090  0.1171427768 -2.6170277148
O   0.0130451545 -1.2758676211 -0.5349737391
H   1.0324543696 -1.3126732969 -0.4789650455
O   1.9803986386  0.7610508351 -2.0786159510
H   2.1777259951  0.4316533897 -2.9436366464
C   0.0822957790  0.7705109073  0.7622446901
H  -0.4244146042  1.7238427555  0.8986332118
H  -0.1502866357  0.1366100390  1.6050881992
H   1.1553357887  0.9224645606  0.7034026654
C  -2.0209506592  0.1805651557 -0.7394051323
H  -2.3100299590  1.0904776712 -0.2660956531
H  -2.3556153121  0.1139855009 -1.7226545162
H  -2.4401739521 -0.6988834805 -0.1516783239
C  -0.4134779602  2.2207621129 -1.9556868093
H   0.3451458936  2.5553264061 -2.7078485967
H  -1.3765358731  2.4182257588 -2.3740112216
H  -0.2682905436  2.7982519510 -1.0585981313
O   2.4512387733 -1.0762007995 -0.4906969358
H   3.0831347068 -1.7801967030 -0.6641961843
H   2.3101027548 -0.0250916626 -1.3931122581
22
Iteration 157  Energy = -424.8176180275
C  -0.3522526676  0.0277925164 -0.5002469673
C  -0.2784175195  0.7610833062 -1.7321041468
H  -0.2949281851  0.1171490825 -2.6171260980
O   0.0130746159 -1.2758560385 -0.5349852616
H   1.0320287719 -1.3124899594 -0.4790224313
O   1.9804165925  0.7610897209 -2.0786680861
H   2.1776909993  0.4317259926 -2.9436168383
C   0.0822973713  0.7705156338  0.7622483652
H  -0.4244098865  1.7238685836  0.8987128993
H  -0.1503497252  0.1366498559  1.6050485236
H   1.1553156301  0.9224018409  0.7033991334
C  -2.0209695182  0.1805687895 -0.7394211727
H  -2.3100128493  1.0902749825 -0.2660170078
H  -2.3553213677  0.1139409661 -1.7224156695
H  -2.4405215098 -0.6990196553 -0.1514995323
C  -0.4134769842  2.2207613002 -1.9556878258
H   0.3452114704  2.5555851491 -2.7079992757
H  -1.3764088063  2.4181035396 -2.3740013619
H  -0.2682602613  2.7982011426 -1.0586147416
O   2.4512246055 -1.0762419041 -0.4906493930
H   3.0830971276 -1.7802315697 -0.6641926283
H   2.3100531711 -0.0251284231 -1.3931831534
22
Iteration 158  Energy = -424.8175205665
C  -0.3522130024  0.0277821712 -0.5002409004
C  -0.2784614520  0.7610824567 -1.7320897824
H  -0.2947723330  0.1171554608 -2.6172244734
O   0.0131040027 -1.2758445342 -0.5349967692
H   1.0316025665 -1.3123066364 -0.4790797026
O   1.9804346296  0.7611285048 -2.0787201634
H   2.1776563367  0.4317984311 -2.9435968998
C   0.0822989902  0.7705203313  0.7622520536
H  -0.4244050888  1.7238944184  0.8987924984
H  -0.1504128975  0.1366896901  1.6050088746
H   1.1552955146  0.9223390118  0.7033956730
C  -2.0209884343  0.1805724638 -0.7394372860
H  -2.3099956463  1.0900723534 -0.2659383959
H  -2.3550270471  0.1138965255 -1.7221770391
H  -2.4408691365 -0.6991558894 -0.1513208679
C  -0.4134760306  2.2207604745 -1.9556888074
H   0.3452770326  2.5558438134 -2.7081499283
H  -1.3762817886  2.4179814261 -2.3739914496
H  -0.2682299502  2.7981503254 -1.0586312997
O   2.4512105431 -1.0762828605 -0.4906019335
H   3.0830594812 -1.7802664746 -0.6641891593
H   2.3100036138 -0.0251655688 -1.3932537734
22
Iteration 159  Energy = -424.8174224232
C  -0.3521732985  0.0277719439 -0.5002348410
C  -0.2785055192  0.7610815781 -1.7320753920
H  -0.2946166489  0.1171619134 -2.6173228425
O   0.0131333139 -1.2758331076 -0.5350082631
H   1.0311757596 -1.3121233247 -0.4791368560
O   1.9804527504  0.7611671876 -2.0787721831
H   2.1776220106  0.4318706995 -2.9435768283
C   0.0823006349  0.7705249997  0.7622557536
H  -0.4244002094  1.7239202608  0.8988720093
H  -0.1504761522  0.1367295421  1.6049692521
H   1.1552754420  0.9222760720  0.7033922832
C  -2.0210074016  0.1805761747 -0.7394534666
H  -2.3099783587  1.0898697835 -0.2658598217
H  -2.3547323497  0.1138521648 -1.7219386207
H  -2.4412168378 -0.6992921801 -0.1511423245
C  -0.4134750985  2.2207596362 -1.9556897545
H   0.3453425798  2.5561024001 -2.7083005535
H  -1.3761548205  2.4178594179 -2.3739814863
H  -0.2681996128  2.7980995006 -1.0586478051
O   2.4511965852 -1.0763236694 -0.4905545567
H   3.0830217683 -1.7803014180 -0.6641857749
H   2.3099540787 -0.0252030865 -1.3933241246
22
Iteration 160  Energy = -424.8173234847
C  -0.3521335596  0.0277618349 -0.5002287901
C  -0.2785497202  0.7610806709 -1.7320609760
H  -0.2944611303  0.1171684413 -2.6174212057
O   0.0131625498 -1.2758217582 -0.5350197440
H   1.0307483585 -1.3119400212 -0.4791938887
O   1.9804709561  0.7612057703 -2.0788241458
H   2.1775880241  0.4319427903 -2.9435566207
C   0.0823023050  0.7705296390  0.7622594644
H  -0.4243952472  1.7239461116  0.8989514315
H  -0.1505394895  0.1367694122  1.6049296555
H   1.1552554121  0.9222130201  0.7033889638
C  -2.0210264169  0.1805799205 -0.7394697114
H  -2.3099609924  1.0896672731 -0.2657812891
H  -2.3544372721  0.1138078722 -1.7217004123
H  -2.4415646204 -0.6994285255 -0.1509638970
C  -0.4134741874  2.2207587856 -1.9556906673
H   0.3454081120  2.5563609091 -2.7084511506
H  -1.3760279021  2.4177375150 -2.3739714730
H  -0.2681692508  2.7980486689 -1.0586642577
O   2.4511827304 -1.0763643316 -0.4905072621
H   3.0829839895 -1.7803364007 -0.6641824692
H   2.3099045606 -0.0252409643 -1.3933942122
22
Iteration 161  Energy = -424.8172237621
C  -0.3520937925  0.0277518453 -0.5002227488
C  -0.2785940512  0.7610797362 -1.7320465363
H  -0.2943057739  0.1171750466 -2.6175195647
O   0.0131917096 -1.2758104852 -0.5350312128
H   1.0303203694 -1.3117567232 -0.4792507975
O   1.9804892475  0.7612442531 -2.0788760515
H   2.1775543813  0.4320147001 -2.9435362757
C   0.0823039997  0.7705342491  0.7622631849
H  -0.4243902012  1.7239719715  0.8990307649
H  -0.1506029096  0.1368093005  1.6048900846
H   1.1552354248  0.9221498551  0.7033857140
C  -2.0210454753  0.1805836979 -0.7394860154
H  -2.3099435557  1.0894648228 -0.2657028036
H  -2.3541418130  0.1137636331 -1.7214624106
H  -2.4419124911 -0.6995649228 -0.1507855794
C  -0.4134732968  2.2207579229 -1.9556915459
H   0.3454736286  2.5566193411 -2.7086017188
H  -1.3759010339  2.4176157172 -2.3739614112
H  -0.2681388666  2.7979978315 -1.0586806573
O   2.4511689777 -1.0764048476 -0.4904600496
H   3.0829461455 -1.7803714232 -0.6641792384
H   2.3098550569 -0.0252791934 -1.3934640396
22
Iteration 162  Energy = -424.8171234075
C  -0.3520540040  0.0277419761 -0.5002167182
C  -0.2786385089  0.7610787751 -1.7320320746
H  -0.2941505767  0.1171817306 -2.6176179207
O   0.0132207929 -1.2757992882 -0.5350426704
H   1.0298917996 -1.3115734273 -0.4793075796
O   1.9805076250  0.7612826369 -2.0789279007
H   2.1775210856  0.4320864220 -2.9435157904
C   0.0823057184  0.7705388299  0.7622669136
H  -0.4243850700  1.7239978413  0.8991100094
H  -0.1506664123  0.1368492076  1.6048505392
H   1.1552154797  0.9220865760  0.7033825328
C  -2.0210645717  0.1805875039 -0.7395023737
H  -2.3099260566  1.0892624329 -0.2656243700
H  -2.3538459705  0.1137194325 -1.7212246124
H  -2.4422604562 -0.6997013690 -0.1506073649
C  -0.4134724259  2.2207570483 -1.9556923908
H   0.3455391292  2.5568776967 -2.7087522570
H  -1.3757742161  2.4174940240 -2.3739513024
H  -0.2681084625  2.7979469894 -1.0586970036
O   2.4511553256 -1.0764452182 -0.4904129187
H   3.0829082367 -1.7804064860 -0.6641760782
H   2.3098055632 -0.0253177617 -1.3935336119
22
Iteration 163  Energy = -424.8170221231
C  -0.3520141997  0.0277322281 -0.5002106994
C  -0.2786830901  0.7610777885 -1.7320175923
H  -0.2939955352  0.1171884949 -2.6177162750
O   0.0132497991 -1.2757881667 -0.5350541178
H   1.0294626535 -1.3113901315 -0.4793642322
O   1.9805260893  0.7613209218 -2.0789796930
H   2.1774881409  0.4321579510 -2.9434951620
C   0.0823074604  0.7705433814  0.7622706495
H  -0.4243798526  1.7240237216  0.8991891647
H  -0.1507299977  0.1368891337  1.6048110190
H   1.1551955766  0.9220231817  0.7033794198
C  -2.0210837021  0.1805913359 -0.7395187823
H  -2.3099085031  1.0890601037 -0.2655459933
H  -2.3535497425  0.1136752564 -1.7209870148
H  -2.4426085236 -0.6998378617 -0.1504292476
C  -0.4134715742  2.2207561622 -1.9556932022
H   0.3456046137  2.5571359764 -2.7089027644
H  -1.3756474489  2.4173724356 -2.3739411478
H  -0.2680780405  2.7978961437 -1.0587132965
O   2.4511417739 -1.0764854431 -0.4903658699
H   3.0828702635 -1.7804415904 -0.6641729833
H   2.3097560765 -0.0253566635 -1.3936029304
22
Iteration 164  Energy = -424.8169200524
C  -0.3519743840  0.0277226020 -0.5002046932
C  -0.2787277943  0.7610767769 -1.7320030899
H  -0.2938406476  0.1171953408 -2.6178146281
O   0.0132787284 -1.2757771197 -0.5350655555
H   1.0290329394 -1.3112068324 -0.4794207517
O   1.9805446421  0.7613591090 -2.0790314295
H   2.1774555514  0.4322292828 -2.9434743897
C   0.0823092250  0.7705479034  0.7622743917
H  -0.4243745480  1.7240496133  0.8992682303
H  -0.1507936663  0.1369290793  1.6047715238
H   1.1551757152  0.9219596714  0.7033763747
C  -2.0211028625  0.1805951919 -0.7395352377
H  -2.3098909023  1.0888578364 -0.2654676796
H  -2.3532531268  0.1136310894 -1.7207496159
H  -2.4429566994 -0.6999743983 -0.1502512215
C  -0.4134707415  2.2207552647 -1.9556939800
H   0.3456700815  2.5573941798 -2.7090532399
H  -1.3755207331  2.4172509524 -2.3739309487
H  -0.2680476028  2.7978452953 -1.0587295357
O   2.4511283206 -1.0765255237 -0.4903189022
H   3.0828322271 -1.7804767366 -0.6641699486
H   2.3097065930 -0.0253958867 -1.3936720013
22
Iteration 165  Energy = -424.8168173595
C  -0.3519345654  0.0277130990 -0.5001987012
C  -0.2787726166  0.7610757422 -1.7319885697
H  -0.2936859084  0.1172022697 -2.6179129810
O   0.0133075803 -1.2757661466 -0.5350769855
H   1.0286026658 -1.3110235260 -0.4794771345
O   1.9805632838  0.7613972000 -2.0790831111
H   2.1774233208  0.4323004101 -2.9434534702
C   0.0823110117  0.7705523962  0.7622781385
H  -0.4243691545  1.7240755173  0.8993472065
H  -0.1508574175  0.1369690445  1.6047320529
H   1.1551558956  0.9218960432  0.7033733965
C  -2.0211220465  0.1805990674 -0.7395517333
H  -2.3098732653  1.0886556312 -0.2653894355
H  -2.3529561243  0.1135869112 -1.7205124105
H  -2.4433049898 -0.7001109748 -0.1500732767
C  -0.4134699266  2.2207543562 -1.9556947249
H   0.3457355326  2.5576523077 -2.7092036824
H  -1.3753940684  2.4171295736 -2.3739207078
H  -0.2680171522  2.7977944457 -1.0587457211
O   2.4511149644 -1.0765654620 -0.4902720135
H   3.0827941267 -1.7805119258 -0.6641669721
H   2.3096571053 -0.0254354110 -1.3937408349
22
Iteration 166  Energy = -424.8167138004
C  -0.3518947492  0.0277037200 -0.5001927243
C  -0.2788175547  0.7610746850 -1.7319740331
H  -0.2935313154  0.1172092834 -2.6180113353
O   0.0133363541 -1.2757552468 -0.5350884082
H   1.0281718368 -1.3108402095 -0.4795333779
O   1.9805820153  0.7614351947 -2.0791347375
H   2.1773914530  0.4323713285 -2.9434324019
C   0.0823128197  0.7705568594  0.7622818890
H  -0.4243636712  1.7241014344  0.8994260927
H  -0.1509212518  0.1370090298  1.6046926062
H   1.1551361173  0.9218322965  0.7033704847
C  -2.0211412503  0.1806029603 -0.7395682653
H  -2.3098555991  1.0884534901 -0.2653112682
H  -2.3526587307  0.1135427050 -1.7202753965
H  -2.4436534024 -0.7002475881 -0.1498954062
C  -0.4134691293  2.2207534370 -1.9556954370
H   0.3458009664  2.5579103605 -2.7093540911
H  -1.3752674556  2.4170082992 -2.3739104256
H  -0.2679866907  2.7977435956 -1.0587618524
O   2.4511017046 -1.0766052573 -0.4902252052
H   3.0827559640 -1.7805471582 -0.6641640467
H   2.3096076127 -0.0254752352 -1.3938094298
22
Iteration 167  Energy = -424.8166094198
C  -0.3518549404  0.0276944656 -0.5001867633
C  -0.2788626076  0.7610736061 -1.7319594806
H  -0.2933768655  0.1172163831 -2.6181096913
O   0.0133650503 -1.2757444194 -0.5350998247
H   1.0277404603 -1.3106568797 -0.4795894782
O   1.9806008384  0.7614730946 -2.0791863100
H   2.1773599533  0.4324420323 -2.9434111824
C   0.0823146484  0.7705612932  0.7622856421
H  -0.4243580969  1.7241273654  0.8995048887
H  -0.1509851697  0.1370490357  1.6046531834
H   1.1551163802  0.9217684300  0.7033676394
C  -2.0211604695  0.1806068681 -0.7395848296
H  -2.3098379135  1.0882514142 -0.2652331854
H  -2.3523609440  0.1134984514 -1.7200385714
H  -2.4440019438 -0.7003842348 -0.1497176020
C  -0.4134683492  2.2207525074 -1.9556961165
H   0.3458663832  2.5581683380 -2.7095044648
H  -1.3751408945  2.4168871297 -2.3739001045
H  -0.2679562211  2.7976927464 -1.0587779294
O   2.4510885393 -1.0766449115 -0.4901784753
H   3.0827177393 -1.7805824347 -0.6641611684
H   2.3095581092 -0.0255153427 -1.3938777947
22
Iteration 168  Energy = -424.8165044073
C  -0.3518151472  0.0276853372 -0.5001808199
C  -0.2789077700  0.7610725072 -1.7319449146
H  -0.2932225545  0.1172235705 -2.6182080503
O   0.0133936678 -1.2757336638 -0.5351112366
H   1.0273085442 -1.3104735330 -0.4796454320
O   1.9806197531  0.7615109003 -2.0792378286
H   2.1773288245  0.4325125151 -2.9433898092
C   0.0823164971  0.7705656975  0.7622893962
H  -0.4243524301  1.7241533112  0.8995835944
H  -0.1510491707  0.1370890622  1.6046137840
H   1.1550966841  0.9217044424  0.7033648592
C  -2.0211796979  0.1806107866 -0.7396014202
H  -2.3098202182  1.0880494053 -0.2651551950
H  -2.3520627653  0.1134541296 -1.7198019311
H  -2.4443506192 -0.7005209105 -0.1495398545
C  -0.4134675854  2.2207515676 -1.9556967638
H   0.3459317822  2.5584262404 -2.7096548021
H  -1.3750143858  2.4167660645 -2.3738897466
H  -0.2679257461  2.7976418993 -1.0587939521
O   2.4510754673 -1.0766844252 -0.4901318234
H   3.0826794529 -1.7806177555 -0.6641583341
H   2.3095085899 -0.0255557207 -1.3939459346
22
Iteration 169  Energy = -424.8163985471
C  -0.3517753750  0.0276763355 -0.5001748948
C  -0.2789530406  0.7610713891 -1.7319303361
H  -0.2930683789  0.1172308473 -2.6183064140
O   0.0134222067 -1.2757229791 -0.5351226446
H   1.0268760918 -1.3102901652 -0.4797012365
O   1.9806387611  0.7615486125 -2.0792892940
H   2.1772980723  0.4325827729 -2.9433682805
C   0.0823183650  0.7705700724  0.7622931503
H  -0.4243466698  1.7241792728  0.8996622097
H  -0.1511132556  0.1371291101  1.6045744078
H   1.1550770286  0.9216403325  0.7033621442
C  -2.0211989312  0.1806147135 -0.7396180329
H  -2.3098025224  1.0878474642 -0.2650773050
H  -2.3517641894  0.1134097196 -1.7195654723
H  -2.4446994380 -0.7006576121 -0.1493621549
C  -0.4134668375  2.2207506180 -1.9556973791
H   0.3459971635  2.5586840691 -2.7098051027
H  -1.3748879290  2.4166451032 -2.3738793534
H  -0.2678952681  2.7975910554 -1.0588099202
O   2.4510624876 -1.0767237991 -0.4900852489
H   3.0826411060 -1.7806531210 -0.6641555385
H   2.3094590518 -0.0255963620 -1.3940138529
22
Iteration 170  Energy = -424.8162918589
C  -0.3517356314  0.0276674616 -0.5001689895
C  -0.2789984157  0.7610702533 -1.7319157468
H  -0.2929143351  0.1172382146 -2.6184047821
O   0.0134506669 -1.2757123644 -0.5351340506
H   1.0264431154 -1.3101067734 -0.4797568866
O   1.9806578632  0.7615862331 -2.0793407076
H   2.1772677004  0.4326528004 -2.9433465951
C   0.0823202516  0.7705744178  0.7622969030
H  -0.4243408146  1.7242052509  0.8997407342
H  -0.1511774238  0.1371691792  1.6045350542
H   1.1550574139  0.9215760994  0.7033594936
C  -2.0212181633  0.1806186448 -0.7396346617
H  -2.3097848376  1.0876455940 -0.2649995253
H  -2.3514652198  0.1133651976 -1.7193291923
H  -2.4450484027 -0.7007943339 -0.1491844931
C  -0.4134661048  2.2207496589 -1.9556979629
H   0.3460625264  2.5589418222 -2.7099553643
H  -1.3747615254  2.4165242464 -2.3738689275
H  -0.2678647902  2.7975402166 -1.0588258337
O   2.4510495980 -1.0767630355 -0.4900387497
H   3.0826026981 -1.7806885325 -0.6641527779
H   2.3094094881 -0.0256372464 -1.3940815603
22
Iteration 171  Energy = -424.8161843449
C  -0.3516959223  0.0276587166 -0.5001631049
C  -0.2790438929  0.7610691009 -1.7319011481
H  -0.2927604199  0.1172456742 -2.6185031561
O   0.0134790476 -1.2757018191 -0.5351454553
H   1.0260096195 -1.3099233542 -0.4798123795
O   1.9806770607  0.7616237621 -2.0793920693
H   2.1772377148  0.4327225921 -2.9433247502
C   0.0823221560  0.7705787337  0.7623006532
H  -0.4243348635  1.7242312464  0.8998191674
H  -0.1512416757  0.1372092702  1.6044957233
H   1.1550378394  0.9215117421  0.7033569072
C  -2.0212373895  0.1806225776 -0.7396513022
H  -2.3097671730  1.0874437972 -0.2649218660
H  -2.3511658526  0.1133205405 -1.7190930883
H  -2.4453975204 -0.7009310716 -0.1490068594
C  -0.4134653870  2.2207486907 -1.9556985153
H   0.3461278706  2.5591995004 -2.7101055859
H  -1.3746351751  2.4164034940 -2.3738584707
H  -0.2678343152  2.7974893837 -1.0588416923
O   2.4510367978 -1.0768021344 -0.4899923261
H   3.0825642305 -1.7807239901 -0.6641500471
H   2.3093598958 -0.0256783670 -1.3941490589
22
Iteration 172  Energy = -424.8160761694
C  -0.3516562569  0.0276501020 -0.5001572427
C  -0.2790894664  0.7610679337 -1.7318865425
H  -0.2926066274  0.1172532280 -2.6186015378
O   0.0135073481 -1.2756913424 -0.5351568605
H   1.0255756080 -1.3097399022 -0.4798677119
O   1.9806963536  0.7616612009 -2.0794433796
H   2.1772081163  0.4327921401 -2.9433027428
C   0.0823240774  0.7705830203  0.7623043991
H  -0.4243288148  1.7242572605  0.8998975100
H  -0.1513060115  0.1372493834  1.6044564140
H   1.1550183049  0.9214472587  0.7033543834
C  -2.0212566035  0.1806265074 -0.7396679472
H  -2.3097495408  1.0872420750 -0.2648443371
H  -2.3508660861  0.1132757221 -1.7188571548
H  -2.4457467982 -0.7010678204 -0.1488292405
C  -0.4134646828  2.2207477137 -1.9556990369
H   0.3461931962  2.5594571061 -2.7102557669
H  -1.3745088775  2.4162828442 -2.3738479856
H  -0.2678038461  2.7974385581 -1.0588574960
O   2.4510240857 -1.0768410969 -0.4899459768
H   3.0825257032 -1.7807594944 -0.6641473426
H   2.3093102697 -0.0257197101 -1.3942163545
22
Iteration 173  Energy = -424.8159671966
C  -0.3516166411  0.0276416187 -0.5001514038
C  -0.2791351344  0.7610667529 -1.7318719311
H  -0.2924529543  0.1172608773 -2.6186999277
O   0.0135355686 -1.2756809334 -0.5351682677
H   1.0251410906 -1.3095564138 -0.4799228793
O   1.9807157433  0.7616985510 -2.0794946400
H   2.1771789126  0.4328614415 -2.9432805718
C   0.0823260154  0.7705872775  0.7623081398
H  -0.4243226672  1.7242832940  0.8999757616
H  -0.1513704312  0.1372895193  1.6044171263
H   1.1549988104  0.9213826484  0.7033519226
C  -2.0212757999  0.1806304309 -0.7396845920
H  -2.3097319517  1.0870404305 -0.2647669502
H  -2.3505659197  0.1132307168 -1.7186213891
H  -2.4460962409 -0.7012045749 -0.1486516260
C  -0.4134639918  2.2207467283 -1.9556995281
H   0.3462585028  2.5597146385 -2.7104059060
H  -1.3743826332  2.4161622977 -2.3738374746
H  -0.2677733857  2.7973877412 -1.0588732448
O   2.4510114599 -1.0768799249 -0.4898996997
H   3.0824871169 -1.7807950459 -0.6641446606
H   2.3092606034 -0.0257612593 -1.3942834561
22
Iteration 174  Energy = -424.8158575195
C  -0.3515770811  0.0276332677 -0.5001455893
C  -0.2791808951  0.7610655596 -1.7318573151
H  -0.2922993970  0.1172686236 -2.6187983265
O   0.0135637086 -1.2756705910 -0.5351796780
H   1.0247060720 -1.3093728856 -0.4799778783
O   1.9807352318  0.7617358130 -2.0795458513
H   2.1771501083  0.4329304913 -2.9432582357
C   0.0823279689  0.7705915054  0.7623118741
H  -0.4243164199  1.7243093480  0.9000539220
H  -0.1514349356  0.1373296781  1.6043778598
H   1.1549793555  0.9213179099  0.7033495245
C  -2.0212949738  0.1806343452 -0.7397012320
H  -2.3097144168  1.0868388678 -0.2646897182
H  -2.3502653508  0.1131854968 -1.7183857887
H  -2.4464458538 -0.7013413292 -0.1484740042
C  -0.4134633138  2.2207457350 -1.9556999891
H   0.3463237902  2.5599720975 -2.7105560019
H  -1.3742564424  2.4160418547 -2.3738269398
H  -0.2677429370  2.7973369346 -1.0588889385
O   2.4509989189 -1.0769186192 -0.4898534944
H   3.0824484719 -1.7808306454 -0.6641419964
H   2.3092108940 -0.0258030066 -1.3943503671
22
Iteration 175  Energy = -424.8158824444
C  -0.3515375838  0.0276250499 -0.5001398004
C  -0.2792267449  0.7610643554 -1.7318426962
H  -0.2921459513  0.1172764687 -2.6188967355
O   0.0135917680 -1.2756603146 -0.5351910927
H   1.0242705596 -1.3091893130 -0.4800327056
O   1.9807548198  0.7617729877 -2.0795970137
H   2.1771217074  0.4329992825 -2.9432357313
C   0.0823299374  0.7705957040  0.7623156006
H  -0.4243100717  1.7243354232  0.9001319910
H  -0.1514995241  0.1373698604  1.6043386143
H   1.1549599398  0.9212530427  0.7033471881
C  -2.0213141198  0.1806382465 -0.7397178613
H  -2.3096969477  1.0866373902 -0.2646126543
H  -2.3499643766  0.1131400334 -1.7181503506
H  -2.4467956424 -0.7014780775 -0.1482963624
C  -0.4134626480  2.2207447340 -1.9557004201
H   0.3463890582  2.5602294834 -2.7107060533
H  -1.3741303052  2.4159215144 -2.3738163836
H  -0.2677125029  2.7972861396 -1.0589045771
O   2.4509864613 -1.0769571806 -0.4898073602
H   3.0824097692 -1.7808662928 -0.6641393450
H   2.3091611370 -0.0258449396 -1.3944170925
22
Iteration 176  Energy = -424.8157711717
C  -0.3514981344  0.0276169624 -0.5001340390
C  -0.2792726413  0.7610631279 -1.7318280692
H  -0.2919926061  0.1172844417 -2.6189951733
O   0.0136197455 -1.2756501094 -0.5352024953
H   1.0238345851 -1.3090056425 -0.4800873658
O   1.9807744704  0.7618100918 -2.0796481274
H   2.1770934773  0.4330678808 -2.9432131305
C   0.0823319243  0.7705998722  0.7623193200
H  -0.4243036458  1.7243615043  0.9002099646
H  -0.1515641613  0.1374100634  1.6042994025
H   1.1549405638  0.9211880773  0.7033449099
C  -2.0213332324  0.1806421421 -0.7397345000
H  -2.3096794924  1.0864360236 -0.2645357799
H  -2.3496628964  0.1130944242 -1.7179151509
H  -2.4471456799 -0.7016148080 -0.1481187931
C  -0.4134619929  2.2207437211 -1.9557008227
H   0.3464542924  2.5604867919 -2.7108560643
H  -1.3740042670  2.4158012549 -2.3738057508
H  -0.2676820974  2.7972353474 -1.0589201370
O   2.4509740730 -1.0769956266 -0.4897612883
H   3.0823711243 -1.7809018750 -0.6641367517
H   2.3091114040 -0.0258871671 -1.3944835716
22
Iteration 177  Energy = -424.8156591783
C  -0.3514587632  0.0276090108 -0.5001283058
C  -0.2793186196  0.7610618929 -1.7318134428
H  -0.2918393631  0.1172925167 -2.6190936233
O   0.0136476415 -1.2756399683 -0.5352139057
H   1.0233981293 -1.3088219190 -0.4801418456
O   1.9807942227  0.7618471114 -2.0796991944
H   2.1770656579  0.4331362113 -2.9431903588
C   0.0823339247  0.7706040114  0.7623230291
H  -0.4242971162  1.7243876089  0.9002878470
H  -0.1516288833  0.1374502906  1.6042602106
H   1.1549212267  0.9211229804  0.7033426927
C  -2.0213523051  0.1806460164 -0.7397511161
H  -2.3096621281  1.0862347497 -0.2644591022
H  -2.3493610075  0.1130485092 -1.7176801063
H  -2.4474959013 -0.7017515196 -0.1479411762
C  -0.4134613486  2.2207427015 -1.9557011966
H   0.3465195068  2.5607440294 -2.7110060290
H  -1.3738782823  2.4156810974 -2.3737951021
H  -0.2676517128  2.7971845700 -1.0589356419
O   2.4509617650 -1.0770339429 -0.4897152841
H   3.0823324225 -1.7809375063 -0.6641341634
H   2.3090616124 -0.0259295522 -1.3945498798
22
Iteration 178  Energy = -424.8155463185
C  -0.3514194767  0.0276011962 -0.5001226015
C  -0.2793646773  0.7610606517 -1.7317988183
H  -0.2916862176  0.1173006952 -2.6191920863
O   0.0136754561 -1.2756298900 -0.5352253255
H   1.0229611980 -1.3086381376 -0.4801961412
O   1.9808140781  0.7618840477 -2.0797502160
H   2.1770382567  0.4332042703 -2.9431674148
C   0.0823359378  0.7706081216  0.7623267267
H  -0.4242904818  1.7244137380  0.9003656387
H  -0.1516936907  0.1374905425  1.6042210383
H   1.1549019282  0.9210577507  0.7033405366
C  -2.0213713330  0.1806498659 -0.7397677043
H  -2.3096448673  1.0860335722 -0.2643826359
H  -2.3490587065  0.1130022571 -1.7174452137
H  -2.4478463117 -0.7018882060 -0.1477634981
C  -0.4134607148  2.2207416758 -1.9557015420
H   0.3465847012  2.5610011965 -2.7111559466
H  -1.3737523513  2.4155610416 -2.3737844398
H  -0.2676213519  2.7971338085 -1.0589510920
O   2.4509495350 -1.0770721312 -0.4896693459
H   3.0822936638 -1.7809731874 -0.6641315758
H   2.3090117570 -0.0259720830 -1.3946160233
22
Iteration 179  Energy = -424.8154326483
C  -0.3513802837  0.0275935201 -0.5001169277
C  -0.2794108098  0.7610594063 -1.7317841980
H  -0.2915331656  0.1173089790 -2.6192905631
O   0.0137031884 -1.2756198737 -0.5352367564
H   1.0225238005 -1.3084542947 -0.4802502478
O   1.9808340374  0.7619209021 -2.0798011930
H   2.1770112771  0.4332720516 -2.9431442967
C   0.0823379630  0.7706122028  0.7623304116
H  -0.4242837412  1.7244398925  0.9004433393
H  -0.1517585832  0.1375308192  1.6041818856
H   1.1548826681  0.9209923876  0.7033384409
C  -2.0213903090  0.1806536859 -0.7397842574
H  -2.3096277238  1.0858324982 -0.2643063998
H  -2.3487559937  0.1129556298 -1.7172104706
H  -2.4481969115 -0.7020248574 -0.1475857430
C  -0.4134600904  2.2207406444 -1.9557018596
H   0.3466498749  2.5612582924 -2.7113058149
H  -1.3736264747  2.4154410877 -2.3737737671
H  -0.2675910188  2.7970830649 -1.0589664870
O   2.4509373819 -1.0771101928 -0.4896234724
H   3.0822548483 -1.7810089191 -0.6641289852
H   2.3089618325 -0.0260147432 -1.3946820102
22
Iteration 180  Energy = -424.8153184349
C  -0.3513411921  0.0275859841 -0.5001112854
C  -0.2794570138  0.7610581586 -1.7317695833
H  -0.2913802021  0.1173173696 -2.6193890547
O   0.0137308382 -1.2756099185 -0.5352482002
H   1.0220859403 -1.3082703849 -0.4803041616
O   1.9808541020  0.7619576757 -2.0798521266
H   2.1769847243  0.4333395514 -2.9431210032
C   0.0823399993  0.7706162554  0.7623340823
H  -0.4242768936  1.7244660734  0.9005209495
H  -0.1518235609  0.1375711211  1.6041427518
H   1.1548634461  0.9209268898  0.7033364052
C  -2.0214092276  0.1806574721 -0.7398007696
H  -2.3096107120  1.0856315318 -0.2642304109
H  -2.3484528648  0.1129085928 -1.7169758734
H  -2.4485477049 -0.7021614664 -0.1474078958
C  -0.4134594750  2.2207396077 -1.9557021498
H   0.3467150281  2.5615153183 -2.7114556334
H  -1.3735006518  2.4153212344 -2.3737630870
H  -0.2675607163  2.7970323407 -1.0589818273
O   2.4509253040 -1.0771481292 -0.4895776618
H   3.0822159763 -1.7810447019 -0.6641263882
H   2.3089118340 -0.0260575220 -1.3947478459
22
Iteration 181  Energy = -424.8152032106
C  -0.3513022091  0.0275785893 -0.5001056757
C  -0.2795032866  0.7610569102 -1.7317549760
H  -0.2912273219  0.1173258685 -2.6194875615
O   0.0137584050 -1.2756000232 -0.5352596585
H   1.0216476256 -1.3080864031 -0.4803578775
O   1.9808742736  0.7619943702 -2.0799030182
H   2.1769586049  0.4334067639 -2.9430975322
C   0.0823420461  0.7706202794  0.7623377377
H  -0.4242699372  1.7244922820  0.9005984690
H  -0.1518886244  0.1376114488  1.6041036367
H   1.1548442619  0.9208612560  0.7033344297
C  -2.0214280826  0.1806612201 -0.7398172345
H  -2.3095938455  1.0854306804 -0.2641546910
H  -2.3481493158  0.1128611035 -1.7167414199
H  -2.4488986928 -0.7022980235 -0.1472299390
C  -0.4134588678  2.2207385666 -1.9557024132
H   0.3467801605  2.5617722741 -2.7116054005
H  -1.3733748829  2.4152014820 -2.3737524028
H  -0.2675304483  2.7969816379 -1.0589971129
O   2.4509132994 -1.0771859424 -0.4895319121
H   3.0821770485 -1.7810805357 -0.6641237810
H   2.3088617548 -0.0261004012 -1.3948135404
22
Iteration 182  Energy = -424.8150872438
C  -0.3512633445  0.0275713377 -0.5001001002
C  -0.2795496224  0.7610556634 -1.7317403784
H  -0.2910745191  0.1173344777 -2.6195860853
O   0.0137858881 -1.2755901869 -0.5352711335
H   1.0212088604 -1.3079023439 -0.4804113912
O   1.9808945523  0.7620309868 -2.0799538687
H   2.1769329219  0.4334736839 -2.9430738820
C   0.0823441026  0.7706242749  0.7623413764
H  -0.4242628709  1.7245185194  0.9006758989
H  -0.1519537734  0.1376518024  1.6040645398
H   1.1548251154  0.9207954850  0.7033325133
C  -2.0214468671  0.1806649245 -0.7398336447
H  -2.3095771404  1.0852299492 -0.2640792596
H  -2.3478453449  0.1128131216 -1.7165071055
H  -2.4492498771 -0.7024345187 -0.1470518547
C  -0.4134582679  2.2207375214 -1.9557026506
H   0.3468452721  2.5620291616 -2.7117551156
H  -1.3732491676  2.4150818293 -2.3737417180
H  -0.2675002183  2.7969309580 -1.0590123441
O   2.4509013665 -1.0772236338 -0.4894862212
H   3.0821380643 -1.7811164216 -0.6641211605
H   2.3088115891 -0.0261433667 -1.3948791004
22
Iteration 183  Energy = -424.8149706943
C  -0.3512246033  0.0275642303 -0.5000945596
C  -0.2795960217  0.7610544197 -1.7317257911
H  -0.2909217898  0.1173431983 -2.6196846254
O   0.0138132878 -1.2755804083 -0.5352826268
H   1.0207696534 -1.3077182024 -0.4804646976
O   1.9809149409  0.7620675276 -2.0800046803
H   2.1769076825  0.4335403073 -2.9430500520
C   0.0823461681  0.7706282422  0.7623449974
H  -0.4242556935  1.7245447868  0.9007532388
H  -0.1520190087  0.1376921824  1.6040254608
H   1.1548060063  0.9207295758  0.7033306570
C  -2.0214655762  0.1806685821 -0.7398499954
H  -2.3095606108  1.0850293472 -0.2640041406
H  -2.3475409464  0.1127646035 -1.7162729295
H  -2.4496012576 -0.7025709421 -0.1468736258
C  -0.4134576752  2.2207364728 -1.9557028622
H   0.3469103629  2.5622859795 -2.7119047772
H  -1.3731235060  2.4149622771 -2.3737310356
H  -0.2674700295  2.7968803030 -1.0590275210
O   2.4508895030 -1.0772612062 -0.4894405866
H   3.0820990242 -1.7811523602 -0.6641185229
H   2.3087613310 -0.0261864017 -1.3949445362
22
Iteration 184  Energy = -424.8148533540
C  -0.3511859972  0.0275572693 -0.5000890554
C  -0.2796424759  0.7610531816 -1.7317112173
H  -0.2907691277  0.1173520328 -2.6197831848
O   0.0138406024 -1.2755706867 -0.5352941401
H   1.0203300048 -1.3075339736 -0.4805177939
O   1.9809354391  0.7621039924 -2.0800554521
H   2.1768828894  0.4336066280 -2.9430260388
C   0.0823482417  0.7706321814  0.7623485994
H  -0.4242484042  1.7245710851  0.9008304899
H  -0.1520843298  0.1377325892  1.6039863994
H   1.1547869339  0.9206635278  0.7033288589
C  -2.0214842025  0.1806721869 -0.7398662784
H  -2.3095442737  1.0848288809 -0.2639293575
H  -2.3472361151  0.1127155037 -1.7160388880
H  -2.4499528365 -0.7027072822 -0.1466952327
C  -0.4134570884  2.2207354213 -1.9557030489
H   0.3469754327  2.5625427307 -2.7120543843
H  -1.3729978977  2.4148428231 -2.3737203592
H  -0.2674398857  2.7968296744 -1.0590426438
O   2.4508777085 -1.0772986586 -0.4893950088
H   3.0820599286 -1.7811883516 -0.6641158639
H   2.3087109782 -0.0262295046 -1.3950098450
22
Iteration 185  Energy = -424.8147350598
C  -0.3511475310  0.0275504558 -0.5000835880
C  -0.2796889848  0.7610519507 -1.7316966574
H  -0.2906165283  0.1173609823 -2.6198817631
O   0.0138678323 -1.2755610206 -0.5353056754
H   1.0198899217 -1.3073496526 -0.4805706748
O   1.9809560495  0.7621403829 -2.0801061867
H   2.1768585505  0.4336726434 -2.9430018424
C   0.0823503226  0.7706360927  0.7623521815
H  -0.4242410021  1.7245974153  0.9009076525
H  -0.1521497377  0.1377730233  1.6039473552
H   1.1547678978  0.9205973403  0.7033271200
C  -2.0215027417  0.1806757354 -0.7398824888
H  -2.3095281443  1.0846285601 -0.2638549377
H  -2.3469308422  0.1126657738 -1.7158049799
H  -2.4503046149 -0.7028435277 -0.1465166558
C  -0.4134565076  2.2207343675 -1.9557032109
H   0.3470404814  2.5627994152 -2.7122039363
H  -1.3728723423  2.4147234676 -2.3737096918
H  -0.2674097901  2.7967790738 -1.0590577128
O   2.4508659800 -1.0773359936 -0.4893494852
H   3.0820207782 -1.7812243960 -0.6641131794
H   2.3086605250 -0.0262726607 -1.3950750360
22
Iteration 186  Energy = -424.8146161950
C  -0.3511092160  0.0275437919 -0.5000781591
C  -0.2797355424  0.7610507296 -1.7316821144
H  -0.2904639858  0.1173700485 -2.6199803609
O   0.0138949764 -1.2755514091 -0.5353172348
H   1.0194494134 -1.3071652340 -0.4806233346
O   1.9809767723  0.7621767010 -2.0801568849
H   2.1768346698  0.4337383460 -2.9429774603
C   0.0823524101  0.7706399764  0.7623557423
H  -0.4242334858  1.7246237787  0.9009847269
H  -0.1522152313  0.1378134847  1.6039083283
H   1.1547488982  0.9205310123  0.7033254395
C  -2.0215211853  0.1806792211 -0.7398986177
H  -2.3095122412  1.0844283950 -0.2637809093
H  -2.3466251267  0.1126153607 -1.7155712029
H  -2.4506565865 -0.7029796639 -0.1463378740
C  -0.4134559312  2.2207333122 -1.9557033493
H   0.3471055089  2.5630560324 -2.7123534307
H  -1.3727468403  2.4146042102 -2.3736990382
H  -0.2673797475  2.7967285038 -1.0590727283
O   2.4508543161 -1.0773732134 -0.4893040128
H   3.0819815720 -1.7812604943 -0.6641104679
H   2.3086099633 -0.0263158473 -1.3951401209
22
Iteration 187  Energy = -424.8144964475
C  -0.3510710594  0.0275372793 -0.5000727693
C  -0.2797821454  0.7610495204 -1.7316675896
H  -0.2903114949  0.1173792335 -2.6200789792
O   0.0139220338 -1.2755418509 -0.5353288202
H   1.0190084826 -1.3069807127 -0.4806757691
O   1.9809976094  0.7622129474 -2.0802075477
H   2.1768112522  0.4338037329 -2.9429528919
C   0.0823545033  0.7706438326  0.7623592808
H  -0.4242258547  1.7246501762  0.9010617137
H  -0.1522808114  0.1378539742  1.6038693185
H   1.1547299344  0.9204645433  0.7033238175
C  -2.0215395280  0.1806826398 -0.7399146595
H  -2.3094965820  1.0842283963 -0.2637073042
H  -2.3463189575  0.1125642094 -1.7153375560
H  -2.4510087515 -0.7031156774 -0.1461588654
C  -0.4134553591  2.2207322560 -1.9557034645
H   0.3471705150  2.5633125832 -2.7125028669
H  -1.3726213912  2.4144850502 -2.3736884017
H  -0.2673497611  2.7966779663 -1.0590876907
O   2.4508427152 -1.0774103188 -0.4892585910
H   3.0819423107 -1.7812966467 -0.6641077245
H   2.3085592904 -0.0263590597 -1.3952051017
22
Iteration 188  Energy = -424.8143761107
C  -0.3510330712  0.0275309201 -0.5000674200
C  -0.2798287888  0.7610483256 -1.7316530854
H  -0.2901590489  0.1173885389 -2.6201776191
O   0.0139490040 -1.2755323450 -0.5353404338
H   1.0185671343 -1.3067960824 -0.4807279730
O   1.9810185612  0.7622491241 -2.0802581767
H   2.1767883034  0.4338687986 -2.9429281350
C   0.0823566014  0.7706476618  0.7623627957
H  -0.4242181076  1.7246766092  0.9011386141
H  -0.1523464776  0.1378944918  1.6038303252
H   1.1547110060  0.9203979324  0.7033222536
C  -2.0215577627  0.1806859853 -0.7399306060
H  -2.3094811860  1.0840285742 -0.2636341532
H  -2.3460123269  0.1125122632 -1.7151040364
H  -2.4513611067 -0.7032515539 -0.1459796068
C  -0.4134547901  2.2207311997 -1.9557035576
H   0.3472355000  2.5635690692 -2.7126522439
H  -1.3724959944  2.4143659861 -2.3736777868
H  -0.2673198353  2.7966274632 -1.0591026004
O   2.4508311753 -1.0774473120 -0.4892132165
H   3.0819029936 -1.7813328541 -0.6641049472
H   2.3085084985 -0.0264022787 -1.3952699886
22
Iteration 189  Energy = -424.8142547992
C  -0.3509952584  0.0275247159 -0.5000621115
C  -0.2798754691  0.7610471475 -1.7316386032
H  -0.2900066430  0.1173979665 -2.6202762810
O   0.0139758862 -1.2755228899 -0.5353520775
H   1.0181253740 -1.3066113392 -0.4807799424
O   1.9810396297  0.7622852314 -2.0803087724
H   2.1767658277  0.4339335394 -2.9429031890
C   0.0823587037  0.7706514642  0.7623662865
H  -0.4242102444  1.7247030785  0.9012154286
H  -0.1524122302  0.1379350381  1.6037913486
H   1.1546921124  0.9203311799  0.7033207477
C  -2.0215758843  0.1806892532 -0.7399464511
H  -2.3094660728  1.0838289434 -0.2635614957
H  -2.3457052214  0.1124594566 -1.7148706449
H  -2.4517136493 -0.7033872763 -0.1458000732
C  -0.4134542240  2.2207301440 -1.9557036291
H   0.3473004636  2.5638254906 -2.7128015604
H  -1.3723706499  2.4142470180 -2.3736671971
H  -0.2672899736  2.7965769964 -1.0591174577
O   2.4508196946 -1.0774841936 -0.4891678890
H   3.0818636217 -1.7813691163 -0.6641021314
H   2.3084575856 -0.0264455010 -1.3953347823
22
Iteration 190  Energy = -424.8141329675
C  -0.3509576304  0.0275186690 -0.5000568451
C  -0.2799221834  0.7610459885 -1.7316241444
H  -0.2898542709  0.1174075179 -2.6203749649
O   0.0140026796 -1.2755134845 -0.5353637535
H   1.0176832076 -1.3064264756 -0.4808316705
O   1.9810608163  0.7623212718 -2.0803593372
H   2.1767438316  0.4339979487 -2.9428780520
C   0.0823608091  0.7706552402  0.7623697517
H  -0.4242022638  1.7247295855  0.9012921579
H  -0.1524780693  0.1379756134  1.6037523885
H   1.1546732534  0.9202642846  0.7033193003
C  -2.0215938851  0.1806924374 -0.7399621872
H  -2.3094512634  1.0836295176 -0.2634893700
H  -2.3453976317  0.1124057218 -1.7146373797
H  -2.4520663720 -0.7035228272 -0.1456202378
C  -0.4134536597  2.2207290899 -1.9557036799
H   0.3473654063  2.5640818475 -2.7129508150
H  -1.3722453570  2.4141281450 -2.3736566378
H  -0.2672601808  2.7965265686 -1.0591322632
O   2.4508082708 -1.0775209668 -0.4891226048
H   3.0818241943 -1.7814054341 -0.6640992749
H   2.3084065427 -0.0264887017 -1.3953994972
22
Iteration 191  Energy = -424.8140101785
C  -0.3509201969  0.0275127816 -0.5000516213
C  -0.2799689245  0.7610448516 -1.7316097117
H  -0.2897019259  0.1174171953 -2.6204736723
O   0.0140293828 -1.2755041275 -0.5353754639
H   1.0172406393 -1.3062414880 -0.4808831537
O   1.9810821212  0.7623572452 -2.0804098707
H   2.1767223179  0.4340620232 -2.9428527225
C   0.0823629169  0.7706589902  0.7623731907
H  -0.4241941657  1.7247561311  0.9013688032
H  -0.1525439944  0.1380162182  1.6037134451
H   1.1546544282  0.9201972473  0.7033179107
C  -2.0216117591  0.1806955321 -0.7399778064
H  -2.3094367800  1.0834303131 -0.2634178205
H  -2.3450895418  0.1123509861 -1.7144042414
H  -2.4524192709 -0.7036581867 -0.1454400726
C  -0.4134530964  2.2207280379 -1.9557037108
H   0.3474303278  2.5643381414 -2.7131000063
H  -1.3721201156  2.4140093657 -2.3736461132
H  -0.2672304609  2.7964761817 -1.0591470173
O   2.4507969026 -1.0775576312 -0.4890773635
H   3.0817847113 -1.7814418076 -0.6640963739
H   2.3083553677 -0.0265318797 -1.3954641316
22
Iteration 192  Energy = -424.8138867653
C  -0.3508829665  0.0275070559 -0.5000464409
C  -0.2800156896  0.7610437393 -1.7315953066
H  -0.2895495997  0.1174270007 -2.6205724048
O   0.0140559952 -1.2754948176 -0.5353872113
H   1.0167976667 -1.3060563669 -0.4809343868
O   1.9811035463  0.7623931543 -2.0804603755
H   2.1767012923  0.4341257580 -2.9428271987
C   0.0823650262  0.7706627147  0.7623766024
H  -0.4241859494  1.7247827169  0.9014453666
H  -0.1526100064  0.1380568534  1.6036745175
H   1.1546356362  0.9201300666  0.7033165788
C  -2.0216294997  0.1806985315 -0.7399933015
H  -2.3094226457  1.0832313435 -0.2633468920
H  -2.3447809308  0.1122951707 -1.7141712264
H  -2.4527723441 -0.7037933369 -0.1452595448
C  -0.4134525333  2.2207269891 -1.9557037228
H   0.3474952295  2.5645943769 -2.7132491354
H  -1.3719949230  2.4138906775 -2.3736356283
H  -0.2672008181  2.7964258373 -1.0591617209
O   2.4507855877 -1.0775941899 -0.4890321616
H   3.0817451721 -1.7814782379 -0.6640934264
H   2.3083040534 -0.0265750192 -1.3955286950
22
Iteration 193  Energy = -424.8137625515
C  -0.3508459479  0.0275014941 -0.5000413042
C  -0.2800624737  0.7610426543 -1.7315809306
H  -0.2893972922  0.1174369353 -2.6206711588
O   0.0140825152 -1.2754855532 -0.5353989972
H   1.0163543122 -1.3058711148 -0.4809853627
O   1.9811250927  0.7624289984 -2.0805108508
H   2.1766807623  0.4341891482 -2.9428014808
C   0.0823671360  0.7706664142  0.7623799864
H  -0.4241776154  1.7248093429  0.9015218461
H  -0.1526761030  0.1380975181  1.6036356076
H   1.1546168773  0.9200627456  0.7033153057
C  -2.0216471009  0.1807014301 -0.7400086651
H  -2.3094088865  1.0830326367 -0.2632766421
H  -2.3444717882  0.1122381901 -1.7139383454
H  -2.4531255715 -0.7039282494 -0.1450786285
C  -0.4134519701  2.2207259443 -1.9557037166
H   0.3475601090  2.5648505443 -2.7133981954
H  -1.3718697837  2.4137720845 -2.3736251880
H  -0.2671712577  2.7963755397 -1.0591763741
O   2.4507743242 -1.0776306428 -0.4889869993
H   3.0817055780 -1.7815147240 -0.6640904277
H   2.3082525976 -0.0266181101 -1.3955931901
22
Iteration 194  Energy = -424.8136376663
C  -0.3508091530  0.0274960994 -0.5000362120
C  -0.2801092700  0.7610416000 -1.7315665865
H  -0.2892449924  0.1174470018 -2.6207699373
O   0.0141089407 -1.2754763335 -0.5354108245
H   1.0159105708 -1.3056857214 -0.4810360765
O   1.9811467604  0.7624647796 -2.0805612982
H   2.1766607295  0.4342521870 -2.9427755656
C   0.0823692453  0.7706700892  0.7623833414
H  -0.4241691630  1.7248360110  0.9015982445
H  -0.1527422847  0.1381382135  1.6035967148
H   1.1545981506  0.9199952833  0.7033140904
C  -2.0216645541  0.1807042206 -0.7400238881
H  -2.3093955293  1.0828342092 -0.2632071244
H  -2.3441620885  0.1121799507 -1.7137055941
H  -2.4534789490 -0.7040629022 -0.1448972851
C  -0.4134514051  2.2207249048 -1.9557036938
H   0.3476249680  2.5651066501 -2.7135471873
H  -1.3717446943  2.4136535823 -2.3736147988
H  -0.2671417849  2.7963252907 -1.0591909777
O   2.4507631108 -1.0776669917 -0.4889418737
H   3.0816659278 -1.7815512670 -0.6640873765
H   2.3082009928 -0.0266611368 -1.3956576249
22
Iteration 195  Energy = -424.8135120911
C  -0.3507725897  0.0274908740 -0.5000311643
C  -0.2801560737  0.7610405793 -1.7315522758
H  -0.2890926945  0.1174572024 -2.6208687403
O   0.0141352705 -1.2754671566 -0.5354226951
H   1.0154664485 -1.3055001834 -0.4810865238
O   1.9811685505  0.7625004980 -2.0806117178
H   2.1766411990  0.4343148716 -2.9427494528
C   0.0823713531  0.7706737404  0.7623866671
H  -0.4241605933  1.7248627217  0.9016745627
H  -0.1528085510  0.1381789399  1.6035578396
H   1.1545794552  0.9199276816  0.7033129333
C  -2.0216818541  0.1807068976 -0.7400389634
H  -2.3093826025  1.0826360868 -0.2631384050
H  -2.3438518028  0.1121203490 -1.7134729771
H  -2.4538324683 -0.7041972675 -0.1447154765
C  -0.4134508380  2.2207238713 -1.9557036550
H   0.3476898065  2.5653626941 -2.7136961093
H  -1.3716196547  2.4135351704 -2.3736044658
H  -0.2671124042  2.7962750929 -1.0592055325
O   2.4507519453 -1.0777032370 -0.4888967841
H   3.0816262220 -1.7815878663 -0.6640842692
H   2.3081492377 -0.0267040980 -1.3957219984
22
Iteration 196  Energy = -424.8133856080
C  -0.3507362693  0.0274858212 -0.5000261613
C  -0.2802028777  0.7610395957 -1.7315380009
H  -0.2889403911  0.1174675395 -2.6209675684
O   0.0141615022 -1.2754580212 -0.5354346115
H   1.0150219487 -1.3053144956 -0.4811366994
O   1.9811904634  0.7625361541 -2.0806621096
H   2.1766221733  0.4343771961 -2.9427231397
C   0.0823734583  0.7706773685  0.7623899628
H  -0.4241519069  1.7248894760  0.9017508021
H  -0.1528749009  0.1382196978  1.6035189826
H   1.1545607899  0.9198599422  0.7033118339
C  -2.0216989933  0.1807094541 -0.7400538821
H  -2.3093701388  1.0824382962 -0.2630705551
H  -2.3435408994  0.1120592710 -1.7132404974
H  -2.4541861173 -0.7043313151 -0.1445331605
C  -0.4134502673  2.2207228450 -1.9557036016
H   0.3477546252  2.5656186773 -2.7138449593
H  -1.3714946642  2.4134168470 -2.3735941957
H  -0.2670831214  2.7962249490 -1.0592200392
O   2.4507408264 -1.0777393788 -0.4888517298
H   3.0815864602 -1.7816245223 -0.6640811027
H   2.3080973277 -0.0267469857 -1.3957863128
22
Iteration 197  Energy = -424.8132586364
C  -0.3507001994  0.0274809436 -0.5000212026
C  -0.2802496786  0.7610386522 -1.7315237625
H  -0.2887880764  0.1174780149 -2.6210664202
O   0.0141876343 -1.2754489256 -0.5354465761
H   1.0145770803 -1.3051286543 -0.4811865966
O   1.9812125004  0.7625717492 -2.0807124748
H   2.1766036579  0.4344391554 -2.9426966262
C   0.0823755598  0.7706809744  0.7623932283
H  -0.4241431048  1.7249162749  0.9018269633
H  -0.1529413338  0.1382604876  1.6034801447
H   1.1545421543  0.9197920670  0.7033107935
C  -2.0217159660  0.1807118841 -0.7400686370
H  -2.3093581724  1.0822408697 -0.2630036563
H  -2.3432293417  0.1119965903 -1.7130081624
H  -2.4545398821 -0.7044650110 -0.1443502922
C  -0.4134496927  2.2207218272 -1.9557035348
H   0.3478194240  2.5658745977 -2.7139937346
H  -1.3713697228  2.4132986124 -2.3735839950
H  -0.2670539422  2.7961748624 -1.0592344987
O   2.4507297518 -1.0777754193 -0.4888067086
H   3.0815466421 -1.7816612355 -0.6640778742
H   2.3080452585 -0.0267897870 -1.3958505749
22
Iteration 198  Energy = -424.8131307514
C  -0.3506643960  0.0274762458 -0.5000162885
C  -0.2802964629  0.7610377534 -1.7315095653
H  -0.2886357407  0.1174886323 -2.6211652978
O   0.0142136622 -1.2754398687 -0.5354585911
H   1.0141318442 -1.3049426552 -0.4812362117
O   1.9812346595  0.7626072819 -2.0807628108
H   2.1765856529  0.4345007426 -2.9426699085
C   0.0823776561  0.7706845591  0.7623964627
H  -0.4241341884  1.7249431193  0.9019030480
H  -0.1530078479  0.1383013098  1.6034413269
H   1.1545235468  0.9197240593  0.7033098103
C  -2.0217327625  0.1807141786 -0.7400832163
H  -2.3093467422  1.0820438416 -0.2629377980
H  -2.3429170890  0.1119321651 -1.7127759757
H  -2.4548937487 -0.7045983167 -0.1441668188
C  -0.4134491120  2.2207208191 -1.9557034562
H   0.3478842032  2.5661304577 -2.7141424324
H  -1.3712448300  2.4131804630 -2.3735738716
H  -0.2670248734  2.7961248362 -1.0592489116
O   2.4507187210 -1.0778113557 -0.4887617221
H   3.0815067676 -1.7816980050 -0.6640745814
H   2.3079930291 -0.0268325053 -1.3959147768
22
Iteration 199  Energy = -424.8130020483
C  -0.3506288672  0.0274717310 -0.5000114180
C  -0.2803432263  0.7610369029 -1.7314954096
H  -0.2884833783  0.1174993939 -2.6212641995
O   0.0142395836 -1.2754308487 -0.5354706589
H   1.0136862496 -1.3047564951 -0.4812855383
O   1.9812569413  0.7626427531 -2.0808131180
H   2.1765681614  0.4345619526 -2.9426429860
C   0.0823797461  0.7706881236  0.7623996660
H  -0.4241251598  1.7249700098  0.9019790569
H  -0.1530744419  0.1383421649  1.6034025304
H   1.1545049664  0.9196559224  0.7033088855
C  -2.0217493767  0.1807163317 -0.7400976125
H  -2.3093358901  1.0818472526 -0.2628730828
H  -2.3426040894  0.1118658376 -1.7125439476
H  -2.4552477000 -0.7047311910 -0.1439826844
C  -0.4134485244  2.2207198220 -1.9557033674
H   0.3479489635  2.5663862550 -2.7142910495
H  -1.3711199854  2.4130623984 -2.3735638335
H  -0.2669959217  2.7960748742 -1.0592632790
O   2.4507077322 -1.0778471895 -0.4887167689
H   3.0814668370 -1.7817348306 -0.6640712215
H   2.3079406358 -0.0268751296 -1.3959789231
22
Iteration 200  Energy = -424.8128727812
C  -0.3505936283  0.0274674040 -0.5000065908
C  -0.2803899557  0.7610361054 -1.7314812996
H  -0.2883309793  0.1175103035 -2.6213631262
O   0.0142653937 -1.2754218640 -0.5354827824
H   1.0132403003 -1.3045701706 -0.4813345717
O   1.9812793437  0.7626781618 -2.0808633942
H   2.1765511825  0.4346227782 -2.9426158555
C   0.0823818280  0.7706916692  0.7624028376
H  -0.4241160217  1.7249969472  0.9020549914
H  -0.1531411135  0.1383830533  1.6033637567
H   1.1544864114  0.9195876611  0.7033080179
C  -2.0217657991  0.1807183342 -0.7401118138
H  -2.3093256651  1.0816511485 -0.2628096282
H  -2.3422902837  0.1117974250 -1.7123120866
H  -2.4556017179 -0.7048635855 -0.1437978229
C  -0.4134479277  2.2207188376 -1.9557032703
H   0.3480137057  2.5666419905 -2.7144395821
H  -1.3709951884  2.4129444156 -2.3735538905
H  -0.2669670954  2.7960249803 -1.0592776019
O   2.4506967847 -1.0778829185 -0.4886718499
H   3.0814268493 -1.7817717121 -0.6640677926
H   2.3078880765 -0.0269176594 -1.3960430095
22
Iteration 201  Energy = -424.8127428865
C  -0.3505586902  0.0274632695 -0.5000018052
C  -0.2804366431  0.7610353655 -1.7314672367
H  -0.2881785357  0.1175213644 -2.6214620765
O   0.0142910882 -1.2754129128 -0.5354949636
H   1.0127940037 -1.3043836801 -0.4813833067
O   1.9813018666  0.7627135071 -2.0809136376
H   2.1765347186  0.4346832125 -2.9425885151
C   0.0823839001  0.7706951975  0.7624059779
H  -0.4241067774  1.7250239320  0.9021308523
H  -0.1532078607  0.1384239758  1.6033250081
H   1.1544678803  0.9195192810  0.7033072084
C  -2.0217820226  0.1807201789 -0.7401258110
H  -2.3093161206  1.0814555831 -0.2627475698
H  -2.3419755988  0.1117267209 -1.7120804070
H  -2.4559557829 -0.7049954463 -0.1436121617
C  -0.4134473209  2.2207178675 -1.9557031668
H   0.3480784300  2.5668976621 -2.7145880257
H  -1.3708704390  2.4128265136 -2.3735440521
H  -0.2669384024  2.7959751588 -1.0592918813
O   2.4506858771 -1.0779185418 -0.4886269665
H   3.0813868051 -1.7818086489 -0.6640642913
H   2.3078353509 -0.0269600950 -1.3961070309
22
Iteration 202  Energy = -424.8126122810
C  -0.3505240688  0.0274593333 -0.4999970595
C  -0.2804832728  0.7610346887 -1.7314532245
H  -0.2880260388  0.1175325809 -2.6215610503
O   0.0143166604 -1.2754039933 -0.5355072049
H   1.0123473654 -1.3041970243 -0.4814317398
O   1.9813245070  0.7627487861 -2.0809638437
H   2.1765187674  0.4347432478 -2.9425609620
C   0.0823859603  0.7706987102  0.7624090871
H  -0.4240974320  1.7250509646  0.9022066406
H  -0.1532746806  0.1384649333  1.6032862874
H   1.1544493704  0.9194507905  0.7033064562
C  -2.0217980376  0.1807218562 -0.7401395918
H  -2.3093073201  1.0812606216 -0.2626870697
H  -2.3416599472  0.1116534800 -1.7118489252
H  -2.4563098729 -0.7051267081 -0.1434256141
C  -0.4134467021  2.2207169134 -1.9557030589
H   0.3481431369  2.5671532683 -2.7147363744
H  -1.3707457375  2.4127086895 -2.3735343300
H  -0.2669098530  2.7959254147 -1.0593061183
O   2.4506750093 -1.0779540546 -0.4885821228
H   3.0813467048 -1.7818456394 -0.6640607137
H   2.3077824641 -0.0270024519 -1.3961709698
22
Iteration 203  Energy = -424.8124807752
C  -0.3504897781  0.0274556015 -0.4999923513
C  -0.2805298318  0.7610340809 -1.7314392657
H  -0.2878734788  0.1175439575 -2.6216600459
O   0.0143421039 -1.2753951035 -0.5355195091
H   1.0119003957 -1.3040102034 -0.4814798659
O   1.9813472621  0.7627839971 -2.0810140088
H   2.1765033273  0.4348028759 -2.9425331926
C   0.0823880064  0.7707022095  0.7624121656
H  -0.4240879910  1.7250780452  0.9022823566
H  -0.1533415692  0.1385059262  1.6032475976
H   1.1544308798  0.9193821984  0.7033057615
C  -2.0218138354  0.1807233572 -0.7401531443
H  -2.3092993356  1.0810663372 -0.2626283116
H  -2.3413432226  0.1115774230 -1.7116176621
H  -2.4566639621 -0.7052572997 -0.1432380822
C  -0.4134460689  2.2207159773 -1.9557029493
H   0.3482078275  2.5674088059 -2.7148846217
H  -1.3706210838  2.4125909413 -2.3735247373
H  -0.2668814578  2.7958757535 -1.0593203141
O   2.4506641806 -1.0779894545 -0.4885373210
H   3.0813065479 -1.7818826828 -0.6640570585
H   2.3077294150 -0.0270447296 -1.3962348194
22
Iteration 204  Energy = -424.8123488160
C  -0.3504558399  0.0274520825 -0.4999876783
C  -0.2805762977  0.7610335492 -1.7314253655
H  -0.2877208439  0.1175555003 -2.6217590628
O   0.0143674085 -1.2753862417 -0.5355318787
H   1.0114531028 -1.3038232198 -0.4815276815
O   1.9813701259  0.7628191358 -2.0810641255
H   2.1764883898  0.4348620852 -2.9425052027
C   0.0823900355  0.7707056978  0.7624152136
H  -0.4240784616  1.7251051737  0.9023580013
H  -0.1534085211  0.1385469554  1.6032089430
H   1.1544124053  0.9193135164  0.7033051227
C  -2.0218294029  0.1807246698 -0.7401664522
H  -2.3092922525  1.0808728184 -0.2625715143
H  -2.3410253046  0.1114982177 -1.7113866405
H  -2.4570180190 -0.7053871338 -0.1430494489
C  -0.4134454180  2.2207150617 -1.9557028413
H   0.3482725023  2.5676642721 -2.7150327587
H  -1.3704964787  2.4124732650 -2.3735152901
H  -0.2668532307  2.7958261819 -1.0593344700
O   2.4506533924 -1.0780247349 -0.4884925674
H   3.0812663352 -1.7819197770 -0.6640533233
H   2.3076762089 -0.0270869439 -1.3962985594
22
Iteration 205  Energy = -424.8122161022
C  -0.3504222716  0.0274487847 -0.4999830359
C  -0.2806226501  0.7610331013 -1.7314115274
H  -0.2875681235  0.1175672151 -2.6218580985
O   0.0143925637 -1.2753774053 -0.5355443159
H   1.0110054981 -1.3036360803 -0.4815751846
O   1.9813930931  0.7628541968 -2.0811141858
H   2.1764739501  0.4349208671 -2.9424769887
C   0.0823920444  0.7707091782  0.7624182325
H  -0.4240688536  1.7251323499  0.9024335744
H  -0.1534755309  0.1385880220  1.6031703289
H   1.1543939431  0.9192447602  0.7033045401
C  -2.0218447300  0.1807257837 -0.7401795015
H  -2.3092861720  1.0806801733 -0.2625169457
H  -2.3407060330  0.1114154619 -1.7111558933
H  -2.4573720126 -0.7055161078 -0.1428595743
C  -0.4134447468  2.2207141690 -1.9557027381
H   0.3483371621  2.5679196616 -2.7151807753
H  -1.3703719231  2.4123556574 -2.3735060055
H  -0.2668251863  2.7957767071 -1.0593485875
O   2.4506426452 -1.0780598879 -0.4884478702
H   3.0812260663 -1.7819569202 -0.6640495052
H   2.3076228546 -0.0271291205 -1.3963621623
22
Iteration 206  Energy = -424.8120828310
C  -0.3503891011  0.0274457197 -0.4999784198
C  -0.2806688562  0.7610327470 -1.7313977584
H  -0.2874153035  0.1175791108 -2.6219571519
O   0.0144175542 -1.2753685924 -0.5355568233
H   1.0105575945 -1.3034487933 -0.4816223741
O   1.9814161534  0.7628891723 -2.0811641766
H   2.1764599903  0.4349792051 -2.9424485437
C   0.0823940289  0.7707126544  0.7624212230
H  -0.4240591787  1.7251595728  0.9025090759
H  -0.1535425899  0.1386291270  1.6031317620
H   1.1543754886  0.9191759486  0.7033040108
C  -2.0218598006  0.1807266838 -0.7401922713
H  -2.3092812167  1.0804885320 -0.2624649253
H  -2.3403852201  0.1113286742 -1.7109254585
H  -2.4577259016 -0.7056440977 -0.1426682904
C  -0.4134440503  2.2207133024 -1.9557026444
H   0.3484018077  2.5681749683 -2.7153286577
H  -1.3702474187  2.4122381134 -2.3734969058
H  -0.2667973436  2.7957273384 -1.0593626680
O   2.4506319421 -1.0780949019 -0.4884032408
H   3.0811857425 -1.7819941084 -0.6640456032
H   2.3075693633 -0.0271712911 -1.3964255910
22
Iteration 207  Energy = -424.8119488533
C  -0.3503563585  0.0274429013 -0.4999738239
C  -0.2807148790  0.7610324975 -1.7313840659
H  -0.2872623681  0.1175911971 -2.6220562208
O   0.0144423616 -1.2753598007 -0.5355694033
H   1.0101094051 -1.3032613713 -0.4816692511
O   1.9814392946  0.7629240526 -2.0812140822
H   2.1764464937  0.4350370825 -2.9424198597
C   0.0823959840  0.7707161311  0.7624241869
H  -0.4240494523  1.7251868416  0.9025845051
H  -0.1536096880  0.1386702717  1.6030932506
H   1.1543570362  0.9191071061  0.7033035325
C  -2.0218745978  0.1807273543 -0.7402047392
H  -2.3092775370  1.0802980555 -0.2624158511
H  -2.3400626231  0.1112372565 -1.7106953848
H  -2.4580796411 -0.7057709520 -0.1424753887
C  -0.4134433231  2.2207124657 -1.9557025656
H   0.3484664402  2.5684301850 -2.7154763896
H  -1.3701229673  2.4121206270 -2.3734880172
H  -0.2667697250  2.7956780865 -1.0593767135
O   2.4506212870 -1.0781297619 -0.4883586948
H   3.0811453651 -1.7820313374 -0.6640416140
H   2.3075157521 -0.0272135027 -1.3964887955
22
Iteration 208  Energy = -424.8118143882
C  -0.3503240840  0.0274403472 -0.4999692402
C  -0.2807606651  0.7610323673 -1.7313704610
H  -0.2871092994  0.1176034870 -2.6221553028
O   0.0144669607 -1.2753510279 -0.5355820578
H   1.0096609509 -1.3030738355 -0.4817158197
O   1.9814624978  0.7629588228 -2.0812638791
H   2.1764334303  0.4350944762 -2.9423909264
C   0.0823979032  0.7707196138  0.7624271262
H  -0.4240396944  1.7252141538  0.9026598602
H  -0.1536768106  0.1387114574  1.6030548065
H   1.1543385783  0.9190382653  0.7033031007
C  -2.0218890997  0.1807277751 -0.7402168761
H  -2.3092753198  1.0801089473 -0.2623702183
H  -2.3397379430  0.1111404669 -1.7104657358
H  -2.4584331724 -0.7058964807 -0.1422806125
C  -0.4134425577  2.2207116632 -1.9557025085
H   0.3485310597  2.5686853000 -2.7156239480
H  -1.3699985732  2.4120031906 -2.3734793725
H  -0.2667423591  2.7956289652 -1.0593907257
O   2.4506106868 -1.0781644459 -0.4883142547
H   3.0811049358 -1.7820686011 -0.6640375367
H   2.3074620457 -0.0272558219 -1.3965517045
22
Iteration 209  Energy = -424.8116791106
C  -0.3502923301  0.0274380800 -0.4999646591
C  -0.2808061445  0.7610323746 -1.7313569586
H  -0.2869560767  0.1176159971 -2.6222543949
O   0.0144913180 -1.2753422719 -0.5355947887
H   1.0092122592 -1.3028862156 -0.4817620870
O   1.9814857374  0.7629934632 -2.0813135354
H   2.1764207552  0.4351513567 -2.9423617306
C   0.0823997782  0.7707231097  0.7624300432
H  -0.4240299313  1.7252415060  0.9027351382
H  -0.1537439376  0.1387526849  1.6030164446
H   1.1543201056  0.9189694693  0.7033027087
C  -2.0219032781  0.1807279210 -0.7402286446
H  -2.3092748029  1.0799214669 -0.2623286565
H  -2.3394107977  0.1110373620 -1.7102365934
H  -2.4587864211 -0.7060204433 -0.1420836354
C  -0.4134417438  2.2207109007 -1.9557024824
H   0.3485956657  2.5689402967 -2.7157713022
H  -1.3698742432  2.4118857945 -2.3734710128
H  -0.2667152823  2.7955799923 -1.0594047069
O   2.4506001521 -1.0781989240 -0.4882699517
H   3.0810644577 -1.7821058910 -0.6640333704
H   2.3074082794 -0.0272983404 -1.3966142221
22
Iteration 210  Energy = -424.8115435634
C  -0.3502611696  0.0274361307 -0.4999600681
C  -0.2808512167  0.7610325437 -1.7313435810
H  -0.2868026716  0.1176287500 -2.6223534956
O   0.0145153871 -1.2753335310 -0.5356075973
H   1.0087633591 -1.3026985532 -0.4818080687
O   1.9815089749  0.7630279452 -2.0813630052
H   2.1764084065  0.4352076864 -2.9423322532
C   0.0824015976  0.7707266281  0.7624329405
H  -0.4240201980  1.7252688935  0.9028103349
H  -0.1538110419  0.1387939560  1.6029781850
H   1.1543016048  0.9189007752  0.7033023447
C  -2.0219170944  0.1807277587 -0.7402399943
H  -2.3092762964  1.0797359516 -0.2622919860
H  -2.3390806850  0.1109267118 -1.7100080623
H  -2.4591392956 -0.7061425268 -0.1418840305
C  -0.4134408665  2.2207101854 -1.9557024993
H   0.3486602575  2.5691951569 -2.7159184121
H  -1.3697499853  2.4117684235 -2.3734629924
H  -0.2666885427  2.7955311900 -1.0594186592
O   2.4505896994 -1.0782331525 -0.4882258302
H   3.0810239346 -1.7821431956 -0.6640291172
H   2.3073545033 -0.0273411934 -1.3966762097
22
Iteration 211  Energy = -424.8114075191
C  -0.3502307061  0.0274345409 -0.4999554511
C  -0.2808957356  0.7610329074 -1.7313303622
H  -0.2866490511  0.1176417766 -2.6224526044
O   0.0145391020 -1.2753248047 -0.5356204833
H   1.0083142964 -1.3025109134 -0.4818537908
O   1.9815321526  0.7630622260 -2.0814122201
H   2.1763962868  0.4352634092 -2.9423024662
C   0.0824033461  0.7707301810  0.7624358213
H  -0.4240105428  1.7252963082  0.9028854431
H  -0.1538780824  0.1388352710  1.6029400561
H   1.1542830585  0.9188322639  0.7033019893
C  -2.0219304955  0.1807272426 -0.7402508557
H  -2.3092802084  1.0795528513 -0.2622612880
H  -2.3387469485  0.1108069004 -1.7097802865
H  -2.4594916687 -0.7062623159 -0.1416812408
C  -0.4134399046  2.2207095267 -1.9557025765
H   0.3487248311  2.5694498518 -2.7160652198
H  -1.3696258148  2.4116510580 -2.3734553819
H  -0.2666622043  2.7954825889 -1.0594325854
O   2.4505793549 -1.0782670663 -0.4881819577
H   3.0809833742 -1.7821804968 -0.6640247794
H   2.3073007959 -0.0273845858 -1.3967374581
22
Iteration 212  Energy = -424.8112710980
C  -0.3502010938  0.0274333706 -0.4999507874
C  -0.2809394797  0.7610335123 -1.7313173558
H  -0.2864951729  0.1176551216 -2.6225517242
O   0.0145623651 -1.2753160947 -0.5356334436
H   1.0078651319 -1.3023233965 -0.4818992986
O   1.9815551816  0.7630962395 -2.0814610748
H   2.1763842456  0.4353184428 -2.9422723271
C   0.0824050018  0.7707337842  0.7624386891
H  -0.4240010340  1.7253237371  0.9029604514
H  -0.1539449982  0.1388766294  1.6029020989
H   1.1542644411  0.9187640515  0.7033016092
C  -2.0219434043  0.1807263085 -0.7402611279
H  -2.3092870998  1.0793727861 -0.2622380437
H  -2.3384086965  0.1106757174 -1.7095534647
H  -2.4598433633 -0.7063792380 -0.1414745053
C  -0.4134388257  2.2207089377 -1.9557027382
H   0.3487893781  2.5697043402 -2.7162116409
H  -1.3695017559  2.4115336688 -2.3734482781
H  -0.2666363562  2.7954342311 -1.0594464881
O   2.4505691611 -1.0783005636 -0.4881384387
H   3.0809427904 -1.7822177664 -0.6640203627
H   2.3072472815 -0.0274288418 -1.3967976413
22
Iteration 213  Energy = -424.8111346725
C  -0.3501725782  0.0274327080 -0.4999460509
C  -0.2809820954  0.7610344274 -1.7313046529
H  -0.2863409799  0.1176688516 -2.6226508680
O   0.0145850270 -1.2753074084 -0.5356464704
H   1.0074159527 -1.3021361577 -0.4819446693
O   1.9815779161  0.7631298816 -2.0815094024
H   2.1763720357  0.4353726621 -2.9422417693
C   0.0824065320  0.7707374590  0.7624415459
H  -0.4239917701  1.7253511589  0.9030353427
H  -0.1540116928  0.1389180270  1.6028643735
H   1.1542457150  0.9186963087  0.7033011446
C  -2.0219557003  0.1807248581 -0.7402706552
H  -2.3092977529  1.0791966229 -0.2622243060
H  -2.3380647152  0.1105300999 -1.7093278715
H  -2.4601941197 -0.7064924893 -0.1412627707
C  -0.4134375778  2.2207084364 -1.9557030213
H   0.3488538807  2.5699585653 -2.7163575494
H  -1.3693778489  2.4114162090 -2.3734418169
H  -0.2666111266  2.7953861767 -1.0594603698
O   2.4505591901 -1.0783334831 -0.4880954377
H   3.0809022066 -1.7822549599 -0.6640158808
H   2.3071941559 -0.0274744735 -1.3968562458
22
Iteration 214  Energy = -424.8109982109
C  -0.3501455683  0.0274326888 -0.4999412104
C  -0.2810229867  0.7610357598 -1.7312924156
H  -0.2861863980  0.1176830710 -2.6227500717
O   0.0146068458 -1.2752987658 -0.5356595440
H   1.0069668836 -1.3019494563 -0.4819900428
O   1.9816001058  0.7631629755 -2.0815569197
H   2.1763592294  0.4354258658 -2.9422106813
C   0.0824078868  0.7707412336  0.7624443901
H  -0.4239828995  1.7253785357  0.9031100892
H  -0.1540780043  0.1389594517  1.6028269730
H   1.1542268220  0.9186293005  0.7033004804
C  -2.0219671890  0.1807227358 -0.7402791867
H  -2.3093132849  1.0790256079 -0.2622229867
H  -2.3377133293  0.1103657169 -1.7091039010
H  -2.4605435389 -0.7066009073 -0.1410445536
C  -0.4134360729  2.2207080496 -1.9557034845
H   0.3489183006  2.5702124436 -2.7165027474
H  -1.3692541650  2.4112986010 -2.3734361924
H  -0.2665867038  2.7953385138 -1.0594742316
O   2.4505495709 -1.0783655482 -0.4880532342
H   3.0808616687 -1.7822920000 -0.6640113608
H   2.3071417595 -0.0275223716 -1.3969123900
22
Iteration 215  Energy = -424.8108623845
C  -0.3501207869  0.0274335300 -0.4999362358
C  -0.2810610990  0.7610376830 -1.7312809488
H  -0.2860313301  0.1176979499 -2.6228494284
O   0.0146274146 -1.2752902161 -0.5356726208
H   1.0065181053 -1.3017637343 -0.4820356772
O   1.9816212993  0.7631952109 -2.0816031284
H   2.1763450622  0.4354777101 -2.9421788640
C   0.0824089865  0.7707451437  0.7624472076
H  -0.4239746493  1.7254057990  0.9031846463
H  -0.1541436518  0.1390008724  1.6027900444
H   1.1542076683  0.9185634470  0.7032993895
C  -2.0219775364  0.1807196792 -0.7402862938
H  -2.3093353027  1.0788615435 -0.2622382189
H  -2.3373522802  0.1101764374 -1.7088821113
H  -2.4608909817 -0.7067027888 -0.1408177614
C  -0.4134341544  2.2207078162 -1.9557042245
H   0.3489825550  2.5704658570 -2.7166469139
H  -1.3691308350  2.4111807066 -2.3734316859
H  -0.2665633737  2.7952913739 -1.0594880699
O   2.4505405434 -1.0783962688 -0.4880123192
H   3.0808212660 -1.7823287494 -0.6640068560
H   2.3070906970 -0.0275741251 -1.3969645105
22
Iteration 216  Energy = -424.8107280575
C  -0.3500995835  0.0274355894 -0.4999311194
C  -0.2810944579  0.7610404910 -1.7312708589
H  -0.2858756584  0.1177137789 -2.6229491723
O   0.0146460142 -1.2752818773 -0.5356856016
H   1.0060698632 -1.3015797835 -0.4820820756
O   1.9816406377  0.7632260100 -2.0816470996
H   2.1763280778  0.4355275869 -2.9421459474
C   0.0824096994  0.7707492285  0.7624499508
H  -0.4239673751  1.7254328163  0.9032589437
H  -0.1542081188  0.1390422125  1.6027538281
H   1.1541880965  0.9184994400  0.7032973972
C  -2.0219861382  0.1807152225 -0.7402912059
H  -2.3093660778  1.0787070019 -0.2622757152
H  -2.3369787386  0.1099538364 -1.7086632671
H  -2.4612353857 -0.7067956446 -0.1405795357
C  -0.4134315283  2.2207077951 -1.9557054095
H   0.3490464604  2.5707186509 -2.7167895115
H  -1.3690081089  2.4110622650 -2.3734286982
H  -0.2665415720  2.7952449537 -1.0595018689
O   2.4505325786 -1.0784247221 -0.4879736063
H   3.0807811845 -1.7823649468 -0.6640024752
H   2.3070421181 -0.0276327692 -1.3970096556
22
Iteration 217  Energy = -424.8105964334
C  -0.3500844826  0.0274394353 -0.4999259527
C  -0.2811193580  0.7610446695 -1.7312633614
H  -0.2857192833  0.1177310433 -2.6230498850
O   0.0146613889 -1.2752740261 -0.5356982649
H   1.0056223761 -1.3013989893 -0.4821302243
O   1.9816564770  0.7632542986 -2.0816871039
H   2.1763054943  0.4355744302 -2.9421112326
C   0.0824098160  0.7707535010  0.7624524844
H  -0.4239615942  1.7254593336  0.9033328865
H  -0.1542704629  0.1390832919  1.6027186946
H   1.1541678477  0.9184383652  0.7032935032
C  -2.0219919103  0.1807085452 -0.7402925432
H  -2.3094082830  1.0785650593 -0.2623418191
H  -2.3365903848  0.1096886821 -1.7084481787
H  -2.4615750767 -0.7068763257 -0.1403267772
C  -0.4134276394  2.2207080650 -1.9557073271
H   0.3491096166  2.5709707071 -2.7169296840
H  -1.3688864553  2.4109427646 -2.3734277112
H  -0.2665219020  2.7951995094 -1.0595155789
O   2.4505266085 -1.0784491700 -0.4879387925
H   3.0807418109 -1.7824000974 -0.6639984405
H   2.3069982044 -0.0277041268 -1.3970422393
22
Iteration 218  Energy = -424.8104698758
C  -0.3500794289  0.0274457504 -0.4999210889
C  -0.2811299877  0.7610508518 -1.7312605182
H  -0.2855622392  0.1177503897 -2.6231527947
O   0.0146717616 -1.2752672045 -0.5357101977
H   1.0051753808 -1.3012232708 -0.4821817653
O   1.9816661744  0.7632784234 -2.0817204673
H   2.1762728231  0.4356167376 -2.9420736122
C   0.0824090839  0.7707578635  0.7624545049
H  -0.4239578171  1.7254849482  0.9034064256
H  -0.1543292751  0.1391237662  1.6026850531
H   1.1541465821  0.9183814847  0.7032859157
C  -2.0219932483  0.1806984625 -0.7402882714
H  -2.3094629423  1.0784369988 -0.2624377420
H  -2.3361894722  0.1093795757 -1.7082367995
H  -2.4619081469 -0.7069429515 -0.1400590818
C  -0.4134216063  2.2207086864 -1.9557103752
H   0.3491713030  2.5712222641 -2.7170664359
H  -1.3687665706  2.4108213218 -2.3734289409
H  -0.2665048720  2.7951552040 -1.0595290896
O   2.4505241882 -1.0784668822 -0.4879104921
H   3.0807038163 -1.7824334256 -0.6639951343
H   2.3069624195 -0.0277976102 -1.3970534170
22
Iteration 219  Energy = -424.8103493847
C  -0.3500876220  0.0274547495 -0.4999171529
C  -0.2811215675  0.7610593501 -1.7312642752
H  -0.2854047956  0.1177721643 -2.6232594698
O   0.0146759921 -1.2752620271 -0.5357209557
H   1.0047275042 -1.3010537307 -0.4822382486
O   1.9816674453  0.7632970868 -2.0817450665
H   2.1762261226  0.4356535924 -2.9420321525
C   0.0824074181  0.7707620469  0.7624556174
H  -0.4239559829  1.7255093291  0.9034797206
H  -0.1543835299  0.1391632683  1.6026529458
H   1.1541241167  0.9183291058  0.7032727917
C  -2.0219890042  0.1806841711 -0.7402769373
H  -2.3095257542  1.0783180540 -0.2625502957
H  -2.3357872451  0.1090465379 -1.7080268603
H  -2.4622343494 -0.7069989910 -0.1397832629
C  -0.4134126849  2.2207096072 -1.9557147960
H   0.3492308023  2.5714743256 -2.7171995784
H  -1.3686489098  2.4106970161 -2.3734316840
H  -0.2664901744  2.7951117580 -1.0595422645
O   2.4505267467 -1.0784756162 -0.4878907684
H   3.0806678424 -1.7824643069 -0.6639929246
H   2.3069376816 -0.0279214893 -1.3970357662
22
Iteration 220  Energy = -424.8102338274
C  -0.3501077608  0.0274657218 -0.4999144960
C  -0.2810958695  0.7610696733 -1.7312743462
H  -0.2852472811  0.1177958947 -2.6233703145
O   0.0146750783 -1.2752585619 -0.5357305095
H   1.0042772312 -1.3008891422 -0.4822995005
O   1.9816609211  0.7633108836 -2.0817618212
H   2.1761663356  0.4356859426 -2.9419871783
C   0.0824050685  0.7707658206  0.7624557162
H  -0.4239552794  1.7255325954  0.9035530730
H  -0.1544338346  0.1392017848  1.6026218346
H   1.1541006857  0.9182798410  0.7032541542
C  -2.0219799322  0.1806662956 -0.7402594931
H  -2.3095891857  1.0781996757 -0.2626592432
H  -2.3353961173  0.1087196483 -1.7078152430
H  -2.4625561265 -0.7070520653 -0.1395094582
C  -0.4134011165  2.2207106643 -1.9557203507
H   0.3492881670  2.5717279573 -2.7173303072
H  -1.3685330864  2.4105698326 -2.3734346330
H  -0.2664766256  2.7950685353 -1.0595550786
O   2.4505340200 -1.0784762155 -0.4878787051
H   3.0806338146 -1.7824929923 -0.6639917835
H   2.3069230557 -0.0280736549 -1.3969917754
22
Iteration 221  Energy = -424.8101212360
C  -0.3501360008  0.0274777780 -0.4999129664
C  -0.2810584218  0.7610810816 -1.7312889053
H  -0.2850898524  0.1178208223 -2.6234844612
O   0.0146709116 -1.2752563899 -0.5357391705
H   1.0038242852 -1.3007274888 -0.4823641522
O   1.9816490151  0.7633214235 -2.0817733086
H   2.1760974605  0.4357154735 -2.9419397743
C   0.0824023495  0.7707691700  0.7624550125
H  -0.4239549663  1.7255551149  0.9036266403
H  -0.1544815769  0.1392395804  1.6025911627
H   1.1540766675  0.9182321061  0.7032314810
C  -2.0219677044  0.1806461107 -0.7402380510
H  -2.3096491442  1.0780771928 -0.2627549305
H  -2.3350195737  0.1084129746 -1.7076007034
H  -2.4628760134 -0.7071069820 -0.1392424040
C  -0.4133877298  2.2207117359 -1.9557266113
H   0.3493440045  2.5719833599 -2.7174599253
H  -1.3684183828  2.4104405074 -2.3734370428
H  -0.2664632920  2.7950251320 -1.0595676151
O   2.4505446173 -1.0784712862 -0.4878717766
H   3.0806011665 -1.7825202091 -0.6639914038
H   2.3069153439 -0.0282454918 -1.3969297576
22
Iteration 222  Energy = -424.8100098001
C  -0.3501692459  0.0274903750 -0.4999122670
C  -0.2810137042  0.7610930817 -1.7313063423
H  -0.2849325382  0.1178464247 -2.6236008989
O   0.0146648564 -1.2752550842 -0.5357472423
H   1.0033691222 -1.3005674152 -0.4824309883
O   1.9816337395  0.7633299752 -2.0817815724
H   2.1760228693  0.4357433813 -2.9418908400
C   0.0823994520  0.7707721811  0.7624537533
H  -0.4239546953  1.7255771806  0.9037004346
H  -0.1545278022  0.1392769064  1.6025606376
H   1.1540523217  0.9181850078  0.7032061628
C  -2.0219535891  0.1806245643 -0.7402142117
H  -2.3097049735  1.0779498642 -0.2628368817
H  -2.3346556243  0.1081269770 -1.7073834288
H  -2.4631953249 -0.7071650241 -0.1389822747
C  -0.4133732076  2.2207127764 -1.9557332747
H   0.3493988614  2.5722402347 -2.7175891388
H  -1.3683042986  2.4103097577 -2.3734387664
H  -0.2664497959  2.7949814429 -1.0595799629
O   2.4505573334 -1.0784629362 -0.4878679865
H   3.0805694003 -1.7825465318 -0.6639915118
H   2.3069119275 -0.0284297317 -1.3968565238
22
Iteration 223  Energy = -424.8098991822
C  -0.3502056214  0.0275032430 -0.4999121575
C  -0.2809644362  0.7611054100 -1.7313256342
H  -0.2847753276  0.1178724148 -2.6237189040
O   0.0146576831 -1.2752543561 -0.5357549260
H   1.0029122719 -1.3004082019 -0.4824992350
O   1.9816163330  0.7633372960 -2.0817878366
H   2.1759446503  0.4357703340 -2.9418409313
C   0.0823964699  0.7707749397  0.7624521143
H  -0.4239543424  1.7255989674  0.9037744210
H  -0.1545731150  0.1393139264  1.6025301373
H   1.1540277906  0.9181381410  0.7031791104
C  -2.0219383277  0.1806022050 -0.7401889104
H  -2.3097571875  1.0778182915 -0.2629073313
H  -2.3343014150  0.1078581829 -1.7071639523
H  -2.4635145937 -0.7072260706 -0.1387279265
C  -0.4133579682  2.2207137760 -1.9557401716
H   0.3494530865  2.5724982328 -2.7177182512
H  -1.3681905619  2.4101780640 -2.3734398720
H  -0.2664360383  2.7949374812 -1.0595921830
O   2.4505714099 -1.0784524438 -0.4878661413
H   3.0805382018 -1.7825723032 -0.6639919332
H   2.3069112092 -0.0286218595 -1.3967762351
22
Iteration 224  Energy = -424.8097883760
C  -0.3502440695  0.0275162554 -0.4999124755
C  -0.2809121536  0.7611179333 -1.7313461832
H  -0.2846182005  0.1178986439 -2.6238380202
O   0.0146498018 -1.2752540292 -0.5357623421
H   1.0024541409 -1.3002494879 -0.4825684425
O   1.9815975033  0.7633438081 -2.0817927855
H   2.1758639997  0.4357966859 -2.9417903669
C   0.0823934466  0.7707775091  0.7624502070
H  -0.4239538770  1.7256205730  0.9038485622
H  -0.1546178443  0.1393507379  1.6024996174
H   1.1540031473  0.9180913379  0.7031508674
C  -2.0219223271  0.1805793305 -0.7401626598
H  -2.3098064775  1.0776832760 -0.2629686527
H  -2.3339546053  0.1076029779 -1.7069427583
H  -2.4638340081 -0.7072896578 -0.1384781610
C  -0.4133422499  2.2207147370 -1.9557472131
H   0.3495068848  2.5727570864 -2.7178473805
H  -1.3680770318  2.4100457162 -2.3734404666
H  -0.2664220200  2.7948932879 -1.0596043134
O   2.4505864066 -1.0784405299 -0.4878655754
H   3.0805073881 -1.7825977138 -0.6639925666
H   2.3069122862 -0.0288192878 -1.3966912491
22
Iteration 225  Energy = -424.8096775676
C  -0.3502839511  0.0275293453 -0.4999131129
C  -0.2808577849  0.7611305768 -1.7313676205
H  -0.2844611437  0.1179250264 -2.6239579519
O   0.0146414508 -1.2752539921 -0.5357695663
H   1.0019950264 -1.3000910751 -0.4826383313
O   1.9815776807  0.7633497644 -2.0817968294
H   2.1757816479  0.4358226409 -2.9417393423
C   0.0823904049  0.7707799331  0.7624481026
H  -0.4239532947  1.7256420551  0.9039228274
H  -0.1546621825  0.1393874010  1.6024690607
H   1.1539784338  0.9180445202  0.7031217734
C  -2.0219058287  0.1805561169 -0.7401357640
H  -2.3098534068  1.0775454737 -0.2630226837
H  -2.3336135245  0.1073585809 -1.7067202114
H  -2.4641536314 -0.7073553596 -0.1382320584
C  -0.4133261974  2.2207156638 -1.9557543479
H   0.3495603817  2.5730166011 -2.7179765749
H  -1.3679636310  2.4099128993 -2.3734406405
H  -0.2664077630  2.7948489011 -1.0596163777
O   2.4506020531 -1.0784276305 -0.4878658891
H   3.0804768473 -1.7826228777 -0.6639933495
H   2.3069146109 -0.0290204297 -1.3966029981
22
Iteration 226  Energy = -424.8095665774
C  -0.3503248739  0.0275424778 -0.4999139967
C  -0.2808019005  0.7611432986 -1.7313897145
H  -0.2843041448  0.1179515130 -2.6240785055
O   0.0146327701 -1.2752541728 -0.5357766467
H   1.0015351367 -1.2999328526 -0.4827087271
O   1.9815571315  0.7633553189 -2.0818002189
H   2.1756980476  0.4358483189 -2.9416879787
C   0.0823873561  0.7707822422  0.7624458480
H  -0.4239526028  1.7256634493  0.9039971935
H  -0.1547062451  0.1394239538  1.6024384627
H   1.1539536742  0.9179976551  0.7030920444
C  -2.0218889781  0.1805326693 -0.7401084060
H  -2.3098984229  1.0774054040 -0.2630708349
H  -2.3332769610  0.1071228640 -1.7064965815
H  -2.4644734750 -0.7074228141 -0.1379889133
C  -0.4133099002  2.2207165612 -1.9557615460
H   0.3496136564  2.5732766404 -2.7181058510
H  -1.3678503147  2.4097797313 -2.3734404669
H  -0.2663932951  2.7948043527 -1.0596283914
O   2.4506181800 -1.0784140134 -0.4878668392
H   3.0804465091 -1.7826478639 -0.6639942428
H   2.3069178467 -0.0292243015 -1.3965123638
22
Iteration 227  Energy = -424.8094550353
C  -0.3503665800  0.0275556332 -0.4999150758
C  -0.2807448752  0.7611560727 -1.7314123105
H  -0.2841471959  0.1179780727 -2.6241995470
O   0.0146238490 -1.2752545227 -0.5357836157
H   1.0010746273 -1.2997747552 -0.4827795130
O   1.9815360316  0.7633605722 -2.0818031176
H   2.1756134986  0.4358737953 -2.9416363570
C   0.0823843068  0.7707844583  0.7624434754
H  -0.4239518108  1.7256847782  0.9040716421
H  -0.1547501056  0.1394604215  1.6024078236
H   1.1539288837  0.9179507290  0.7030618259
C  -2.0218718692  0.1805090554 -0.7400807043
H  -2.3099418660  1.0772634640 -0.2631141623
H  -2.3329440380  0.1068942390 -1.7062720701
H  -2.4647935288 -0.7074917363 -0.1377482002
C  -0.4132934171  2.2207174330 -1.9557687887
H   0.3496667611  2.5735371032 -2.7182352116
H  -1.3677370566  2.4096462933 -2.3734400017
H  -0.2663786419  2.7947596680 -1.0596403652
O   2.4506346747 -1.0783998544 -0.4878682670
H   3.0804163273 -1.7826727174 -0.6639952204
H   2.3069217727 -0.0294302503 -1.3964199270
22
Iteration 228  Energy = -424.8093433310
C  -0.3504088925  0.0275688001 -0.4999163127
C  -0.2806869665  0.7611688829 -1.7314353005
H  -0.2839902893  0.1180046853 -2.6243209811
O   0.0146147464 -1.2752550072 -0.5357904963
H   1.0006136109 -1.2996167405 -0.4828506079
O   1.9815145025  0.7633655930 -2.0818056373
H   2.1755282079  0.4358991204 -2.9415845329
C   0.0823812604  0.7707865977  0.7624410079
H  -0.4239509285  1.7257060575  0.9041461601
H  -0.1547938139  0.1394968223  1.6023771455
H   1.1539040718  0.9179037370  0.7030312202
C  -2.0218545658  0.1804853206 -0.7400527390
H  -2.3099840043  1.0771199640 -0.2631534855
H  -2.3326140889  0.1066714736 -1.7060468297
H  -2.4651137787 -0.7075618977 -0.1375095103
C  -0.4132767889  2.2207182827 -1.9557760635
H   0.3497197330  2.5737979159 -2.7183646550
H  -1.3676238387  2.4095126416 -2.3734392895
H  -0.2663638254  2.7947148670 -1.0596523064
O   2.4506514587 -1.0783852744 -0.4878700635
H   3.0803862691 -1.7826974692 -0.6639962641
H   2.3069262360 -0.0296378237 -1.3963260885
22
Iteration 229  Energy = -424.8092309915
C  -0.3504516891  0.0275819716 -0.4999176807
C  -0.2806283524  0.7611817185 -1.7314586093
H  -0.2838334193  0.1180313374 -2.6244427398
O   0.0146055023 -1.2752556017 -0.5357973046
H   1.0001521706 -1.2994587813 -0.4829219553
O   1.9814926283  0.7633704285 -2.0818078552
H   2.1754423195  0.4359243283 -2.9415325454
C   0.0823782190  0.7707886724  0.7624384619
H  -0.4239499643  1.7257272980  0.9042207372
H  -0.1548374038  0.1395331688  1.6023464307
H   1.1538792451  0.9178566787  0.7030002993
C  -2.0218371115  0.1804614959 -0.7400245647
H  -2.3100250384  1.0769751377 -0.2631894150
H  -2.3322866254  0.1064536509 -1.7058209732
H  -2.4654342095 -0.7076331240 -0.1372725388
C  -0.4132600437  2.2207191129 -1.9557833622
H   0.3497725978  2.5740590245 -2.7184941779
H  -1.3675106493  2.4093788160 -2.3734383639
H  -0.2663488633  2.7946699649 -1.0596642205
O   2.4506684773 -1.0783703570 -0.4878721542
H   3.0803563118 -1.7827221402 -0.6639973616
H   2.3069311315 -0.0298467082 -1.3962311248
22
Iteration 230  Energy = -424.8091183628
C  -0.3504948771  0.0275951433 -0.4999191582
C  -0.2805691677  0.7611945719 -1.7314821788
H  -0.2836765839  0.1180580189 -2.6245647678
O   0.0145961457 -1.2752562872 -0.5358040528
H   0.9996903817 -1.2993008619 -0.4829935109
O   1.9814704732  0.7633751141 -2.0818098289
H   2.1753559436  0.4359494430 -2.9414804247
C   0.0823751839  0.7707906917  0.7624358503
H  -0.4239489262  1.7257485074  0.9042953638
H  -0.1548808995  0.1395694699  1.6023156826
H   1.1538544085  0.9178095567  0.7029691191
C  -2.0218195386  0.1804376044 -0.7399962223
H  -2.3100651348  1.0768291816 -0.2632224538
H  -2.3319612572  0.1062400185 -1.7055945973
H  -2.4657547991 -0.7077052670 -0.1370370393
C  -0.4132432032  2.2207199261 -1.9557906788
H   0.3498253744  2.5743203804 -2.7186237729
H  -1.3673974822  2.4092448498 -2.3734372530
H  -0.2663337716  2.7946249754 -1.0596761114
O   2.4506856886 -1.0783551653 -0.4878744829
H   3.0803264388 -1.7827467460 -0.6639985030
H   2.3069363797 -0.0300566615 -1.3961352471
22
Iteration 231  Energy = -424.8090050037
C  -0.3505383907  0.0276083126 -0.4999207298
C  -0.2805095080  0.7612074380 -1.7315059678
H  -0.2835197790  0.1180847233 -2.6246870268
O   0.0145866972 -1.2752570501 -0.5358107501
H   0.9992282924 -1.2991429692 -0.4830652439
O   1.9814480828  0.7633796751 -2.0818115997
H   2.1752691583  0.4359744819 -2.9414281921
C   0.0823721556  0.7707926629  0.7624331826
H  -0.4239478203  1.7257696914  0.9043700341
H  -0.1549243188  0.1396057328  1.6022849035
H   1.1538295650  0.9177623733  0.7029377195
C  -2.0218018701  0.1804136621 -0.7399677407
H  -2.3101044184  1.0766822403 -0.2632529772
H  -2.3316376897  0.1060300136 -1.7053677703
H  -2.4660755354 -0.7077782166 -0.1368028240
C  -0.4132262825  2.2207207240 -1.9557980090
H   0.3498780771  2.5745819524 -2.7187534363
H  -1.3672843315  2.4091107646 -2.3734359778
H  -0.2663185623  2.7945799080 -1.0596879824
O   2.4507030626 -1.0783397444 -0.4878770099
H   3.0802966374 -1.7827712978 -0.6639996815
H   2.3069419239 -0.0302675135 -1.3960386046
22
Iteration 232  Energy = -424.8088912349
C  -0.3505821760  0.0276214779 -0.4999223821
C  -0.2804494519  0.7612203130 -1.7315299418
H  -0.2833630022  0.1181114452 -2.6248094838
O   0.0145771729 -1.2752578788 -0.5358174039
H   0.9987659474 -1.2989850945 -0.4831371284
O   1.9814254948  0.7633841319 -2.0818132012
H   2.1751820279  0.4359994587 -2.9413758651
C   0.0823691347  0.7707945918  0.7624304664
H  -0.4239466526  1.7257908547  0.9044447421
H  -0.1549676756  0.1396419631  1.6022540958
H   1.1538047171  0.9177151317  0.7029061337
C  -2.0217841246  0.1803896821 -0.7399391431
H  -2.3101429987  1.0765344415 -0.2632813121
H  -2.3313156712  0.1058231464 -1.7051405529
H  -2.4663964038 -0.7078518749 -0.1365697312
C  -0.4132092943  2.2207215082 -1.9558053495
H   0.3499307174  2.5748437115 -2.7188831631
H  -1.3671711932  2.4089765797 -2.3734345569
H  -0.2663032464  2.7945347714 -1.0596998357
O   2.4507205745 -1.0783241312 -0.4878797023
H   3.0802668975 -1.7827958047 -0.6640008916
H   2.3069477173 -0.0304791220 -1.3959413207
22
Iteration 233  Energy = -424.8087777619
C  -0.3506323464  0.0276307844 -0.4999296889
C  -0.2803799886  0.7612312310 -1.7315608607
H  -0.2832140544  0.1181361848 -2.6249387806
O   0.0145692854 -1.2752622052 -0.5358217571
H   0.9982995878 -1.2988283821 -0.4832114956
O   1.9813974617  0.7633862311 -2.0818109079
H   2.1750871302  0.4360250394 -2.9413222603
C   0.0823672806  0.7707936277  0.7624251681
H  -0.4239398154  1.7258107042  0.9045200039
H  -0.1550090425  0.1396753411  1.6022208334
H   1.1537811433  0.9176612747  0.7028668564
C  -2.0217653626  0.1803653510 -0.7399104105
H  -2.3101058519  1.0763083929 -0.2631039250
H  -2.3311489076  0.1059339392 -1.7048884212
H  -2.4667227538 -0.7079918987 -0.1364452510
C  -0.4131910479  2.2207209965 -1.9558120951
H   0.3499787691  2.5751097285 -2.7190160014
H  -1.3670611248  2.4088416966 -2.3734215778
H  -0.2662800176  2.7944857763 -1.0597106020
O   2.4507424078 -1.0783038959 -0.4878858279
H   3.0802406426 -1.7828182010 -0.6640034401
H   2.3069602938 -0.0307092958 -1.3958282614
22
Iteration 234  Energy = -424.8086636722
C  -0.3506824170  0.0276400338 -0.4999370267
C  -0.2803106699  0.7612421132 -1.7315917541
H  -0.2830651953  0.1181608798 -2.6250680490
O   0.0145614740 -1.2752665360 -0.5358261072
H   0.9978334156 -1.2986716722 -0.4832857917
O   1.9813694911  0.7633883714 -2.0818086794
H   2.1749923626  0.4360506779 -2.9412687081
C   0.0823654382  0.7707926502  0.7624198653
H  -0.4239329375  1.7258305505  0.9045952522
H  -0.1550504275  0.1397087003  1.6021875519
H   1.1537575906  0.9176073575  0.7028275951
C  -2.0217466375  0.1803410319 -0.7398817585
H  -2.3100680096  1.0760817012 -0.2629248811
H  -2.3309835044  0.1060474948 -1.7046361713
H  -2.4670491150 -0.7081324531 -0.1363216388
C  -0.4131728302  2.2207204753 -1.9558188241
H   0.3500268099  2.5753756943 -2.7191488493
H  -1.3669510865  2.4087068709 -2.3734085367
H  -0.2662567483  2.7944367720 -1.0597213648
O   2.4507642054 -1.0782837306 -0.4878918848
H   3.0802144035 -1.7828405978 -0.6640059902
H   2.3069728027 -0.0309392171 -1.3957154233
22
Iteration 235  Energy = -424.8085490065
C  -0.3507323954  0.0276492323 -0.4999443915
C  -0.2802414851  0.7612529640 -1.7316226226
H  -0.2829164104  0.1181855350 -2.6251972911
O   0.0145537317 -1.2752708693 -0.5358304556
H   0.9973674146 -1.2985149623 -0.4833600213
O   1.9813415794  0.7633905504 -2.0818065118
H   2.1748977165  0.4360763702 -2.9412152043
C   0.0823636054  0.7707916619  0.7624145595
H  -0.4239260258  1.7258503945  0.9046704896
H  -0.1550918300  0.1397420441  1.6021542536
H   1.1537340556  0.9175533881  0.7027883508
C  -2.0217279442  0.1803167193 -0.7398531800
H  -2.3100295456  1.0758544358 -0.2627443771
H  -2.3308193139  0.1061635090 -1.7043838162
H  -2.4673754904 -0.7082734722 -0.1361987807
C  -0.4131546390  2.2207199460 -1.9558255385
H   0.3500748443  2.5756416168 -2.7192817063
H  -1.3668410726  2.4085720948 -2.3733954458
H  -0.2662334474  2.7943877608 -1.0597321253
O   2.4507859683 -1.0782636310 -0.4878978771
H   3.0801881773 -1.7828629962 -0.6640085418
H   2.3069852472 -0.0311689038 -1.3956027919
22
Iteration 236  Energy = -424.8084337077
C  -0.3507822887  0.0276583851 -0.4999517800
C  -0.2801724242  0.7612637870 -1.7316534673
H  -0.2827676879  0.1182101547 -2.6253265095
O   0.0145460525 -1.2752752040 -0.5358348033
H   0.9969015710 -1.2983582508 -0.4834341884
O   1.9813137232  0.7633927661 -2.0818044015
H   2.1748031836  0.4361021128 -2.9411617453
C   0.0823617806  0.7707906649  0.7624092518
H  -0.4239190857  1.7258702370  0.9047457182
H  -0.1551332499  0.1397753750  1.6021209402
H   1.1537105358  0.9174993728  0.7027491234
C  -2.0217092785  0.1802924088 -0.7398246690
H  -2.3099905173  1.0756266496 -0.2625625652
H  -2.3306562219  0.1062817469 -1.7041313653
H  -2.4677018831 -0.7084149054 -0.1360765880
C  -0.4131364723  2.2207194097 -1.9558322401
H   0.3501228757  2.5759075030 -2.7194145720
H  -1.3667310785  2.4084373614 -2.3733823145
H  -0.2662101219  2.7943387446 -1.0597428844
O   2.4508076978 -1.0782435935 -0.4879038089
H   3.0801619616 -1.7828853971 -0.6640110945
H   2.3069976306 -0.0313983721 -1.3954903542
22
Iteration 237  Energy = -424.8083177474
C  -0.3508321026  0.0276674964 -0.4999591897
C  -0.2801034790  0.7612745853 -1.7316842889
H  -0.2826190182  0.1182347423 -2.6254557056
O   0.0145384313 -1.2752795390 -0.5358391514
H   0.9964358742 -1.2982015365 -0.4835082962
O   1.9812859197  0.7633950165 -2.0818023454
H   2.1747087570  0.4361279024 -2.9411083280
C   0.0823599623  0.7707896610  0.7624039430
H  -0.4239121219  1.7258900786  0.9048209397
H  -0.1551746866  0.1398086953  1.6020876134
H   1.1536870290  0.9174453170  0.7027099133
C  -2.0216906366  0.1802680966 -0.7397962202
H  -2.3099509742  1.0753983895 -0.2623795772
H  -2.3304941301  0.1064020048 -1.7038788276
H  -2.4680282947 -0.7085567081 -0.1359549842
C  -0.4131183286  2.2207188676 -1.9558389305
H   0.3501709070  2.5761733583 -2.7195474458
H  -1.3666211008  2.4083026656 -2.3733691510
H  -0.2661867778  2.7942897251 -1.0597536429
O   2.4508293949 -1.0782236146 -0.4879096833
H   3.0801357546 -1.7829078012 -0.6640136482
H   2.3070099554 -0.0316276350 -1.3953780993
22
Iteration 238  Energy = -424.8082014421
C  -0.3508818429  0.0276765705 -0.4999666180
C  -0.2800346411  0.7612853618 -1.7317150883
H  -0.2824703922  0.1182593011 -2.6255848812
O   0.0145308632 -1.2752838734 -0.5358435007
H   0.9959703134 -1.2980448182 -0.4835823478
O   1.9812581660  0.7633972997 -2.0818003402
H   2.1746144301  0.4361537361 -2.9410549494
C   0.0823581494  0.7707886518  0.7623986340
H  -0.4239051387  1.7259099197  0.9048961556
H  -0.1552161397  0.1398420069  1.6020542747
H   1.1536635329  0.9173912260  0.7026707205
C  -2.0216720150  0.1802437790 -0.7397678289
H  -2.3099109630  1.0751696994 -0.2621955371
H  -2.3303329460  0.1065240918 -1.7036262112
H  -2.4683547271 -0.7086988388 -0.1358338979
C  -0.4131002062  2.2207183204 -1.9558456110
H   0.3502189409  2.5764391879 -2.7196803273
H  -1.3665111359  2.4081680022 -2.3733559630
H  -0.2661634208  2.7942407037 -1.0597644015
O   2.4508510608 -1.0782036913 -0.4879155037
H   3.0801095544 -1.7829302092 -0.6640162028
H   2.3070222244 -0.0318567062 -1.3952660162
22
Iteration 239  Energy = -424.8080842946
C  -0.3509315144  0.0276856105 -0.4999740630
C  -0.2799659040  0.7612961188 -1.7317458664
H  -0.2823218032  0.1182838336 -2.6257140377
O   0.0145233442 -1.2752882064 -0.5358478516
H   0.9955048814 -1.2978880956 -0.4836563455
O   1.9812304597  0.7633996144 -2.0817983833
H   2.1745201975  0.4361796112 -2.9410016072
C   0.0823563407  0.7707876384  0.7623933255
H  -0.4238981395  1.7259297608  0.9049713670
H  -0.1552576086  0.1398753114  1.6020209253
H   1.1536400460  0.9173371038  0.7026315450
C  -2.0216534107  0.1802194531 -0.7397394909
H  -2.3098705191  1.0749406125 -0.2620105390
H  -2.3301726003  0.1066478633 -1.7033735227
H  -2.4686811809 -0.7088412656 -0.1357132749
C  -0.4130821039  2.2207177690 -1.9558522827
H   0.3502669792  2.5767049954 -2.7198132158
H  -1.3664011814  2.4080333674 -2.3733427562
H  -0.2661400552  2.7941916817 -1.0597751608
O   2.4508726965 -1.0781838208 -0.4879212728
H   3.0800833597 -1.7829526214 -0.6640187580
H   2.3070344398 -0.0320855957 -1.3951540960
22
Iteration 240  Energy = -424.8079666247
C  -0.3509811221  0.0276946197 -0.4999815231
C  -0.2798972603  0.7613068585 -1.7317766244
H  -0.2821732443  0.1183083425 -2.6258431768
O   0.0145158704 -1.2752925376 -0.5358522049
H   0.9950395694 -1.2977313679 -0.4837302921
O   1.9812027981  0.7634019586 -2.0817964719
H   2.1744260531  0.4362055253 -2.9409482988
C   0.0823545352  0.7707866222  0.7623880178
H  -0.4238911275  1.7259496023  0.9050465752
H  -0.1552990929  0.1399086102  1.6019875663
H   1.1536165667  0.9172829544  0.7025923862
C  -2.0216348209  0.1801951161 -0.7397112023
H  -2.3098296766  1.0747111606 -0.2618246731
H  -2.3300130263  0.1067731802 -1.7031207676
H  -2.4690076578 -0.7089839579 -0.1355930628
C  -0.4130640204  2.2207172141 -1.9558589467
H   0.3503150237  2.5769707851 -2.7199461111
H  -1.3662912348  2.4078987569 -2.3733295361
H  -0.2661166850  2.7941426602 -1.0597859212
O   2.4508943032 -1.0781640002 -0.4879269936
H   3.0800571694 -1.7829750383 -0.6640213139
H   2.3070466044 -0.0323143161 -1.3950423284
22
Iteration 241  Energy = -424.8078484006
C  -0.3510306697  0.0277036006 -0.4999889967
C  -0.2798287048  0.7613175828 -1.7318073628
H  -0.2820247106  0.1183328297 -2.6259722992
O   0.0145084388 -1.2752968663 -0.5358565608
H   0.9945743729 -1.2975746353 -0.4838041891
O   1.9811751793  0.7634043312 -2.0817946038
H   2.1743319929  0.4362314760 -2.9408950225
C   0.0823527323  0.7707856039  0.7623827117
H  -0.4238841053  1.7259694444  0.9051217809
H  -0.1553405919  0.1399419043  1.6019541989
H   1.1535930938  0.9172287811  0.7025532444
C  -2.0216162433  0.1801707656 -0.7396829599
H  -2.3097884635  1.0744813709 -0.2616380141
H  -2.3298541699  0.1068999288 -1.7028679518
H  -2.4693341572 -0.7091268902 -0.1354732194
C  -0.4130459546  2.2207166562 -1.9558656039
H   0.3503630757  2.5772365591 -2.7200790122
H  -1.3661812947  2.4077641682 -2.3733163073
H  -0.2660933137  2.7940936402 -1.0597966832
O   2.4509158816 -1.0781442272 -0.4879326683
H   3.0800309825 -1.7829974601 -0.6640238702
H   2.3070587199 -0.0325428746 -1.3949307071
22
Iteration 242  Energy = -424.8077297330
C  -0.3510801611  0.0277125555 -0.4999964825
C  -0.2797602319  0.7613282934 -1.7318380825
H  -0.2818761969  0.1183572971 -2.6261014062
O   0.0145010462 -1.2753011922 -0.5358609198
H   0.9941092848 -1.2974178971 -0.4838780384
O   1.9811476010  0.7634067308 -2.0817927768
H   2.1742380120  0.4362574614 -2.9408417763
C   0.0823509311  0.7707845845  0.7623774073
H  -0.4238770754  1.7259892874  0.9051969849
H  -0.1553821054  0.1399751950  1.6019208238
H   1.1535696260  0.9171745867  0.7025141190
C  -2.0215976756  0.1801463995 -0.7396547607
H  -2.3097469060  1.0742512676 -0.2614506310
H  -2.3296959793  0.1070280023 -1.7026150796
H  -2.4696606806 -0.7092700391 -0.1353537048
C  -0.4130279055  2.2207160958 -1.9558722551
H   0.3504111366  2.5775023209 -2.7202119190
H  -1.3660713589  2.4076295980 -2.3733030738
H  -0.2660699442  2.7940446225 -1.0598074471
O   2.4509374327 -1.0781244996 -0.4879382992
H   3.0800047981 -1.7830198872 -0.6640264268
H   2.3070707884 -0.0327712808 -1.3948192238
22
Iteration 243  Energy = -424.8076102154
C  -0.3511295997  0.0277214867 -0.5000039794
C  -0.2796918367  0.7613389916 -1.7318687843
H  -0.2817276992  0.1183817464 -2.6262304987
O   0.0144936899 -1.2753055150 -0.5358652822
H   0.9936443010 -1.2972611535 -0.4839518417
O   1.9811200616  0.7634091562 -2.0817909889
H   2.1741441067  0.4362834796 -2.9407885584
C   0.0823491309  0.7707835647  0.7623721051
H  -0.4238700397  1.7260091313  0.9052721879
H  -0.1554236327  0.1400084831  1.6018874419
H   1.1535461625  0.9171203740  0.7024750099
C  -2.0215791158  0.1801220159 -0.7396266020
H  -2.3097050257  1.0740208714 -0.2612625811
H  -2.3295384134  0.1071573139 -1.7023621553
H  -2.4699872279 -0.7094133850 -0.1352344865
C  -0.4130098721  2.2207155333 -1.9558789010
H   0.3504592073  2.5777680724 -2.7203448310
H  -1.3659614264  2.4074950441 -2.3732898390
H  -0.2660465793  2.7939956078 -1.0598182132
O   2.4509589575 -1.0781048153 -0.4879438884
H   3.0799786154 -1.7830423196 -0.6640289838
H   2.3070828117 -0.0329995421 -1.3947078722
22
Iteration 244  Energy = -424.8074904361
C  -0.3511789888  0.0277303959 -0.5000114865
C  -0.2796235145  0.7613496789 -1.7318994691
H  -0.2815792133  0.1184061792 -2.6263595779
O   0.0144863676 -1.2753098343 -0.5358696483
H   0.9931794155 -1.2971044038 -0.4840256004
O   1.9810925591  0.7634116062 -2.0817892382
H   2.1740502730  0.4363095288 -2.9407353673
C   0.0823473314  0.7707825452  0.7623668054
H  -0.4238630002  1.7260289766  0.9053473906
H  -0.1554651736  0.1400417695  1.6018540539
H   1.1535227021  0.9170661451  0.7024359166
C  -2.0215605622  0.1800976129 -0.7395984812
H  -2.3096628433  1.0737902010 -0.2610739185
H  -2.3293814316  0.1072877799 -1.7021091820
H  -2.4703138004 -0.7095569096 -0.1351155328
C  -0.4129918535  2.2207149693 -1.9558855423
H   0.3505072890  2.5780338166 -2.7204777481
H  -1.3658514954  2.4073605037 -2.3732766062
H  -0.2660232210  2.7939465968 -1.0598289819
O   2.4509804567 -1.0780851723 -0.4879494377
H   3.0799524338 -1.7830647578 -0.6640315409
H   2.3070947915 -0.0332276663 -1.3945966459
22
Iteration 245  Energy = -424.8073699296
C  -0.3512283310  0.0277392849 -0.5000190028
C  -0.2795552618  0.7613603564 -1.7319301373
H  -0.2814307367  0.1184305966 -2.6264886442
O   0.0144790772 -1.2753141499 -0.5358740183
H   0.9927146265 -1.2969476487 -0.4840993152
O   1.9810650921  0.7634140800 -2.0817875231
H   2.1739565080  0.4363356074 -2.9406822017
C   0.0823455319  0.7707815264  0.7623615083
H  -0.4238559583  1.7260488232  0.9054225934
H  -0.1555067276  0.1400750547  1.6018206605
H   1.1534992443  0.9170119022  0.7023968390
C  -2.0215420133  0.1800731892 -0.7395703963
H  -2.3096203754  1.0735592730 -0.2608846878
H  -2.3292250029  0.1074193332 -1.7018561638
H  -2.4706403969 -0.7097005973 -0.1349968194
C  -0.4129738492  2.2207144039 -1.9558921795
H   0.3505553820  2.5782995541 -2.7206106696
H  -1.3657415655  2.4072259756 -2.3732633778
H  -0.2659998716  2.7938975901 -1.0598397532
O   2.4510019310 -1.0780655691 -0.4879549489
H   3.0799262528 -1.7830872018 -0.6640340980
H   2.3071067290 -0.0334556583 -1.3944855400
22
Iteration 246  Energy = -424.8072487002
C  -0.3512776298  0.0277481554 -0.5000265276
C  -0.2794870735  0.7613710255 -1.7319607901
H  -0.2812822633  0.1184550004 -2.6266177006
O   0.0144718164 -1.2753184616 -0.5358783926
H   0.9922499217 -1.2967908852 -0.4841729889
O   1.9810376586  0.7634165765 -2.0817858421
H   2.1738628069  0.4363617143 -2.9406290595
C   0.0823437319  0.7707805091  0.7623562142
H  -0.4238489156  1.7260686716  0.9054977979
H  -0.1555482949  0.1401083401  1.6017872618
H   1.1534757878  0.9169576465  0.7023577764
C  -2.0215234671  0.1800487428 -0.7395423448
H  -2.3095776400  1.0733281012 -0.2606949348
H  -2.3290690882  0.1075519010 -1.7016030999
H  -2.4709670236 -0.7098444339 -0.1348783163
C  -0.4129558579  2.2207138377 -1.9558988134
H   0.3506034882  2.5785652915 -2.7207435974
H  -1.3656316336  2.4070914553 -2.3732501566
H  -0.2659765325  2.7938485875 -1.0598505276
O   2.4510233815 -1.0780460037 -0.4879604237
H   3.0799000712 -1.7831096521 -0.6640366551
H   2.3071186260 -0.0336835286 -1.3943745472
22
Iteration 247  Energy = -424.8071269791
C  -0.3513268862  0.0277570084 -0.5000340600
C  -0.2794189480  0.7613816867 -1.7319914273
H  -0.2811337953  0.1184793910 -2.6267467438
O   0.0144645837 -1.2753227691 -0.5358827711
H   0.9917853118 -1.2966341182 -0.4842466200
O   1.9810102581  0.7634190947 -2.0817841935
H   2.1737691697  0.4363878472 -2.9405759408
C   0.0823419312  0.7707794936  0.7623509233
H  -0.4238418736  1.7260885214  0.9055730023
H  -0.1555898740  0.1401416251  1.6017538593
H   1.1534523328  0.9169033812  0.7023187294
C  -2.0215049228  0.1800242733 -0.7395143256
H  -2.3095346512  1.0730967046 -0.2605046993
H  -2.3289136677  0.1076854280 -1.7013500001
H  -2.4712936706 -0.7099884032 -0.1347600079
C  -0.4129378797  2.2207132708 -1.9559054440
H   0.3506516064  2.5788310222 -2.7208765272
H  -1.3655217021  2.4069569453 -2.3732369447
H  -0.2659532059  2.7937995908 -1.0598613050
O   2.4510448083 -1.0780264751 -0.4879658634
H   3.0798738896 -1.7831321082 -0.6640392121
H   2.3071304836 -0.0339112757 -1.3942636659
22
Iteration 248  Energy = -424.8070046206
C  -0.3513761030  0.0277658455 -0.5000415994
C  -0.2793508816  0.7613923410 -1.7320220498
H  -0.2809853280  0.1185037696 -2.6268757763
O   0.0144573772 -1.2753270724 -0.5358871541
H   0.9913207872 -1.2964773453 -0.4843202103
O   1.9809828889  0.7634216339 -2.0817825762
H   2.1736755925  0.4364140054 -2.9405228440
C   0.0823401292  0.7707784804  0.7623456358
H  -0.4238348332  1.7261083729  0.9056482081
H  -0.1556314652  0.1401749108  1.6017204530
H   1.1534288783  0.9168491070  0.7022796973
C  -2.0214863792  0.1799997791 -0.7394863367
H  -2.3094914224  1.0728650930 -0.2603140153
H  -2.3287587120  0.1078198602 -1.7010968637
H  -2.4716203428 -0.7101324950 -0.1346418718
C  -0.4129199136  2.2207127035 -1.9559120721
H   0.3506997381  2.5790967515 -2.7210094608
H  -1.3654117688  2.4068224423 -2.3732237441
H  -0.2659298930  2.7937505999 -1.0598720856
O   2.4510662123 -1.0780069816 -0.4879712695
H   3.0798477070 -1.7831545705 -0.6640417687
H   2.3071423027 -0.0341389074 -1.3941528907
22
Iteration 249  Energy = -424.8068818590
C  -0.3514252824  0.0277746678 -0.5000491453
C  -0.2792828708  0.7614029894 -1.7320526582
H  -0.2808368592  0.1185281373 -2.6270047990
O   0.0144501954 -1.2753313712 -0.5358915418
H   0.9908563446 -1.2963205665 -0.4843937608
O   1.9809555497  0.7634241933 -2.0817809887
H   2.1735820725  0.4364401874 -2.9404697678
C   0.0823383258  0.7707774697  0.7623403517
H  -0.4238277956  1.7261282262  0.9057234157
H  -0.1556730681  0.1402081977  1.6016870434
H   1.1534054237  0.9167948253  0.7022406797
C  -2.0214678348  0.1799752591 -0.7394583766
H  -2.3094479654  1.0726332775 -0.2601229136
H  -2.3286041991  0.1079551511 -1.7008436926
H  -2.4719470406 -0.7102766986 -0.1345238905
C  -0.4129019592  2.2207121360 -1.9559186978
H   0.3507478835  2.5793624808 -2.7211423980
H  -1.3653018329  2.4066879447 -2.3732105564
H  -0.2659065951  2.7937016149 -1.0598828696
O   2.4510875941 -1.0779875220 -0.4879766433
H   3.0798215232 -1.7831770392 -0.6640443251
H   2.3071540849 -0.0343664293 -1.3940422167
22
Iteration 250  Energy = -424.8067583012
C  -0.3514744263  0.0277834763 -0.5000566971
C  -0.2792149133  0.7614136326 -1.7320832529
H  -0.2806883866  0.1185524948 -2.6271338123
O   0.0144430369 -1.2753356655 -0.5358959342
H   0.9903919812 -1.2961637815 -0.4844672721
O   1.9809282396  0.7634267722 -2.0817794300
H   2.1734886076  0.4364663923 -2.9404167113
C   0.0823365206  0.7707764621  0.7623350713
H  -0.4238207617  1.7261480814  0.9057986253
H  -0.1557146825  0.1402414862  1.6016536308
H   1.1533819686  0.9167405373  0.7022016766
C  -2.0214492887  0.1799507124 -0.7394304437
H  -2.3094042918  1.0724012690 -0.2599314251
H  -2.3284501059  0.1080912535 -1.7005904889
H  -2.4722737643 -0.7104210035 -0.1344060465
C  -0.4128840157  2.2207115686 -1.9559253218
H   0.3507960433  2.5796282114 -2.7212753388
H  -1.3651918936  2.4065534512 -2.3731973832
H  -0.2658833132  2.7936526363 -1.0598936572
O   2.4511089543 -1.0779680950 -0.4879819859
H   3.0797953376 -1.7831995144 -0.6640468810
H   2.3071658309 -0.0345938451 -1.3939316409
22
Iteration 251  Energy = -424.8066341356
C  -0.3515235362  0.0277922721 -0.5000642543
C  -0.2791470065  0.7614242711 -1.7321138345
H  -0.2805399088  0.1185768429 -2.6272628166
O   0.0144359004 -1.2753399552 -0.5359003315
H   0.9899276950 -1.2960069906 -0.4845407446
O   1.9809009573  0.7634293700 -2.0817778991
H   2.1733951957  0.4364926189 -2.9403636736
C   0.0823347134  0.7707754576  0.7623297946
H  -0.4238137324  1.7261679386  0.9058738372
H  -0.1557563082  0.1402747767  1.6016202157
H   1.1533585126  0.9166862442  0.7021626876
C  -2.0214307400  0.1799261381 -0.7394025369
H  -2.3093604109  1.0721690765 -0.2597395743
H  -2.3282964148  0.1082281310 -1.7003372546
H  -2.4726005137 -0.7105654012 -0.1342883264
C  -0.4128660829  2.2207110014 -1.9559319441
H   0.3508442177  2.5798939441 -2.7214082827
H  -1.3650819506  2.4064189609 -2.3731842259
H  -0.2658600483  2.7936036643 -1.0599044484
O   2.4511302935 -1.0779486995 -0.4879872984
H   3.0797691500 -1.7832219962 -0.6640494363
H   2.3071775416 -0.0348211585 -1.3938211595
22
Iteration 252  Energy = -424.8065095866
C  -0.3515726141  0.0278010560 -0.5000718166
C  -0.2790791479  0.7614349057 -1.7321444033
H  -0.2803914242  0.1186011824 -2.6273918124
O   0.0144287845 -1.2753442402 -0.5359047338
H   0.9894634842 -1.2958501941 -0.4846141790
O   1.9808737020  0.7634319858 -2.0817763947
H   2.1733018348  0.4365188662 -2.9403106540
C   0.0823329038  0.7707744567  0.7623245219
H  -0.4238067085  1.7261877979  0.9059490516
H  -0.1557979448  0.1403080694  1.6015867985
H   1.1533350553  0.9166319473  0.7021237124
C  -2.0214121877  0.1799015354 -0.7393746549
H  -2.3093163330  1.0719367101 -0.2595473885
H  -2.3281431067  0.1083657429 -1.7000839921
H  -2.4729272883 -0.7107098823 -0.1341707154
C  -0.4128481602  2.2207104347 -1.9559385652
H   0.3508924069  2.5801596796 -2.7215412296
H  -1.3649720035  2.4062844727 -2.3731710858
H  -0.2658368015  2.7935546993 -1.0599152434
O   2.4511516120 -1.0779293344 -0.4879925821
H   3.0797429603 -1.7832444846 -0.6640519910
H   2.3071892182 -0.0350483739 -1.3937107690
22
Iteration 253  Energy = -424.8063840936
C  -0.3516216614  0.0278098288 -0.5000793834
C  -0.2790113355  0.7614455369 -1.7321749599
H  -0.2802429310  0.1186255139 -2.6275208004
O   0.0144216883 -1.2753485204 -0.5359091411
H   0.9889993457 -1.2956933914 -0.4846875756
O   1.9808464726  0.7634346193 -2.0817749160
H   2.1732085230  0.4365451332 -2.9402576515
C   0.0823310917  0.7707734596  0.7623192531
H  -0.4237996906  1.7262076592  0.9060242689
H  -0.1558395921  0.1403413649  1.6015533794
H   1.1533115963  0.9165776471  0.7020847509
C  -2.0213936310  0.1798769035 -0.7393467966
H  -2.3092720658  1.0717041763 -0.2593548869
H  -2.3279901664  0.1085040602 -1.6998307021
H  -2.4732540892 -0.7108544403 -0.1340532022
C  -0.4128302472  2.2207098685 -1.9559451853
H   0.3509406113  2.5804254194 -2.7216741796
H  -1.3648620516  2.4061499855 -2.3731579639
H  -0.2658135734  2.7935057414 -1.0599260421
O   2.4511729106 -1.0779099988 -0.4879978378
H   3.0797167680 -1.7832669798 -0.6640545449
H   2.3072008613 -0.0352754944 -1.3936004666
22
Iteration 254  Energy = -424.8062582589
C  -0.3516706788  0.0278185913 -0.5000869544
C  -0.2789435681  0.7614561650 -1.7322055041
H  -0.2800944306  0.1186498376 -2.6276497788
O   0.0144146108 -1.2753527957 -0.5359135535
H   0.9885352851 -1.2955365853 -0.4847609338
O   1.9808192688  0.7634372696 -2.0817734620
H   2.1731152599  0.4365714188 -2.9402046662
C   0.0823292770  0.7707724664  0.7623139884
H  -0.4237926794  1.7262275224  0.9060994879
H  -0.1558812493  0.1403746628  1.6015199593
H   1.1532881356  0.9165233455  0.7020458034
C  -2.0213750694  0.1798522420 -0.7393189614
H  -2.3092276168  1.0714714858 -0.2591620921
H  -2.3278375830  0.1086430523 -1.6995773899
H  -2.4735809109 -0.7109990662 -0.1339357780
C  -0.4128123437  2.2207093031 -1.9559518045
H   0.3509888302  2.5806911598 -2.7218071304
H  -1.3647520963  2.4060155005 -2.3731448613
H  -0.2657903651  2.7934567916 -1.0599368447
O   2.4511941893 -1.0778906918 -0.4880030665
H   3.0796905734 -1.7832894814 -0.6640570979
H   2.3072124716 -0.0355025200 -1.3934902508
22
Iteration 255  Energy = -424.8061318447
C  -0.3517196690  0.0278273443 -0.5000945293
C  -0.2788758422  0.7614667910 -1.7322360371
H  -0.2799459169  0.1186741547 -2.6277787517
O   0.0144075507 -1.2753570661 -0.5359179712
H   0.9880712873 -1.2953797712 -0.4848342558
O   1.9807920889  0.7634399365 -2.0817720320
H   2.1730220413  0.4365977227 -2.9401516959
C   0.0823274593  0.7707714775  0.7623087279
H  -0.4237856755  1.7262473880  0.9061747111
H  -0.1559229173  0.1404079644  1.6014865375
H   1.1532646722  0.9164690418  0.7020068685
C  -2.0213565017  0.1798275497 -0.7392911476
H  -2.3091829946  1.0712386408 -0.2589690231
H  -2.3276853334  0.1087826859 -1.6993240506
H  -2.4739077628 -0.7111437560 -0.1338184264
C  -0.4127944489  2.2207087385 -1.9559584233
H   0.3510370654  2.5809569095 -2.7219400857
H  -1.3646421340  2.4058810131 -2.3731317789
H  -0.2657671767  2.7934078487 -1.0599476513
O   2.4512154490 -1.0778714122 -0.4880082690
H   3.0796643754 -1.7833119902 -0.6640596500
H   2.3072240500 -0.0357294599 -1.3933801163
22
Iteration 256  Energy = -424.8060049586
C  -0.3517686324  0.0278360886 -0.5001021077
C  -0.2788081569  0.7614774149 -1.7322665589
H  -0.2797973909  0.1186984656 -2.6279077178
O   0.0144005073 -1.2753613316 -0.5359223941
H   0.9876073568 -1.2952229510 -0.4849075408
O   1.9807649326  0.7634426194 -2.0817706252
H   2.1729288670  0.4366240438 -2.9400987407
C   0.0823256386  0.7707704929  0.7623034717
H  -0.4237786794  1.7262672559  0.9062499376
H  -0.1559645956  0.1404412696  1.6014531147
H   1.1532412063  0.9164147373  0.7019679469
C  -2.0213379275  0.1798028264 -0.7392633546
H  -2.3091382061  1.0710056505 -0.2587756990
H  -2.3275334076  0.1089229342 -1.6990706886
H  -2.4742346407 -0.7112885021 -0.1337011394
C  -0.4127765628  2.2207081749 -1.9559650418
H   0.3510853165  2.5812226653 -2.7220730438
H  -1.3645321658  2.4057465243 -2.3731187176
H  -0.2657440090  2.7933589135 -1.0599584620
O   2.4512366901 -1.0778521594 -0.4880134461
H   3.0796381742 -1.7833345061 -0.6640622009
H   2.3072355969 -0.0359563136 -1.3932700622
