22
Iteration 256  Energy = -424.8060049586
C  -0.3517686324  0.0278360886 -0.5001021077
C  -0.2788081569  0.7614774149 -1.7322665589
H  -0.2797973909  0.1186984656 -2.6279077178
O   0.0144005073 -1.2753613316 -0.5359223941
H   0.9876073568 -1.2952229510 -0.4849075408
O   1.9807649326  0.7634426194 -2.0817706252
H   2.1729288670  0.4366240438 -2.9400987407
C   0.0823256386  0.7707704929  0.7623034717
H  -0.4237786794  1.7262672559  0.9062499376
H  -0.1559645956  0.1404412696  1.6014531147
H   1.1532412063  0.9164147373  0.7019679469
C  -2.0213379275  0.1798028264 -0.7392633546
H  -2.3091382061  1.0710056505 -0.2587756990
H  -2.3275334076  0.1089229342 -1.6990706886
H  -2.4742346407 -0.7112885021 -0.1337011394
C  -0.4127765628  2.2207081749 -1.9559650418
H   0.3510853165  2.5812226653 -2.7220730438
H  -1.3645321658  2.4057465243 -2.3731187176
H  -0.2657440090  2.7933589135 -1.0599584620
O   2.4512366901 -1.0778521594 -0.4880134461
H   3.0796381742 -1.7833345061 -0.6640622009
H   2.3072355969 -0.0359563136 -1.3932700622
