7
Image 0  Energy = -29.6080208486
C   0.8610134148  0.7723450765 -0.1710386267
H   0.6611466295  1.5334566949 -0.9375499551
O   0.5520571906  0.9899324234  1.1198913558
C   1.3421948892 -0.5683304281 -0.1804801009
H   0.8306100361 -0.2645390967  1.0595189952
H   1.0203002475 -1.3462300789 -0.8842091321
H   2.3247317441 -0.7018273092  0.2944611183
7
Image 1  Energy = -29.6119397646
C   0.8588964348  0.7755373489 -0.1648762734
H   0.6604498790  1.5328166826 -0.9359370565
O   0.5520385167  0.9939052881  1.1160278014
C   1.3425023274 -0.5705813511 -0.1763664916
H   0.8501399266 -0.3417615759  1.0020844900
H   1.0160661353 -1.3442468748 -0.8799630830
H   2.3319904831 -0.7002208780  0.2849025840
7
Image 2  Energy = -29.6200295603
C   0.8566734634  0.7788864331 -0.1583111324
H   0.6599917776  1.5321292760 -0.9341780076
O   0.5521632284  0.9979355851  1.1116551908
C   1.3426326524 -0.5728150401 -0.1720527081
H   0.8678949728 -0.4227922363  0.9493798619
H   1.0132667507 -1.3418210156 -0.8774826126
H   2.3404486078 -0.6981880051  0.2731400514
7
Image 3  Energy = -29.6319927192
C   0.8546384863  0.7820365326 -0.1522999664
H   0.6600188885  1.5314654780 -0.9330669499
O   0.5521698579  1.0023327878  1.1076370109
C   1.3425131393 -0.5750405529 -0.1678281044
H   0.8843562629 -0.5083073535  0.9045160134
H   1.0131508967 -1.3388202684 -0.8779586029
H   2.3496429415 -0.6958194208  0.2591801524
7
Image 4  Energy = -29.6459907806
C   0.8525349570  0.7850107352 -0.1457256778
H   0.6607295279  1.5304372361 -0.9323457532
O   0.5520819890  1.0074173623  1.1034749248
C   1.3425966475 -0.5776694677 -0.1643705740
H   0.8963407603 -0.5992117035  0.8714385494
H   1.0157808025 -1.3349615047 -0.8818865477
H   2.3597821770 -0.6925623999  0.2419884908
7
Image 5  Energy = -29.6587777203
C   0.8500727178  0.7879795115 -0.1376683368
H   0.6625106887  1.5287316457 -0.9317351416
O   0.5520680090  1.0130440876  1.0985393175
C   1.3430618770 -0.5811385248 -0.1614463728
H   0.9010990113 -0.6917634305  0.8495428869
H   1.0212575678 -1.3291735244 -0.8902507653
H   2.3717835471 -0.6874394695  0.2191225215
7
Image 6  Energy = -29.6700320905
C   0.8473360224  0.7904237586 -0.1283404685
H   0.6655501774  1.5259820986 -0.9308194691
O   0.5520231500  1.0193564309  1.0931978148
C   1.3436934181 -0.5855245675 -0.1586407082
H   0.9021275844 -0.7817140990  0.8302978934
H   1.0299689908 -1.3205203402 -0.9037329090
H   2.3848005709 -0.6804446543  0.1911345642
7
Image 7  Energy = -29.6797366953
C   0.8444020963  0.7918810217 -0.1180520175
H   0.6698728494  1.5218390136 -0.9291607045
O   0.5517587750  1.0267348691  1.0878952655
C   1.3445037378 -0.5910274359 -0.1560560774
H   0.9024420264 -0.8675498538  0.8107334699
H   1.0421799720 -1.3076627460 -0.9231184366
H   2.3974529410 -0.6722287034  0.1591948968
7
Image 8  Energy = -29.6873404300
C   0.8411831568  0.7919814663 -0.1065825261
H   0.6761182763  1.5153669689 -0.9272488362
O   0.5510940954  1.0356705887  1.0828630293
C   1.3456437963 -0.5983014367 -0.1538582493
H   0.9034082927 -0.9460572094  0.7890847691
H   1.0583509460 -1.2882149831 -0.9500261879
H   2.4093914716 -0.6630488079  0.1228533289
7
Image 9  Energy = -29.6933057821
C   0.8379742944  0.7899846800 -0.0947710566
H   0.6846842557  1.5056459413 -0.9256229688
O   0.5496860218  1.0466977870  1.0791058682
C   1.3472440136 -0.6073659615 -0.1527660401
H   0.9061464819 -1.0164308900  0.7657284620
H   1.0777269235 -1.2609303130 -0.9838134141
H   2.4202279824 -0.6534624387  0.0842459437
7
Image 10  Energy = -29.6980283773
C   0.8352545125  0.7853680739 -0.0836162259
H   0.6949994198  1.4924738382 -0.9251167754
O   0.5473131021  1.0599889467  1.0774442148
C   1.3492685067 -0.6175053050 -0.1534978958
H   0.9123492956 -1.0804940597  0.7411153071
H   1.0976705363 -1.2278419047 -1.0211569442
H   2.4297137272 -0.6444495120  0.0478696137
7
Image 11  Energy = -29.7019055700
C   0.8329138956  0.7773434476 -0.0718484526
H   0.7071159721  1.4739688811 -0.9259063912
O   0.5437700423  1.0764927660  1.0776904982
C   1.3522177515 -0.6287819308 -0.1571072181
H   0.9214886186 -1.1383250574  0.7129296651
H   1.1168283655 -1.1906560207 -1.0604539697
H   2.4382823322 -0.6372653027  0.0150057938
7
Image 12  Energy = -29.7052038378
C   0.8308454039  0.7653180720 -0.0579744346
H   0.7204660659  1.4483293119 -0.9265843615
O   0.5387487196  1.0971149633  1.0795957799
C   1.3570013718 -0.6410725712 -0.1650551640
H   0.9304307161 -1.1913846471  0.6804684888
H   1.1332295694 -1.1522684490 -1.0990873445
H   2.4469310063 -0.6345302076 -0.0140872196
7
Image 13  Energy = -29.7078249222
C   0.8290994826  0.7510063795 -0.0423319636
H   0.7323630814  1.4198328498 -0.9256092658
O   0.5326278726  1.1206276912  1.0822782353
C   1.3630941835 -0.6541048799 -0.1759560242
H   0.9406458015 -1.2434258173  0.6428307320
H   1.1460251250 -1.1171832561 -1.1352858631
H   2.4573696187 -0.6364469248 -0.0402853860
7
Image 14  Energy = -29.7093774742
C   0.8274895530  0.7358653994 -0.0257211834
H   0.7404434462  1.3934519133 -0.9200524972
O   0.5259369443  1.1459751804  1.0848459225
C   1.3698218697 -0.6684321205 -0.1879798292
H   0.9510313728 -1.2950511469  0.5997745007
H   1.1572563373 -1.0872224258 -1.1658350298
H   2.4728595554 -0.6395853786 -0.0675849674
7
Image 15  Energy = -29.7097457117
C   0.8266661482  0.7322022404 -0.0187576875
H   0.7415592316  1.3854442342 -0.9171805311
O   0.5243592313  1.1525461168  1.0845608895
C   1.3735881513 -0.6708241225 -0.1932615407
H   0.9508592075 -1.3185258936  0.5879912299
H   1.1621046860 -1.0742103774 -1.1841997285
H   2.4570587030 -0.6532416330 -0.0558880453
7
Image 16  Energy = -29.7099519438
C   0.8264507808  0.7259981744 -0.0117493197
H   0.7426861266  1.3740030328 -0.9146201424
O   0.5214452821  1.1636581487  1.0853446174
C   1.3757402482 -0.6780081176 -0.1976322308
H   0.9558098837 -1.3360570797  0.5671427164
H   1.1658761141 -1.0627932982 -1.1942276389
H   2.4704182320 -0.6525455368 -0.0714995482
7
Image 17  Energy = -29.7099676496
C   0.8251358331  0.7212953945 -0.0083735391
H   0.7383250763  1.3621172491 -0.9161645893
O   0.5105878072  1.1682538399  1.0824820287
C   1.3894507060 -0.6784495625 -0.1967316153
H   0.9544620843 -1.3495705993  0.5567345109
H   1.1895760509 -1.0558589412 -1.1986497199
H   2.4757619887 -0.6472594063 -0.0602419996
