7
Image 0  Energy = -29.6080208784
C   0.8610134313  0.7723450117 -0.1710386209
H   0.6611465822  1.5334568332 -0.9375501249
O   0.5520571783  0.9899324526  1.1198913640
C   1.3421948876 -0.5683303986 -0.1804800644
H   0.8306100763 -0.2645391424  1.0595190156
H   1.0203002526 -1.3462297153 -0.8842092999
H   2.3247316269 -0.7018275283  0.2944615125
7
Image 1  Energy = -29.6119397199
C   0.8588964447  0.7755373226 -0.1648762571
H   0.6604498695  1.5328166632 -0.9359371125
O   0.5520385018  0.9939053221  1.1160278026
C   1.3425023267 -0.5705813436 -0.1763664658
H   0.8501398801 -0.3417616546  1.0020845811
H   1.0160661238 -1.3442466600 -0.8799632945
H   2.3319904158 -0.7002210456  0.2849029598
7
Image 2  Energy = -29.6200295603
C   0.8566734761  0.7788864086 -0.1583111093
H   0.6599917646  1.5321291964 -0.9341779764
O   0.5521632127  0.9979356215  1.1116551917
C   1.3426326539 -0.5728150397 -0.1720526859
H   0.8678949447 -0.4227922563  0.9493798911
H   1.0132668294 -1.3418208365 -0.8774827489
H   2.3404484158 -0.6981881638  0.2731403338
7
Image 3  Energy = -29.6319927043
C   0.8546385021  0.7820365026 -0.1522999366
H   0.6600188562  1.5314654363 -0.9330669933
O   0.5521698435  1.0023328228  1.1076370130
C   1.3425131352 -0.5750405506 -0.1678280802
H   0.8843562083 -0.5083073510  0.9045160089
H   1.0131509990 -1.3388201307 -0.8779587105
H   2.3496428289 -0.6958195978  0.2591804015
7
Image 4  Energy = -29.6459907806
C   0.8525349732  0.7850107067 -0.1457256533
H   0.6607294912  1.5304371919 -0.9323458251
O   0.5520819757  1.0074173960  1.1034749321
C   1.3425966414 -0.5776694627 -0.1643705468
H   0.8963406903 -0.5992117197  0.8714385731
H   1.0157808990 -1.3349614260 -0.8818866616
H   2.3597821155 -0.6925626019  0.2419887370
7
Image 5  Energy = -29.6587776905
C   0.8500727358  0.7879794877 -0.1376683299
H   0.6625106669  1.5287315335 -0.9317351444
O   0.5520679937  1.0130441217  1.0985393320
C   1.3430618712 -0.5811385243 -0.1614463414
H   0.9010989505 -0.6917634526  0.8495428798
H   1.0212576548 -1.3291734424 -0.8902508555
H   2.3717834904 -0.6874396521  0.2191227547
7
Image 6  Energy = -29.6700321055
C   0.8473360467  0.7904237322 -0.1283404560
H   0.6655501468  1.5259820201 -0.9308194756
O   0.5520231350  1.0193564625  1.0931978251
C   1.3436934138 -0.5855245720 -0.1586406843
H   0.9021274643 -0.7817141254  0.8302979350
H   1.0299690926 -1.3205202392 -0.9037329240
H   2.3848004569 -0.6804447749  0.1911347533
7
Image 7  Energy = -29.6797366804
C   0.8444021199  0.7918809943 -0.1180520101
H   0.6698728160  1.5218390165 -0.9291607243
O   0.5517587610  1.0267348993  1.0878952774
C   1.3445037220 -0.5910274442 -0.1560560450
H   0.9024419091 -0.8675498684  0.8107334242
H   1.0421800611 -1.3076626764 -0.9231184510
H   2.3974529515 -0.6722288064  0.1591951151
7
Image 8  Energy = -29.6873404598
C   0.8411831752  0.7919814516 -0.1065825062
H   0.6761182714  1.5153669400 -0.9272489031
O   0.5510940849  1.0356706106  1.0828630319
C   1.3456437832 -0.5983014481 -0.1538582161
H   0.9034081094 -0.9460571833  0.7890847396
H   1.0583510497 -1.2882149256 -0.9500261795
H   2.4093914403 -0.6630488493  0.1228534732
7
Image 9  Energy = -29.6933057672
C   0.8379743155  0.7899846674 -0.0947710506
H   0.6846842739  1.5056458839 -0.9256229707
O   0.5496860103  1.0466978087  1.0791058718
C   1.3472440019 -0.6073659604 -0.1527660129
H   0.9061462962 -1.0164309776  0.7657284378
H   1.0777269922 -1.2609303270 -0.9838134086
H   2.4202279093 -0.6534624601  0.0842461549
7
Image 10  Energy = -29.6980283028
C   0.8352545336  0.7853680700 -0.0836162109
H   0.6949994654  1.4924738045 -0.9251167427
O   0.5473130897  1.0599889611  1.0774442052
C   1.3492684971 -0.6175053068 -0.1534978709
H   0.9123491034 -1.0804941483  0.7411152633
H   1.0976705943 -1.2278419121 -1.0211569192
H   2.4297135782 -0.6444495009  0.0478698150
7
Image 11  Energy = -29.7019056147
C   0.8329139003  0.7773434571 -0.0718484279
H   0.7071160887  1.4739688941 -0.9259064362
O   0.5437700269  1.0764927692  1.0776904803
C   1.3522177540 -0.6287819236 -0.1571071988
H   0.9214883124 -1.1383251467  0.7129295958
H   1.1168284083 -1.1906559234 -1.0604540169
H   2.4382821569 -0.6372653965  0.0150060553
7
Image 12  Energy = -29.7052038229
C   0.8308454249  0.7653181020 -0.0579744480
H   0.7204662119  1.4483294222 -0.9265843726
O   0.5387486886  1.0971149821  1.0795957804
C   1.3570013584 -0.6410725827 -0.1650551639
H   0.9304304186 -1.1913849281  0.6804683445
H   1.1332295745 -1.1522684815 -1.0990870160
H   2.4469308928 -0.6345299935 -0.0140870842
7
Image 13  Energy = -29.7078249818
C   0.8290994887  0.7510064931 -0.0423319995
H   0.7323633508  1.4198330236 -0.9256092975
O   0.5326278278  1.1206277008  1.0822782733
C   1.3630942043 -0.6541048717 -0.1759560950
H   0.9406452911 -1.2434264300  0.6428304730
H   1.1460251192 -1.1171834082 -1.1352850353
H   2.4573695185 -0.6364467401 -0.0402851553
7
Image 14  Energy = -29.7093775636
C   0.8274894702  0.7358655828 -0.0257212002
H   0.7404436618  1.3934522216 -0.9200520684
O   0.5259368926  1.1459751624  1.0848459562
C   1.3698221804 -0.6684318266 -0.1879801993
H   0.9510292521 -1.2950541961  0.5997738951
H   1.1572556264 -1.0872236984 -1.1658308228
H   2.4728598604 -0.6395841903 -0.0675853336
7
Image 15  Energy = -29.7097457415
C   0.8266659154  0.7322022781 -0.0187580411
H   0.7415588504  1.3854439864 -0.9171809637
O   0.5243593267  1.1525461868  1.0845606997
C   1.3735875814 -0.6708243412 -0.1932613281
H   0.9508623556 -1.3185250620  0.5879913726
H   1.1621049437 -1.0742069721 -1.1841984604
H   2.4570631064 -0.6532424751 -0.0558847690
7
Image 16  Energy = -29.7099519140
C   0.8264507549  0.7259986385 -0.0117503127
H   0.7426848334  1.3740036979 -0.9146207419
O   0.5214453815  1.1636578257  1.0853441505
C   1.3757400796 -0.6780079823 -0.1976312748
H   0.9558041206 -1.3360572986  0.5671400494
H   1.1658810817 -1.0627912800 -1.1942281572
H   2.4704188314 -0.6525463831 -0.0714882939
7
Image 17  Energy = -29.7099678582
C   0.8251361459  0.7213058519 -0.0083680408
H   0.7383364210  1.3621492687 -0.9161412205
O   0.5106451650  1.1682603185  1.0825016265
C   1.3893849619 -0.6784629408 -0.1967617087
H   0.9544420426 -1.3495812566  0.5567224890
H   1.1894568742 -1.0558461834 -1.1986793951
H   2.4757038457 -0.6473301954 -0.0602927596
7
Image 18  Energy = -29.6082818723
C   0.8623947751  0.7700730767 -0.1745982107
H   0.6615520406  1.5338622410 -0.9376705459
O   0.5527253557  0.9853025792  1.1215512064
C   1.3420772576 -0.5664244716 -0.1839894638
H   0.8067437555 -0.1855567502  1.1145884790
H   1.0242030886 -1.3471050891 -0.8871851421
H   2.3186263427 -0.7025116669  0.3004827075
7
Image 19  Energy = -29.6150859958
C   0.8634837925  0.7674917147 -0.1767116982
H   0.6624371428  1.5332400199 -0.9370770709
O   0.5533811273  0.9816433431  1.1225177177
C   1.3425568880 -0.5648444952 -0.1887160057
H   0.7779785923 -0.1137189016  1.1776303858
H   1.0279738472 -1.3474129108 -0.8890980447
H   2.3136349483 -0.7034057021  0.3049151826
7
Image 20  Energy = -29.6235793001
C   0.8647267798  0.7632995863 -0.1782078235
H   0.6640706384  1.5315667060 -0.9358889778
O   0.5535917081  0.9797015895  1.1237691161
C   1.3435576384 -0.5630295739 -0.1952082696
H   0.7485366955 -0.0515216747  1.2494050576
H   1.0324183767 -1.3469689292 -0.8915288385
H   2.3069210754 -0.7052268199  0.3097033359
7
Image 21  Energy = -29.6321622795
C   0.8663086683  0.7568611127 -0.1794733427
H   0.6663649322  1.5289017414 -0.9342669161
O   0.5531984065  0.9798621313  1.1256601421
C   1.3447958179 -0.5607040855 -0.2036251349
H   0.7233934181 -0.0010652000  1.3293711471
H   1.0386215543 -1.3457876431 -0.8964721091
H   2.2962070106 -0.7077373702  0.3184120383
7
Image 22  Energy = -29.6402750826
C   0.8679119768  0.7489092587 -0.1803035558
H   0.6688269167  1.5251111717 -0.9322924471
O   0.5523243496  0.9819840833  1.1279787291
C   1.3462879318 -0.5583362300 -0.2136136802
H   0.7031691571  0.0376311266  1.4146804756
H   1.0469303366 -1.3439213520 -0.9049968585
H   2.2826497153 -0.7116508926  0.3317617854
7
Image 23  Energy = -29.6473837858
C   0.8694187737  0.7388139873 -0.1802319536
H   0.6712027041  1.5183354261 -0.9281083253
O   0.5509751609  0.9860187806  1.1310088102
C   1.3484116073 -0.5558465702 -0.2252995783
H   0.6847680820  0.0750260169  1.4982070690
H   1.0575929226 -1.3401007315 -0.9180921359
H   2.2661669473 -0.7195038658  0.3474438157
7
Image 24  Energy = -29.6537027574
C   0.8704616929  0.7264626396 -0.1781439774
H   0.6725881589  1.5075034429 -0.9216075303
O   0.5491339855  0.9923199503  1.1347990088
C   1.3517760043 -0.5539039997 -0.2389994653
H   0.6661600583  0.1172544791  1.5742385669
H   1.0712924900 -1.3335233783 -0.9387856220
H   2.2463975343 -0.7334642460  0.3638093162
7
Image 25  Energy = -29.6589134252
C   0.8704248167  0.7119333272 -0.1728542042
H   0.6712577454  1.4916276859 -0.9150551287
O   0.5468328944  1.0017435964  1.1391282353
C   1.3566132984 -0.5533612538 -0.2545585159
H   0.6519627088  0.1604657337  1.6360514419
H   1.0916960194 -1.3209382224 -0.9725707866
H   2.2208469733 -0.7563021303  0.3828750395
7
Image 26  Energy = -29.6631875402
C   0.8688810056  0.6976802690 -0.1652830710
H   0.6650553421  1.4719925678 -0.9102310850
O   0.5444850826  1.0133344896  1.1433474341
C   1.3624664268 -0.5550931221 -0.2695505917
H   0.6473961812  0.1964665179  1.6774735223
H   1.1198984912 -1.2991955702 -1.0180971826
H   2.1893310344 -0.7879172566  0.4035962987
7
Image 27  Energy = -29.6667998946
C   0.8664044269  0.6851586115 -0.1570494202
H   0.6547650974  1.4512584583 -0.9069872612
O   0.5424757441  1.0249821539  1.1468539775
C   1.3686834857 -0.5581293280 -0.2826880036
H   0.6472322150  0.2269964259  1.7073060238
H   1.1508275736 -1.2711689945 -1.0674821653
H   2.1561770110 -0.8252344712  0.4226664555
7
Image 28  Energy = -29.6699660188
C   0.8635783949  0.6733772399 -0.1487647398
H   0.6421538195  1.4299984784 -0.9045827068
O   0.5406926581  1.0364159936  1.1498712927
C   1.3750356454 -0.5614390819 -0.2944482497
H   0.6485141228  0.2549066278  1.7324401613
H   1.1826226334 -1.2384018036 -1.1168143846
H   2.1219944130 -0.8663128582  0.4379697071
7
Image 29  Energy = -29.6726487047
C   0.8605900098  0.6622969983 -0.1408748681
H   0.6288013103  1.4088378650 -0.9026047156
O   0.5392594545  1.0470705711  1.1524209366
C   1.3810714319 -0.5644524733 -0.3047948031
H   0.6504659485  0.2813465525  1.7543155200
H   1.2151119154 -1.2026869787 -1.1631597304
H   2.0873399901 -0.9084863672  0.4492532068
7
Image 30  Energy = -29.6749121761
C   0.8571592119  0.6514966145 -0.1330426363
H   0.6149162110  1.3870563678 -0.9011194538
O   0.5381914945  1.0572951805  1.1544637539
C   1.3868697116 -0.5671449644 -0.3139738924
H   0.6547275630  0.3061504141  1.7724367382
H   1.2498349642 -1.1630532280 -1.2066939686
H   2.0509786557 -0.9526578682  0.4567819424
7
Image 31  Energy = -29.6767204171
C   0.8531885835  0.6410506235 -0.1254454899
H   0.6008852131  1.3655261911 -0.8999369268
O   0.5375605133  1.0669402069  1.1558699595
C   1.3922572631 -0.5693926715 -0.3217673161
H   0.6621892156  0.3287789859  1.7875857754
H   1.2873444658 -1.1211037485 -1.2460591319
H   2.0131669090 -0.9975452125  0.4598037610
7
Image 32  Energy = -29.6780663794
C   0.8486099128  0.6310278334 -0.1184134898
H   0.5867774749  1.3457210494 -0.8983723743
O   0.5373730058  1.0759410211  1.1566455884
C   1.3971024658 -0.5714052192 -0.3280222090
H   0.6732327163  0.3496940676  1.8030129982
H   1.3294705354 -1.0790112788 -1.2818896294
H   1.9739041798 -1.0402059988  0.4570411705
7
Image 33  Energy = -29.6790041840
C   0.8439339570  0.6227278814 -0.1126806632
H   0.5732933151  1.3295471333 -0.8961659846
O   0.5377264162  1.0831701467  1.1572160195
C   1.4011787899 -0.5726342969 -0.3329008332
H   0.6855784299  0.3666874959  1.8147280890
H   1.3756467514 -1.0385824369 -1.3170175487
H   1.9304150238 -1.0826610704  0.4590416131
7
Image 34  Energy = -29.6796836770
C   0.8382112164  0.6152733526 -0.1080217134
H   0.5575371700  1.3136134334 -0.8935356217
O   0.5389598408  1.0891503233  1.1592584547
C   1.4053057642 -0.5730454768 -0.3386047680
H   0.6997464293  0.3868803473  1.8164758472
H   1.4231517278 -1.0002015924 -1.3461878148
H   1.8839359160 -1.1265446185  0.4638696341
7
Image 35  Energy = -29.6799688852
C   0.8346751823  0.6106229344 -0.1055405605
H   0.5485256881  1.3045399581 -0.8930003891
O   0.5394317377  1.0932833476  1.1584712081
C   1.4083018307 -0.5732970163 -0.3419562914
H   0.7153596035  0.3987138761  1.8309214793
H   1.4372932743 -0.9866542171 -1.3375264018
H   1.8621279846 -1.1500373195  0.4629772249
7
Image 36  Energy = -29.6801873064
C   0.8314471858  0.6075783830 -0.1043149647
H   0.5391402252  1.2967649917 -0.8929728277
O   0.5406127261  1.0954920532  1.1593861878
C   1.4093775503 -0.5738441610 -0.3427016216
H   0.7244961360  0.4092184401  1.8271012132
H   1.4644620384 -0.9677083803 -1.3525386672
H   1.8421137008 -1.1639959173  0.4615067997
7
Image 37  Energy = -29.6803959972
C   0.8212427492  0.6001083369 -0.1016346813
H   0.5089758671  1.2783400384 -0.8929680823
O   0.5441667801  1.1005174677  1.1603693088
C   1.4133974394 -0.5741325295 -0.3462667104
H   0.7599831616  0.4339756465  1.8332135419
H   1.5190255148 -0.9346890254 -1.3561831736
H   1.7996048853 -1.1907828741  0.4539214069
7
Image 38  Energy = -29.6804991132
C   0.8205495391  0.5997184517 -0.1019674788
H   0.5088745375  1.2782458424 -0.8911735198
O   0.5444241144  1.0997800878  1.1578446426
C   1.4122781801 -0.5728910367 -0.3435248047
H   0.7745468429  0.4368074031  1.8397511927
H   1.5384414742 -0.9209526932 -1.3649756436
H   1.7832669297 -1.2056854582  0.4658099283
7
Image 39  Energy = -29.6805538005
C   0.8173026452  0.5971399156 -0.1015350997
H   0.4985774053  1.2711586195 -0.8931926631
O   0.5448807547  1.1016021322  1.1580191336
C   1.4139303942 -0.5738523897 -0.3438535336
H   0.7922317189  0.4498965882  1.8382129008
H   1.5600153144 -0.9094378756 -1.3593630896
H   1.7661374815 -1.2099918643  0.4597753376
7
Image 40  Energy = -29.6805785066
C   0.8173615899  0.5976695353 -0.1019380474
H   0.4984849950  1.2719114686 -0.8928335681
O   0.5448377750  1.1011286320  1.1577421399
C   1.4135639127 -0.5734633658 -0.3433034832
H   0.7956831368  0.4487078523  1.8389335042
H   1.5621620941 -0.9098333379 -1.3604677847
H   1.7649764610 -1.2125878983  0.4624514054
