7
Image 0  Energy = -29.6080206847
C   0.8939161969  0.7908786956 -0.1848764807
H   0.7389041390  1.5685541045 -0.9451141669
O   0.5615931230  1.0019276300  1.1013259621
C   1.3287780088 -0.5654431921 -0.2018272899
H   0.7981953506 -0.2605797534  1.0299281063
H   0.9973843304 -1.3222914468 -0.9238627377
H   2.2944101556 -0.7392818573  0.2942755793
7
Image 1  Energy = -29.6119394517
C   0.8917619626  0.7940613400 -0.1787196754
H   0.7381418444  1.5679250111 -0.9435237202
O   0.5618042440  1.0059490490  1.0975194714
C   1.3289096307 -0.5677614129 -0.1977382652
H   0.8164382624 -0.3376353817  0.9718583512
H   0.9931178192 -1.3202189629 -0.9196910580
H   2.3019459190 -0.7377978614  0.2849139539
7
Image 2  Energy = -29.6200292772
C   0.8894979741  0.7973986923 -0.1721628066
H   0.7376161150  1.5672332092 -0.9417829502
O   0.5621727278  1.0100305543  1.0932085549
C   1.3288594724 -0.5700563820 -0.1934546950
H   0.8326605819 -0.4185272517  0.9184513865
H   0.9903432927 -1.3177323278 -0.9172437475
H   2.3107498935 -0.7359032792  0.2733846818
7
Image 3  Energy = -29.6319923466
C   0.8874283130  0.8005378355 -0.1661580358
H   0.7375925612  1.5665557719 -0.9406796222
O   0.5624273946  1.0144779589  1.0892541954
C   1.3285618457 -0.5723328070 -0.1892659874
H   0.8472470567 -0.5039601971  0.8727893262
H   0.9903416038 -1.3147242050 -0.9176795578
H   2.3203544130 -0.7336702007  0.2596807420
7
Image 4  Energy = -29.6459906912
C   0.8852705358  0.8034959654 -0.1595943000
H   0.7382490200  1.5654953819 -0.9399554941
O   0.5626147919  1.0196173982  1.0851633797
C   1.3284716095 -0.5750090136 -0.1858449331
H   0.8568908179 -0.5947794393  0.8387280153
H   0.9931961458 -1.3109077169 -0.9214884343
H   2.3310118710 -0.7305396720  0.2427808236
7
Image 5  Energy = -29.6587777501
C   0.8827184135  0.8064415455 -0.1515566842
H   0.7399545117  1.5637218637 -0.9393260640
O   0.5629133382  1.0253062522  1.0803086901
C   1.3287464938 -0.5785309926 -0.1829593015
H   0.8589924723 -0.6871413627  0.8156445630
H   0.9990681485 -1.3052037818 -0.9296378696
H   2.3437290096 -0.7255336050  0.2202801618
7
Image 6  Energy = -29.6700321651
C   0.8798433482  0.8088556998 -0.1422627176
H   0.7428740063  1.5608570823 -0.9383766607
O   0.5632144180  1.0316866901  1.0750571205
C   1.3291589665 -0.5829735365 -0.1802013883
H   0.8573921536 -0.7768100267  0.7951603143
H   1.0083940521 -1.2966807733 -0.9427861586
H   2.3576486411 -0.7186240033  0.1927100587
7
Image 7  Energy = -29.6797367549
C   0.8767140992  0.8102775791 -0.1320269351
H   0.7470096734  1.5565455577 -0.9366740232
O   0.5633319163  1.0391395710  1.0698543026
C   1.3297170410 -0.5885352770 -0.1776762303
H   0.8552253111 -0.8623381170  0.7744008143
H   1.0215036904 -1.2839991713 -0.9616934800
H   2.3713425208 -0.7104290506  0.1611982873
7
Image 8  Energy = -29.6873405194
C   0.8732249322  0.8103378365 -0.1206364117
H   0.7529801678  1.5498361895 -0.9347054952
O   0.5630965212  1.0481589338  1.0649341842
C   1.3305529557 -0.5958731863 -0.1755547670
H   0.8540128330 -0.9405378146  0.7516749974
H   1.0389779425 -1.2647691910 -0.9879337259
H   2.3844617383 -0.7011873745  0.1252836154
7
Image 9  Energy = -29.6933058268
C   0.8696654782  0.8082973806 -0.1089335081
H   0.7611641573  1.5398037752 -0.9330137025
O   0.5621595528  1.0592772457  1.0613007057
C   1.3318138386 -0.6050016385 -0.1745531151
H   0.8548891904 -1.0106491317  0.7274015492
H   1.0600902629 -1.2377265453 -1.0208644795
H   2.3965496832 -0.6914713398  0.0870833238
7
Image 10  Energy = -29.6980284369
C   0.8665203042  0.8036309064 -0.0979120669
H   0.7710041245  1.5262766850 -0.9324493753
O   0.5602860350  1.0726634923  1.0597708103
C   1.3335054148 -0.6151946743 -0.1753795465
H   0.8594766778 -1.0745571236  0.7020407166
H   1.0820556221 -1.2048572902 -1.0572563059
H   2.4072139869 -0.6823112375  0.0510738052
7
Image 11  Energy = -29.7019056445
C   0.8636219093  0.7955375710 -0.0863163877
H   0.7824916957  1.5073744094 -0.9332131401
O   0.5573079326  1.0892753219  1.0601658025
C   1.3361510655 -0.6265180328 -0.1790762612
H   0.8672996508 -1.1322907148  0.6732641949
H   1.1034250563 -1.1678402524 -1.0955619868
H   2.4168141389 -0.6749927222  0.0185289480
7
Image 12  Energy = -29.7052038229
C   0.8608074195  0.7834087480 -0.0726670042
H   0.7949636892  1.4812995052 -0.9339346324
O   0.5529543662  1.1100326963  1.0622431414
C   1.3406988101 -0.6388621022 -0.1870802373
H   0.8751955318 -1.1851890422  0.6402756632
H   1.1220668984 -1.1295370640 -1.1332549978
H   2.4262514344 -0.6721732088 -0.0103084256
7
Image 13  Energy = -29.7078248030
C   0.8581940779  0.7689604111 -0.0572770845
H   0.8058456990  1.4524002550 -0.9330788342
O   0.5475828860  1.1337059908  1.0651127755
C   1.3465993128 -0.6519537306 -0.1980147287
H   0.8845218243 -1.2370425675  0.6021582522
H   1.1369384192 -1.0944425220 -1.1686554448
H   2.4372591874 -0.6741007832 -0.0362826755
7
Image 14  Energy = -29.7093770272
C   0.8556687726  0.7536667889 -0.0409365914
H   0.8128756077  1.4256930005 -0.9277023578
O   0.5417062660  1.1592289610  1.0678846937
C   1.3531153585 -0.6663434113 -0.2100725616
H   0.8941446716 -1.2884072806  0.5586371871
H   1.1499645699 -1.0644546113 -1.1985777026
H   2.4533018708 -0.6774215079 -0.0632425918
7
Image 15  Energy = -29.7097454137
C   0.8545456371  0.7499458391 -0.0340299898
H   0.8136507989  1.4176123568 -0.9249245102
O   0.5403649503  1.1658483562  1.0676465098
C   1.3569337597 -0.6687839438 -0.2153102052
H   0.8934294021 -1.3117440329  0.5465289918
H   1.1556569662 -1.0514451071 -1.2165004419
H   2.4367230167 -0.6906586148 -0.0520957816
7
Image 16  Energy = -29.7099518544
C   0.8539505376  0.7436577452 -0.0271244968
H   0.8143121556  1.4061029658 -0.9224948100
O   0.5378178689  1.1770461083  1.0685218204
C   1.3589312084 -0.6759852140 -0.2197140782
H   0.8982949638 -1.3291189214  0.5255613329
H   1.1600917136 -1.0399953881 -1.2263760537
H   2.4504787136 -0.6902201461 -0.0673834538
7
Image 17  Energy = -29.7099674112
C   0.8523778216  0.7389926621 -0.0238391374
H   0.8095163120  1.3944369792 -0.9242894640
O   0.5272633852  1.1820796279  1.0654894411
C   1.3726334998 -0.6768634030 -0.2185606925
H   0.8968209685 -1.3424478532  0.5149396899
H   1.1840242680 -1.0338374508 -1.2300242318
H   2.4558019509 -0.6852157998 -0.0560778118
