7
Image 0  Energy = -29.6796803838
C   0.8094255258  0.5418792911 -0.1262147682
H   0.3934398759  1.2083001467 -0.8785882390
O   0.5754161043  1.0286034305  1.1187640394
C   1.4439793323 -0.5858126342 -0.4363489430
H   1.0010431731  0.4425668795  1.7666787111
H   1.5821483243 -0.8644263668 -1.4742249418
H   1.8369332024 -1.2583778893  0.3238163822
7
Image 1  Energy = -29.6805090225
C   0.8187536695  0.5570190299 -0.1493177497
H   0.4444101375  1.2276901357 -0.9166221081
O   0.5697024891  1.0227596200  1.1320916759
C   1.4448499560 -0.5896624196 -0.4337516467
H   0.9250521339  0.3896874690  1.8007017180
H   1.5966388703 -0.8851850765 -1.4629147705
H   1.8166239264 -1.2459047752  0.3493198269
7
Image 2  Energy = -29.6732396549
C   0.8024328691  0.5498293264 -0.1475638739
H   0.3891650944  1.2072412644 -0.9532143829
O   0.5811780856  1.0215985802  1.1374311981
C   1.4469608105 -0.5889590929 -0.4357054783
H   0.9591253017  0.4913382943  1.7548524311
H   1.5837108074 -0.8789675205 -1.4671529457
H   1.8379046083 -1.2376057511  0.3536330715
7
Image 3  Energy = -29.6767386115
C   0.8021584904  0.5503203551 -0.1486298119
H   0.3970154226  1.1947250547 -0.9291740869
O   0.5773239844  1.0270168282  1.1305912822
C   1.4466719536 -0.5884386920 -0.4350587657
H   1.0192675972  0.4057963654  1.8501750972
H   1.5848468936 -0.8811695086 -1.4686301396
H   1.8366596418 -1.2353960765  0.3493059730
7
Image 4  Energy = -29.6767386264
C   0.8021584723  0.5503203996 -0.1486297893
H   0.3970154249  1.1947250296 -0.9291741426
O   0.5773239826  1.0270168282  1.1305912785
C   1.4466719702 -0.5884387300 -0.4350587747
H   1.0192676125  0.4057963108  1.8501750234
H   1.5848468803 -0.8811694804 -1.4686301935
H   1.8366596423 -1.2353960629  0.3493060453
7
Image 5  Energy = -29.6767386413
C   0.8021584749  0.5503203907 -0.1486298147
H   0.3970154113  1.1947250366 -0.9291741073
O   0.5773239822  1.0270168305  1.1305912877
C   1.4466719651 -0.5884387223 -0.4350587679
H   1.0192675912  0.4057963585  1.8501750896
H   1.5848468927 -0.8811695193 -1.4686301823
H   1.8366596422 -1.2353960676  0.3493059821
7
Image 6  Energy = -29.6767385817
C   0.8021584740  0.5503203837 -0.1486298148
H   0.3970154163  1.1947250011 -0.9291740977
O   0.5773239793  1.0270168385  1.1305912922
C   1.4466719637 -0.5884387183 -0.4350587670
H   1.0192676235  0.4057963033  1.8501750277
H   1.5848468901 -0.8811695266 -1.4686302000
H   1.8366596377 -1.2353960604  0.3493059730
7
Image 7  Energy = -29.6767386115
C   0.8021584788  0.5503203746 -0.1486298296
H   0.3970154019  1.1947250036 -0.9291741038
O   0.5773239792  1.0270168384  1.1305912964
C   1.4466719535 -0.5884387037 -0.4350587734
H   1.0192675993  0.4057963269  1.8501750580
H   1.5848468836 -0.8811695106 -1.4686301767
H   1.8366596990 -1.2353961652  0.3493060739
7
Image 8  Energy = -29.6767386115
C   0.8021584865  0.5503203507 -0.1486298486
H   0.3970153738  1.1947250517 -0.9291740555
O   0.5773239777  1.0270168408  1.1305913029
C   1.4466719443 -0.5884386897 -0.4350587730
H   1.0192675942  0.4057963662  1.8501751065
H   1.5848468986 -0.8811695313 -1.4686301354
H   1.8366597018 -1.2353961573  0.3493060442
7
Image 9  Energy = -29.6767386115
C   0.8021584786  0.5503203835 -0.1486298252
H   0.3970153036  1.1947251608 -0.9291742088
O   0.5773239714  1.0270168451  1.1305913041
C   1.4466719661 -0.5884387346 -0.4350587794
H   1.0192675914  0.4057962941  1.8501750166
H   1.5848468534 -0.8811694506 -1.4686301962
H   1.8366596990 -1.2353961583  0.3493061183
7
Image 10  Energy = -29.6767386264
C   0.8021584780  0.5503203806 -0.1486298372
H   0.3970153022  1.1947251720 -0.9291741880
O   0.5773239685  1.0270168472  1.1305913088
C   1.4466719678 -0.5884387407 -0.4350587833
H   1.0192675849  0.4057963255  1.8501750481
H   1.5848468354 -0.8811694257 -1.4686301661
H   1.8366596904 -1.2353961453  0.3493061213
7
Image 11  Energy = -29.6767386115
C   0.8021584877  0.5503203585 -0.1486298552
H   0.3970152824  1.1947251967 -0.9291741728
O   0.5773239675  1.0270168502  1.1305913149
C   1.4466719594 -0.5884387234 -0.4350587805
H   1.0192675712  0.4057963601  1.8501750946
H   1.5848468329 -0.8811694342 -1.4686301289
H   1.8366596796 -1.2353961325  0.3493060706
7
Image 12  Energy = -29.6767385966
C   0.8021584823  0.5503203590 -0.1486298471
H   0.3970152808  1.1947252025 -0.9291741598
O   0.5773239646  1.0270168555  1.1305913121
C   1.4466719612 -0.5884387255 -0.4350587816
H   1.0192676076  0.4057963214  1.8501750395
H   1.5848468344 -0.8811694420 -1.4686301227
H   1.8366596776 -1.2353961181  0.3493060383
7
Image 13  Energy = -29.6767386562
C   0.8021584918  0.5503203345 -0.1486298685
H   0.3970152767  1.1947251948 -0.9291741294
O   0.5773239621  1.0270168613  1.1305913210
C   1.4466719530 -0.5884387081 -0.4350587778
H   1.0192676135  0.4057963397  1.8501750627
H   1.5848468283 -0.8811694513 -1.4686300994
H   1.8366596608 -1.2353960984  0.3493060084
7
Image 14  Energy = -29.6767386860
C   0.8021585017  0.5503203057 -0.1486298712
H   0.3970152377  1.1947252343 -0.9291740650
O   0.5773239561  1.0270168723  1.1305913205
C   1.4466719426 -0.5884386915 -0.4350587733
H   1.0192676769  0.4057962938  1.8501749922
H   1.5848468337 -0.8811694525 -1.4686300921
H   1.8366596802 -1.2353960988  0.3493059846
7
Image 15  Energy = -29.6767386562
C   0.8021584981  0.5503203012 -0.1486298741
H   0.3970152320  1.1947252446 -0.9291740170
O   0.5773239553  1.0270168762  1.1305913199
C   1.4466719405 -0.5884386873 -0.4350587737
H   1.0192676998  0.4057962812  1.8501749733
H   1.5848468436 -0.8811694750 -1.4686300773
H   1.8366596927 -1.2353961081  0.3493059654
7
Image 16  Energy = -29.6767386860
C   0.8021584993  0.5503202936 -0.1486298774
H   0.3970152126  1.1947252668 -0.9291739864
O   0.5773239543  1.0270168803  1.1305913203
C   1.4466719383 -0.5884386844 -0.4350587734
H   1.0192677043  0.4057962849  1.8501749746
H   1.5848468469 -0.8811694897 -1.4686300955
H   1.8366596931 -1.2353960945  0.3493059619
7
Image 17  Energy = -29.6767386264
C   0.8021584764  0.5503203444 -0.1486298671
H   0.3970152306  1.1947252615 -0.9291740644
O   0.5773239531  1.0270168746  1.1305913229
C   1.4466719582 -0.5884387245 -0.4350587804
H   1.0192676916  0.4057962826  1.8501749636
H   1.5848468359 -0.8811694629 -1.4686301525
H   1.8366597058 -1.2353961184  0.3493060400
7
Image 18  Energy = -29.6767386264
C   0.8021584773  0.5503203388 -0.1486298726
H   0.3970152201  1.1947252529 -0.9291740414
O   0.5773239510  1.0270168778  1.1305913231
C   1.4466719563 -0.5884387227 -0.4350587825
H   1.0192677042  0.4057962788  1.8501749555
H   1.5848468291 -0.8811694566 -1.4686301222
H   1.8366596995 -1.2353961028  0.3493060207
7
Image 19  Energy = -29.6767386860
C   0.8021584841  0.5503203277 -0.1486298849
H   0.3970151930  1.1947252833 -0.9291740253
O   0.5773239513  1.0270168765  1.1305913244
C   1.4466719467 -0.5884387127 -0.4350587757
H   1.0192676784  0.4057963269  1.8501750164
H   1.5848468372 -0.8811694730 -1.4686301028
H   1.8366597035 -1.2353961037  0.3493059797
7
Image 20  Energy = -29.6767386562
C   0.8021584823  0.5503203303 -0.1486298845
H   0.3970151839  1.1947252825 -0.9291740195
O   0.5773239491  1.0270168770  1.1305913221
C   1.4466719494 -0.5884387192 -0.4350587806
H   1.0192676799  0.4057963446  1.8501750257
H   1.5848468308 -0.8811694662 -1.4686300953
H   1.8366596919 -1.2353960882  0.3493059788
7
Image 21  Energy = -29.6767386711
C   0.8021584762  0.5503203478 -0.1486298740
H   0.3970151687  1.1947253119 -0.9291740449
O   0.5773239448  1.0270168805  1.1305913222
C   1.4466719545 -0.5884387373 -0.4350587951
H   1.0192676937  0.4057963142  1.8501749681
H   1.5848468155 -0.8811694123 -1.4686301668
H   1.8366597531 -1.2353961867  0.3493061709
7
Image 22  Energy = -29.6767386264
C   0.8021584705  0.5503203569 -0.1486298783
H   0.3970151788  1.1947252956 -0.9291740696
O   0.5773239448  1.0270168760  1.1305913255
C   1.4466719557 -0.5884387415 -0.4350587974
H   1.0192676786  0.4057963473  1.8501750047
H   1.5848468168 -0.8811694097 -1.4686301624
H   1.8366597547 -1.2353961867  0.3493061732
7
Image 23  Energy = -29.6767386562
C   0.8021584694  0.5503203578 -0.1486298873
H   0.3970152049  1.1947252406 -0.9291740998
O   0.5773239439  1.0270168765  1.1305913313
C   1.4466719526 -0.5884387397 -0.4350587971
H   1.0192676666  0.4057963595  1.8501750218
H   1.5848468100 -0.8811693934 -1.4686301760
H   1.8366597431 -1.2353961584  0.3493061795
7
Image 24  Energy = -29.6767386115
C   0.8021584676  0.5503203580 -0.1486298812
H   0.3970151989  1.1947252249 -0.9291740851
O   0.5773239432  1.0270168811  1.1305913272
C   1.4466719514 -0.5884387401 -0.4350587968
H   1.0192676783  0.4057963413  1.8501749971
H   1.5848468189 -0.8811694052 -1.4686301697
H   1.8366597451 -1.2353961588  0.3493061515
7
Image 25  Energy = -29.6767386264
C   0.8021584604  0.5503203730 -0.1486298807
H   0.3970152004  1.1947252114 -0.9291741392
O   0.5773239454  1.0270168730  1.1305913238
C   1.4466719538 -0.5884387451 -0.4350587919
H   1.0192676737  0.4057963374  1.8501749922
H   1.5848467926 -0.8811693604 -1.4686301575
H   1.8366597421 -1.2353961507  0.3493061655
7
Image 26  Energy = -29.6767386860
C   0.8021584642  0.5503203604 -0.1486299041
H   0.3970151778  1.1947252354 -0.9291741227
O   0.5773239426  1.0270168773  1.1305913360
C   1.4466719506 -0.5884387395 -0.4350587868
H   1.0192676688  0.4057963502  1.8501750160
H   1.5848467809 -0.8811693499 -1.4686301657
H   1.8366597428 -1.2353961496  0.3493061445
7
Image 27  Energy = -29.6767386413
C   0.8021584649  0.5503203494 -0.1486298809
H   0.3970151355  1.1947252879 -0.9291740291
O   0.5773239478  1.0270168745  1.1305913088
C   1.4466719434 -0.5884387271 -0.4350587825
H   1.0192676603  0.4057963573  1.8501750179
H   1.5848467873 -0.8811693536 -1.4686301542
H   1.8366597543 -1.2353961494  0.3493061246
7
Image 28  Energy = -29.6767386860
C   0.8021584691  0.5503203314 -0.1486298827
H   0.3970151055  1.1947253464 -0.9291740132
O   0.5773239468  1.0270168807  1.1305913065
C   1.4466719389 -0.5884387172 -0.4350587796
H   1.0192676608  0.4057963399  1.8501750022
H   1.5848467822 -0.8811693507 -1.4686301350
H   1.8366597559 -1.2353961550  0.3493061029
7
Image 29  Energy = -29.6767386860
C   0.8021584685  0.5503203329 -0.1486298886
H   0.3970151033  1.1947253322 -0.9291740343
O   0.5773239464  1.0270168821  1.1305913087
C   1.4466719429 -0.5884387253 -0.4350588066
H   1.0192676411  0.4057963229  1.8501750038
H   1.5848467141 -0.8811692199 -1.4686298059
H   1.8366597665 -1.2353961685  0.3493061053
7
Image 30  Energy = -29.6767386860
C   0.8021584678  0.5503203296 -0.1486298934
H   0.3970150977  1.1947253429 -0.9291740570
O   0.5773239466  1.0270168811  1.1305913120
C   1.4466719410 -0.5884387217 -0.4350588080
H   1.0192676130  0.4057963463  1.8501750415
H   1.5848467160 -0.8811692348 -1.4686297972
H   1.8366597679 -1.2353961723  0.3493060798
7
Image 31  Energy = -29.6767386860
C   0.8021584703  0.5503203166 -0.1486298876
H   0.3970150742  1.1947253427 -0.9291739919
O   0.5773239430  1.0270168881  1.1305913062
C   1.4466719355 -0.5884387140 -0.4350588062
H   1.0192676455  0.4057963123  1.8501749938
H   1.5848467162 -0.8811692352 -1.4686298022
H   1.8366597701 -1.2353961630  0.3493060611
7
Image 32  Energy = -29.6767386711
C   0.8021584593  0.5503203308 -0.1486298897
H   0.3970151208  1.1947253068 -0.9291740716
O   0.5773239471  1.0270168789  1.1305913048
C   1.4466719380 -0.5884387182 -0.4350587993
H   1.0192676088  0.4057963408  1.8501750357
H   1.5848466988 -0.8811692077 -1.4686297815
H   1.8366597591 -1.2353961651  0.3493060324
7
Image 33  Energy = -29.6767386860
C   0.8021584654  0.5503203080 -0.1486298844
H   0.3970150859  1.1947253297 -0.9291740001
O   0.5773239419  1.0270168899  1.1305912996
C   1.4466719295 -0.5884387023 -0.4350587970
H   1.0192676640  0.4057963046  1.8501749752
H   1.5848467184 -0.8811692460 -1.4686297789
H   1.8366597695 -1.2353961733  0.3493059808
7
Image 34  Energy = -29.6767386711
C   0.8021584541  0.5503203278 -0.1486298837
H   0.3970151181  1.1947252982 -0.9291740381
O   0.5773239454  1.0270168814  1.1305912943
C   1.4466719336 -0.5884387136 -0.4350587935
H   1.0192676346  0.4057963309  1.8501750062
H   1.5848466918 -0.8811691962 -1.4686297880
H   1.8366597611 -1.2353961483  0.3493060045
7
Image 35  Energy = -29.6767386562
C   0.8021584544  0.5503203166 -0.1486298867
H   0.3970151222  1.1947252879 -0.9291740144
O   0.5773239440  1.0270168854  1.1305912949
C   1.4466719291 -0.5884387064 -0.4350587949
H   1.0192676244  0.4057963351  1.8501750155
H   1.5848466966 -0.8811692126 -1.4686298068
H   1.8366597636 -1.2353961423  0.3493060064
7
Image 36  Energy = -29.6767386860
C   0.8021584564  0.5503203040 -0.1486298843
H   0.3970151202  1.1947252623 -0.9291739781
O   0.5773239417  1.0270168939  1.1305912928
C   1.4466719224 -0.5884386955 -0.4350587973
H   1.0192676482  0.4057963000  1.8501749732
H   1.5848467000 -0.8811692326 -1.4686297846
H   1.8366597708 -1.2353961526  0.3493059853
7
Image 37  Energy = -29.6767386860
C   0.8021584524  0.5503203055 -0.1486298961
H   0.3970151401  1.1947252353 -0.9291739708
O   0.5773239419  1.0270168926  1.1305912981
C   1.4466719217 -0.5884386946 -0.4350587960
H   1.0192676229  0.4057963378  1.8501750218
H   1.5848466901 -0.8811692318 -1.4686298196
H   1.8366597693 -1.2353961675  0.3493059898
7
Image 38  Energy = -29.6767386860
C   0.8021584565  0.5503202921 -0.1486298907
H   0.3970151255  1.1947252340 -0.9291739574
O   0.5773239439  1.0270168915  1.1305912844
C   1.4466719142 -0.5884386812 -0.4350587831
H   1.0192676182  0.4057963194  1.8501749989
H   1.5848466492 -0.8811691708 -1.4686298405
H   1.8366597890 -1.2353961795  0.3493060151
7
Image 39  Energy = -29.6767386562
C   0.8021584308  0.5503203506 -0.1486298752
H   0.3970151465  1.1947252169 -0.9291740588
O   0.5773239441  1.0270168821  1.1305912810
C   1.4466719378 -0.5884387273 -0.4350587905
H   1.0192675874  0.4057963296  1.8501750032
H   1.5848466321 -0.8811691260 -1.4686298708
H   1.8366597852 -1.2353961900  0.3493060785
7
Image 40  Energy = -29.6767386413
C   0.8021584294  0.5503203493 -0.1486298811
H   0.3970151638  1.1947251893 -0.9291740563
O   0.5773239429  1.0270168820  1.1305912844
C   1.4466719360 -0.5884387283 -0.4350587917
H   1.0192675726  0.4057963612  1.8501750387
H   1.5848466246 -0.8811691107 -1.4686298782
H   1.8366597758 -1.2353961796  0.3493060698
7
Image 41  Energy = -29.6767387158
C   0.8021584324  0.5503203345 -0.1486298782
H   0.3970151472  1.1947252090 -0.9291740368
O   0.5773239436  1.0270168833  1.1305912785
C   1.4466719311 -0.5884387164 -0.4350587859
H   1.0192675829  0.4057963523  1.8501750241
H   1.5848466164 -0.8811691063 -1.4686298839
H   1.8366597712 -1.2353961728  0.3493060632
7
Image 42  Energy = -29.6767386860
C   0.8021584393  0.5503203079 -0.1486298712
H   0.3970151128  1.1947252512 -0.9291739627
O   0.5773239387  1.0270168934  1.1305912710
C   1.4466719216 -0.5884386993 -0.4350587850
H   1.0192676401  0.4057963114  1.8501749587
H   1.5848466252 -0.8811691315 -1.4686298386
H   1.8366597934 -1.2353961817  0.3493060123
7
Image 43  Energy = -29.6767386860
C   0.8021584353  0.5503203097 -0.1486298844
H   0.3970151244  1.1947252371 -0.9291739073
O   0.5773239424  1.0270168870  1.1305912708
C   1.4466719201 -0.5884386973 -0.4350587874
H   1.0192675800  0.4057964072  1.8501750808
H   1.5848466285 -0.8811691419 -1.4686298302
H   1.8366597785 -1.2353961783  0.3493059801
7
Image 44  Energy = -29.6767386860
C   0.8021584416  0.5503202898 -0.1486298769
H   0.3970150923  1.1947252486 -0.9291738564
O   0.5773239374  1.0270168993  1.1305912672
C   1.4466719108 -0.5884386843 -0.4350587868
H   1.0192676379  0.4057963491  1.8501749990
H   1.5848466433 -0.8811691617 -1.4686298141
H   1.8366597942 -1.2353961842  0.3493059439
7
Image 45  Energy = -29.6767386860
C   0.8021584407  0.5503202869 -0.1486298853
H   0.3970151102  1.1947252042 -0.9291738740
O   0.5773239337  1.0270169084  1.1305912810
C   1.4466719196 -0.5884386991 -0.4350587922
H   1.0192676229  0.4057963460  1.8501750123
H   1.5848466434 -0.8811691679 -1.4686298331
H   1.8366597029 -1.2353960376  0.3493058755
7
Image 46  Energy = -29.6767386711
C   0.8021584408  0.5503202779 -0.1486298965
H   0.3970150998  1.1947252082 -0.9291738345
O   0.5773239343  1.0270169115  1.1305912844
C   1.4466719157 -0.5884386947 -0.4350587899
H   1.0192675937  0.4057963639  1.8501750515
H   1.5848466512 -0.8811691792 -1.4686298349
H   1.8366597008 -1.2353960259  0.3493058397
7
Image 47  Energy = -29.6767386413
C   0.8021584311  0.5503202883 -0.1486298754
H   0.3970151156  1.1947251764 -0.9291738267
O   0.5773239326  1.0270169120  1.1305912708
C   1.4466719211 -0.5884387010 -0.4350587912
H   1.0192676232  0.4057963352  1.8501749951
H   1.5848466412 -0.8811691717 -1.4686298790
H   1.8366596845 -1.2353960076  0.3493058577
7
Image 48  Energy = -29.6767386860
C   0.8021584306  0.5503202874 -0.1486298786
H   0.3970151265  1.1947251388 -0.9291738450
O   0.5773239331  1.0270169118  1.1305912754
C   1.4466719207 -0.5884387020 -0.4350587995
H   1.0192675928  0.4057963425  1.8501750183
H   1.5848466245 -0.8811691398 -1.4686298631
H   1.8366596658 -1.2353959785  0.3493058916
7
Image 49  Energy = -29.6767386711
C   0.8021584287  0.5503202862 -0.1486298689
H   0.3970151132  1.1947251230 -0.9291738130
O   0.5773239297  1.0270169159  1.1305912683
C   1.4466719192 -0.5884386991 -0.4350587968
H   1.0192676313  0.4057963195  1.8501749729
H   1.5848466232 -0.8811691456 -1.4686298651
H   1.8366596611 -1.2353959770  0.3493058627
7
Image 50  Energy = -29.6767386860
C   0.8021584269  0.5503202900 -0.1486298804
H   0.3970151051  1.1947251144 -0.9291738057
O   0.5773239300  1.0270169143  1.1305912730
C   1.4466719195 -0.5884387046 -0.4350587983
H   1.0192675944  0.4057963687  1.8501750393
H   1.5848466259 -0.8811691452 -1.4686298479
H   1.8366596543 -1.2353959570  0.3493058456
