7
Image 0  Energy = -29.6079740143
C   0.8610407782  0.7723000345 -0.1711091553
H   0.6611546807  1.5334648531 -0.9375525369
O   0.5520704242  0.9898406948  1.1199242757
C   1.3421926020 -0.5682926300 -0.1805496194
H   0.8301370996 -0.2629742747  1.0606098448
H   1.0203773212 -1.3462473715 -0.8842679199
H   2.3246109982 -0.7018409552  0.2945803090
7
Image 1  Energy = -29.6114930278
C   0.8590208012  0.7752890676 -0.1651898131
H   0.6605029255  1.5328327502 -0.9360228647
O   0.5520735664  0.9935313141  1.1162559307
C   1.3425014497 -0.5704620399 -0.1766654862
H   0.8484764678 -0.3342436085  1.0053207245
H   1.0163840513 -1.3442128420 -0.8800263228
H   2.3312560403 -0.7003182269  0.2855073228
7
Image 2  Energy = -29.6185520357
C   0.8569728156  0.7784480368 -0.1592044634
H   0.6600482276  1.5321675913 -0.9343560185
O   0.5521773985  0.9972839080  1.1122315855
C   1.3426295306 -0.5725207454 -0.1726614612
H   0.8650471872 -0.4101722669  0.9569414981
H   1.0135609892 -1.3421618852 -0.8777358848
H   2.3391920263 -0.6984470713  0.2747736123
7
Image 3  Energy = -29.6290767556
C   0.8550752210  0.7814004344 -0.1536207572
H   0.6599986602  1.5316024098 -0.9333004834
O   0.5521866670  1.0013545538  1.1084767169
C   1.3425087859 -0.5745698238 -0.1686799951
H   0.8810085996 -0.4897490539  0.9141523387
H   1.0131331348 -1.3395107301 -0.8778120378
H   2.3476108255 -0.6963293460  0.2622052546
7
Image 4  Energy = -29.6420987314
C   0.8531459716  0.7841885162 -0.1476619906
H   0.6605129838  1.5307716629 -0.9326031602
O   0.5521304015  1.0059204743  1.1046352683
C   1.3424996028 -0.5769205155 -0.1652534287
H   0.8934918958 -0.5727994279  0.8806314806
H   1.0149814364 -1.3361397420 -0.8806923321
H   2.3567556490 -0.6935013207  0.2470481414
7
Image 5  Energy = -29.6542032427
C   0.8510097065  0.7869196122 -0.1407840157
H   0.6618190609  1.5294130836 -0.9320193958
O   0.5520930772  1.0109120871  1.1003654862
C   1.3428081367 -0.5798316738 -0.1624384452
H   0.9000941542 -0.6573193529  0.8575895277
H   1.0190687096 -1.3314807448 -0.8868882611
H   2.3671310950 -0.6893632075  0.2279741965
7
Image 6  Energy = -29.6648846930
C   0.8486449650  0.7893361933 -0.1328471767
H   0.6640815260  1.5273320385 -0.9313732141
O   0.5520740786  1.0163080072  1.0956896453
C   1.3433150549 -0.5834136038 -0.1598722543
H   0.9021404202 -0.7392969174  0.8394608058
H   1.0256523358 -1.3248303443 -0.8970021798
H   2.3786775104 -0.6837132301  0.2046350361
7
Image 7  Energy = -29.6742951936
C   0.8461504726  0.7910917404 -0.1242005075
H   0.6672668827  1.5243407796 -0.9302607337
O   0.5519466862  1.0223201836  1.0909779133
C   1.3439569229 -0.5876945846 -0.1575076414
H   0.9025080548 -0.8176149114  0.8225773604
H   1.0347341744 -1.3155661751 -0.9112355909
H   2.3901399320 -0.6770013165  0.1782173046
7
Image 8  Energy = -29.6820795453
C   0.8435131289  0.7919717474 -0.1148929799
H   0.6715512871  1.5200872869 -0.9286977243
O   0.5516067092  1.0291530539  1.0864346663
C   1.3447839404 -0.5929398866 -0.1553994749
H   0.9027099795 -0.8901502353  0.8051852732
H   1.0464061693 -1.3026033940 -0.9302351947
H   2.4009490249 -0.6696113776  0.1491307562
7
Image 9  Energy = -29.6881745672
C   0.8407683279  0.7917126343 -0.1050595437
H   0.6772227678  1.5140875486 -0.9271220898
O   0.5509338533  1.0370098655  1.0823605061
C   1.3458445648 -0.5993727087 -0.1537022802
H   0.9035571133 -0.9547096410  0.7863779298
H   1.0606119123 -1.2848625375 -0.9543733563
H   2.4109723363 -0.6617577430  0.1177705773
7
Image 10  Energy = -29.6930179811
C   0.8381645397  0.7900364748 -0.0954291413
H   0.6842178624  1.5060719722 -0.9258413133
O   0.5497600162  1.0460556528  1.0793534745
C   1.3471456163 -0.6067691330 -0.1528173138
H   0.9060492292 -1.0124888376  0.7671018895
H   1.0764442796 -1.2623472622 -0.9824498832
H   2.4198069461 -0.6539474132  0.0862724448
7
Image 11  Energy = -29.6969387448
C   0.8359220634  0.7867007623 -0.0864056022
H   0.6922160873  1.4959993765 -0.9251795307
O   0.5479893390  1.0563681693  1.0777589822
C   1.3486999403 -0.6147300409 -0.1531298932
H   0.9105118096 -1.0649259091  0.7474559013
H   1.0925644209 -1.2362244133 -1.0124991228
H   2.4275300335 -0.6466345079  0.0568167882
7
Image 12  Energy = -29.7001321232
C   0.8340508129  0.7815908118 -0.0776887450
H   0.7009359376  1.4836420381 -0.9253303743
O   0.5456286253  1.0679178448  1.0774784741
C   1.3506660229 -0.6229416972 -0.1550241053
H   0.9162437442 -1.1112285698  0.7268893344
H   1.1078532149 -1.2082465359 -1.0426177566
H   2.4341288146 -0.6405333379  0.0308084826
7
Image 13  Energy = -29.7027018136
C   0.8324594354  0.7748498799 -0.0687846394
H   0.7100136668  1.4687583333 -0.9258107398
O   0.5427430013  1.0805548622  1.0781639153
C   1.3532376648 -0.6311447823 -0.1587703313
H   0.9221088653 -1.1504663806  0.7055774162
H   1.1213878895 -1.1804987340 -1.0712693524
H   2.4397709022 -0.6366661919  0.0089129033
7
Image 14  Energy = -29.7048327392
C   0.8311482633  0.7669815232 -0.0596507847
H   0.7187845425  1.4519672487 -0.9262401239
O   0.5394308511  1.0939696097  1.0795160613
C   1.3564274697 -0.6390313515 -0.1641813134
H   0.9276851475 -1.1854799495  0.6837929801
H   1.1324188744 -1.1550000239 -1.0972128408
H   2.4445778401 -0.6355488818 -0.0087516528
7
Image 15  Energy = -29.7066086298
C   0.8300586377  0.7585714240 -0.0502852221
H   0.7265875828  1.4346735419 -0.9261374526
O   0.5358289403  1.1078313890  1.0811845987
C   1.3600693707 -0.6466595517 -0.1706800366
H   0.9331471619 -1.2182992738  0.6610461807
H   1.1412810650 -1.1325020119 -1.1205559529
H   2.4492078988 -0.6368406396 -0.0234078375
7
Image 16  Energy = -29.7080190843
C   0.8290667292  0.7500584522 -0.0405493392
H   0.7329779544  1.4183235534 -0.9247546724
O   0.5320766396  1.1219191912  1.0828011648
C   1.3640738838 -0.6542698665 -0.1778144133
H   0.9386486371 -1.2499521423  0.6375310130
H   1.1488023590 -1.1126925867 -1.1421290700
H   2.4534536096 -0.6401289597 -0.0363600956
7
Image 17  Energy = -29.7090647584
C   0.8280937981  0.7416343554 -0.0305756307
H   0.7378376838  1.4031855084 -0.9216481383
O   0.5283378152  1.1360526871  1.0841661026
C   1.3681768495 -0.6619473258 -0.1851055087
H   0.9441905611 -1.2819234109  0.6126329187
H   1.1559511630 -1.0939896389 -1.1621506997
H   2.4579495780 -0.6441887619 -0.0481736200
7
Image 18  Energy = -29.7097233599
C   0.8270621125  0.7333265407 -0.0202280882
H   0.7408141273  1.3883819192 -0.9171559770
O   0.5246151716  1.1501499659  1.0852689379
C   1.3725977758 -0.6697434590 -0.1925575599
H   0.9495228731 -1.3124936476  0.5870648102
H   1.1620745350 -1.0756737062 -1.1814219976
H   2.4622156811 -0.6489916387 -0.0598483918
7
Image 19  Energy = -29.7099826103
C   0.8257163353  0.7255712283 -0.0098988669
H   0.7406556938  1.3731527791 -0.9126248636
O   0.5211128387  1.1641295727  1.0863563875
C   1.3774116607 -0.6780264286 -0.2001613532
H   0.9519068578 -1.3410788266  0.5602252022
H   1.1695764876 -1.0554577744 -1.2008270387
H   2.4667491003 -0.6561856459 -0.0678872102
