7
Image 0  Energy = -29.6796841091
C   0.8427059572  0.5598414910 -0.1261441496
H   0.5174493208  1.2752025402 -0.8782752947
O   0.5607345124  1.0206994553  1.1187229300
C   1.4382403845 -0.5889081206 -0.4363738035
H   0.8187751015  0.3438966205  1.7665854330
H   1.6012186150 -0.8541595726 -1.4741522367
H   1.7809737106 -1.2885715913  0.3236325207
7
Image 1  Energy = -29.6804654962
C   0.8204981642  0.5606382709 -0.1523075083
H   0.4671847111  1.2395367570 -0.9234498707
O   0.5743699491  1.0210799615  1.1329557607
C   1.4414177024 -0.5903359124 -0.4321032303
H   0.8662023696  0.3702760709  1.8052307495
H   1.6003333455 -0.8779233552 -1.4576529939
H   1.7950357668 -1.2540422785  0.3486245226
7
Image 2  Energy = -29.6743094540
C   0.8452773441  0.5622897174 -0.1380719212
H   0.5158861763  1.2931592415 -0.8642690229
O   0.5583651890  1.0171878343  1.1287951518
C   1.4349480170 -0.5827997650 -0.4335326248
H   0.8434349394  0.3336283959  1.7143287161
H   1.6353455035 -0.9007504470 -1.5287706137
H   1.7699472537 -1.2958915615  0.3649082084
7
Image 3  Energy = -29.6733452743
C   0.8229818469  0.5613277228 -0.1484323255
H   0.4678850489  1.2480418204 -0.9124224801
O   0.5707845307  1.0246207917  1.1286823528
C   1.4412039277 -0.5909288718 -0.4386967819
H   0.8977473576  0.3097847912  1.8304375624
H   1.5942858298 -0.8720450764 -1.4059141272
H   1.7986983875 -1.2652846971  0.3608707469
7
Image 4  Energy = -29.6784671611
C   0.8231678295  0.5611079729 -0.1486200443
H   0.4676571374  1.2485217193 -0.9130161120
O   0.5727088247  1.0203010511  1.1330456281
C   1.4403657753 -0.5895164674 -0.4293926097
H   0.8668949623  0.3782657730  1.7633926631
H   1.6096847934 -0.9001706639 -1.5005586864
H   1.7916083308 -1.2517682688  0.3452711803
7
Image 5  Energy = -29.6733321613
C   0.8231382077  0.5613625279 -0.1488062011
H   0.4682713468  1.2476644101 -0.9123742092
O   0.5707199052  1.0244660468  1.1282546263
C   1.4408991457 -0.5906020935 -0.4379298963
H   0.8994574908  0.3089667067  1.8402124847
H   1.5950034120 -0.8729639089 -1.4137348291
H   1.7986786343 -1.2650227910  0.3609742700
7
Image 6  Energy = -29.6784548229
C   0.8232817381  0.5612132564 -0.1488881440
H   0.4678959045  1.2484168916 -0.9133940354
O   0.5728291491  1.0197606763  1.1331333792
C   1.4403034302 -0.5896296600 -0.4295941426
H   0.8654623998  0.3840186708  1.7645545834
H   1.6085823359 -0.8977463389 -1.4965177103
H   1.7913803646 -1.2511695807  0.3446494672
7
Image 7  Energy = -29.6733067250
C   0.8233151137  0.5613146824 -0.1488888131
H   0.4683534343  1.2478234621 -0.9124225892
O   0.5705924532  1.0244541412  1.1278721961
C   1.4406359836 -0.5903125660 -0.4372165982
H   0.9015280126  0.3074005356  1.8466183251
H   1.5959402979 -0.8744046279 -1.4214257474
H   1.7986398873 -1.2648657660  0.3608625917
7
Image 8  Energy = -29.6784373289
C   0.8233777670  0.5613128566 -0.1489617962
H   0.4681505345  1.2482336447 -0.9133770670
O   0.5728764754  1.0193914629  1.1331925638
C   1.4402929318 -0.5897990967 -0.4299281187
H   0.8646902884  0.3882772619  1.7640460340
H   1.6075006325 -0.8954924205 -1.4915277527
H   1.7912092591 -1.2508065243  0.3440688420
7
Image 9  Energy = -29.6732788748
C   0.8234864909  0.5612489088 -0.1488649713
H   0.4683163652  1.2481708763 -0.9126011300
O   0.5704497879  1.0244860762  1.1275568413
C   1.4404151280 -0.5900713706 -0.4365107385
H   0.9035431173  0.3058756017  1.8512315525
H   1.5969793319 -0.8761148378 -1.4291026209
H   1.7984767765 -1.2645751947  0.3604151629
7
Image 10  Energy = -29.6784185535
C   0.8234550550  0.5614206587 -0.1489671997
H   0.4684311677  1.2479603464 -0.9131985954
O   0.5728859292  1.0191186801  1.1332447398
C   1.4403162335 -0.5900006272 -0.4303679470
H   0.8642717318  0.3916440373  1.7629997743
H   1.6063694350 -0.8932386208 -1.4858038815
H   1.7911297302 -1.2507073628  0.3436898005
7
Image 11  Energy = -29.6732535577
C   0.8236459949  0.5611842667 -0.1487976397
H   0.4682201346  1.2485984943 -0.9128791343
O   0.5703127095  1.0245179125  1.1273133256
C   1.4402354768 -0.5898833573 -0.4358287994
H   0.9053152890  0.3047664469  1.8545421365
H   1.5980175785 -0.8778807359 -1.4364568420
H   1.7981783633 -1.2641031141  0.3596737257
7
Image 12  Energy = -29.6732535726
C   0.8236459942  0.5611842683 -0.1487976384
H   0.4682201400  1.2485984892 -0.9128791262
O   0.5703127089  1.0245179151  1.1273133241
C   1.4402354772 -0.5898833603 -0.4358287945
H   0.9053153037  0.3047664191  1.8545421365
H   1.5980175878 -0.8778807494 -1.4364568971
H   1.7981783559 -1.2641030949  0.3596737117
7
Image 13  Energy = -29.6784019238
C   0.8235197626  0.5615310537 -0.1489484837
H   0.4687291708  1.2476212694 -0.9129287686
O   0.5728677817  1.0189196551  1.1332808174
C   1.4403510020 -0.5901998298 -0.4308573288
H   0.8641642905  0.3942057345  1.7620106040
H   1.6052549481 -0.8910774127 -1.4799522251
H   1.7911561453 -1.2508739583  0.3435923049
7
Image 14  Energy = -29.6732345289
C   0.8237921995  0.5611274458 -0.1487111051
H   0.4681028276  1.2490403104 -0.9132097297
O   0.5701880142  1.0245344272  1.1271390841
C   1.4400948013 -0.5897493336 -0.4352168995
H   0.9067989649  0.3041729609  1.8567446855
H   1.5989538632 -0.8794998523 -1.4429842081
H   1.7977887849 -1.2635142261  0.3587712714
7
Image 15  Energy = -29.6783898240
C   0.8235792421  0.5616341070 -0.1489221315
H   0.4690282337  1.2472557385 -0.9126210993
O   0.5728269418  1.0187820892  1.1332953127
C   1.4403800249 -0.5903703313 -0.4313241921
H   0.8643464827  0.3960251732  1.7613338209
H   1.6042612868 -0.8891785202 -1.4746982614
H   1.7912622284 -1.2512395777  0.3437260717
7
Image 16  Energy = -29.6732221460
C   0.8239253889  0.5610809274 -0.1486219734
H   0.4679921372  1.2494492831 -0.9135466619
O   0.5700762839  1.0245337144  1.1270209541
C   1.4399853380 -0.5896584224 -0.4347023398
H   0.9080284103  0.3040253715  1.8581315460
H   1.5997381793 -0.8808686691 -1.4484344878
H   1.7973764245 -1.2629244557  0.3578531363
7
Image 17  Energy = -29.6232589996
C   0.8235047432  0.5619705403 -0.1490484388
H   0.4697958094  1.2459352287 -0.9117167458
O   0.5756191122  1.0126374875  1.1395641081
C   1.4405637282 -0.5908150492 -0.4312699310
H   0.8192847042  0.4938078219  1.6631367553
H   1.6039758440 -0.8886114773 -1.4732699037
H   1.7902232671 -1.2494511987  0.3409503148
7
Image 18  Energy = -29.6232589996
C   0.8235047429  0.5619705410 -0.1490484410
H   0.4697958121  1.2459352237 -0.9117167421
O   0.5756191125  1.0126374886  1.1395641080
C   1.4405637285 -0.5908150486 -0.4312699312
H   0.8192846985  0.4938078144  1.6631367500
H   1.6039758431 -0.8886114760 -1.4732699039
H   1.7902232651 -1.2494511949  0.3409503089
7
Image 19  Energy = -29.6232590145
C   0.8235047427  0.5619705416 -0.1490484420
H   0.4697958114  1.2459352251 -0.9117167416
O   0.5756191124  1.0126374892  1.1395641071
C   1.4405637284 -0.5908150480 -0.4312699320
H   0.8192846984  0.4938078151  1.6631367494
H   1.6039758434 -0.8886114764 -1.4732699068
H   1.7902232656 -1.2494511942  0.3409503081
7
Image 20  Energy = -29.6232589996
C   0.8235047423  0.5619705422 -0.1490484432
H   0.4697958126  1.2459352254 -0.9117167392
O   0.5756191124  1.0126374897  1.1395641063
C   1.4405637285 -0.5908150473 -0.4312699331
H   0.8192846971  0.4938078184  1.6631367520
H   1.6039758426 -0.8886114755 -1.4732699055
H   1.7902232661 -1.2494511945  0.3409503062
7
Image 21  Energy = -29.6232590145
C   0.8235047423  0.5619705425 -0.1490484447
H   0.4697958128  1.2459352275 -0.9117167380
O   0.5756191124  1.0126374902  1.1395641052
C   1.4405637286 -0.5908150467 -0.4312699337
H   0.8192846942  0.4938078245  1.6631367579
H   1.6039758426 -0.8886114754 -1.4732699076
H   1.7902232660 -1.2494511938  0.3409503041
7
Image 22  Energy = -29.6232589996
C   0.8235047421  0.5619705432 -0.1490484452
H   0.4697958123  1.2459352290 -0.9117167400
O   0.5756191123  1.0126374911  1.1395641042
C   1.4405637286 -0.5908150462 -0.4312699341
H   0.8192846968  0.4938078199  1.6631367504
H   1.6039758425 -0.8886114743 -1.4732699096
H   1.7902232661 -1.2494511927  0.3409503041
7
Image 23  Energy = -29.6232589996
C   0.8235047418  0.5619705440 -0.1490484465
H   0.4697958125  1.2459352297 -0.9117167418
O   0.5756191122  1.0126374918  1.1395641033
C   1.4405637286 -0.5908150454 -0.4312699351
H   0.8192846967  0.4938078206  1.6631367496
H   1.6039758427 -0.8886114743 -1.4732699097
H   1.7902232668 -1.2494511936  0.3409503051
7
Image 24  Energy = -29.6232590294
C   0.8235047415  0.5619705448 -0.1490484470
H   0.4697958125  1.2459352289 -0.9117167453
O   0.5756191122  1.0126374924  1.1395641026
C   1.4405637286 -0.5908150448 -0.4312699359
H   0.8192846996  0.4938078157  1.6631367422
H   1.6039758418 -0.8886114723 -1.4732699114
H   1.7902232662 -1.2494511927  0.3409503057
7
Image 25  Energy = -29.6232590145
C   0.8235047414  0.5619705456 -0.1490484480
H   0.4697958126  1.2459352292 -0.9117167473
O   0.5756191121  1.0126374935  1.1395641016
C   1.4405637288 -0.5908150448 -0.4312699373
H   0.8192846967  0.4938078159  1.6631367415
H   1.6039758412 -0.8886114718 -1.4732699081
H   1.7902232663 -1.2494511927  0.3409503047
7
Image 26  Energy = -29.6232589996
C   0.8235047414  0.5619705459 -0.1490484487
H   0.4697958119  1.2459352299 -0.9117167485
O   0.5756191119  1.0126374946  1.1395641011
C   1.4405637287 -0.5908150445 -0.4312699386
H   0.8192847006  0.4938078144  1.6631367366
H   1.6039758400 -0.8886114699 -1.4732699044
H   1.7902232657 -1.2494511905  0.3409503023
7
Image 27  Energy = -29.6232590145
C   0.8235047412  0.5619705468 -0.1490484493
H   0.4697958129  1.2459352294 -0.9117167458
O   0.5756191116  1.0126374951  1.1395640999
C   1.4405637285 -0.5908150436 -0.4312699396
H   0.8192847044  0.4938078132  1.6631367319
H   1.6039758407 -0.8886114699 -1.4732699038
H   1.7902232661 -1.2494511887  0.3409503028
7
Image 28  Energy = -29.6232590145
C   0.8235047412  0.5619705470 -0.1490484514
H   0.4697958138  1.2459352277 -0.9117167399
O   0.5756191119  1.0126374967  1.1395640994
C   1.4405637284 -0.5908150430 -0.4312699397
H   0.8192846971  0.4938078029  1.6631367236
H   1.6039758393 -0.8886114679 -1.4732699025
H   1.7902232655 -1.2494511864  0.3409502990
7
Image 29  Energy = -29.6232590443
C   0.8235047409  0.5619705478 -0.1490484516
H   0.4697958133  1.2459352271 -0.9117167443
O   0.5756191120  1.0126374969  1.1395640988
C   1.4405637282 -0.5908150421 -0.4312699412
H   0.8192846986  0.4938078006  1.6631367196
H   1.6039758384 -0.8886114654 -1.4732698969
H   1.7902232668 -1.2494511859  0.3409502998
7
Image 30  Energy = -29.6232590145
C   0.8235047408  0.5619705484 -0.1490484526
H   0.4697958129  1.2459352289 -0.9117167455
O   0.5756191119  1.0126374973  1.1395640977
C   1.4405637282 -0.5908150415 -0.4312699420
H   0.8192847010  0.4938078020  1.6631367184
H   1.6039758379 -0.8886114641 -1.4732698956
H   1.7902232656 -1.2494511849  0.3409502964
7
Image 31  Energy = -29.6232590443
C   0.8235047401  0.5619705490 -0.1490484510
H   0.4697958120  1.2459352314 -0.9117167435
O   0.5756191127  1.0126374983  1.1395640954
C   1.4405637277 -0.5908150402 -0.4312699408
H   0.8192847029  0.4938077818  1.6631366951
H   1.6039758373 -0.8886114638 -1.4732699011
H   1.7902232653 -1.2494511822  0.3409502917
7
Image 32  Energy = -29.6232590443
C   0.8235047400  0.5619705486 -0.1490484525
H   0.4697958115  1.2459352307 -0.9117167407
O   0.5756191126  1.0126375003  1.1395640953
C   1.4405637276 -0.5908150396 -0.4312699410
H   0.8192847017  0.4938077698  1.6631366821
H   1.6039758370 -0.8886114631 -1.4732699025
H   1.7902232646 -1.2494511787  0.3409502891
7
Image 33  Energy = -29.6232590443
C   0.8235047402  0.5619705481 -0.1490484533
H   0.4697958110  1.2459352319 -0.9117167433
O   0.5756191128  1.0126375022  1.1395640949
C   1.4405637277 -0.5908150389 -0.4312699410
H   0.8192846939  0.4938077597  1.6631366738
H   1.6039758362 -0.8886114617 -1.4732699051
H   1.7902232636 -1.2494511764  0.3409502866
7
Image 34  Energy = -29.6232590443
C   0.8235047403  0.5619705484 -0.1490484543
H   0.4697958107  1.2459352305 -0.9117167395
O   0.5756191128  1.0126375026  1.1395640934
C   1.4405637275 -0.5908150382 -0.4312699414
H   0.8192846924  0.4938077635  1.6631366764
H   1.6039758356 -0.8886114590 -1.4732699049
H   1.7902232632 -1.2494511742  0.3409502857
7
Image 35  Energy = -29.6232589996
C   0.8235047403  0.5619705489 -0.1490484551
H   0.4697958111  1.2459352314 -0.9117167423
O   0.5756191128  1.0126375033  1.1395640926
C   1.4405637275 -0.5908150374 -0.4312699425
H   0.8192846897  0.4938077637  1.6631366764
H   1.6039758348 -0.8886114573 -1.4732699032
H   1.7902232631 -1.2494511740  0.3409502846
7
Image 36  Energy = -29.6232589996
C   0.8235047403  0.5619705497 -0.1490484562
H   0.4697958100  1.2459352323 -0.9117167453
O   0.5756191128  1.0126375040  1.1395640920
C   1.4405637274 -0.5908150367 -0.4312699433
H   0.8192846897  0.4938077642  1.6631366757
H   1.6039758348 -0.8886114571 -1.4732699034
H   1.7902232631 -1.2494511750  0.3409502833
7
Image 37  Energy = -29.6232589996
C   0.8235047402  0.5619705500 -0.1490484571
H   0.4697958100  1.2459352340 -0.9117167466
O   0.5756191131  1.0126375045  1.1395640912
C   1.4405637272 -0.5908150359 -0.4312699443
H   0.8192846856  0.4938077669  1.6631366792
H   1.6039758348 -0.8886114561 -1.4732699037
H   1.7902232623 -1.2494511724  0.3409502820
7
Image 38  Energy = -29.6232589996
C   0.8235047400  0.5619705508 -0.1490484579
H   0.4697958084  1.2459352329 -0.9117167458
O   0.5756191130  1.0126375051  1.1395640904
C   1.4405637273 -0.5908150356 -0.4312699448
H   0.8192846855  0.4938077675  1.6631366788
H   1.6039758347 -0.8886114556 -1.4732699092
H   1.7902232611 -1.2494511708  0.3409502803
7
Image 39  Energy = -29.6232589847
C   0.8235047397  0.5619705517 -0.1490484584
H   0.4697958068  1.2459352339 -0.9117167486
O   0.5756191129  1.0126375059  1.1395640895
C   1.4405637275 -0.5908150351 -0.4312699456
H   0.8192846867  0.4938077655  1.6631366747
H   1.6039758350 -0.8886114563 -1.4732699118
H   1.7902232606 -1.2494511681  0.3409502807
7
Image 40  Energy = -29.6232589996
C   0.8235047396  0.5619705523 -0.1490484594
H   0.4697958084  1.2459352311 -0.9117167475
O   0.5756191126  1.0126375065  1.1395640888
C   1.4405637272 -0.5908150342 -0.4312699468
H   0.8192846907  0.4938077701  1.6631366760
H   1.6039758344 -0.8886114542 -1.4732699076
H   1.7902232604 -1.2494511666  0.3409502791
7
Image 41  Energy = -29.6232589847
C   0.8235047398  0.5619705522 -0.1490484604
H   0.4697958075  1.2459352340 -0.9117167507
O   0.5756191125  1.0126375066  1.1395640878
C   1.4405637270 -0.5908150327 -0.4312699476
H   0.8192846919  0.4938077741  1.6631366783
H   1.6039758345 -0.8886114536 -1.4732699076
H   1.7902232601 -1.2494511679  0.3409502773
7
Image 42  Energy = -29.6232589847
C   0.8235047397  0.5619705525 -0.1490484612
H   0.4697958063  1.2459352357 -0.9117167518
O   0.5756191122  1.0126375075  1.1395640870
C   1.4405637270 -0.5908150319 -0.4312699485
H   0.8192846932  0.4938077723  1.6631366740
H   1.6039758341 -0.8886114523 -1.4732699028
H   1.7902232599 -1.2494511661  0.3409502762
7
Image 43  Energy = -29.6232589996
C   0.8235047399  0.5619705530 -0.1490484621
H   0.4697958054  1.2459352356 -0.9117167519
O   0.5756191122  1.0126375082  1.1395640862
C   1.4405637268 -0.5908150308 -0.4312699495
H   0.8192846932  0.4938077731  1.6631366733
H   1.6039758333 -0.8886114505 -1.4732699017
H   1.7902232606 -1.2494511670  0.3409502756
7
Image 44  Energy = -29.6232589847
C   0.8235047397  0.5619705542 -0.1490484637
H   0.4697958057  1.2459352327 -0.9117167500
O   0.5756191123  1.0126375086  1.1395640855
C   1.4405637267 -0.5908150300 -0.4312699503
H   0.8192846905  0.4938077791  1.6631366796
H   1.6039758339 -0.8886114515 -1.4732699053
H   1.7902232604 -1.2494511659  0.3409502752
7
Image 45  Energy = -29.6232589996
C   0.8235047394  0.5619705554 -0.1490484648
H   0.4697958053  1.2459352316 -0.9117167490
O   0.5756191125  1.0126375092  1.1395640848
C   1.4405637266 -0.5908150294 -0.4312699511
H   0.8192846864  0.4938077818  1.6631366833
H   1.6039758348 -0.8886114523 -1.4732699123
H   1.7902232608 -1.2494511653  0.3409502759
7
Image 46  Energy = -29.6232589847
C   0.8235047393  0.5619705564 -0.1490484659
H   0.4697958053  1.2459352305 -0.9117167470
O   0.5756191123  1.0126375094  1.1395640840
C   1.4405637264 -0.5908150286 -0.4312699516
H   0.8192846876  0.4938077858  1.6631366859
H   1.6039758351 -0.8886114518 -1.4732699170
H   1.7902232616 -1.2494511647  0.3409502759
7
Image 47  Energy = -29.6232589847
C   0.8235047393  0.5619705569 -0.1490484672
H   0.4697958055  1.2459352290 -0.9117167459
O   0.5756191124  1.0126375105  1.1395640835
C   1.4405637263 -0.5908150280 -0.4312699522
H   0.8192846864  0.4938077831  1.6631366824
H   1.6039758356 -0.8886114520 -1.4732699150
H   1.7902232601 -1.2494511620  0.3409502720
7
Image 48  Energy = -29.6232589847
C   0.8235047392  0.5619705573 -0.1490484678
H   0.4697958071  1.2459352262 -0.9117167456
O   0.5756191120  1.0126375114  1.1395640826
C   1.4405637261 -0.5908150272 -0.4312699536
H   0.8192846903  0.4938077819  1.6631366774
H   1.6039758334 -0.8886114487 -1.4732699095
H   1.7902232607 -1.2494511586  0.3409502727
7
Image 49  Energy = -29.6232589847
C   0.8235047395  0.5619705574 -0.1490484691
H   0.4697958059  1.2459352289 -0.9117167478
O   0.5756191122  1.0126375120  1.1395640819
C   1.4405637258 -0.5908150264 -0.4312699547
H   0.8192846863  0.4938077847  1.6631366808
H   1.6039758327 -0.8886114458 -1.4732699057
H   1.7902232602 -1.2494511570  0.3409502721
7
Image 50  Energy = -29.6232589847
C   0.8235047387  0.5619705597 -0.1490484717
H   0.4697958128  1.2459352113 -0.9117167294
O   0.5756191121  1.0126375132  1.1395640812
C   1.4405637260 -0.5908150262 -0.4312699558
H   0.8192846863  0.4938077853  1.6631366799
H   1.6039758334 -0.8886114454 -1.4732699064
H   1.7902232589 -1.2494511566  0.3409502721
7
Image 51  Energy = -29.6796803838
C   0.8094255258  0.5418792911 -0.1262147682
H   0.3934398759  1.2083001467 -0.8785882390
O   0.5754161043  1.0286034305  1.1187640394
C   1.4439793323 -0.5858126342 -0.4363489430
H   1.0010431731  0.4425668795  1.7666787111
H   1.5821483243 -0.8644263668 -1.4742249418
H   1.8369332024 -1.2583778893  0.3238163822
7
Image 52  Energy = -29.6805090225
C   0.8187536695  0.5570190299 -0.1493177497
H   0.4444101375  1.2276901357 -0.9166221081
O   0.5697024891  1.0227596200  1.1320916759
C   1.4448499560 -0.5896624196 -0.4337516467
H   0.9250521339  0.3896874690  1.8007017180
H   1.5966388703 -0.8851850765 -1.4629147705
H   1.8166239264 -1.2459047752  0.3493198269
7
Image 53  Energy = -29.6732396549
C   0.8024328691  0.5498293264 -0.1475638739
H   0.3891650944  1.2072412644 -0.9532143829
O   0.5811780856  1.0215985802  1.1374311981
C   1.4469608105 -0.5889590929 -0.4357054783
H   0.9591253017  0.4913382943  1.7548524311
H   1.5837108074 -0.8789675205 -1.4671529457
H   1.8379046083 -1.2376057511  0.3536330715
7
Image 54  Energy = -29.6767386115
C   0.8021584904  0.5503203551 -0.1486298119
H   0.3970154226  1.1947250547 -0.9291740869
O   0.5773239844  1.0270168282  1.1305912822
C   1.4466719536 -0.5884386920 -0.4350587657
H   1.0192675972  0.4057963654  1.8501750972
H   1.5848468936 -0.8811695086 -1.4686301396
H   1.8366596418 -1.2353960765  0.3493059730
7
Image 55  Energy = -29.6767386264
C   0.8021584723  0.5503203996 -0.1486297893
H   0.3970154249  1.1947250296 -0.9291741426
O   0.5773239826  1.0270168282  1.1305912785
C   1.4466719702 -0.5884387300 -0.4350587747
H   1.0192676125  0.4057963108  1.8501750234
H   1.5848468803 -0.8811694804 -1.4686301935
H   1.8366596423 -1.2353960629  0.3493060453
7
Image 56  Energy = -29.6767386413
C   0.8021584749  0.5503203907 -0.1486298147
H   0.3970154113  1.1947250366 -0.9291741073
O   0.5773239822  1.0270168305  1.1305912877
C   1.4466719651 -0.5884387223 -0.4350587679
H   1.0192675912  0.4057963585  1.8501750896
H   1.5848468927 -0.8811695193 -1.4686301823
H   1.8366596422 -1.2353960676  0.3493059821
7
Image 57  Energy = -29.6767385817
C   0.8021584740  0.5503203837 -0.1486298148
H   0.3970154163  1.1947250011 -0.9291740977
O   0.5773239793  1.0270168385  1.1305912922
C   1.4466719637 -0.5884387183 -0.4350587670
H   1.0192676235  0.4057963033  1.8501750277
H   1.5848468901 -0.8811695266 -1.4686302000
H   1.8366596377 -1.2353960604  0.3493059730
7
Image 58  Energy = -29.6767386115
C   0.8021584788  0.5503203746 -0.1486298296
H   0.3970154019  1.1947250036 -0.9291741038
O   0.5773239792  1.0270168384  1.1305912964
C   1.4466719535 -0.5884387037 -0.4350587734
H   1.0192675993  0.4057963269  1.8501750580
H   1.5848468836 -0.8811695106 -1.4686301767
H   1.8366596990 -1.2353961652  0.3493060739
7
Image 59  Energy = -29.6767386115
C   0.8021584865  0.5503203507 -0.1486298486
H   0.3970153738  1.1947250517 -0.9291740555
O   0.5773239777  1.0270168408  1.1305913029
C   1.4466719443 -0.5884386897 -0.4350587730
H   1.0192675942  0.4057963662  1.8501751065
H   1.5848468986 -0.8811695313 -1.4686301354
H   1.8366597018 -1.2353961573  0.3493060442
7
Image 60  Energy = -29.6767386115
C   0.8021584786  0.5503203835 -0.1486298252
H   0.3970153036  1.1947251608 -0.9291742088
O   0.5773239714  1.0270168451  1.1305913041
C   1.4466719661 -0.5884387346 -0.4350587794
H   1.0192675914  0.4057962941  1.8501750166
H   1.5848468534 -0.8811694506 -1.4686301962
H   1.8366596990 -1.2353961583  0.3493061183
7
Image 61  Energy = -29.6767386264
C   0.8021584780  0.5503203806 -0.1486298372
H   0.3970153022  1.1947251720 -0.9291741880
O   0.5773239685  1.0270168472  1.1305913088
C   1.4466719678 -0.5884387407 -0.4350587833
H   1.0192675849  0.4057963255  1.8501750481
H   1.5848468354 -0.8811694257 -1.4686301661
H   1.8366596904 -1.2353961453  0.3493061213
7
Image 62  Energy = -29.6767386115
C   0.8021584877  0.5503203585 -0.1486298552
H   0.3970152824  1.1947251967 -0.9291741728
O   0.5773239675  1.0270168502  1.1305913149
C   1.4466719594 -0.5884387234 -0.4350587805
H   1.0192675712  0.4057963601  1.8501750946
H   1.5848468329 -0.8811694342 -1.4686301289
H   1.8366596796 -1.2353961325  0.3493060706
7
Image 63  Energy = -29.6767385966
C   0.8021584823  0.5503203590 -0.1486298471
H   0.3970152808  1.1947252025 -0.9291741598
O   0.5773239646  1.0270168555  1.1305913121
C   1.4466719612 -0.5884387255 -0.4350587816
H   1.0192676076  0.4057963214  1.8501750395
H   1.5848468344 -0.8811694420 -1.4686301227
H   1.8366596776 -1.2353961181  0.3493060383
7
Image 64  Energy = -29.6767386562
C   0.8021584918  0.5503203345 -0.1486298685
H   0.3970152767  1.1947251948 -0.9291741294
O   0.5773239621  1.0270168613  1.1305913210
C   1.4466719530 -0.5884387081 -0.4350587778
H   1.0192676135  0.4057963397  1.8501750627
H   1.5848468283 -0.8811694513 -1.4686300994
H   1.8366596608 -1.2353960984  0.3493060084
7
Image 65  Energy = -29.6767386860
C   0.8021585017  0.5503203057 -0.1486298712
H   0.3970152377  1.1947252343 -0.9291740650
O   0.5773239561  1.0270168723  1.1305913205
C   1.4466719426 -0.5884386915 -0.4350587733
H   1.0192676769  0.4057962938  1.8501749922
H   1.5848468337 -0.8811694525 -1.4686300921
H   1.8366596802 -1.2353960988  0.3493059846
7
Image 66  Energy = -29.6767386562
C   0.8021584981  0.5503203012 -0.1486298741
H   0.3970152320  1.1947252446 -0.9291740170
O   0.5773239553  1.0270168762  1.1305913199
C   1.4466719405 -0.5884386873 -0.4350587737
H   1.0192676998  0.4057962812  1.8501749733
H   1.5848468436 -0.8811694750 -1.4686300773
H   1.8366596927 -1.2353961081  0.3493059654
7
Image 67  Energy = -29.6767386860
C   0.8021584993  0.5503202936 -0.1486298774
H   0.3970152126  1.1947252668 -0.9291739864
O   0.5773239543  1.0270168803  1.1305913203
C   1.4466719383 -0.5884386844 -0.4350587734
H   1.0192677043  0.4057962849  1.8501749746
H   1.5848468469 -0.8811694897 -1.4686300955
H   1.8366596931 -1.2353960945  0.3493059619
7
Image 68  Energy = -29.6767386264
C   0.8021584764  0.5503203444 -0.1486298671
H   0.3970152306  1.1947252615 -0.9291740644
O   0.5773239531  1.0270168746  1.1305913229
C   1.4466719582 -0.5884387245 -0.4350587804
H   1.0192676916  0.4057962826  1.8501749636
H   1.5848468359 -0.8811694629 -1.4686301525
H   1.8366597058 -1.2353961184  0.3493060400
7
Image 69  Energy = -29.6767386264
C   0.8021584773  0.5503203388 -0.1486298726
H   0.3970152201  1.1947252529 -0.9291740414
O   0.5773239510  1.0270168778  1.1305913231
C   1.4466719563 -0.5884387227 -0.4350587825
H   1.0192677042  0.4057962788  1.8501749555
H   1.5848468291 -0.8811694566 -1.4686301222
H   1.8366596995 -1.2353961028  0.3493060207
7
Image 70  Energy = -29.6767386860
C   0.8021584841  0.5503203277 -0.1486298849
H   0.3970151930  1.1947252833 -0.9291740253
O   0.5773239513  1.0270168765  1.1305913244
C   1.4466719467 -0.5884387127 -0.4350587757
H   1.0192676784  0.4057963269  1.8501750164
H   1.5848468372 -0.8811694730 -1.4686301028
H   1.8366597035 -1.2353961037  0.3493059797
7
Image 71  Energy = -29.6767386562
C   0.8021584823  0.5503203303 -0.1486298845
H   0.3970151839  1.1947252825 -0.9291740195
O   0.5773239491  1.0270168770  1.1305913221
C   1.4466719494 -0.5884387192 -0.4350587806
H   1.0192676799  0.4057963446  1.8501750257
H   1.5848468308 -0.8811694662 -1.4686300953
H   1.8366596919 -1.2353960882  0.3493059788
7
Image 72  Energy = -29.6767386711
C   0.8021584762  0.5503203478 -0.1486298740
H   0.3970151687  1.1947253119 -0.9291740449
O   0.5773239448  1.0270168805  1.1305913222
C   1.4466719545 -0.5884387373 -0.4350587951
H   1.0192676937  0.4057963142  1.8501749681
H   1.5848468155 -0.8811694123 -1.4686301668
H   1.8366597531 -1.2353961867  0.3493061709
7
Image 73  Energy = -29.6767386264
C   0.8021584705  0.5503203569 -0.1486298783
H   0.3970151788  1.1947252956 -0.9291740696
O   0.5773239448  1.0270168760  1.1305913255
C   1.4466719557 -0.5884387415 -0.4350587974
H   1.0192676786  0.4057963473  1.8501750047
H   1.5848468168 -0.8811694097 -1.4686301624
H   1.8366597547 -1.2353961867  0.3493061732
7
Image 74  Energy = -29.6767386562
C   0.8021584694  0.5503203578 -0.1486298873
H   0.3970152049  1.1947252406 -0.9291740998
O   0.5773239439  1.0270168765  1.1305913313
C   1.4466719526 -0.5884387397 -0.4350587971
H   1.0192676666  0.4057963595  1.8501750218
H   1.5848468100 -0.8811693934 -1.4686301760
H   1.8366597431 -1.2353961584  0.3493061795
7
Image 75  Energy = -29.6767386115
C   0.8021584676  0.5503203580 -0.1486298812
H   0.3970151989  1.1947252249 -0.9291740851
O   0.5773239432  1.0270168811  1.1305913272
C   1.4466719514 -0.5884387401 -0.4350587968
H   1.0192676783  0.4057963413  1.8501749971
H   1.5848468189 -0.8811694052 -1.4686301697
H   1.8366597451 -1.2353961588  0.3493061515
7
Image 76  Energy = -29.6767386264
C   0.8021584604  0.5503203730 -0.1486298807
H   0.3970152004  1.1947252114 -0.9291741392
O   0.5773239454  1.0270168730  1.1305913238
C   1.4466719538 -0.5884387451 -0.4350587919
H   1.0192676737  0.4057963374  1.8501749922
H   1.5848467926 -0.8811693604 -1.4686301575
H   1.8366597421 -1.2353961507  0.3493061655
7
Image 77  Energy = -29.6767386860
C   0.8021584642  0.5503203604 -0.1486299041
H   0.3970151778  1.1947252354 -0.9291741227
O   0.5773239426  1.0270168773  1.1305913360
C   1.4466719506 -0.5884387395 -0.4350587868
H   1.0192676688  0.4057963502  1.8501750160
H   1.5848467809 -0.8811693499 -1.4686301657
H   1.8366597428 -1.2353961496  0.3493061445
7
Image 78  Energy = -29.6767386413
C   0.8021584649  0.5503203494 -0.1486298809
H   0.3970151355  1.1947252879 -0.9291740291
O   0.5773239478  1.0270168745  1.1305913088
C   1.4466719434 -0.5884387271 -0.4350587825
H   1.0192676603  0.4057963573  1.8501750179
H   1.5848467873 -0.8811693536 -1.4686301542
H   1.8366597543 -1.2353961494  0.3493061246
7
Image 79  Energy = -29.6767386860
C   0.8021584691  0.5503203314 -0.1486298827
H   0.3970151055  1.1947253464 -0.9291740132
O   0.5773239468  1.0270168807  1.1305913065
C   1.4466719389 -0.5884387172 -0.4350587796
H   1.0192676608  0.4057963399  1.8501750022
H   1.5848467822 -0.8811693507 -1.4686301350
H   1.8366597559 -1.2353961550  0.3493061029
7
Image 80  Energy = -29.6767386860
C   0.8021584685  0.5503203329 -0.1486298886
H   0.3970151033  1.1947253322 -0.9291740343
O   0.5773239464  1.0270168821  1.1305913087
C   1.4466719429 -0.5884387253 -0.4350588066
H   1.0192676411  0.4057963229  1.8501750038
H   1.5848467141 -0.8811692199 -1.4686298059
H   1.8366597665 -1.2353961685  0.3493061053
7
Image 81  Energy = -29.6767386860
C   0.8021584678  0.5503203296 -0.1486298934
H   0.3970150977  1.1947253429 -0.9291740570
O   0.5773239466  1.0270168811  1.1305913120
C   1.4466719410 -0.5884387217 -0.4350588080
H   1.0192676130  0.4057963463  1.8501750415
H   1.5848467160 -0.8811692348 -1.4686297972
H   1.8366597679 -1.2353961723  0.3493060798
7
Image 82  Energy = -29.6767386860
C   0.8021584703  0.5503203166 -0.1486298876
H   0.3970150742  1.1947253427 -0.9291739919
O   0.5773239430  1.0270168881  1.1305913062
C   1.4466719355 -0.5884387140 -0.4350588062
H   1.0192676455  0.4057963123  1.8501749938
H   1.5848467162 -0.8811692352 -1.4686298022
H   1.8366597701 -1.2353961630  0.3493060611
7
Image 83  Energy = -29.6767386711
C   0.8021584593  0.5503203308 -0.1486298897
H   0.3970151208  1.1947253068 -0.9291740716
O   0.5773239471  1.0270168789  1.1305913048
C   1.4466719380 -0.5884387182 -0.4350587993
H   1.0192676088  0.4057963408  1.8501750357
H   1.5848466988 -0.8811692077 -1.4686297815
H   1.8366597591 -1.2353961651  0.3493060324
7
Image 84  Energy = -29.6767386860
C   0.8021584654  0.5503203080 -0.1486298844
H   0.3970150859  1.1947253297 -0.9291740001
O   0.5773239419  1.0270168899  1.1305912996
C   1.4466719295 -0.5884387023 -0.4350587970
H   1.0192676640  0.4057963046  1.8501749752
H   1.5848467184 -0.8811692460 -1.4686297789
H   1.8366597695 -1.2353961733  0.3493059808
7
Image 85  Energy = -29.6767386711
C   0.8021584541  0.5503203278 -0.1486298837
H   0.3970151181  1.1947252982 -0.9291740381
O   0.5773239454  1.0270168814  1.1305912943
C   1.4466719336 -0.5884387136 -0.4350587935
H   1.0192676346  0.4057963309  1.8501750062
H   1.5848466918 -0.8811691962 -1.4686297880
H   1.8366597611 -1.2353961483  0.3493060045
7
Image 86  Energy = -29.6767386562
C   0.8021584544  0.5503203166 -0.1486298867
H   0.3970151222  1.1947252879 -0.9291740144
O   0.5773239440  1.0270168854  1.1305912949
C   1.4466719291 -0.5884387064 -0.4350587949
H   1.0192676244  0.4057963351  1.8501750155
H   1.5848466966 -0.8811692126 -1.4686298068
H   1.8366597636 -1.2353961423  0.3493060064
7
Image 87  Energy = -29.6767386860
C   0.8021584564  0.5503203040 -0.1486298843
H   0.3970151202  1.1947252623 -0.9291739781
O   0.5773239417  1.0270168939  1.1305912928
C   1.4466719224 -0.5884386955 -0.4350587973
H   1.0192676482  0.4057963000  1.8501749732
H   1.5848467000 -0.8811692326 -1.4686297846
H   1.8366597708 -1.2353961526  0.3493059853
7
Image 88  Energy = -29.6767386860
C   0.8021584524  0.5503203055 -0.1486298961
H   0.3970151401  1.1947252353 -0.9291739708
O   0.5773239419  1.0270168926  1.1305912981
C   1.4466719217 -0.5884386946 -0.4350587960
H   1.0192676229  0.4057963378  1.8501750218
H   1.5848466901 -0.8811692318 -1.4686298196
H   1.8366597693 -1.2353961675  0.3493059898
7
Image 89  Energy = -29.6767386860
C   0.8021584565  0.5503202921 -0.1486298907
H   0.3970151255  1.1947252340 -0.9291739574
O   0.5773239439  1.0270168915  1.1305912844
C   1.4466719142 -0.5884386812 -0.4350587831
H   1.0192676182  0.4057963194  1.8501749989
H   1.5848466492 -0.8811691708 -1.4686298405
H   1.8366597890 -1.2353961795  0.3493060151
7
Image 90  Energy = -29.6767386562
C   0.8021584308  0.5503203506 -0.1486298752
H   0.3970151465  1.1947252169 -0.9291740588
O   0.5773239441  1.0270168821  1.1305912810
C   1.4466719378 -0.5884387273 -0.4350587905
H   1.0192675874  0.4057963296  1.8501750032
H   1.5848466321 -0.8811691260 -1.4686298708
H   1.8366597852 -1.2353961900  0.3493060785
7
Image 91  Energy = -29.6767386413
C   0.8021584294  0.5503203493 -0.1486298811
H   0.3970151638  1.1947251893 -0.9291740563
O   0.5773239429  1.0270168820  1.1305912844
C   1.4466719360 -0.5884387283 -0.4350587917
H   1.0192675726  0.4057963612  1.8501750387
H   1.5848466246 -0.8811691107 -1.4686298782
H   1.8366597758 -1.2353961796  0.3493060698
7
Image 92  Energy = -29.6767387158
C   0.8021584324  0.5503203345 -0.1486298782
H   0.3970151472  1.1947252090 -0.9291740368
O   0.5773239436  1.0270168833  1.1305912785
C   1.4466719311 -0.5884387164 -0.4350587859
H   1.0192675829  0.4057963523  1.8501750241
H   1.5848466164 -0.8811691063 -1.4686298839
H   1.8366597712 -1.2353961728  0.3493060632
7
Image 93  Energy = -29.6767386860
C   0.8021584393  0.5503203079 -0.1486298712
H   0.3970151128  1.1947252512 -0.9291739627
O   0.5773239387  1.0270168934  1.1305912710
C   1.4466719216 -0.5884386993 -0.4350587850
H   1.0192676401  0.4057963114  1.8501749587
H   1.5848466252 -0.8811691315 -1.4686298386
H   1.8366597934 -1.2353961817  0.3493060123
7
Image 94  Energy = -29.6767386860
C   0.8021584353  0.5503203097 -0.1486298844
H   0.3970151244  1.1947252371 -0.9291739073
O   0.5773239424  1.0270168870  1.1305912708
C   1.4466719201 -0.5884386973 -0.4350587874
H   1.0192675800  0.4057964072  1.8501750808
H   1.5848466285 -0.8811691419 -1.4686298302
H   1.8366597785 -1.2353961783  0.3493059801
7
Image 95  Energy = -29.6767386860
C   0.8021584416  0.5503202898 -0.1486298769
H   0.3970150923  1.1947252486 -0.9291738564
O   0.5773239374  1.0270168993  1.1305912672
C   1.4466719108 -0.5884386843 -0.4350587868
H   1.0192676379  0.4057963491  1.8501749990
H   1.5848466433 -0.8811691617 -1.4686298141
H   1.8366597942 -1.2353961842  0.3493059439
7
Image 96  Energy = -29.6767386860
C   0.8021584407  0.5503202869 -0.1486298853
H   0.3970151102  1.1947252042 -0.9291738740
O   0.5773239337  1.0270169084  1.1305912810
C   1.4466719196 -0.5884386991 -0.4350587922
H   1.0192676229  0.4057963460  1.8501750123
H   1.5848466434 -0.8811691679 -1.4686298331
H   1.8366597029 -1.2353960376  0.3493058755
7
Image 97  Energy = -29.6767386711
C   0.8021584408  0.5503202779 -0.1486298965
H   0.3970150998  1.1947252082 -0.9291738345
O   0.5773239343  1.0270169115  1.1305912844
C   1.4466719157 -0.5884386947 -0.4350587899
H   1.0192675937  0.4057963639  1.8501750515
H   1.5848466512 -0.8811691792 -1.4686298349
H   1.8366597008 -1.2353960259  0.3493058397
7
Image 98  Energy = -29.6767386413
C   0.8021584311  0.5503202883 -0.1486298754
H   0.3970151156  1.1947251764 -0.9291738267
O   0.5773239326  1.0270169120  1.1305912708
C   1.4466719211 -0.5884387010 -0.4350587912
H   1.0192676232  0.4057963352  1.8501749951
H   1.5848466412 -0.8811691717 -1.4686298790
H   1.8366596845 -1.2353960076  0.3493058577
7
Image 99  Energy = -29.6767386860
C   0.8021584306  0.5503202874 -0.1486298786
H   0.3970151265  1.1947251388 -0.9291738450
O   0.5773239331  1.0270169118  1.1305912754
C   1.4466719207 -0.5884387020 -0.4350587995
H   1.0192675928  0.4057963425  1.8501750183
H   1.5848466245 -0.8811691398 -1.4686298631
H   1.8366596658 -1.2353959785  0.3493058916
7
Image 100  Energy = -29.6767386711
C   0.8021584287  0.5503202862 -0.1486298689
H   0.3970151132  1.1947251230 -0.9291738130
O   0.5773239297  1.0270169159  1.1305912683
C   1.4466719192 -0.5884386991 -0.4350587968
H   1.0192676313  0.4057963195  1.8501749729
H   1.5848466232 -0.8811691456 -1.4686298651
H   1.8366596611 -1.2353959770  0.3493058627
7
Image 101  Energy = -29.6767386860
C   0.8021584269  0.5503202900 -0.1486298804
H   0.3970151051  1.1947251144 -0.9291738057
O   0.5773239300  1.0270169143  1.1305912730
C   1.4466719195 -0.5884387046 -0.4350587983
H   1.0192675944  0.4057963687  1.8501750393
H   1.5848466259 -0.8811691452 -1.4686298479
H   1.8366596543 -1.2353959570  0.3493058456
