15
Scanning combination 1/37: [0.0032]  Energy = -271.5347657125
C   0.0009588816  1.5051484241 -0.0000073643
C   0.0028456406  0.0031208268 -0.0000435318
C   1.1966417896 -0.7067431873  0.0000184302
C   1.1990334688 -2.0944330137  0.0000210764
C   0.0007374851 -2.7896779025 -0.0000160666
C  -1.1992142024 -2.0907409068  0.0000027088
C  -1.1957700400 -0.7059026619 -0.0000332300
H   1.0176143036  1.8944743024  0.0000126337
H  -0.5117733727  1.8940221611  0.8805580087
H  -0.5117555273  1.8940630323 -0.8805532123
H   2.1343313294 -0.1635860467  0.0000168025
H   2.1389206717 -2.6308450025 -0.0000153442
H  -0.0001862278 -3.8708214456 -0.0000105699
H  -2.1384373115 -2.6286652963  0.0000371829
H  -2.1340614947 -0.1627133117  0.0000153372
15
Scanning combination 2/37: [10.0032]  Energy = -271.5347640478
C   0.0009586318  1.5053472530 -0.0000073595
C   0.0028454990  0.0032336033 -0.0000435291
C   1.1966393524 -0.7068162469  0.0000184282
C   1.1990652090 -2.0944969564  0.0001137428
C   0.0006948403 -2.7898851764  0.0000015520
C  -1.1991615392 -2.0909100436  0.0000931888
C  -1.1956632623 -0.7058950909  0.0000287255
H   1.0022122248  1.8947617482 -0.1766213298
H  -0.3511462884  1.8944895255  0.9562835922
H  -0.6569303705  1.8940638684 -0.7781391813
H   2.1344389774 -0.1636868031 -0.0000525100
H   2.1389870204 -2.6309470563 -0.0000337447
H  -0.0002152316 -3.8711237705 -0.0000408707
H  -2.1385131024 -2.6286747394  0.0000184321
H  -2.1340854817 -0.1627598785 -0.0000556106
15
Scanning combination 3/37: [20.0032]  Energy = -271.5347589660
C   0.0009583695  1.5055561324 -0.0000073545
C   0.0028453913  0.0033193406 -0.0000435270
C   1.1967370978 -0.7069747314  0.0000184309
C   1.1991552981 -2.0944096067  0.0002641515
C   0.0005095109 -2.7900915319  0.0000391633
C  -1.1990439129 -2.0912039007  0.0002436167
C  -1.1954964821 -0.7058061127  0.0001314035
H   0.9563842808  1.8950282677 -0.3479110504
H  -0.1797121495  1.8949769744  1.0030113367
H  -0.7820299404  1.8940376273 -0.6520007331
H   2.1345531763 -0.1637884849 -0.0001729165
H   2.1390446020 -2.6310365241 -0.0000640950
H  -0.0002430547 -3.8714005621 -0.0000934625
H  -2.1385784256 -2.6286858717 -0.0000129241
H  -2.1340666703 -0.1628197013 -0.0001762888
15
Scanning combination 4/37: [30.0032]  Energy = -271.5347541996
C   0.0009581149  1.5057587856 -0.0000073496
C   0.0028452985  0.0033932007 -0.0000435253
C   1.1969439412 -0.7072076551  0.0000184390
C   1.1992931728 -2.0941891998  0.0004226085
C   0.0002117723 -2.7902870303  0.0000911047
C  -1.1988737867 -2.0916163876  0.0004091170
C  -1.1952366061 -0.7056508439  0.0002415215
H   0.8815359819  1.8952886284 -0.5086696592
H  -0.0026508868  1.8954628822  1.0192287985
H  -0.8832391875  1.8940009765 -0.5060606765
H   2.1346930284 -0.1638889122 -0.0003121075
H   2.1390928757 -2.6311096896 -0.0000963538
H  -0.0002726937 -3.8716578214 -0.0001522495
H  -2.1386352552 -2.6287032192 -0.0000467237
H  -2.1340007973 -0.1628903654 -0.0003113627
15
Scanning combination 5/37: [40.0032]  Energy = -271.5347516412
C   0.0009578797  1.5059459839 -0.0000073451
C   0.0028452042  0.0034682585 -0.0000435235
C   1.1972333180 -0.7074693111  0.0000184518
C   1.1994526321 -2.0939026932  0.0005396553
C  -0.0001319917 -2.7904705428  0.0001498717
C  -1.1986794969 -2.0920843682  0.0005396797
C  -1.1949005632 -0.7054748776  0.0003275913
H   0.7799384977  1.8955482003 -0.6540365593
H   0.1746330397  1.8959281042  1.0043488459
H  -0.9575098503  1.8939726008 -0.3448336848
H   2.1348673669 -0.1639895177 -0.0004318104
H   2.1391310383 -2.6311647196 -0.0001202791
H  -0.0003027581 -3.8718977748 -0.0002026953
H  -2.1386865104 -2.6287301560 -0.0000722232
H  -2.1338860975 -0.1629729779 -0.0004223313
15
Scanning combination 6/37: [50.0032]  Energy = -271.5347504759
C   0.0009576633  1.5061182969 -0.0000073410
C   0.0028451070  0.0035456218 -0.0000435216
C   1.1975493414 -0.7076990121  0.0000184672
C   1.1995966968 -2.0936411488  0.0005796900
C  -0.0004353474 -2.7906434012  0.0001901819
C  -1.1984989580 -2.0925191941  0.0005952858
C  -1.1945381453 -0.7053332522  0.0003675543
H   0.6546583651  1.8958027923 -0.7796143000
H   0.3466825960  1.8963565204  0.9587575145
H  -1.0026424513  1.8939722415 -0.1732706660
H   2.1350735059 -0.1640913866 -0.0004985964
H   2.1391601240 -2.6312035953 -0.0001283450
H  -0.0003276287 -3.8721218966 -0.0002193363
H  -2.1387335994 -2.6287662171 -0.0000814775
H  -2.1337300799 -0.1630668341 -0.0004780930
15
Scanning combination 7/37: [60.0032]  Energy = -271.5347495209
C   0.0009574570  1.5062825008 -0.0000073370
C   0.0028450195  0.0036153242 -0.0000435199
C   1.1978234199 -0.7078413960  0.0000184819
C   1.1996893779 -2.0934887478  0.0005264338
C  -0.0006022559 -2.7908080257  0.0002264910
C  -1.1983686206 -2.0928382192  0.0005560000
C  -1.1942136658 -0.7052747405  0.0003495776
H   0.5094681586  1.8960419067 -0.8815903173
H   0.5081763391  1.8967352482  0.8838226807
H  -1.0173384987  1.8940191113  0.0034019228
H   2.1352977731 -0.1641939417 -0.0004935567
H   2.1391821767 -2.6312319695 -0.0001165814
H  -0.0003583303 -3.8723317692 -0.0002169128
H  -2.1387768057 -2.6288064154 -0.0000703263
H  -2.1335495171 -0.1631660405 -0.0004625180
15
Scanning combination 8/37: [70.0032]  Energy = -271.5347487498
C   0.0009572553  1.5064430731 -0.0000073332
C   0.0028449501  0.0036705649 -0.0000435186
C   1.1979960067 -0.7078646321  0.0000184928
C   1.1997106069 -2.0935040509  0.0003905803
C  -0.0006018036 -2.7909641667  0.0002378448
C  -1.1983073965 -2.0929830697  0.0004294416
C  -1.1939871567 -0.7053300826  0.0002761374
H   0.3487431714  1.8962536605 -0.9568452911
H   0.6541189614  1.8970552283  0.7818572003
H  -1.0012232791  1.8941306423  0.1798430769
H   2.1355185911 -0.1642969306 -0.0004175722
H   2.1391998990 -2.6312573190 -0.0000869397
H  -0.0003788921 -3.8725288929 -0.0001828982
H  -2.1388150405 -2.6288453963 -0.0000406366
H  -2.1333675497 -0.1632630481 -0.0003780130
15
Scanning combination 9/37: [80.0032]  Energy = -271.5347503226
C   0.0009570618  1.5065971532 -0.0000073295
C   0.0028448974  0.0037125035 -0.0000435176
C   1.1980331312 -0.7077715240  0.0000184975
C   1.1996548631 -2.0936972526  0.0002057818
C  -0.0004237074 -2.7911131070  0.0002249838
C  -1.1983217697 -2.0929418728  0.0002468964
C  -1.1938951135 -0.7054998534  0.0001637376
H   0.1773434786  1.8964285866 -1.0030499301
H   0.7800176890  1.8973125437  0.6560371420
H  -0.9548394615  1.8943208614  0.3507545237
H   2.1357122189 -0.1644013662 -0.0002908701
H   2.1392167305 -2.6312871644 -0.0000465632
H  -0.0003916312 -3.8727146145 -0.0001284226
H  -2.1388459955 -2.6288755053  0.0000003538
H  -2.1332081111 -0.1633519631 -0.0002446697
15
Scanning combination 10/37: [90.0032]  Energy = -271.5347554745
C   0.0009568858  1.5067372457 -0.0000073261
C   0.0028448464  0.0037530908 -0.0000435166
C   1.1979317645 -0.7075948404  0.0000184951
C   1.1995425046 -2.0940322132  0.0000130122
C  -0.0001111090 -2.7912545027  0.0002159567
C  -1.1983951326 -2.0927497442  0.0000549814
C  -1.1939406336 -0.7057559876  0.0000348412
H   0.0004778836  1.8965605559 -1.0187465350
H   0.8820319110  1.8975092661  0.5102830463
H  -0.8796152850  1.8945972787  0.5110289085
H   2.1358591875 -0.1645105538 -0.0001474571
H   2.1392354258 -2.6313262689 -0.0000040761
H  -0.0003974063 -3.8728899328 -0.0000865949
H  -2.1388679455 -2.6288925137  0.0000439272
H  -2.1330908207 -0.1634326602 -0.0000959929
15
Scanning combination 11/37: [100.0032]  Energy = -271.5347636973
C   0.0009567323  1.5068594629 -0.0000073231
C   0.0028447845  0.0038024101 -0.0000435154
C   1.1977296733 -0.7073883629  0.0000184867
C   1.1994015695 -2.0944343517 -0.0001341166
C   0.0002743132 -2.7913886495  0.0001627146
C  -1.1984953835 -2.0924818911 -0.0000943114
C  -1.1940914264 -0.7060448823 -0.0000738457
H  -0.1764508595  1.8966468621 -1.0034102323
H   0.9570897547  1.8976528228  0.3491152360
H  -0.7778133727  1.8949573897  0.6558844234
H   2.1359503064 -0.1646290295 -0.0000254198
H   2.1392580484 -2.6313773969  0.0000275261
H  -0.0004144122 -3.8730554946 -0.0000257642
H  -2.1388802540 -2.6288939180  0.0000772737
H  -2.1330250258 -0.1635068860  0.0000291730
15
Scanning combination 12/37: [110.0032]  Energy = -271.5347713463
C   0.0009565961  1.5069678602 -0.0000073205
C   0.0028447118  0.0038602339 -0.0000435140
C   1.1974852929 -0.7072109045  0.0000184748
C   1.1992743815 -2.0948099361 -0.0002000972
C   0.0006010260 -2.7915156797  0.0001151060
C  -1.1985808385 -2.0922348483 -0.0001668606
C  -1.1942864427 -0.7063033975 -0.0001356839
H  -0.3480174777  1.8966881430 -0.9574817535
H   1.0029723813  1.8977550048  0.1774954601
H  -0.6524655774  1.8953881791  0.7809861510
H   2.1359904272 -0.1647576752  0.0000437881
H   2.1392845236 -2.6314387538  0.0000421083
H  -0.0004150756 -3.8732119928  0.0000109137
H  -2.1388832615 -2.6288819410  0.0000940576
H  -2.1330082557 -0.1635769231  0.0000982261
15
Scanning combination 13/37: [120.0032]  Energy = -271.5347749868
C   0.0009564651  1.5070721788 -0.0000073180
C   0.0028446417  0.0039160769 -0.0000435127
C   1.1972698379 -0.7071163731  0.0000184628
C   1.1991898783 -2.0950730033 -0.0001675962
C   0.0008070175 -2.7916367405  0.0000848955
C  -1.1986216904 -2.0920960208 -0.0001457215
C  -1.1944523011 -0.7064734187 -0.0001334400
H  -0.5089549831  1.8966882435 -0.8823634170
H   1.0183664746  1.8978300409  0.0006633472
H  -0.5072946088  1.8958691546  0.8825585499
H   2.1359959872 -0.1648925283  0.0000428355
H   2.1393134036 -2.6315061898  0.0000363273
H  -0.0004143500 -3.8733598974  0.0000149201
H  -2.1388788880 -2.6288615364  0.0000904271
H  -2.1330260401 -0.1636434333  0.0000937778
15
Scanning combination 14/37: [130.0032]  Energy = -271.5347740099
C   0.0009563305  1.5071793379 -0.0000073154
C   0.0028445873  0.0039593503 -0.0000435116
C   1.1971414713 -0.7071352691  0.0000184538
C   1.1991760953 -2.0951682814 -0.0000488130
C   0.0008389866 -2.7917529767  0.0000773235
C  -1.1985929780 -2.0921211238 -0.0000384434
C  -1.1945270259 -0.7065240118 -0.0000697693
H  -0.6543331582  1.8966540869 -0.7803744566
H   1.0028864344  1.8978929734 -0.1760266191
H  -0.3466228623  1.8963771705  0.9574922895
H   2.1359899848 -0.1650258648 -0.0000275357
H   2.1393416007 -2.6315714843  0.0000123919
H  -0.0004123743 -3.8735001761 -0.0000120796
H  -2.1388707744 -2.6288407964  0.0000680642
H  -2.1330555732 -0.1637068157  0.0000186304
15
Scanning combination 15/37: [140.0032]  Energy = -271.5347708600
C   0.0009561944  1.5072876824 -0.0000073128
C   0.0028445462  0.0039920575 -0.0000435109
C   1.1971408326 -0.7072709688  0.0000184505
C   1.1992337404 -2.0950818339  0.0001198074
C   0.0006941805 -2.7918632660  0.0000932778
C  -1.1984913485 -2.0923232776  0.0001248985
C  -1.1944751911 -0.7064568649  0.0000340365
H  -0.7797211965  1.8965964967 -0.6546670934
H   0.9570669948  1.8979578698 -0.3472634038
H  -0.1752652515  1.8968902709  1.0034442535
H   2.1359966713 -0.1651531470 -0.0001488387
H   2.1393666012 -2.6316284187 -0.0000226506
H  -0.0004126077 -3.8736335975 -0.0000606547
H  -2.1388620165 -2.6288269584  0.0000337236
H  -2.1330716612 -0.1637696370 -0.0001052019
15
Scanning combination 16/37: [150.0032]  Energy = -271.5347689850
C   0.0009560658  1.5073900700 -0.0000073104
C   0.0028445075  0.0040229059 -0.0000435101
C   1.1972677605 -0.7074949695  0.0000184535
C   1.1993518519 -2.0948497135  0.0002962724
C   0.0004141458 -2.7919695388  0.0001285781
C  -1.1983322743 -2.0926649541  0.0003003024
C  -1.1942960885 -0.7063047799  0.0001454438
H  -0.8813237182  1.8965302411 -0.5091120806
H   0.8823301418  1.8980345309 -0.5079277988
H   0.0015975716  1.8973887560  1.0189261325
H   2.1360355774 -0.1652726026 -0.0002887647
H   2.1393858876 -2.6316703743 -0.0000590810
H  -0.0004144212 -3.8737604355 -0.0001179122
H  -2.1388554823 -2.6288253486 -0.0000026383
H  -2.1330537910 -0.1638362510 -0.0002426856
15
Scanning combination 17/37: [160.0032]  Energy = -271.5347695020
C   0.0009559512  1.5074812560 -0.0000073082
C   0.0028444568  0.0040632305 -0.0000435091
C   1.1974941139 -0.7077548153  0.0000184622
C   1.1994948316 -2.0945465262  0.0004283705
C   0.0000770391 -2.7920699263  0.0001748300
C  -1.1981473695 -2.0930724808  0.0004388699
C  -1.1940225246 -0.7061208834  0.0002336975
H  -0.9560863456  1.8964732007 -0.3481660475
H   0.7809332271  1.8981250736 -0.6532267630
H   0.1785687494  1.8978553180  1.0033756304
H   2.1361162438 -0.1653870119 -0.0004091794
H   2.1393987770 -2.6316963218 -0.0000867342
H  -0.0004154863 -3.8738812945 -0.0001683630
H  -2.1388526435 -2.6288381642 -0.0000305414
H  -2.1329921591 -0.1639112894 -0.0003556930
15
Scanning combination 18/37: [170.0032]  Energy = -271.5347709520
C   0.0009558476  1.5075637439 -0.0000073062
C   0.0028443952  0.0041123356 -0.0000435080
C   1.1977598004 -0.7079857502  0.0000184742
C   1.1996233763 -2.0942641073  0.0004783423
C  -0.0002098176 -2.7921649535  0.0002160010
C  -1.1979769659 -2.0934558616  0.0005004923
C  -1.1937112146 -0.7059645182  0.0002765923
H  -1.0017756921  1.8964449314 -0.1767310880
H   0.6559027229  1.8982231331 -0.7788138516
H   0.3502068548  1.8982754560  0.9572007331
H   2.1362370614 -0.1654981069 -0.0004766191
H   2.1394050125 -2.6317086114 -0.0000977038
H  -0.0004258256 -3.8739961435 -0.0001948746
H  -2.1388535171 -2.6288638569 -0.0000416223
H  -2.1328904618 -0.1639961520 -0.0004134509
15
Scanning combination 19/37: [180.0032]  Energy = -271.5347713726
C   0.0009557452  1.5076452829 -0.0000073042
C   0.0028443392  0.0041569015 -0.0000435069
C   1.1979909756 -0.7081292282  0.0000184861
C   1.1997078265 -2.0940924572  0.0004378287
C  -0.0003840683 -2.7922580367  0.0002384395
C  -1.1978525219 -2.0937256082  0.0004680079
C  -1.1934313428 -0.7058884493  0.0002635879
H  -1.0170386013  1.8964645437 -0.0000085690
H   0.5109565562  1.8983168581 -0.8809006765
H   0.5112120953  1.8986376797  0.8817856438
H   2.1363839795 -0.1656045320 -0.0004722618
H   2.1394064746 -2.6317106073 -0.0000889638
H  -0.0004302025 -3.8741054699 -0.0001880903
H  -2.1388570315 -2.6288974415 -0.0000327738
H  -2.1327636029 -0.1640858568 -0.0004001263
15
Scanning combination 20/37: [190.0032]  Energy = -271.5347704745
C   0.0009556375  1.5077309825 -0.0000073022
C   0.0028442989  0.0041889736 -0.0000435061
C   1.1981292486 -0.7081549063  0.0000184946
C   1.1997185973 -2.0940872443  0.0003133626
C  -0.0003810485 -2.7923476064  0.0002434620
C  -1.1978003437 -2.0938264007  0.0003483578
C  -1.1932438405 -0.7059229155  0.0001972086
H  -1.0014391903  1.8965493966  0.1766542639
H   0.3504136052  1.8983934504 -0.9563630281
H   0.6566140778  1.8989340627  0.7794523642
H   2.1365351411 -0.1657068030 -0.0003966534
H   2.1394063559 -2.6317115043 -0.0000623236
H  -0.0004346516 -3.8742101776 -0.0001564429
H  -2.1388604523 -2.6289312091 -0.0000057512
H  -2.1326334124 -0.1641730797 -0.0003181444
15
Scanning combination 21/37: [200.0032]  Energy = -271.5347703475
C   0.0009555277  1.5078184032 -0.0000073000
C   0.0028442754  0.0042076895 -0.0000435057
C   1.1981327375 -0.7080627480  0.0000184971
C   1.1996602556 -2.0942593756  0.0001335830
C  -0.0002108760 -2.7924350745  0.0002435976
C  -1.1978228128 -2.0937458157  0.0001707069
C  -1.1931871250 -0.7060717039  0.0000905283
H  -0.9554687863  1.8967132336  0.3479226589
H   0.1790879644  1.8984428137 -1.0028408745
H   0.7819453579  1.8991617515  0.6533788508
H   2.1366658180 -0.1658053663 -0.0002699376
H   2.1394072041 -2.6317170966 -0.0000230129
H  -0.0004262193 -3.8743107484 -0.0001171223
H  -2.1388613745 -2.6289580507  0.0000341087
H  -2.1325233323 -0.1642523891 -0.0001875808
15
Scanning combination 22/37: [210.0032]  Energy = -271.5347726387
C   0.0009554250  1.5079001793 -0.0000072981
C   0.0028442514  0.0042267764 -0.0000435052
C   1.1980117525 -0.7078864552  0.0000184933
C   1.1995357715 -2.0945724462 -0.0000485226
C   0.0000898689 -2.7925167367  0.0002323868
C  -1.1979063450 -2.0935199139 -0.0000144870
C  -1.1932651195 -0.7063069941 -0.0000294383
H  -0.8805276350  1.8969633385  0.5086317120
H   0.0021635287  1.8984583832 -1.0188279804
H   0.8833882735  1.8993237319  0.5074811982
H   2.1367554430 -0.1659062037 -0.0001258958
H   2.1394120185 -2.6317350132  0.0000171976
H  -0.0004052341 -3.8744073889 -0.0000803250
H  -2.1388574980 -2.6289727790  0.0000752691
H  -2.1324525200 -0.1643234990 -0.0000419301
15
Scanning combination 23/37: [220.0032]  Energy = -271.5347773744
C   0.0009553348  1.5079719803 -0.0000072963
C   0.0028442173  0.0042539551 -0.0000435045
C   1.1977905361 -0.7076796489  0.0000184837
C   1.1993874610 -2.0949588844 -0.0001858860
C   0.0004723911 -2.7925950428  0.0001670239
C  -1.1980169962 -2.0932156130 -0.0001567653
C  -1.1934465563 -0.7065755789 -0.0001299657
H  -0.7788798953  1.8972967822  0.6539367700
H  -0.1749550185  1.8984370092 -1.0037447974
H   0.9578903291  1.8994286070  0.3462708694
H   2.1367956517 -0.1660127563 -0.0000027152
H   2.1394207861 -2.6317655638  0.0000469167
H  -0.0004066026 -3.8744995924 -0.0000135799
H  -2.1388477755 -2.6289739307  0.0001062909
H  -2.1324304232 -0.1643881900  0.0000803432
15
Scanning combination 24/37: [230.0032]  Energy = -271.5347816589
C   0.0009552539  1.5080363555 -0.0000072948
C   0.0028441737  0.0042886586 -0.0000435037
C   1.1975267039 -0.7075005891  0.0000184705
C   1.1992572987 -2.0953177545 -0.0002481918
C   0.0007970582 -2.7926705573  0.0001146065
C  -1.1981134448 -2.0929362480 -0.0002236979
C  -1.1936707136 -0.7068149635 -0.0001842936
H  -0.6535844675  1.8977000768  0.7794516458
H  -0.3468139915  1.8983786974 -0.9579845169
H   1.0032474900  1.8994894038  0.1746981544
H   2.1367893403 -0.1661256256  0.0000680793
H   2.1394349995 -2.6318072001  0.0000600672
H  -0.0003944680 -3.8745877604  0.0000231380
H  -2.1388316564 -2.6289624750  0.0001210637
H  -2.1324546617 -0.1644484684  0.0001467955
15
Scanning combination 25/37: [240.0032]  Energy = -271.5347824036
C   0.0009551725  1.5081012232 -0.0000072932
C   0.0028441309  0.0043226775 -0.0000435029
C   1.1972966837 -0.7074035731  0.0000184576
C   1.1991686565 -2.0955650086 -0.0002124792
C   0.0010022302 -2.7927427163  0.0000794085
C  -1.1981649052 -2.0927674482 -0.0001980558
C  -1.1938649984 -0.7069672410 -0.0001755364
H  -0.5084061896  1.8981522474  0.8813712229
H  -0.5080981442  1.8982865560 -0.8829207199
H   1.0181570786  1.8995217976 -0.0020094507
H   2.1367519399 -0.1662425536  0.0000688391
H   2.1394534067 -2.6318565890  0.0000530821
H  -0.0003824418 -3.8746721429  0.0000276972
H  -2.1388109665 -2.6289431372  0.0001156754
H  -2.1325108620 -0.1645045565  0.0001400957
15
Scanning combination 26/37: [250.0032]  Energy = -271.5347794816
C   0.0009550836  1.5081719821 -0.0000072915
C   0.0028441023  0.0043454784 -0.0000435023
C   1.1971528137 -0.7074193246  0.0000184477
C   1.1991547657 -2.0956452620 -0.0000906926
C   0.0010305797 -2.7928136277  0.0000670243
C  -1.1981470369 -2.0927644138 -0.0000871389
C  -1.1939670163 -0.7070013175 -0.0001068406
H  -0.3477132083  1.8986296620  0.9565808939
H  -0.6538203157  1.8981666077 -0.7808694999
H   1.0022407417  1.8995423244 -0.1785090928
H   2.1367064014 -0.1663554967  0.0000001447
H   2.1394725455 -2.6319044570  0.0000281000
H  -0.0003708545 -3.8747531075  0.0000022127
H  -2.1387886415 -2.6289240258  0.0000918109
H  -2.1325765524 -0.1645570356  0.0000630743
15
Scanning combination 27/37: [260.0032]  Energy = -271.5347751839
C   0.0009549908  1.5082458152 -0.0000072898
C   0.0028440827  0.0043610446 -0.0000435020
C   1.1971410181 -0.7075519124  0.0000184437
C   1.1992103110 -2.0955465946  0.0000810403
C   0.0008816012 -2.7928806507  0.0000817042
C  -1.1980562254 -2.0929382309  0.0000788962
C  -1.1939416707 -0.7069182759  0.0000007854
H  -0.1763591770  1.8991099553  1.0027540435
H  -0.7794967841  1.8980287619 -0.6550074654
H   0.9560382687  1.8995663381 -0.3495002002
H   2.1366761946 -0.1664616497 -0.0001196567
H   2.1394901926 -2.6319454190 -0.0000078476
H  -0.0003597776 -3.8748310978 -0.0000478700
H  -2.1387675325 -2.6289123955  0.0000561707
H  -2.1326268005 -0.1646084140 -0.0000622750
15
Scanning combination 28/37: [270.0032]  Energy = -271.5347727438
C   0.0009549038  1.5083151070 -0.0000072881
C   0.0028440621  0.0043774775 -0.0000435016
C   1.1972582148 -0.7077730036  0.0000184461
C   1.1993257871 -2.0953015962  0.0002602351
C   0.0006004910 -2.7929460020  0.0001139709
C  -1.1979091723 -2.0932542492  0.0002561582
C  -1.1937876616 -0.7067504451  0.0001151918
H   0.0004527606  1.8995732395  1.0184344020
H  -0.8812956284  1.8978868507 -0.5092529402
H   0.8809758250  1.8996045834 -0.5098728470
H   2.1366812254 -0.1665592533 -0.0002583489
H   2.1395031355 -2.6319727941 -0.0000450217
H  -0.0003532485 -3.8749059667 -0.0001042333
H  -2.1387502074 -2.6289131523  0.0000186690
H  -2.1326412555 -0.1646632591 -0.0002009745
15
Scanning combination 29/37: [280.0032]  Energy = -271.5347730855
C   0.0009548291  1.5083745478 -0.0000072867
C   0.0028440273  0.0044051673 -0.0000435009
C   1.1974759438 -0.7080295245  0.0000184544
C   1.1994667418 -2.0949861468  0.0003947337
C   0.0002639045 -2.7930080549  0.0001560685
C  -1.1977357492 -2.0936371461  0.0003965027
C  -1.1935382540 -0.7065511341  0.0002052949
H   0.1773249249  1.9000022725  1.0030972347
H  -0.9561527818  1.8977579201 -0.3481219934
H   0.7793148164  1.8996596560 -0.6548425854
H   2.1367307718 -0.1666513745 -0.0003778079
H   2.1395102662 -2.6319851500 -0.0000732948
H  -0.0003487105 -3.8749780602 -0.0001528852
H  -2.1387382472 -2.6289283861 -0.0000102565
H  -2.1326102010 -0.1647259371 -0.0003149493
15
Scanning combination 30/37: [290.0032]  Energy = -271.5347742990
C   0.0009547635  1.5084267872 -0.0000072854
C   0.0028439795  0.0044432523 -0.0000435000
C   1.1977336878 -0.7082568285  0.0000184660
C   1.1995948203 -2.0946938946  0.0004469018
C  -0.0000369676 -2.7930666416  0.0001950877
C  -1.1975752438 -2.0939950879  0.0004597853
C  -1.1932502356 -0.7063797220  0.0002502200
H   0.3488364729  1.9003829198  0.9571824508
H  -1.0018554249  1.8976607476 -0.1765706585
H   0.6540860839  1.8997253521 -0.7800718892
H   2.1368229083 -0.1667398908 -0.0004446715
H   2.1395114758 -2.6319846362 -0.0000850812
H  -0.0003432299 -3.8750470889 -0.0001793350
H  -2.1387311680 -2.6289568632 -0.0000225454
H  -2.1325376920 -0.1647981434 -0.0003735304
15
Scanning combination 31/37: [300.0032]  Energy = -271.5347744742
C   0.0009546970  1.5084797402 -0.0000072841
C   0.0028439372  0.0044769441 -0.0000434992
C   1.1979578449 -0.7083974588  0.0000184774
C   1.1996763034 -2.0945105960  0.0004083709
C  -0.0002106166 -2.7931257671  0.0002172106
C  -1.1974639919 -2.0942426754  0.0004287577
C  -1.1929916482 -0.7062872844  0.0002384790
H   0.5097241481  1.9007042950  0.8820906887
H  -1.0170945497  1.8976138051  0.0001677772
H   0.5090117571  1.8997896079 -0.8817826540
H   2.1369433449 -0.1668232348 -0.0004402465
H   2.1395085656 -2.6319751666 -0.0000769052
H  -0.0003410552 -3.8751133134 -0.0001735007
H  -2.1387277166 -2.6289922525 -0.0000146235
H  -2.1324383510 -0.1648747488 -0.0003609658
15
Scanning combination 32/37: [310.0032]  Energy = -271.5347733177
C   0.0009546234  1.5085382874 -0.0000072827
C   0.0028439098  0.0044987349 -0.0000434987
C   1.1980900250 -0.7084193553  0.0000184857
C   1.1996864387 -2.0944942452  0.0002865975
C  -0.0002083593 -2.7931828638  0.0002205069
C  -1.1974222189 -2.0943223688  0.0003105073
C  -1.1928243720 -0.7063061551  0.0001737599
H   0.6550605371  1.9009592487  0.7801386576
H  -1.0014871393  1.8976339629  0.1767451548
H   0.3484137485  1.8998392423 -0.9568629554
H   2.1370698544 -0.1669020915 -0.0003651657
H   2.1395042035 -2.6319650391 -0.0000509440
H  -0.0003419672 -3.8751775283 -0.0001417281
H  -2.1387256822 -2.6290280114  0.0000113563
H  -2.1323341914 -0.1649487463 -0.0002797565
15
Scanning combination 33/37: [320.0032]  Energy = -271.5347732213
C   0.0009545462  1.5085998244 -0.0000072812
C   0.0028438979  0.0045081811 -0.0000434984
C   1.1980881805 -0.7083233533  0.0000184878
C   1.1996290012 -2.0946551605  0.0001121275
C  -0.0000276036 -2.7932392382  0.0002046565
C  -1.1974537084 -2.0942216158  0.0001370789
C  -1.1927861122 -0.7064396787  0.0000700693
H   0.7804166877  1.9011457254  0.6544757030
H  -0.9555690518  1.8977346504  0.3478563829
H   0.1771066181  1.8998635497 -1.0029667884
H   2.1371777743 -0.1669767692 -0.0002394554
H   2.1395013756 -2.6319602774 -0.0000138046
H  -0.0003446404 -3.8752397063 -0.0000929884
H  -2.1387216661 -2.6290572800  0.0000486636
H  -2.1322489284 -0.1650154020 -0.0001499464
15
Scanning combination 34/37: [330.0032]  Energy = -271.5347761740
C   0.0009544750  1.5086564445 -0.0000072799
C   0.0028438850  0.0045184749 -0.0000434982
C   1.1979632081 -0.7081425529  0.0000184839
C   1.1995085197 -2.0949579170 -0.0000651761
C   0.0002835105 -2.7932914027  0.0001591447
C  -1.1975418968 -2.0939754785 -0.0000455546
C  -1.1928815793 -0.7066603121 -0.0000476188
H   0.8819981126  1.9012675126  0.5089695736
H  -0.8807621826  1.8979229903  0.5083876709
H   0.0002709400  1.8998551484 -1.0186027116
H   2.1372463725 -0.1670533966 -0.0000966902
H   2.1395033543 -2.6319682501  0.0000247439
H  -0.0003436733 -3.8753000880 -0.0000258790
H  -2.1387130792 -2.6290743779  0.0000878041
H  -2.1322015374 -0.1650738783 -0.0000049049
15
Scanning combination 35/37: [340.0032]  Energy = -271.5347817771
C   0.0009544162  1.5087032548 -0.0000072787
C   0.0028438604  0.0045380308 -0.0000434977
C   1.1977397314 -0.7079301154  0.0000184743
C   1.1993640029 -2.0953283599 -0.0002010664
C   0.0006387894 -2.7933416205  0.0001013944
C  -1.1976574859 -2.0936576887 -0.0001888909
C  -1.1930779916 -0.7069153401 -0.0001487462
H   0.9567502610  1.9013337827  0.3480739632
H  -0.7793228849  1.8981961877  0.6535507217
H  -0.1766961148  1.8998100642 -1.0032052779
H   2.1372672605 -0.1671350569  0.0000252699
H   2.1395103300 -2.6319898408  0.0000545581
H  -0.0003314547 -3.8753578105  0.0000368627
H  -2.1386982061 -2.6290772825  0.0001185296
H  -2.1322016374 -0.1651265916  0.0001170216
15
Scanning combination 36/37: [350.0032]  Energy = -271.5347871612
C   0.0009543666  1.5087428018 -0.0000072778
C   0.0028438254  0.0045659103 -0.0000434970
C   1.1974745785 -0.7077464627  0.0000184611
C   1.1992326254 -2.0956736263 -0.0002618460
C   0.0009546516 -2.7933906959  0.0000547623
C  -1.1977643608 -2.0933628851 -0.0002566050
C  -1.1933150543 -0.7071403499 -0.0002036372
H   1.0024386843  1.9013579314  0.1766884950
H  -0.6542760854  1.8985410370  0.7790032015
H  -0.3483524051  1.8997275606 -0.9571792405
H   2.1372434453 -0.1672226673  0.0000948889
H   2.1395226198 -2.6320228974  0.0000677497
H  -0.0003142915 -3.8754132687  0.0000709015
H  -2.1386776940 -2.6290672454  0.0001328668
H  -2.1322465195 -0.1651752445  0.0001831211
15
Scanning combination 37/37: [360.0032]  Energy = -271.5347890625
C   0.0009543160  1.5087830281 -0.0000072768
C   0.0028437908  0.0045934314 -0.0000434964
C   1.1972400306 -0.7076439026  0.0000184481
C   1.1991463344 -2.0959105247 -0.0002266975
C   0.0011498037 -2.7934381166  0.0000238295
C  -1.1978248349 -2.0931763197 -0.0002314403
C  -1.1935226107 -0.7072792743 -0.0001956628
H   1.0177085030  1.9013557312  0.0000128004
H  -0.5093378003  1.8989370894  0.8809603966
H  -0.5093971233  1.8996100244 -0.8819056332
H   2.1371896207 -0.1673139354  0.0000947503
H   2.1395389109 -2.6320628539  0.0000608562
H  -0.0002958837 -3.8754668393  0.0000736528
H  -2.1386538115 -2.6290495106  0.0001270632
H  -2.1323218958 -0.1652197772  0.0001759596
